<?xml version="1.0"?>
<VTKFile type="UnstructuredGrid" version="0.1" byte_order="LittleEndian">
<UnstructuredGrid>
<Piece NumberOfPoints="31299" NumberOfCells="10931">
<Points>
<DataArray type="Float64" NumberOfComponents="3" format="ascii">
-0.49790356825270748 -0.49999999999999972 0 -0.48069287347562512 -0.4785791255133528 0 -0.49790356825270748 -0.49999999999999972 0 -0.5 -0.5 0 -0.50000000000000022 -0.47108653240899451 0 -0.49790356825270748 -0.49999999999999972 0 -0.50000000000000022 -0.47108653240899451 0 -0.48069287347562512 -0.4785791255133528 0 -0.48069287347562512 -0.4785791255133528 0 -0.46996264045187741 -0.5 0 -0.45624012731648322 -0.4772966753248149 0 -0.49790356825270748 -0.49999999999999972 0 -0.48069287347562512 -0.4785791255133528 0 -0.46996264045187741 -0.5 0 -0.46996264045187741 -0.5 0 -0.45624012731648322 -0.4772966753248149 0 -0.44202171265104723 -0.5 0 -0.48069287347562512 -0.4785791255133528 0 -0.45624012731648322 -0.4772966753248149 0 -0.46348217869854252 -0.45715825102670621 0 -0.45624012731648322 -0.4772966753248149 0 -0.44202171265104723 -0.5 0 -0.43558413304427901 -0.47258591764503932 0 -0.44569722557752889 -0.4554567577637913 0 -0.44627148392145899 -0.43573737654006012 0 -0.42860007058589789 -0.4514076492843323 0 -0.44569722557752889 -0.4554567577637913 0 -0.46348217869854252 -0.45715825102670621 0 -0.44627148392145899 -0.43573737654006012 0 -0.45624012731648322 -0.4772966753248149 0 -0.44569722557752889 -0.4554567577637913 0 -0.43558413304427901 -0.47258591764503932 0 -0.45624012731648322 -0.4772966753248149 0 -0.44569722557752889 -0.4554567577637913 0 -0.46348217869854252 -0.45715825102670621 0 -0.46348217869854252 -0.45715825102670621 0 -0.47899038701309371 -0.45386695132156429 0 -0.45798077402618748 -0.43664737023413408 0 -0.47899038701309371 -0.45386695132156429 0 -0.45798077402618748 -0.43664737023413408 0 -0.46348217869854252 -0.45715825102670621 0 -0.45798077402618748 -0.43664737023413408 0 -0.44627148392145899 -0.43573737654006012 0 -0.46348217869854252 -0.45715825102670621 0 -0.44627148392145899 -0.43573737654006012 0 -0.47247119250092212 -0.4377735007952992 0 -0.47899038701309371 -0.45386695132156429 0 -0.48568137433283759 -0.43394950691961071 0 -0.47247119250092212 -0.4377735007952992 0 -0.47899038701309371 -0.45386695132156429 0 -0.45798077402618748 -0.43664737023413408 0 -0.48069287347562512 -0.4785791255133528 0 -0.46348217869854252 -0.45715825102670621 0 -0.47899038701309371 -0.45386695132156429 0 -0.48069287347562512 -0.4785791255133528 0 -0.46348217869854252 -0.45715825102670621 0 -0.50000000000000022 -0.47108653240899451 0 -0.48069287347562512 -0.4785791255133528 0 -0.47899038701309371 -0.45386695132156429 0 -0.50000000000000022 -0.47108653240899451 0 -0.47899038701309371 -0.45386695132156429 0 -0.50000000000000022 -0.47108653240899451 0 -0.47899038701309371 -0.45386695132156429 0 -0.5 -0.44273366954962601 0 -0.47899038701309371 -0.45386695132156429 0 -0.5 -0.44273366954962601 0 -0.48568137433283759 -0.43394950691961071 0 -0.5 -0.44273366954962601 0 -0.48568137433283759 -0.43394950691961071 0 -0.49999999999999889 -0.41438080669025767 0 -0.48568137433283759 -0.43394950691961071 0 -0.49999999999999889 -0.41438080669025767 0 -0.47694529215017167 -0.42099260624130619 0 -0.49999999999999889 -0.41438080669025767 0 -0.47694529215017167 -0.42099260624130619 0 -0.47580431133393658 -0.40326547028876342 0 -0.47694529215017167 -0.42099260624130619 0 -0.47580431133393658 -0.40326547028876342 0 -0.46144661430592482 -0.41223065833040562 0 -0.47247119250092212 -0.4377735007952992 0 -0.48568137433283759 -0.43394950691961071 0 -0.47694529215017167 -0.42099260624130619 0 -0.47247119250092212 -0.4377735007952992 0 -0.47694529215017167 -0.42099260624130619 0 -0.46599097723466248 -0.42736692078003929 0 -0.5 -0.38646328526278378 0 -0.48876697055563989 -0.39213872916484771 0 -0.47753394111128172 -0.36989665163943719 0 -0.49999999999999889 -0.41438080669025767 0 -0.48876697055563989 -0.39213872916484771 0 -0.47580431133393658 -0.40326547028876342 0 -0.49999999999999889 -0.41438080669025767 0 -0.5 -0.38646328526278378 0 -0.48876697055563989 -0.39213872916484771 0 -0.49999999999999889 -0.41438080669025767 0 -0.48876697055563989 -0.39213872916484771 0 -0.48876697055563989 -0.39213872916484771 0 -0.47580431133393658 -0.40326547028876342 0 -0.4697456964830381 -0.38537477372473389 0 -0.48876697055563989 -0.39213872916484771 0 -0.4697456964830381 -0.38537477372473389 0 -0.47753394111128172 -0.36989665163943719 0 -0.4697456964830381 -0.38537477372473389 0 -0.46802330407498038 -0.36651467391938047 0 -0.48876697055563989 -0.39213872916484771 0 -0.47753394111128172 -0.36989665163943719 0 -0.4697456964830381 -0.38537477372473389 0 -0.45726600860375899 -0.37898309285459991 0 -0.46802330407498038 -0.36651467391938047 0 -0.4697456964830381 -0.38537477372473389 0 -0.45726600860375899 -0.37898309285459991 0 -0.45792129450884522 -0.39447524758102959 0 -0.47580431133393658 -0.40326547028876342 0 -0.4697456964830381 -0.38537477372473389 0 -0.45792129450884522 -0.39447524758102959 0 -0.47580431133393658 -0.40326547028876342 0 -0.45792129450884522 -0.39447524758102959 0 -0.46144661430592482 -0.41223065833040562 0 -0.45792129450884522 -0.39447524758102959 0 -0.44559571122821351 -0.40511011154907839 0 -0.46144661430592482 -0.41223065833040562 0 -0.45792129450884522 -0.39447524758102959 0 -0.44559571122821351 -0.40511011154907839 0 -0.43901583312348968 -0.3852671565634247 0 -0.44559571122821351 -0.40511011154907839 0 -0.43901583312348968 -0.3852671565634247 0 -0.42804717444615831 -0.40936789304606569 0 -0.45726600860375899 -0.37898309285459991 0 -0.45792129450884522 -0.39447524758102959 0 -0.43901583312348968 -0.3852671565634247 0 -0.45726600860375899 -0.37898309285459991 0 -0.43901583312348968 -0.3852671565634247 0 -0.44998449180082112 -0.3611664200807837 0 -0.45610761852481252 -0.42274467896102369 0 -0.45798077402618748 -0.43664737023413408 0 -0.45054028290431952 -0.42426429715019309 0 -0.45610761852481252 -0.42274467896102369 0 -0.45798077402618748 -0.43664737023413408 0 -0.46599097723466248 -0.42736692078003929 0 -0.47247119250092212 -0.4377735007952992 0 -0.45798077402618748 -0.43664737023413408 0 -0.46599097723466248 -0.42736692078003929 0 -0.47247119250092212 -0.4377735007952992 0 -0.45798077402618748 -0.43664737023413408 0 -0.47694529215017167 -0.42099260624130619 0 -0.46599097723466248 -0.42736692078003929 0 -0.46144661430592482 -0.41223065833040562 0 -0.45610761852481252 -0.42274467896102369 0 -0.46599097723466248 -0.42736692078003929 0 -0.46144661430592482 -0.41223065833040562 0 -0.45610761852481252 -0.42274467896102369 0 -0.46144661430592482 -0.41223065833040562 0 -0.44790069043057262 -0.41561388720165532 0 -0.44790069043057262 -0.41561388720165532 0 -0.44017204863570542 -0.42205125220395973 0 -0.45054028290431952 -0.42426429715019309 0 -0.44559571122821351 -0.40511011154907839 0 -0.43933181180111541 -0.41471484377461387 0 -0.42804717444615831 -0.40936789304606569 0 -0.45610761852481252 -0.42274467896102369 0 -0.44790069043057262 -0.41561388720165532 0 -0.45054028290431952 -0.42426429715019309 0 -0.44559571122821351 -0.40511011154907839 0 -0.46144661430592482 -0.41223065833040562 0 -0.44790069043057262 -0.41561388720165532 0 -0.44559571122821351 -0.40511011154907839 0 -0.44790069043057262 -0.41561388720165532 0 -0.43933181180111541 -0.41471484377461387 0 -0.44790069043057262 -0.41561388720165532 0 -0.43933181180111541 -0.41471484377461387 0 -0.44017204863570542 -0.42205125220395973 0 -0.43933181180111541 -0.41471484377461387 0 -0.44017204863570542 -0.42205125220395973 0 -0.43520428575890929 -0.42196285634610903 0 -0.45798077402618748 -0.43664737023413408 0 -0.44017204863570542 -0.42205125220395973 0 -0.45054028290431952 -0.42426429715019309 0 -0.44017204863570542 -0.42205125220395973 0 -0.44627148392145899 -0.43573737654006012 0 -0.43520428575890929 -0.42196285634610903 0 -0.44627148392145899 -0.43573737654006012 0 -0.43520428575890929 -0.42196285634610903 0 -0.45798077402618748 -0.43664737023413408 0 -0.44017204863570542 -0.42205125220395973 0 -0.45798077402618748 -0.43664737023413408 0 -0.44017204863570542 -0.42205125220395973 0 -0.44627148392145899 -0.43573737654006012 0 -0.45798077402618748 -0.43664737023413408 0 -0.44627148392145899 -0.43573737654006012 0 -0.44627148392145899 -0.43573737654006012 0 -0.43520428575890929 -0.42196285634610903 0 -0.41707851576882837 -0.43346862952870729 0 -0.44627148392145899 -0.43573737654006012 0 -0.41707851576882837 -0.43346862952870729 0 -0.42804717444615831 -0.40936789304606569 0 -0.41707851576882837 -0.43346862952870729 0 -0.43933181180111541 -0.41471484377461387 0 -0.43520428575890929 -0.42196285634610903 0 -0.42804717444615831 -0.40936789304606569 0 -0.43520428575890929 -0.42196285634610903 0 -0.42804717444615831 -0.40936789304606569 0 -0.41707851576882837 -0.43346862952870729 0 -0.41337367291710531 -0.41950178752652612 0 -0.40712963174989369 -0.40293294564419629 0 -0.40123936970354063 -0.43223768188713452 0 -0.42804717444615831 -0.40936789304606569 0 -0.41337367291710531 -0.41950178752652612 0 -0.41707851576882837 -0.43346862952870729 0 -0.42804717444615831 -0.40936789304606569 0 -0.41337367291710531 -0.41950178752652612 0 -0.40712963174989369 -0.40293294564419629 0 -0.41707851576882837 -0.43346862952870729 0 -0.40123936970354063 -0.43223768188713452 0 -0.41337367291710531 -0.41950178752652612 0 -0.41707851576882837 -0.43346862952870729 0 -0.40123936970354063 -0.43223768188713452 0 -0.41707851576882837 -0.43346862952870729 0 -0.40049432457678519 -0.43594436772840789 0 -0.40540192301025629 -0.4423778071896306 0 -0.41707851576882837 -0.43346862952870729 0 -0.40123936970354063 -0.43223768188713452 0 -0.40049432457678519 -0.43594436772840789 0 -0.43901583312348968 -0.3852671565634247 0 -0.42193001991573348 -0.39203749044553471 0 -0.41301989379624798 -0.37362820940125863 0 -0.43901583312348968 -0.3852671565634247 0 -0.43652678400671768 -0.36790317402359363 0 -0.41301989379624798 -0.37362820940125863 0 -0.43901583312348968 -0.3852671565634247 0 -0.42804717444615831 -0.40936789304606569 0 -0.42193001991573348 -0.39203749044553471 0 -0.43901583312348968 -0.3852671565634247 0 -0.42804717444615831 -0.40936789304606569 0 -0.42804717444615831 -0.40936789304606569 0 -0.42193001991573348 -0.39203749044553471 0 -0.40712963174989369 -0.40293294564419629 0 -0.40712963174989369 -0.40293294564419629 0 -0.41301989379624798 -0.37362820940125863 0 -0.42193001991573348 -0.39203749044553471 0 -0.40712963174989369 -0.40293294564419629 0 -0.41301989379624798 -0.37362820940125863 0 -0.40712963174989369 -0.40293294564419629 0 -0.388052357634256 -0.376733536448145 0 -0.41301989379624798 -0.37362820940125863 0 -0.40712963174989369 -0.40293294564419629 0 -0.38611511289238121 -0.4038226373441639 0 -0.388052357634256 -0.376733536448145 0 -0.38611511289238121 -0.4038226373441639 0 -0.37087610249949737 -0.41198018746481968 0 -0.3702862293307666 -0.39285374639229909 0 -0.38611511289238121 -0.4038226373441639 0 -0.388052357634256 -0.376733536448145 0 -0.3702862293307666 -0.39285374639229909 0 -0.388052357634256 -0.376733536448145 0 -0.36879938767142162 -0.37505381744260241 0 -0.3702862293307666 -0.39285374639229909 0 -0.38611511289238121 -0.4038226373441639 0 -0.388052357634256 -0.376733536448145 0 -0.40123936970354063 -0.43223768188713452 0 -0.38417786815050642 -0.43091173824018281 0 -0.40123936970354063 -0.43223768188713452 0 -0.40049432457678519 -0.43594436772840789 0 -0.38417786815050642 -0.43091173824018281 0 -0.40123936970354063 -0.43223768188713452 0 -0.39376486542882611 -0.41798352059468752 0 -0.38417786815050642 -0.43091173824018281 0 -0.40123936970354063 -0.43223768188713452 0 -0.40049432457678519 -0.43594436772840789 0 -0.40712963174989369 -0.40293294564419629 0 -0.40123936970354063 -0.43223768188713452 0 -0.39376486542882611 -0.41798352059468752 0 -0.40712963174989369 -0.40293294564419629 0 -0.40123936970354063 -0.43223768188713452 0 -0.40712963174989369 -0.40293294564419629 0 -0.38611511289238121 -0.4038226373441639 0 -0.39376486542882611 -0.41798352059468752 0 -0.38611511289238121 -0.4038226373441639 0 -0.39376486542882611 -0.41798352059468752 0 -0.38417786815050642 -0.43091173824018281 0 -0.38611511289238121 -0.4038226373441639 0 -0.38417786815050642 -0.43091173824018281 0 -0.37087610249949737 -0.41198018746481968 0 -0.38611511289238121 -0.4038226373441639 0 -0.38417786815050642 -0.43091173824018281 0 -0.38417786815050642 -0.43091173824018281 0 -0.3826216475213372 -0.45267285944948987 0 -0.37274379172501482 -0.44103025013760211 0 -0.38417786815050642 -0.43091173824018281 0 -0.3826216475213372 -0.45267285944948987 0 -0.38417786815050642 -0.43091173824018281 0 -0.3826216475213372 -0.45267285944948987 0 -0.3955769019954779 -0.44768818012073153 0 -0.40049432457678519 -0.43594436772840789 0 -0.38417786815050642 -0.43091173824018281 0 -0.3955769019954779 -0.44768818012073153 0 -0.3955769019954779 -0.44768818012073153 0 -0.40540192301025629 -0.4423778071896306 0 -0.40845794969993399 -0.45241005138067492 0 -0.40049432457678519 -0.43594436772840789 0 -0.3955769019954779 -0.44768818012073153 0 -0.40540192301025629 -0.4423778071896306 0 -0.3955769019954779 -0.44768818012073153 0 -0.39439642526227758 -0.46488189471240199 0 -0.40845794969993399 -0.45241005138067492 0 -0.3826216475213372 -0.45267285944948987 0 -0.3955769019954779 -0.44768818012073153 0 -0.39439642526227758 -0.46488189471240199 0 -0.3826216475213372 -0.45267285944948987 0 -0.38106542689216799 -0.47443398065879699 0 -0.3826216475213372 -0.45267285944948987 0 -0.39439642526227758 -0.46488189471240199 0 -0.38106542689216799 -0.47443398065879699 0 -0.39439642526227758 -0.46488189471240199 0 -0.38106542689216799 -0.47443398065879699 0 -0.38977069685606303 -0.48599273389340247 0 -0.38106542689216799 -0.47443398065879699 0 -0.37950920626299878 -0.49619510186810428 0 -0.38106542689216799 -0.47443398065879699 0 -0.37950920626299878 -0.49619510186810428 0 -0.38977069685606303 -0.48599273389340247 0 -0.38106542689216799 -0.47443398065879699 0 -0.37950920626299878 -0.49619510186810428 0 -0.36906872515638911 -0.48687437893610958 0 -0.37950920626299878 -0.49619510186810428 0 -0.38977069685606303 -0.48599273389340247 0 -0.38613985704938669 -0.5 0 -0.38977069685606303 -0.48599273389340247 0 -0.38613985704938669 -0.5 0 -0.41408078485021688 -0.5 0 -0.38977069685606303 -0.48599273389340247 0 -0.40781669728631897 -0.48012398267396622 0 -0.41408078485021688 -0.5 0 -0.39439642526227758 -0.46488189471240199 0 -0.38977069685606303 -0.48599273389340247 0 -0.40781669728631897 -0.48012398267396622 0 -0.39439642526227758 -0.46488189471240199 0 -0.40781669728631897 -0.48012398267396622 0 -0.41777169096054401 -0.4663779238914823 0 -0.40781669728631897 -0.48012398267396622 0 -0.4225211347028931 -0.48377293566693552 0 -0.41777169096054401 -0.4663779238914823 0 -0.40781669728631897 -0.48012398267396622 0 -0.41408078485021688 -0.5 0 -0.4225211347028931 -0.48377293566693552 0 -0.44202171265104723 -0.5 0 -0.41408078485021688 -0.5 0 -0.4225211347028931 -0.48377293566693552 0 -0.44202171265104723 -0.5 0 -0.4225211347028931 -0.48377293566693552 0 -0.43558413304427901 -0.47258591764503932 0 -0.4225211347028931 -0.48377293566693552 0 -0.43558413304427901 -0.47258591764503932 0 -0.41777169096054401 -0.4663779238914823 0 -0.43558413304427901 -0.47258591764503932 0 -0.42860007058589789 -0.4514076492843323 0 -0.41777169096054401 -0.4663779238914823 0 -0.44569722557752889 -0.4554567577637913 0 -0.43558413304427901 -0.47258591764503932 0 -0.42860007058589789 -0.4514076492843323 0 -0.44627148392145899 -0.43573737654006012 0 -0.41707851576882837 -0.43346862952870729 0 -0.42860007058589789 -0.4514076492843323 0 -0.41707851576882837 -0.43346862952870729 0 -0.40845794969993399 -0.45241005138067492 0 -0.41707851576882837 -0.43346862952870729 0 -0.42860007058589789 -0.4514076492843323 0 -0.40845794969993399 -0.45241005138067492 0 -0.41707851576882837 -0.43346862952870729 0 -0.40540192301025629 -0.4423778071896306 0 -0.40845794969993399 -0.45241005138067492 0 -0.42860007058589789 -0.4514076492843323 0 -0.40845794969993399 -0.45241005138067492 0 -0.41777169096054401 -0.4663779238914823 0 -0.39439642526227758 -0.46488189471240199 0 -0.40845794969993399 -0.45241005138067492 0 -0.41777169096054401 -0.4663779238914823 0 -0.4494062854337818 -0.26517651657785868 0 -0.44633588936951962 -0.25689529081035922 0 -0.45440992993795198 -0.25821414798296571 0 -0.44633588936951962 -0.25689529081035922 0 -0.44510061421837188 -0.2439699360773388 0 -0.45179914680882421 -0.24963270404343879 0 -0.44633588936951962 -0.25689529081035922 0 -0.45440992993795198 -0.25821414798296571 0 -0.45179914680882421 -0.24963270404343879 0 -0.44633588936951962 -0.25689529081035922 0 -0.43615447772397598 -0.25463875365883232 0 -0.44510061421837188 -0.2439699360773388 0 -0.4494062854337818 -0.26517651657785868 0 -0.44633588936951962 -0.25689529081035922 0 -0.43975923722479421 -0.26695490441742781 0 -0.44633588936951962 -0.25689529081035922 0 -0.43975923722479421 -0.26695490441742781 0 -0.43615447772397598 -0.25463875365883232 0 -0.43975923722479421 -0.26695490441742781 0 -0.44785144917517422 -0.27616885405726788 0 -0.43514892811185352 -0.28552053381546938 0 -0.4494062854337818 -0.26517651657785868 0 -0.44785144917517422 -0.27616885405726788 0 -0.45881047519318952 -0.26563471683912271 0 -0.4494062854337818 -0.26517651657785868 0 -0.43975923722479421 -0.26695490441742781 0 -0.44785144917517422 -0.27616885405726788 0 -0.46321674502513249 -0.27485771222621003 0 -0.46906192088910709 -0.27225154341177638 0 -0.46727955847474067 -0.29056590165997481 0 -0.45881047519318952 -0.26563471683912271 0 -0.46055400614502268 -0.2847262825075868 0 -0.45881047519318952 -0.26563471683912271 0 -0.46321674502513249 -0.27485771222621003 0 -0.46055400614502268 -0.2847262825075868 0 -0.44785144917517422 -0.27616885405726788 0 -0.45881047519318952 -0.26563471683912271 0 -0.46055400614502268 -0.2847262825075868 0 -0.45881047519318952 -0.26563471683912271 0 -0.46321674502513249 -0.27485771222621003 0 -0.46407094759790229 -0.26939334677919519 0 -0.45881047519318952 -0.26563471683912271 0 -0.46407094759790229 -0.26939334677919519 0 -0.46519464928417997 -0.26482941463967191 0 -0.46321674502513249 -0.27485771222621003 0 -0.46407094759790229 -0.26939334677919519 0 -0.46906192088910709 -0.27225154341177638 0 -0.46407094759790229 -0.26939334677919519 0 -0.46519464928417997 -0.26482941463967191 0 -0.46906192088910709 -0.27225154341177638 0 -0.46519464928417997 -0.26482941463967191 0 -0.47069564084484927 -0.24248076671325761 0 -0.46519464928417997 -0.26482941463967191 0 -0.46156804221782949 -0.25671402825117062 0 -0.47069564084484927 -0.24248076671325761 0 -0.45881047519318952 -0.26563471683912271 0 -0.46519464928417997 -0.26482941463967191 0 -0.46156804221782949 -0.25671402825117062 0 -0.4494062854337818 -0.26517651657785868 0 -0.45881047519318952 -0.26563471683912271 0 -0.45440992993795198 -0.25821414798296571 0 -0.45881047519318952 -0.26563471683912271 0 -0.45440992993795198 -0.25821414798296571 0 -0.46156804221782949 -0.25671402825117062 0 -0.45440992993795198 -0.25821414798296571 0 -0.45886506956069772 -0.25039642629868519 0 -0.46156804221782949 -0.25671402825117062 0 -0.45440992993795198 -0.25821414798296571 0 -0.45886506956069772 -0.25039642629868519 0 -0.45179914680882421 -0.24963270404343879 0 -0.46519464928417997 -0.26482941463967191 0 -0.47390686384186381 -0.25476380209278099 0 -0.47069564084484927 -0.24248076671325761 0 -0.47818637231649402 -0.26669665333929671 0 -0.48909318615824737 -0.24282740501861871 0 -0.47390686384186381 -0.25476380209278099 0 -0.47818637231649402 -0.26669665333929671 0 -0.48909318615824737 -0.24282740501861871 0 -0.46519464928417997 -0.26482941463967191 0 -0.47390686384186381 -0.25476380209278099 0 -0.47818637231649402 -0.26669665333929671 0 -0.49857429831377958 -0.25440312686868832 0 -0.48866072098183522 -0.27618560017795951 0 -0.49857429831377958 -0.25440312686868832 0 -0.5 -0.27479319955288839 0 -0.5 -0.24687567812541461 0 -0.49857429831377958 -0.25440312686868832 0 -0.47818637231649402 -0.26669665333929671 0 -0.48909318615824737 -0.24282740501861871 0 -0.49857429831377958 -0.25440312686868832 0 -0.5 -0.27479319955288839 0 -0.48866072098183522 -0.27618560017795951 0 -0.5 -0.27479319955288839 0 -0.48866072098183522 -0.27618560017795951 0 -0.5 -0.29058469370086409 0 -0.49857429831377958 -0.25440312686868832 0 -0.48866072098183522 -0.27618560017795951 0 -0.47818637231649402 -0.26669665333929671 0 -0.48866072098183522 -0.27618560017795951 0 -0.47816781975636191 -0.27964338494383217 0 -0.47818637231649402 -0.26669665333929671 0 -0.47818637231649402 -0.26669665333929671 0 -0.46906192088910709 -0.27225154341177638 0 -0.46727955847474067 -0.29056590165997481 0 -0.48866072098183522 -0.27618560017795951 0 -0.47816781975636191 -0.27964338494383217 0 -0.47854462725237779 -0.28512538459809778 0 -0.47816781975636191 -0.27964338494383217 0 -0.47818637231649402 -0.26669665333929671 0 -0.46727955847474067 -0.29056590165997481 0 -0.47818637231649402 -0.26669665333929671 0 -0.46727955847474067 -0.29056590165997481 0 -0.46519464928417997 -0.26482941463967191 0 -0.47818637231649402 -0.26669665333929671 0 -0.46906192088910709 -0.27225154341177638 0 -0.47816781975636191 -0.27964338494383217 0 -0.47854462725237779 -0.28512538459809778 0 -0.46727955847474067 -0.29056590165997481 0 -0.48866072098183522 -0.27618560017795951 0 -0.47874714364989268 -0.29796807348723159 0 -0.48866072098183522 -0.27618560017795951 0 -0.47854462725237779 -0.28512538459809778 0 -0.47874714364989268 -0.29796807348723159 0 -0.47854462725237779 -0.28512538459809778 0 -0.47874714364989268 -0.29796807348723159 0 -0.46727955847474067 -0.29056590165997481 0 -0.5 -0.29058469370086409 0 -0.47874714364989268 -0.29796807348723159 0 -0.48866072098183522 -0.27618560017795951 0 -0.5 -0.29058469370086409 0 -0.47874714364989268 -0.29796807348723159 0 -0.5 -0.29058469370086409 0 -0.49129267454700593 -0.30084669086866173 0 -0.47874714364989268 -0.29796807348723159 0 -0.5 -0.30271072098036222 0 -0.49129267454700593 -0.30084669086866173 0 -0.48691429628070948 -0.31212327530618961 0 -0.5 -0.29058469370086409 0 -0.5 -0.30271072098036222 0 -0.49129267454700593 -0.30084669086866173 0 -0.49129267454700593 -0.30084669086866173 0 -0.48691429628070948 -0.31212327530618961 0 -0.47874714364989268 -0.29796807348723159 0 -0.47874714364989268 -0.29796807348723159 0 -0.46229753709685611 -0.30381784817605101 0 -0.47167444675569631 -0.31350846079282257 0 -0.47874714364989268 -0.29796807348723159 0 -0.46229753709685611 -0.30381784817605101 0 -0.46727955847474067 -0.29056590165997481 0 -0.48691429628070948 -0.31212327530618961 0 -0.47874714364989268 -0.29796807348723159 0 -0.47167444675569631 -0.31350846079282257 0 -0.47874714364989268 -0.29796807348723159 0 -0.46229753709685611 -0.30381784817605101 0 -0.47874714364989268 -0.29796807348723159 0 -0.47167444675569631 -0.31350846079282257 0 -0.46229753709685611 -0.30381784817605101 0 -0.44655772646623221 -0.3094152067230127 0 -0.45663942759456833 -0.31635018905518908 0 -0.46229753709685611 -0.30381784817605101 0 -0.44655772646623221 -0.3094152067230127 0 -0.46321674502513249 -0.27485771222621003 0 -0.46727955847474067 -0.29056590165997481 0 -0.46055400614502268 -0.2847262825075868 0 -0.46229753709685611 -0.30381784817605101 0 -0.46055400614502268 -0.2847262825075868 0 -0.45039593262276167 -0.29527936175851999 0 -0.46229753709685611 -0.30381784817605101 0 -0.46055400614502268 -0.2847262825075868 0 -0.46229753709685611 -0.30381784817605101 0 -0.46727955847474067 -0.29056590165997481 0 -0.46055400614502268 -0.2847262825075868 0 -0.46055400614502268 -0.2847262825075868 0 -0.45039593262276167 -0.29527936175851999 0 -0.44848757901370312 -0.28542375803471098 0 -0.45039593262276167 -0.29527936175851999 0 -0.44655772646623221 -0.3094152067230127 0 -0.43514892811185352 -0.28552053381546938 0 -0.44785144917517422 -0.27616885405726788 0 -0.46055400614502268 -0.2847262825075868 0 -0.44848757901370312 -0.28542375803471098 0 -0.44785144917517422 -0.27616885405726788 0 -0.44848757901370312 -0.28542375803471098 0 -0.43514892811185352 -0.28552053381546938 0 -0.45039593262276167 -0.29527936175851999 0 -0.44848757901370312 -0.28542375803471098 0 -0.43514892811185352 -0.28552053381546938 0 -0.46229753709685611 -0.30381784817605101 0 -0.45039593262276167 -0.29527936175851999 0 -0.44655772646623221 -0.3094152067230127 0 -0.44655772646623221 -0.3094152067230127 0 -0.43091604069217138 -0.30268144685322551 0 -0.43514892811185352 -0.28552053381546938 0 -0.44655772646623221 -0.3094152067230127 0 -0.43514892811185352 -0.28552053381546938 0 -0.45310069695368188 -0.32311885322327938 0 -0.43782591573912849 -0.32363511598568862 0 -0.45200918794640699 -0.33170479003753001 0 -0.44655772646623221 -0.3094152067230127 0 -0.45310069695368188 -0.32311885322327938 0 -0.43782591573912849 -0.32363511598568862 0 -0.44655772646623221 -0.3094152067230127 0 -0.45310069695368188 -0.32311885322327938 0 -0.45663942759456833 -0.31635018905518908 0 -0.44655772646623221 -0.3094152067230127 0 -0.45310069695368188 -0.32311885322327938 0 -0.4418284312106382 -0.33678547593682201 0 -0.45200152002933741 -0.34035982580258078 0 -0.438442116997252 -0.35297584163321671 0 -0.43782591573912849 -0.32363511598568862 0 -0.4418284312106382 -0.33678547593682201 0 -0.45200918794640699 -0.33170479003753001 0 -0.43782591573912849 -0.32363511598568862 0 -0.4418284312106382 -0.33678547593682201 0 -0.43365203167203947 -0.33230689145889958 0 -0.4418284312106382 -0.33678547593682201 0 -0.45200152002933741 -0.34035982580258078 0 -0.45200918794640699 -0.33170479003753001 0 -0.46095315047815288 -0.33706568359814282 0 -0.46460174986150171 -0.32904884809841439 0 -0.46630091166692322 -0.347654574114027 0 -0.45200918794640699 -0.33170479003753001 0 -0.4599658683489633 -0.33511080528453491 0 -0.46460174986150171 -0.32904884809841439 0 -0.45200152002933741 -0.34035982580258078 0 -0.45200918794640699 -0.33170479003753001 0 -0.4599658683489633 -0.33511080528453491 0 -0.46460174986150171 -0.32904884809841439 0 -0.46630091166692322 -0.347654574114027 0 -0.45200152002933741 -0.34035982580258078 0 -0.4599658683489633 -0.33511080528453491 0 -0.46095315047815288 -0.33706568359814282 0 -0.4599658683489633 -0.33511080528453491 0 -0.46095315047815288 -0.33706568359814282 0 -0.46095315047815288 -0.33706568359814282 0 -0.46630091166692322 -0.347654574114027 0 -0.4599658683489633 -0.33511080528453491 0 -0.46095315047815288 -0.33706568359814282 0 -0.46460174986150171 -0.32904884809841439 0 -0.46095315047815288 -0.33706568359814282 0 -0.46460174986150171 -0.32904884809841439 0 -0.46460174986150171 -0.32904884809841439 0 -0.47167444675569631 -0.31350846079282257 0 -0.46229753709685611 -0.30381784817605101 0 -0.46460174986150171 -0.32904884809841439 0 -0.47167444675569631 -0.31350846079282257 0 -0.46229753709685611 -0.30381784817605101 0 -0.46460174986150171 -0.32904884809841439 0 -0.45663942759456833 -0.31635018905518908 0 -0.46229753709685611 -0.30381784817605101 0 -0.46460174986150171 -0.32904884809841439 0 -0.45310069695368188 -0.32311885322327938 0 -0.46460174986150171 -0.32904884809841439 0 -0.45663942759456833 -0.31635018905518908 0 -0.45310069695368188 -0.32311885322327938 0 -0.45200918794640699 -0.33170479003753001 0 -0.46460174986150171 -0.32904884809841439 0 -0.46460174986150171 -0.32904884809841439 0 -0.47167444675569631 -0.31350846079282257 0 -0.48171859558374469 -0.32745937176049489 0 -0.48691429628070948 -0.31212327530618961 0 -0.47167444675569631 -0.31350846079282257 0 -0.48171859558374469 -0.32745937176049489 0 -0.48691429628070948 -0.31212327530618961 0 -0.48171859558374469 -0.32745937176049489 0 -0.5 -0.33062824240783611 0 -0.5 -0.30271072098036222 0 -0.48691429628070948 -0.31212327530618961 0 -0.5 -0.33062824240783611 0 -0.48171859558374469 -0.32745937176049489 0 -0.5 -0.33062824240783611 0 -0.48537072151781219 -0.34623031073745242 0 -0.46460174986150171 -0.32904884809841439 0 -0.48171859558374469 -0.32745937176049489 0 -0.46630091166692322 -0.347654574114027 0 -0.48171859558374469 -0.32745937176049489 0 -0.48537072151781219 -0.34623031073745242 0 -0.46630091166692322 -0.347654574114027 0 -0.48537072151781219 -0.34623031073745242 0 -0.47753394111128172 -0.36989665163943719 0 -0.46630091166692322 -0.347654574114027 0 -0.47753394111128172 -0.36989665163943719 0 -0.46630091166692322 -0.347654574114027 0 -0.5 -0.35854576383530989 0 -0.48537072151781219 -0.34623031073745242 0 -0.47753394111128172 -0.36989665163943719 0 -0.5 -0.33062824240783611 0 -0.5 -0.35854576383530989 0 -0.48537072151781219 -0.34623031073745242 0 -0.5 -0.38646328526278378 0 -0.5 -0.35854576383530989 0 -0.47753394111128172 -0.36989665163943719 0 -0.4697456964830381 -0.38537477372473389 0 -0.47753394111128172 -0.36989665163943719 0 -0.46802330407498038 -0.36651467391938047 0 -0.47753394111128172 -0.36989665163943719 0 -0.46802330407498038 -0.36651467391938047 0 -0.46630091166692322 -0.347654574114027 0 -0.46802330407498038 -0.36651467391938047 0 -0.46108044615525251 -0.35533481096029079 0 -0.44998449180082112 -0.3611664200807837 0 -0.45726600860375899 -0.37898309285459991 0 -0.46802330407498038 -0.36651467391938047 0 -0.44998449180082112 -0.3611664200807837 0 -0.45200152002933741 -0.34035982580258078 0 -0.46095315047815288 -0.33706568359814282 0 -0.44998449180082112 -0.3611664200807837 0 -0.46095315047815288 -0.33706568359814282 0 -0.44998449180082112 -0.3611664200807837 0 -0.46802330407498038 -0.36651467391938047 0 -0.46630091166692322 -0.347654574114027 0 -0.46095315047815288 -0.33706568359814282 0 -0.46108044615525251 -0.35533481096029079 0 -0.44998449180082112 -0.3611664200807837 0 -0.46802330407498038 -0.36651467391938047 0 -0.46108044615525251 -0.35533481096029079 0 -0.46630091166692322 -0.347654574114027 0 -0.46095315047815288 -0.33706568359814282 0 -0.46108044615525251 -0.35533481096029079 0 -0.46630091166692322 -0.347654574114027 0 -0.45200152002933741 -0.34035982580258078 0 -0.438442116997252 -0.35297584163321671 0 -0.44998449180082112 -0.3611664200807837 0 -0.438442116997252 -0.35297584163321671 0 -0.44998449180082112 -0.3611664200807837 0 -0.43652678400671768 -0.36790317402359363 0 -0.43901583312348968 -0.3852671565634247 0 -0.44998449180082112 -0.3611664200807837 0 -0.43652678400671768 -0.36790317402359363 0 -0.43901583312348968 -0.3852671565634247 0 -0.44998449180082112 -0.3611664200807837 0 -0.42672473766070501 -0.35970767455409741 0 -0.43652678400671768 -0.36790317402359363 0 -0.41301989379624798 -0.37362820940125863 0 -0.438442116997252 -0.35297584163321671 0 -0.42672473766070501 -0.35970767455409741 0 -0.43652678400671768 -0.36790317402359363 0 -0.438442116997252 -0.35297584163321671 0 -0.41510681438083008 -0.34093700373950903 0 -0.438442116997252 -0.35297584163321671 0 -0.41510681438083008 -0.34093700373950903 0 -0.43039568233329339 -0.33876161132532029 0 -0.438442116997252 -0.35297584163321671 0 -0.41891015584260238 -0.34432347315832079 0 -0.41510681438083008 -0.34093700373950903 0 -0.438442116997252 -0.35297584163321671 0 -0.42672473766070501 -0.35970767455409741 0 -0.41891015584260238 -0.34432347315832079 0 -0.41891015584260238 -0.34432347315832079 0 -0.41301989379624798 -0.37362820940125863 0 -0.42672473766070501 -0.35970767455409741 0 -0.41891015584260238 -0.34432347315832079 0 -0.41301989379624798 -0.37362820940125863 0 -0.41891015584260238 -0.34432347315832079 0 -0.40972992849842399 -0.35160291781201491 0 -0.41301989379624798 -0.37362820940125863 0 -0.41891015584260238 -0.34432347315832079 0 -0.41320548168482879 -0.3453918752699856 0 -0.40972992849842399 -0.35160291781201491 0 -0.41320548168482879 -0.3453918752699856 0 -0.40907502801745887 -0.34470410637009807 0 -0.40972992849842399 -0.35160291781201491 0 -0.40907502801745887 -0.34470410637009807 0 -0.40972992849842399 -0.35160291781201491 0 -0.40259715621782549 -0.34631340895996038 0 -0.40972992849842399 -0.35160291781201491 0 -0.41301989379624798 -0.37362820940125863 0 -0.40109583369892482 -0.35630309047381242 0 -0.41301989379624798 -0.37362820940125863 0 -0.39043976064426072 -0.3607569988334734 0 -0.40109583369892482 -0.35630309047381242 0 -0.388052357634256 -0.376733536448145 0 -0.41301989379624798 -0.37362820940125863 0 -0.39043976064426072 -0.3607569988334734 0 -0.388052357634256 -0.376733536448145 0 -0.37578632028792858 -0.36042996567878732 0 -0.36879938767142162 -0.37505381744260241 0 -0.388052357634256 -0.376733536448145 0 -0.39043976064426072 -0.3607569988334734 0 -0.37578632028792858 -0.36042996567878732 0 -0.37578632028792858 -0.36042996567878732 0 -0.38630789937493099 -0.34626935793824448 0 -0.37215822967431589 -0.34246575247975858 0 -0.39043976064426072 -0.3607569988334734 0 -0.37578632028792858 -0.36042996567878732 0 -0.38630789937493099 -0.34626935793824448 0 -0.38630789937493099 -0.34626935793824448 0 -0.39606138052655881 -0.34799838569775948 0 -0.39301176917695962 -0.34278150051369127 0 -0.39606138052655881 -0.34799838569775948 0 -0.39771701703585483 -0.34262490985266841 0 -0.39301176917695962 -0.34278150051369127 0 -0.39043976064426072 -0.3607569988334734 0 -0.39606138052655881 -0.34799838569775948 0 -0.40109583369892482 -0.35630309047381242 0 -0.39043976064426072 -0.3607569988334734 0 -0.38630789937493099 -0.34626935793824448 0 -0.39606138052655881 -0.34799838569775948 0 -0.39606138052655881 -0.34799838569775948 0 -0.40109583369892482 -0.35630309047381242 0 -0.40259715621782549 -0.34631340895996038 0 -0.40972992849842399 -0.35160291781201491 0 -0.40109583369892482 -0.35630309047381242 0 -0.40259715621782549 -0.34631340895996038 0 -0.39606138052655881 -0.34799838569775948 0 -0.40259715621782549 -0.34631340895996038 0 -0.39771701703585483 -0.34262490985266841 0 -0.40092659277191012 -0.33886445820897948 0 -0.39177151176440772 -0.32889816584580212 0 -0.41510681438083008 -0.34093700373950903 0 -0.40907502801745887 -0.34470410637009807 0 -0.40259715621782549 -0.34631340895996038 0 -0.40092659277191012 -0.33886445820897948 0 -0.39177151176440772 -0.32889816584580212 0 -0.41510681438083008 -0.34093700373950903 0 -0.40259715621782549 -0.34631340895996038 0 -0.40092659277191012 -0.33886445820897948 0 -0.39771701703585483 -0.34262490985266841 0 -0.40092659277191012 -0.33886445820897948 0 -0.39273719204795421 -0.33345452067111447 0 -0.39177151176440772 -0.32889816584580212 0 -0.39273719204795421 -0.33345452067111447 0 -0.39134169194916529 -0.33132045000229149 0 -0.38899266000564808 -0.33383732155348922 0 -0.39273719204795421 -0.33345452067111447 0 -0.39177151176440772 -0.32889816584580212 0 -0.39134169194916529 -0.33132045000229149 0 -0.39177151176440772 -0.32889816584580212 0 -0.39134169194916529 -0.33132045000229149 0 -0.38899266000564808 -0.33383732155348922 0 -0.40092659277191012 -0.33886445820897948 0 -0.39273719204795421 -0.33345452067111447 0 -0.39501264900466709 -0.3385839966635289 0 -0.39771701703585483 -0.34262490985266841 0 -0.39501264900466709 -0.3385839966635289 0 -0.39301176917695962 -0.34278150051369127 0 -0.40092659277191012 -0.33886445820897948 0 -0.39771701703585483 -0.34262490985266841 0 -0.39501264900466709 -0.3385839966635289 0 -0.39273719204795421 -0.33345452067111447 0 -0.39501264900466709 -0.3385839966635289 0 -0.38995989994278629 -0.33843085241625531 0 -0.39501264900466709 -0.3385839966635289 0 -0.39301176917695962 -0.34278150051369127 0 -0.38995989994278629 -0.33843085241625531 0 -0.39177151176440772 -0.32889816584580212 0 -0.38368170156053882 -0.335212846930113 0 -0.37554924661712041 -0.32052899131281232 0 -0.38630789937493099 -0.34626935793824448 0 -0.39301176917695962 -0.34278150051369127 0 -0.38995989994278629 -0.33843085241625531 0 -0.38630789937493099 -0.34626935793824448 0 -0.38995989994278629 -0.33843085241625531 0 -0.38368170156053882 -0.335212846930113 0 -0.38368170156053882 -0.335212846930113 0 -0.37554924661712041 -0.32052899131281232 0 -0.37215822967431589 -0.34246575247975858 0 -0.38995989994278629 -0.33843085241625531 0 -0.38899266000564808 -0.33383732155348922 0 -0.38368170156053882 -0.335212846930113 0 -0.39273719204795421 -0.33345452067111447 0 -0.38995989994278629 -0.33843085241625531 0 -0.38899266000564808 -0.33383732155348922 0 -0.39177151176440772 -0.32889816584580212 0 -0.38899266000564808 -0.33383732155348922 0 -0.38368170156053882 -0.335212846930113 0 -0.38630789937493099 -0.34626935793824448 0 -0.38368170156053882 -0.335212846930113 0 -0.37215822967431589 -0.34246575247975858 0 -0.39177151176440772 -0.32889816584580212 0 -0.37554924661712041 -0.32052899131281232 0 -0.39177151176440772 -0.32889816584580212 0 -0.37554924661712041 -0.32052899131281232 0 -0.38611481129386271 -0.31331167447151131 0 -0.37554924661712041 -0.32052899131281232 0 -0.38611481129386271 -0.31331167447151131 0 -0.37220008565228491 -0.30935438299599832 0 -0.39177151176440772 -0.32889816584580212 0 -0.38611481129386271 -0.31331167447151131 0 -0.3993005727033424 -0.31613736968859441 0 -0.39177151176440772 -0.32889816584580212 0 -0.3993005727033424 -0.31613736968859441 0 -0.41916461911532021 -0.31915668628440841 0 -0.39177151176440772 -0.32889816584580212 0 -0.41916461911532021 -0.31915668628440841 0 -0.3993005727033424 -0.31613736968859441 0 -0.41916461911532021 -0.31915668628440841 0 -0.40015134863977919 -0.303182952152656 0 -0.39177151176440772 -0.32889816584580212 0 -0.41916461911532021 -0.31915668628440841 0 -0.41258460071032932 -0.3298778934435268 0 -0.41916461911532021 -0.31915668628440841 0 -0.41258460071032932 -0.3298778934435268 0 -0.42429545758075921 -0.33051971790438778 0 -0.39177151176440772 -0.32889816584580212 0 -0.41258460071032932 -0.3298778934435268 0 -0.41510681438083008 -0.34093700373950903 0 -0.40907502801745887 -0.34470410637009807 0 -0.40092659277191012 -0.33886445820897948 0 -0.41510681438083008 -0.34093700373950903 0 -0.41320548168482879 -0.3453918752699856 0 -0.40907502801745887 -0.34470410637009807 0 -0.41510681438083008 -0.34093700373950903 0 -0.41891015584260238 -0.34432347315832079 0 -0.41320548168482879 -0.3453918752699856 0 -0.41510681438083008 -0.34093700373950903 0 -0.41258460071032932 -0.3298778934435268 0 -0.41510681438083008 -0.34093700373950903 0 -0.42429545758075921 -0.33051971790438778 0 -0.42429545758075921 -0.33051971790438778 0 -0.43039568233329339 -0.33876161132532029 0 -0.43365203167203947 -0.33230689145889958 0 -0.4418284312106382 -0.33678547593682201 0 -0.438442116997252 -0.35297584163321671 0 -0.43039568233329339 -0.33876161132532029 0 -0.41510681438083008 -0.34093700373950903 0 -0.42429545758075921 -0.33051971790438778 0 -0.43039568233329339 -0.33876161132532029 0 -0.4418284312106382 -0.33678547593682201 0 -0.43039568233329339 -0.33876161132532029 0 -0.43365203167203947 -0.33230689145889958 0 -0.43782591573912849 -0.32363511598568862 0 -0.42429545758075921 -0.33051971790438778 0 -0.43365203167203947 -0.33230689145889958 0 -0.43782591573912849 -0.32363511598568862 0 -0.41916461911532021 -0.31915668628440841 0 -0.42429545758075921 -0.33051971790438778 0 -0.44655772646623221 -0.3094152067230127 0 -0.41916461911532021 -0.31915668628440841 0 -0.44655772646623221 -0.3094152067230127 0 -0.43782591573912849 -0.32363511598568862 0 -0.41916461911532021 -0.31915668628440841 0 -0.41916461911532021 -0.31915668628440841 0 -0.43091604069217138 -0.30268144685322551 0 -0.41919484364491372 -0.29910153029880299 0 -0.44655772646623221 -0.3094152067230127 0 -0.41916461911532021 -0.31915668628440841 0 -0.43091604069217138 -0.30268144685322551 0 -0.43091604069217138 -0.30268144685322551 0 -0.43514892811185352 -0.28552053381546938 0 -0.41919484364491372 -0.29910153029880299 0 -0.43514892811185352 -0.28552053381546938 0 -0.40834450327146671 -0.28650863845624991 0 -0.41919484364491372 -0.29910153029880299 0 -0.40834450327146671 -0.28650863845624991 0 -0.41919484364491372 -0.29910153029880299 0 -0.40015134863977919 -0.303182952152656 0 -0.41916461911532021 -0.31915668628440841 0 -0.41919484364491372 -0.29910153029880299 0 -0.40015134863977919 -0.303182952152656 0 -0.38611481129386271 -0.31331167447151131 0 -0.3993005727033424 -0.31613736968859441 0 -0.40015134863977919 -0.303182952152656 0 -0.38611481129386271 -0.31331167447151131 0 -0.40015134863977919 -0.303182952152656 0 -0.37963915235596618 -0.29971961912395501 0 -0.38611481129386271 -0.31331167447151131 0 -0.37963915235596618 -0.29971961912395501 0 -0.37220008565228491 -0.30935438299599832 0 -0.40015134863977919 -0.303182952152656 0 -0.37963915235596618 -0.29971961912395501 0 -0.39015979569416293 -0.28606368130472282 0 -0.37963915235596618 -0.29971961912395501 0 -0.39015979569416293 -0.28606368130472282 0 -0.3729454046447826 -0.28266396815036698 0 -0.40834450327146671 -0.28650863845624991 0 -0.39015979569416293 -0.28606368130472282 0 -0.3987706300378614 -0.27526258371578322 0 -0.40834450327146671 -0.28650863845624991 0 -0.40015134863977919 -0.303182952152656 0 -0.39015979569416293 -0.28606368130472282 0 -0.39015979569416293 -0.28606368130472282 0 -0.3987706300378614 -0.27526258371578322 0 -0.38489508117933913 -0.26975526478653039 0 -0.3987706300378614 -0.27526258371578322 0 -0.3982721207713199 -0.26330896343766658 0 -0.41247099028132062 -0.27153654533949723 0 -0.3987706300378614 -0.27526258371578322 0 -0.38489508117933913 -0.26975526478653039 0 -0.3982721207713199 -0.26330896343766658 0 -0.39015979569416293 -0.28606368130472282 0 -0.38489508117933913 -0.26975526478653039 0 -0.3729454046447826 -0.28266396815036698 0 -0.38489508117933913 -0.26975526478653039 0 -0.37437602864962588 -0.25929749075189212 0 -0.37134904244232381 -0.27113020231591539 0 -0.38489508117933913 -0.26975526478653039 0 -0.37134904244232381 -0.27113020231591539 0 -0.3729454046447826 -0.28266396815036698 0 -0.38489508117933913 -0.26975526478653039 0 -0.38759006934406082 -0.25292219297864371 0 -0.3982721207713199 -0.26330896343766658 0 -0.38489508117933913 -0.26975526478653039 0 -0.38759006934406082 -0.25292219297864371 0 -0.37437602864962588 -0.25929749075189212 0 -0.38759006934406082 -0.25292219297864371 0 -0.37437602864962588 -0.25929749075189212 0 -0.3754815455226328 -0.24515134388580481 0 -0.38759006934406082 -0.25292219297864371 0 -0.39905962203334883 -0.253280537170463 0 -0.39533825663743127 -0.24429407101779799 0 -0.38759006934406082 -0.25292219297864371 0 -0.3982721207713199 -0.26330896343766658 0 -0.39905962203334883 -0.253280537170463 0 -0.3982721207713199 -0.26330896343766658 0 -0.39905962203334883 -0.253280537170463 0 -0.41054962973794951 -0.25699269170388722 0 -0.39905962203334883 -0.253280537170463 0 -0.41054962973794951 -0.25699269170388722 0 -0.40533759214738879 -0.24695183662999681 0 -0.41054962973794951 -0.25699269170388722 0 -0.42374012975747299 -0.26162586090792711 0 -0.41233133140309569 -0.23773118800038329 0 -0.41054962973794951 -0.25699269170388722 0 -0.41247099028132062 -0.27153654533949723 0 -0.42374012975747299 -0.26162586090792711 0 -0.3982721207713199 -0.26330896343766658 0 -0.41054962973794951 -0.25699269170388722 0 -0.41247099028132062 -0.27153654533949723 0 -0.43514892811185352 -0.28552053381546938 0 -0.40834450327146671 -0.28650863845624991 0 -0.41247099028132062 -0.27153654533949723 0 -0.40834450327146671 -0.28650863845624991 0 -0.3987706300378614 -0.27526258371578322 0 -0.41247099028132062 -0.27153654533949723 0 -0.43514892811185352 -0.28552053381546938 0 -0.41247099028132062 -0.27153654533949723 0 -0.42374012975747299 -0.26162586090792711 0 -0.43975923722479421 -0.26695490441742781 0 -0.43514892811185352 -0.28552053381546938 0 -0.42374012975747299 -0.26162586090792711 0 -0.43514892811185352 -0.28552053381546938 0 -0.42374012975747299 -0.26162586090792711 0 -0.43615447772397598 -0.25463875365883232 0 -0.42374012975747299 -0.26162586090792711 0 -0.42842422739751879 -0.24396335671878699 0 -0.43975923722479421 -0.26695490441742781 0 -0.43615447772397598 -0.25463875365883232 0 -0.42374012975747299 -0.26162586090792711 0 -0.32784238038639579 -0.26355734465052388 0 -0.31007351155781449 -0.2437470698782758 0 -0.33422280334630938 -0.2474119697110238 0 -0.32784238038639579 -0.26355734465052388 0 -0.3110797581983899 -0.26831742142097542 0 -0.31007351155781449 -0.2437470698782758 0 -0.33393288958424872 -0.27878482065530191 0 -0.31701400729842832 -0.29033027185282961 0 -0.3110797581983899 -0.26831742142097542 0 -0.32784238038639579 -0.26355734465052388 0 -0.33393288958424872 -0.27878482065530191 0 -0.3110797581983899 -0.26831742142097542 0 -0.33393288958424872 -0.27878482065530191 0 -0.3110797581983899 -0.26831742142097542 0 -0.32784238038639579 -0.26355734465052388 0 -0.33393288958424872 -0.27878482065530191 0 -0.34844672145884342 -0.27363933864956141 0 -0.32784238038639579 -0.26355734465052388 0 -0.34742135955341558 -0.25811521382639702 0 -0.34844672145884342 -0.27363933864956141 0 -0.32784238038639579 -0.26355734465052388 0 -0.34742135955341558 -0.25811521382639702 0 -0.33422280334630938 -0.2474119697110238 0 -0.34742135955341558 -0.25811521382639702 0 -0.36276416121781768 -0.25026291011615542 0 -0.36195523538968588 -0.2663870397437374 0 -0.34742135955341558 -0.25811521382639702 0 -0.3497292610593602 -0.24450603086655481 0 -0.33422280334630938 -0.2474119697110238 0 -0.34742135955341558 -0.25811521382639702 0 -0.36276416121781768 -0.25026291011615542 0 -0.3497292610593602 -0.24450603086655481 0 -0.36276416121781768 -0.25026291011615542 0 -0.37437602864962588 -0.25929749075189212 0 -0.36195523538968588 -0.2663870397437374 0 -0.37437602864962588 -0.25929749075189212 0 -0.37134904244232381 -0.27113020231591539 0 -0.36195523538968588 -0.2663870397437374 0 -0.36276416121781768 -0.25026291011615542 0 -0.37437602864962588 -0.25929749075189212 0 -0.3754815455226328 -0.24515134388580481 0 -0.37134904244232381 -0.27113020231591539 0 -0.36257346234818499 -0.27754724814705017 0 -0.3729454046447826 -0.28266396815036698 0 -0.37134904244232381 -0.27113020231591539 0 -0.36195523538968588 -0.2663870397437374 0 -0.36257346234818499 -0.27754724814705017 0 -0.33393288958424872 -0.27878482065530191 0 -0.34844672145884342 -0.27363933864956141 0 -0.35678602097010742 -0.2892522198896284 0 -0.36257346234818499 -0.27754724814705017 0 -0.34844672145884342 -0.27363933864956141 0 -0.35678602097010742 -0.2892522198896284 0 -0.34742135955341558 -0.25811521382639702 0 -0.36195523538968588 -0.2663870397437374 0 -0.34844672145884342 -0.27363933864956141 0 -0.36195523538968588 -0.2663870397437374 0 -0.36257346234818499 -0.27754724814705017 0 -0.34844672145884342 -0.27363933864956141 0 -0.33393288958424872 -0.27878482065530191 0 -0.35678602097010742 -0.2892522198896284 0 -0.33393288958424872 -0.27878482065530191 0 -0.35678602097010742 -0.2892522198896284 0 -0.34924285363324908 -0.29798767686558819 0 -0.35678602097010742 -0.2892522198896284 0 -0.36037023652464312 -0.30105181329188851 0 -0.34924285363324908 -0.29798767686558819 0 -0.37963915235596618 -0.29971961912395501 0 -0.35678602097010742 -0.2892522198896284 0 -0.36037023652464312 -0.30105181329188851 0 -0.37963915235596618 -0.29971961912395501 0 -0.35678602097010742 -0.2892522198896284 0 -0.3729454046447826 -0.28266396815036698 0 -0.37963915235596618 -0.29971961912395501 0 -0.35678602097010742 -0.2892522198896284 0 -0.36257346234818499 -0.27754724814705017 0 -0.35678602097010742 -0.2892522198896284 0 -0.3729454046447826 -0.28266396815036698 0 -0.37963915235596618 -0.29971961912395501 0 -0.37220008565228491 -0.30935438299599832 0 -0.36037023652464312 -0.30105181329188851 0 -0.36037023652464312 -0.30105181329188851 0 -0.35932698146983189 -0.31215981677982457 0 -0.37220008565228491 -0.30935438299599832 0 -0.36037023652464312 -0.30105181329188851 0 -0.35932698146983189 -0.31215981677982457 0 -0.35932698146983189 -0.31215981677982457 0 -0.33817049438413038 -0.30124504431632648 0 -0.35932698146983189 -0.31215981677982457 0 -0.33817049438413038 -0.30124504431632648 0 -0.34347261670880419 -0.32337329034967699 0 -0.35932698146983189 -0.31215981677982457 0 -0.34924285363324908 -0.29798767686558819 0 -0.33817049438413038 -0.30124504431632648 0 -0.36037023652464312 -0.30105181329188851 0 -0.35932698146983189 -0.31215981677982457 0 -0.34924285363324908 -0.29798767686558819 0 -0.33393288958424872 -0.27878482065530191 0 -0.33817049438413038 -0.30124504431632648 0 -0.31701400729842832 -0.29033027185282961 0 -0.33393288958424872 -0.27878482065530191 0 -0.34924285363324908 -0.29798767686558819 0 -0.33817049438413038 -0.30124504431632648 0 -0.33817049438413038 -0.30124504431632648 0 -0.31701400729842832 -0.29033027185282961 0 -0.33817049438413038 -0.30124504431632648 0 -0.31701400729842832 -0.29033027185282961 0 -0.31145445470145938 -0.3124555798805031 0 -0.33817049438413038 -0.30124504431632648 0 -0.32604325880779528 -0.32505754479567761 0 -0.31145445470145938 -0.3124555798805031 0 -0.32604325880779528 -0.32505754479567761 0 -0.3135897363005789 -0.33734340193948842 0 -0.31145445470145938 -0.3124555798805031 0 -0.32604325880779528 -0.32505754479567761 0 -0.3135897363005789 -0.33734340193948842 0 -0.33696740927597452 -0.34019398767198428 0 -0.32604325880779528 -0.32505754479567761 0 -0.33696740927597452 -0.34019398767198428 0 -0.34347261670880419 -0.32337329034967699 0 -0.33817049438413038 -0.30124504431632648 0 -0.32604325880779528 -0.32505754479567761 0 -0.34347261670880419 -0.32337329034967699 0 -0.35932698146983189 -0.31215981677982457 0 -0.34347261670880419 -0.32337329034967699 0 -0.35719298857600318 -0.33488139421053031 0 -0.35932698146983189 -0.31215981677982457 0 -0.35719298857600318 -0.33488139421053031 0 -0.37554924661712041 -0.32052899131281232 0 -0.37220008565228491 -0.30935438299599832 0 -0.35932698146983189 -0.31215981677982457 0 -0.37554924661712041 -0.32052899131281232 0 -0.35932698146983189 -0.31215981677982457 0 -0.35719298857600318 -0.33488139421053031 0 -0.37554924661712041 -0.32052899131281232 0 -0.35932698146983189 -0.31215981677982457 0 -0.37554924661712041 -0.32052899131281232 0 -0.37215822967431589 -0.34246575247975858 0 -0.35719298857600318 -0.33488139421053031 0 -0.33696740927597452 -0.34019398767198428 0 -0.34347261670880419 -0.32337329034967699 0 -0.35719298857600318 -0.33488139421053031 0 -0.33696740927597452 -0.34019398767198428 0 -0.35719298857600318 -0.33488139421053031 0 -0.35505899568217492 -0.35760297164123611 0 -0.35719298857600318 -0.33488139421053031 0 -0.35505899568217492 -0.35760297164123611 0 -0.37578632028792858 -0.36042996567878732 0 -0.37215822967431589 -0.34246575247975858 0 -0.35505899568217492 -0.35760297164123611 0 -0.37215822967431589 -0.34246575247975858 0 -0.35719298857600318 -0.33488139421053031 0 -0.35505899568217492 -0.35760297164123611 0 -0.37578632028792858 -0.36042996567878732 0 -0.35505899568217492 -0.35760297164123611 0 -0.36879938767142162 -0.37505381744260241 0 -0.35505899568217492 -0.35760297164123611 0 -0.36879938767142162 -0.37505381744260241 0 -0.35292500278834671 -0.3803245490719418 0 -0.35505899568217492 -0.35760297164123611 0 -0.35292500278834671 -0.3803245490719418 0 -0.35505899568217492 -0.35760297164123611 0 -0.32739269413369843 -0.36215388588946817 0 -0.35292500278834671 -0.3803245490719418 0 -0.33696740927597452 -0.34019398767198428 0 -0.35505899568217492 -0.35760297164123611 0 -0.32739269413369843 -0.36215388588946817 0 -0.3135897363005789 -0.33734340193948842 0 -0.32739269413369843 -0.36215388588946817 0 -0.31050761761031648 -0.35451892413985631 0 -0.3135897363005789 -0.33734340193948842 0 -0.33696740927597452 -0.34019398767198428 0 -0.32739269413369843 -0.36215388588946817 0 -0.32739269413369843 -0.36215388588946817 0 -0.29988926437575669 -0.36779228937150138 0 -0.31050761761031648 -0.35451892413985631 0 -0.32739269413369843 -0.36215388588946817 0 -0.29988926437575669 -0.36779228937150138 0 -0.31195796522596592 -0.38438948716154181 0 -0.3135897363005789 -0.33734340193948842 0 -0.31050761761031648 -0.35451892413985631 0 -0.29091091146255832 -0.34908051385703281 0 -0.29988926437575669 -0.36779228937150138 0 -0.31050761761031648 -0.35451892413985631 0 -0.29091091146255832 -0.34908051385703281 0 -0.29988926437575669 -0.36779228937150138 0 -0.27393820933583579 -0.36933801652060472 0 -0.2862701064649576 -0.3831428285312275 0 -0.29988926437575669 -0.36779228937150138 0 -0.29091091146255832 -0.34908051385703281 0 -0.27393820933583579 -0.36933801652060472 0 -0.27393820933583579 -0.36933801652060472 0 -0.25094555068030999 -0.35452696527845012 0 -0.25496420142752269 -0.37750749821582408 0 -0.25094555068030999 -0.35452696527845012 0 -0.27146722530431511 -0.351646691454371 0 -0.27007422973855649 -0.3336412701613965 0 -0.27393820933583579 -0.36933801652060472 0 -0.25094555068030999 -0.35452696527845012 0 -0.27146722530431511 -0.351646691454371 0 -0.29091091146255832 -0.34908051385703281 0 -0.27393820933583579 -0.36933801652060472 0 -0.27146722530431511 -0.351646691454371 0 -0.29091091146255832 -0.34908051385703281 0 -0.27146722530431511 -0.351646691454371 0 -0.27007422973855649 -0.3336412701613965 0 -0.25094555068030999 -0.35452696527845012 0 -0.27007422973855649 -0.3336412701613965 0 -0.24824950436326149 -0.33165077796265963 0 -0.27007422973855649 -0.3336412701613965 0 -0.25959622218745459 -0.31530520491224978 0 -0.24824950436326149 -0.33165077796265963 0 -0.25959622218745459 -0.31530520491224978 0 -0.24824950436326149 -0.33165077796265963 0 -0.24454820548697601 -0.31706654188409522 0 -0.27007422973855649 -0.3336412701613965 0 -0.25959622218745459 -0.31530520491224978 0 -0.2781696153722365 -0.31770915129956601 0 -0.27007422973855649 -0.3336412701613965 0 -0.2781696153722365 -0.31770915129956601 0 -0.2946981468476742 -0.32937349068216748 0 -0.2781696153722365 -0.31770915129956601 0 -0.2946981468476742 -0.32937349068216748 0 -0.29143868828539332 -0.3085929624868981 0 -0.29091091146255832 -0.34908051385703281 0 -0.27007422973855649 -0.3336412701613965 0 -0.2946981468476742 -0.32937349068216748 0 -0.3135897363005789 -0.33734340193948842 0 -0.29091091146255832 -0.34908051385703281 0 -0.2946981468476742 -0.32937349068216748 0 -0.3135897363005789 -0.33734340193948842 0 -0.2946981468476742 -0.32937349068216748 0 -0.31145445470145938 -0.3124555798805031 0 -0.2946981468476742 -0.32937349068216748 0 -0.31145445470145938 -0.3124555798805031 0 -0.29143868828539332 -0.3085929624868981 0 -0.31701400729842832 -0.29033027185282961 0 -0.31145445470145938 -0.3124555798805031 0 -0.3014968293485763 -0.29386941037538528 0 -0.31145445470145938 -0.3124555798805031 0 -0.3014968293485763 -0.29386941037538528 0 -0.29143868828539332 -0.3085929624868981 0 -0.3014968293485763 -0.29386941037538528 0 -0.28804377227502492 -0.2841964953979314 0 -0.3110797581983899 -0.26831742142097542 0 -0.31701400729842832 -0.29033027185282961 0 -0.3014968293485763 -0.29386941037538528 0 -0.3110797581983899 -0.26831742142097542 0 -0.3014968293485763 -0.29386941037538528 0 -0.28804377227502492 -0.2841964953979314 0 -0.29143868828539332 -0.3085929624868981 0 -0.2781696153722365 -0.31770915129956601 0 -0.29143868828539332 -0.3085929624868981 0 -0.27504078980210389 -0.30163282825511822 0 -0.28804377227502492 -0.2841964953979314 0 -0.29143868828539332 -0.3085929624868981 0 -0.27504078980210389 -0.30163282825511822 0 -0.25959622218745459 -0.31530520491224978 0 -0.2781696153722365 -0.31770915129956601 0 -0.27504078980210389 -0.30163282825511822 0 -0.25959622218745459 -0.31530520491224978 0 -0.25863285898572158 -0.29694254139748738 0 -0.24581810928786491 -0.30239570364513141 0 -0.25959622218745459 -0.31530520491224978 0 -0.27504078980210389 -0.30163282825511822 0 -0.25863285898572158 -0.29694254139748738 0 -0.25863285898572158 -0.29694254139748738 0 -0.25646028977895879 -0.28254416156978518 0 -0.2478701350447062 -0.29008984568524232 0 -0.25863285898572158 -0.29694254139748738 0 -0.2478701350447062 -0.29008984568524232 0 -0.24581810928786491 -0.30239570364513141 0 -0.25863285898572158 -0.29694254139748738 0 -0.25646028977895879 -0.28254416156978518 0 -0.27153564853613971 -0.28371670082286871 0 -0.27504078980210389 -0.30163282825511822 0 -0.25863285898572158 -0.29694254139748738 0 -0.27153564853613971 -0.28371670082286871 0 -0.28804377227502492 -0.2841964953979314 0 -0.27504078980210389 -0.30163282825511822 0 -0.27153564853613971 -0.28371670082286871 0 -0.27153564853613971 -0.28371670082286871 0 -0.27260023313989512 -0.26790102319351089 0 -0.26377386989401991 -0.27346507338299109 0 -0.28804377227502492 -0.2841964953979314 0 -0.27153564853613971 -0.28371670082286871 0 -0.27260023313989512 -0.26790102319351089 0 -0.25646028977895879 -0.28254416156978518 0 -0.27153564853613971 -0.28371670082286871 0 -0.26377386989401991 -0.27346507338299109 0 -0.27260023313989512 -0.26790102319351089 0 -0.26377386989401991 -0.27346507338299109 0 -0.25864798589498289 -0.26079522441830388 0 -0.26377386989401991 -0.27346507338299109 0 -0.2520150355445766 -0.26991844180750052 0 -0.25864798589498289 -0.26079522441830388 0 -0.25646028977895879 -0.28254416156978518 0 -0.26377386989401991 -0.27346507338299109 0 -0.2520150355445766 -0.26991844180750052 0 -0.25646028977895879 -0.28254416156978518 0 -0.2520150355445766 -0.26991844180750052 0 -0.24374008148319259 -0.27895428437994219 0 -0.27260023313989512 -0.26790102319351089 0 -0.25864798589498289 -0.26079522441830388 0 -0.26537349542667238 -0.2473826229523223 0 -0.25864798589498289 -0.26079522441830388 0 -0.2475385819551103 -0.25725403030206673 0 -0.25326344970455439 -0.24921698247872701 0 -0.2520150355445766 -0.26991844180750052 0 -0.25864798589498289 -0.26079522441830388 0 -0.2475385819551103 -0.25725403030206673 0 -0.25864798589498289 -0.26079522441830388 0 -0.26537349542667238 -0.2473826229523223 0 -0.25326344970455439 -0.24921698247872701 0 -0.28822662681253119 -0.25785002218664882 0 -0.26537349542667238 -0.2473826229523223 0 -0.27260023313989512 -0.26790102319351089 0 -0.28822662681253119 -0.25785002218664882 0 -0.26537349542667238 -0.2473826229523223 0 -0.28804377227502492 -0.2841964953979314 0 -0.27260023313989512 -0.26790102319351089 0 -0.28822662681253119 -0.25785002218664882 0 -0.28804377227502492 -0.2841964953979314 0 -0.28822662681253119 -0.25785002218664882 0 -0.3110797581983899 -0.26831742142097542 0 -0.28822662681253119 -0.25785002218664882 0 -0.3110797581983899 -0.26831742142097542 0 -0.31007351155781449 -0.2437470698782758 0 -0.28822662681253119 -0.25785002218664882 0 -0.3110797581983899 -0.26831742142097542 0 -0.33832587707206802 -0.46574336990040172 0 -0.34109537602413481 -0.44567857085560941 0 -0.3202163257995862 -0.45778164745444161 0 -0.34109537602413481 -0.44567857085560941 0 -0.3202163257995862 -0.45778164745444161 0 -0.32255070594358398 -0.43394794136729092 0 -0.3202163257995862 -0.45778164745444161 0 -0.32255070594358398 -0.43394794136729092 0 -0.29831276380583888 -0.44080240144317762 0 -0.33832587707206802 -0.46574336990040172 0 -0.3202163257995862 -0.45778164745444161 0 -0.32330442345209931 -0.48009041404010588 0 -0.3202163257995862 -0.45778164745444161 0 -0.30775472476134191 -0.46010039186933221 0 -0.31217489071357463 -0.47141631785812249 0 -0.3202163257995862 -0.45778164745444161 0 -0.32330442345209931 -0.48009041404010588 0 -0.31217489071357463 -0.47141631785812249 0 -0.32330442345209931 -0.48009041404010588 0 -0.30231707364689647 -0.49999999999999661 0 -0.31217489071357463 -0.47141631785812249 0 -0.32330442345209931 -0.48009041404010588 0 -0.33025800144772649 -0.5 0 -0.30231707364689647 -0.49999999999999661 0 -0.34151771388845659 -0.48454044343160901 0 -0.33025800144772649 -0.5 0 -0.35819892924855662 -0.5 0 -0.32330442345209931 -0.48009041404010588 0 -0.34151771388845659 -0.48454044343160901 0 -0.33025800144772649 -0.5 0 -0.33832587707206802 -0.46574336990040172 0 -0.32330442345209931 -0.48009041404010588 0 -0.34151771388845659 -0.48454044343160901 0 -0.33832587707206802 -0.46574336990040172 0 -0.34151771388845659 -0.48454044343160901 0 -0.357501338221833 -0.47686843321753708 0 -0.34151771388845659 -0.48454044343160901 0 -0.357501338221833 -0.47686843321753708 0 -0.35819892924855662 -0.5 0 -0.357501338221833 -0.47686843321753708 0 -0.35819892924855662 -0.5 0 -0.36906872515638911 -0.48687437893610958 0 -0.37950920626299878 -0.49619510186810428 0 -0.38613985704938669 -0.5 0 -0.35819892924855662 -0.5 0 -0.37950920626299878 -0.49619510186810428 0 -0.35819892924855662 -0.5 0 -0.36906872515638911 -0.48687437893610958 0 -0.38106542689216799 -0.47443398065879699 0 -0.357501338221833 -0.47686843321753708 0 -0.36906872515638911 -0.48687437893610958 0 -0.3826216475213372 -0.45267285944948987 0 -0.38106542689216799 -0.47443398065879699 0 -0.35826441801358522 -0.45316209977062061 0 -0.38106542689216799 -0.47443398065879699 0 -0.357501338221833 -0.47686843321753708 0 -0.35826441801358522 -0.45316209977062061 0 -0.33832587707206802 -0.46574336990040172 0 -0.357501338221833 -0.47686843321753708 0 -0.35826441801358522 -0.45316209977062061 0 -0.33832587707206802 -0.46574336990040172 0 -0.34109537602413481 -0.44567857085560941 0 -0.35826441801358522 -0.45316209977062061 0 -0.34109537602413481 -0.44567857085560941 0 -0.35826441801358522 -0.45316209977062061 0 -0.3630102922293143 -0.42926668884480468 0 -0.3826216475213372 -0.45267285944948987 0 -0.35826441801358522 -0.45316209977062061 0 -0.37274379172501482 -0.44103025013760211 0 -0.35826441801358522 -0.45316209977062061 0 -0.37274379172501482 -0.44103025013760211 0 -0.3630102922293143 -0.42926668884480468 0 -0.38417786815050642 -0.43091173824018281 0 -0.3630102922293143 -0.42926668884480468 0 -0.37087610249949737 -0.41198018746481968 0 -0.38417786815050642 -0.43091173824018281 0 -0.3630102922293143 -0.42926668884480468 0 -0.38417786815050642 -0.43091173824018281 0 -0.37274379172501482 -0.44103025013760211 0 -0.3630102922293143 -0.42926668884480468 0 -0.3630102922293143 -0.42926668884480468 0 -0.37087610249949737 -0.41198018746481968 0 -0.35079100989451839 -0.40304612650264737 0 -0.3630102922293143 -0.42926668884480468 0 -0.35079100989451839 -0.40304612650264737 0 -0.34184271630812219 -0.42762163944942611 0 -0.34109537602413481 -0.44567857085560941 0 -0.3630102922293143 -0.42926668884480468 0 -0.34184271630812219 -0.42762163944942611 0 -0.3630102922293143 -0.42926668884480468 0 -0.34184271630812219 -0.42762163944942611 0 -0.36879938767142162 -0.37505381744260241 0 -0.3702862293307666 -0.39285374639229909 0 -0.35292500278834671 -0.3803245490719418 0 -0.37087610249949737 -0.41198018746481968 0 -0.3702862293307666 -0.39285374639229909 0 -0.35079100989451839 -0.40304612650264737 0 -0.35079100989451839 -0.40304612650264737 0 -0.35292500278834671 -0.3803245490719418 0 -0.33358969757530132 -0.3899695924255091 0 -0.35079100989451839 -0.40304612650264737 0 -0.35292500278834671 -0.3803245490719418 0 -0.3702862293307666 -0.39285374639229909 0 -0.35079100989451839 -0.40304612650264737 0 -0.35292500278834671 -0.3803245490719418 0 -0.32739269413369843 -0.36215388588946817 0 -0.35292500278834671 -0.3803245490719418 0 -0.33358969757530132 -0.3899695924255091 0 -0.35079100989451839 -0.40304612650264737 0 -0.33358969757530132 -0.3899695924255091 0 -0.32291850108076592 -0.40875805841794283 0 -0.33358969757530132 -0.3899695924255091 0 -0.32291850108076592 -0.40875805841794283 0 -0.31195796522596592 -0.38438948716154181 0 -0.32291850108076592 -0.40875805841794283 0 -0.31195796522596592 -0.38438948716154181 0 -0.30609625426189718 -0.40116638171438329 0 -0.32739269413369843 -0.36215388588946817 0 -0.33358969757530132 -0.3899695924255091 0 -0.31195796522596592 -0.38438948716154181 0 -0.34184271630812219 -0.42762163944942611 0 -0.32291850108076592 -0.40875805841794283 0 -0.32255070594358398 -0.43394794136729092 0 -0.34109537602413481 -0.44567857085560941 0 -0.34184271630812219 -0.42762163944942611 0 -0.32255070594358398 -0.43394794136729092 0 -0.35079100989451839 -0.40304612650264737 0 -0.34184271630812219 -0.42762163944942611 0 -0.32291850108076592 -0.40875805841794283 0 -0.32291850108076592 -0.40875805841794283 0 -0.32255070594358398 -0.43394794136729092 0 -0.31078002031511048 -0.4226612724030927 0 -0.32291850108076592 -0.40875805841794283 0 -0.30902634613577101 -0.41094732867504669 0 -0.30609625426189718 -0.40116638171438329 0 -0.32291850108076592 -0.40875805841794283 0 -0.31078002031511048 -0.4226612724030927 0 -0.30902634613577101 -0.41094732867504669 0 -0.29631060888531008 -0.41120360216476798 0 -0.29831276380583888 -0.44080240144317762 0 -0.31078002031511048 -0.4226612724030927 0 -0.29631060888531008 -0.41120360216476798 0 -0.29831276380583888 -0.44080240144317762 0 -0.32255070594358398 -0.43394794136729092 0 -0.31078002031511048 -0.4226612724030927 0 -0.29831276380583888 -0.44080240144317762 0 -0.31078002031511048 -0.4226612724030927 0 -0.30902634613577101 -0.41094732867504669 0 -0.29631060888531008 -0.41120360216476798 0 -0.30902634613577101 -0.41094732867504669 0 -0.29631060888531008 -0.41120360216476798 0 -0.30609625426189718 -0.40116638171438329 0 -0.29631060888531008 -0.41120360216476798 0 -0.28581055251543569 -0.42678097429782569 0 -0.26926451322838663 -0.41788522867119449 0 -0.29631060888531008 -0.41120360216476798 0 -0.29061123922717641 -0.40113735791636812 0 -0.26926451322838663 -0.41788522867119449 0 -0.29631060888531008 -0.41120360216476798 0 -0.28581055251543569 -0.42678097429782569 0 -0.29831276380583888 -0.44080240144317762 0 -0.29988926437575669 -0.36779228937150138 0 -0.31195796522596592 -0.38438948716154181 0 -0.2862701064649576 -0.3831428285312275 0 -0.31195796522596592 -0.38438948716154181 0 -0.30609625426189718 -0.40116638171438329 0 -0.29061123922717641 -0.40113735791636812 0 -0.31195796522596592 -0.38438948716154181 0 -0.29061123922717641 -0.40113735791636812 0 -0.29631060888531008 -0.41120360216476798 0 -0.30609625426189718 -0.40116638171438329 0 -0.29061123922717641 -0.40113735791636812 0 -0.29061123922717641 -0.40113735791636812 0 -0.2862701064649576 -0.3831428285312275 0 -0.27828750476702607 -0.39855747900032279 0 -0.31195796522596592 -0.38438948716154181 0 -0.29061123922717641 -0.40113735791636812 0 -0.2862701064649576 -0.3831428285312275 0 -0.27393820933583579 -0.36933801652060472 0 -0.2862701064649576 -0.3831428285312275 0 -0.26700416014758388 -0.392064500882501 0 -0.2862701064649576 -0.3831428285312275 0 -0.26700416014758388 -0.392064500882501 0 -0.27828750476702607 -0.39855747900032279 0 -0.29061123922717641 -0.40113735791636812 0 -0.27828750476702607 -0.39855747900032279 0 -0.26926451322838663 -0.41788522867119449 0 -0.26700416014758388 -0.392064500882501 0 -0.27828750476702607 -0.39855747900032279 0 -0.26926451322838663 -0.41788522867119449 0 -0.26700416014758388 -0.392064500882501 0 -0.24955857721006669 -0.41285908773862168 0 -0.2471610686963861 -0.39325814984249441 0 -0.27393820933583579 -0.36933801652060472 0 -0.26700416014758388 -0.392064500882501 0 -0.25496420142752269 -0.37750749821582408 0 -0.26700416014758388 -0.392064500882501 0 -0.25496420142752269 -0.37750749821582408 0 -0.2471610686963861 -0.39325814984249441 0 -0.28581055251543569 -0.42678097429782569 0 -0.26926451322838663 -0.41788522867119449 0 -0.26890918052328239 -0.43884842921920819 0 -0.29061123922717641 -0.40113735791636812 0 -0.26926451322838663 -0.41788522867119449 0 -0.26700416014758388 -0.392064500882501 0 -0.26926451322838663 -0.41788522867119449 0 -0.24955857721006669 -0.41285908773862168 0 -0.26926451322838663 -0.41788522867119449 0 -0.24955857721006669 -0.41285908773862168 0 -0.24791778722959701 -0.43463309942602091 0 -0.26926451322838663 -0.41788522867119449 0 -0.24791778722959701 -0.43463309942602091 0 -0.26926451322838663 -0.41788522867119449 0 -0.26890918052328239 -0.43884842921920819 0 -0.24791778722959701 -0.43463309942602091 0 -0.26044984570718582 -0.45463237023781589 0 -0.26890918052328239 -0.43884842921920819 0 -0.24791778722959701 -0.43463309942602091 0 -0.26044984570718582 -0.45463237023781589 0 -0.24191245331570241 -0.45166546299824811 0 -0.24791778722959701 -0.43463309942602091 0 -0.26044984570718582 -0.45463237023781589 0 -0.24191245331570241 -0.45166546299824811 0 -0.24794118876869431 -0.46768668051300699 0 -0.26044984570718582 -0.45463237023781589 0 -0.27446243411498678 -0.47776345554090871 0 -0.24794118876869431 -0.46768668051300699 0 -0.26044984570718582 -0.45463237023781589 0 -0.28313550872859933 -0.45505490773502838 0 -0.27446243411498678 -0.47776345554090871 0 -0.28581055251543569 -0.42678097429782569 0 -0.26890918052328239 -0.43884842921920819 0 -0.28313550872859933 -0.45505490773502838 0 -0.26044984570718582 -0.45463237023781589 0 -0.26890918052328239 -0.43884842921920819 0 -0.28313550872859933 -0.45505490773502838 0 -0.28581055251543569 -0.42678097429782569 0 -0.28313550872859933 -0.45505490773502838 0 -0.29831276380583888 -0.44080240144317762 0 -0.28313550872859933 -0.45505490773502838 0 -0.29831276380583888 -0.44080240144317762 0 -0.29930094667795859 -0.47063812693163048 0 -0.28313550872859933 -0.45505490773502838 0 -0.29930094667795859 -0.47063812693163048 0 -0.27446243411498678 -0.47776345554090871 0 -0.30775472476134191 -0.46010039186933221 0 -0.29831276380583888 -0.44080240144317762 0 -0.29930094667795859 -0.47063812693163048 0 -0.29831276380583888 -0.44080240144317762 0 -0.29930094667795859 -0.47063812693163048 0 -0.30775472476134191 -0.46010039186933221 0 -0.31217489071357463 -0.47141631785812249 0 -0.29930094667795859 -0.47063812693163048 0 -0.3202163257995862 -0.45778164745444161 0 -0.30775472476134191 -0.46010039186933221 0 -0.29831276380583888 -0.44080240144317762 0 -0.30231707364689647 -0.49999999999999661 0 -0.29930094667795859 -0.47063812693163048 0 -0.30231707364689647 -0.49999999999999661 0 -0.29930094667795859 -0.47063812693163048 0 -0.29026014057883143 -0.48376055663882528 0 -0.30231707364689647 -0.49999999999999661 0 -0.31217489071357463 -0.47141631785812249 0 -0.29930094667795859 -0.47063812693163048 0 -0.29930094667795859 -0.47063812693163048 0 -0.29026014057883143 -0.48376055663882528 0 -0.27446243411498678 -0.47776345554090871 0 -0.29930094667795859 -0.47063812693163048 0 -0.27446243411498678 -0.47776345554090871 0 -0.30231707364689647 -0.49999999999999661 0 -0.29026014057883143 -0.48376055663882528 0 -0.27490532972794701 -0.5 0 -0.27490532972794701 -0.5 0 -0.27446243411498678 -0.47776345554090871 0 -0.26427012655237098 -0.48908914338648618 0 -0.29026014057883143 -0.48376055663882528 0 -0.27490532972794701 -0.5 0 -0.27446243411498678 -0.47776345554090871 0 -0.27446243411498678 -0.47776345554090871 0 -0.24962392155201479 -0.48488878415018682 0 -0.24794118876869431 -0.46768668051300699 0 -0.27446243411498678 -0.47776345554090871 0 -0.24962392155201479 -0.48488878415018682 0 -0.27446243411498678 -0.47776345554090871 0 -0.26427012655237098 -0.48908914338648618 0 -0.24962392155201479 -0.48488878415018682 0 -0.27490532972794701 -0.5 0 -0.26427012655237098 -0.48908914338648618 0 -0.24749358580899761 -0.5 0 -0.26427012655237098 -0.48908914338648618 0 -0.24749358580899761 -0.5 0 -0.24962392155201479 -0.48488878415018682 0 -0.24962392155201479 -0.48488878415018682 0 -0.22478540898904281 -0.49201411275946488 0 -0.24749358580899761 -0.5 0 -0.24962392155201479 -0.48488878415018682 0 -0.22478540898904281 -0.49201411275946488 0 -0.24962392155201479 -0.48488878415018682 0 -0.23389275344386659 -0.47730648706247808 0 -0.22478540898904281 -0.49201411275946488 0 -0.24962392155201479 -0.48488878415018682 0 -0.23389275344386659 -0.47730648706247808 0 -0.24794118876869431 -0.46768668051300699 0 -0.23389275344386659 -0.47730648706247808 0 -0.24794118876869431 -0.46768668051300699 0 -0.22744322741673581 -0.46164838329606178 0 -0.23389275344386659 -0.47730648706247808 0 -0.21971941390961849 -0.4786139395795887 0 -0.22744322741673581 -0.46164838329606178 0 -0.23389275344386659 -0.47730648706247808 0 -0.21971941390961849 -0.4786139395795887 0 -0.22478540898904281 -0.49201411275946488 0 -0.24749358580899761 -0.5 0 -0.22008184189004809 -0.5 0 -0.22478540898904281 -0.49201411275946488 0 -0.24191245331570241 -0.45166546299824811 0 -0.2258102174562989 -0.43972678151833461 0 -0.24791778722959701 -0.43463309942602091 0 -0.24191245331570241 -0.45166546299824811 0 -0.24794118876869431 -0.46768668051300699 0 -0.22744322741673581 -0.46164838329606178 0 -0.22744322741673581 -0.46164838329606178 0 -0.2258102174562989 -0.43972678151833461 0 -0.20793585407116719 -0.45133691822671868 0 -0.24191245331570241 -0.45166546299824811 0 -0.22744322741673581 -0.46164838329606178 0 -0.2258102174562989 -0.43972678151833461 0 -0.2258102174562989 -0.43972678151833461 0 -0.20793585407116719 -0.45133691822671868 0 -0.20413930086314949 -0.42948840696624507 0 -0.22744322741673581 -0.46164838329606178 0 -0.20793585407116719 -0.45133691822671868 0 -0.2042185206182788 -0.47110644752932179 0 -0.1944864838680565 -0.45964852019912378 0 -0.18565377119405169 -0.46943771690713848 0 -0.18262841694653101 -0.4476035355281206 0 -0.1944864838680565 -0.45964852019912378 0 -0.2042185206182788 -0.47110644752932179 0 -0.18565377119405169 -0.46943771690713848 0 -0.20793585407116719 -0.45133691822671868 0 -0.1944864838680565 -0.45964852019912378 0 -0.2042185206182788 -0.47110644752932179 0 -0.20793585407116719 -0.45133691822671868 0 -0.18262841694653101 -0.4476035355281206 0 -0.20413930086314949 -0.42948840696624507 0 -0.20793585407116719 -0.45133691822671868 0 -0.1944864838680565 -0.45964852019912378 0 -0.18262841694653101 -0.4476035355281206 0 -0.18262841694653101 -0.4476035355281206 0 -0.20413930086314949 -0.42948840696624507 0 -0.21971941390961849 -0.4786139395795887 0 -0.22478540898904281 -0.49201411275946488 0 -0.208957842086921 -0.48807002329856752 0 -0.22008184189004809 -0.5 0 -0.208957842086921 -0.48807002329856752 0 -0.19267009797109871 -0.5 0 -0.22008184189004809 -0.5 0 -0.22478540898904281 -0.49201411275946488 0 -0.208957842086921 -0.48807002329856752 0 -0.21971941390961849 -0.4786139395795887 0 -0.22744322741673581 -0.46164838329606178 0 -0.2042185206182788 -0.47110644752932179 0 -0.21971941390961849 -0.4786139395795887 0 -0.208957842086921 -0.48807002329856752 0 -0.2042185206182788 -0.47110644752932179 0 -0.208957842086921 -0.48807002329856752 0 -0.2042185206182788 -0.47110644752932179 0 -0.19401378490177079 -0.48244897457834052 0 -0.2042185206182788 -0.47110644752932179 0 -0.19401378490177079 -0.48244897457834052 0 -0.18565377119405169 -0.46943771690713848 0 -0.19401378490177079 -0.48244897457834052 0 -0.19267009797109871 -0.5 0 -0.17856869263850381 -0.48363068515667412 0 -0.208957842086921 -0.48807002329856752 0 -0.19401378490177079 -0.48244897457834052 0 -0.19267009797109871 -0.5 0 -0.19267009797109871 -0.5 0 -0.1652583540521492 -0.5 0 -0.17856869263850381 -0.48363068515667412 0 -0.1652583540521492 -0.5 0 -0.16465326641005479 -0.48079316398169758 0 -0.15013500788239889 -0.48394629333042388 0 -0.1652583540521492 -0.5 0 -0.16465326641005479 -0.48079316398169758 0 -0.17856869263850381 -0.48363068515667412 0 -0.1620024022440214 -0.47475814684698908 0 -0.16465326641005479 -0.48079316398169758 0 -0.16524623254376281 -0.4718680877356739 0 -0.1620024022440214 -0.47475814684698908 0 -0.16086328426310059 -0.47134221486713651 0 -0.16524623254376281 -0.4718680877356739 0 -0.16086328426310059 -0.47134221486713651 0 -0.16524623254376281 -0.4718680877356739 0 -0.1611175330299125 -0.46571866408999613 0 -0.16086328426310059 -0.47134221486713651 0 -0.1567874847332604 -0.46936516145742341 0 -0.1611175330299125 -0.46571866408999613 0 -0.16086328426310059 -0.47134221486713651 0 -0.1567874847332604 -0.46936516145742341 0 -0.15637408254185381 -0.47565273798686308 0 -0.1620024022440214 -0.47475814684698908 0 -0.16086328426310059 -0.47134221486713651 0 -0.15637408254185381 -0.47565273798686308 0 -0.15637408254185381 -0.47565273798686308 0 -0.16465326641005479 -0.48079316398169758 0 -0.15013500788239889 -0.48394629333042388 0 -0.1620024022440214 -0.47475814684698908 0 -0.15637408254185381 -0.47565273798686308 0 -0.16465326641005479 -0.48079316398169758 0 -0.16465326641005479 -0.48079316398169758 0 -0.17138604449760711 -0.46897102066349011 0 -0.17856869263850381 -0.48363068515667412 0 -0.17138604449760711 -0.46897102066349011 0 -0.16524623254376281 -0.4718680877356739 0 -0.1611175330299125 -0.46571866408999613 0 -0.16465326641005479 -0.48079316398169758 0 -0.17138604449760711 -0.46897102066349011 0 -0.16524623254376281 -0.4718680877356739 0 -0.17138604449760711 -0.46897102066349011 0 -0.17856869263850381 -0.48363068515667412 0 -0.18565377119405169 -0.46943771690713848 0 -0.19401378490177079 -0.48244897457834052 0 -0.17856869263850381 -0.48363068515667412 0 -0.18565377119405169 -0.46943771690713848 0 -0.17138604449760711 -0.46897102066349011 0 -0.18565377119405169 -0.46943771690713848 0 -0.18262841694653101 -0.4476035355281206 0 -0.18262841694653101 -0.4476035355281206 0 -0.16341889973388041 -0.44662227337747468 0 -0.18307738695726869 -0.42670255411332381 0 -0.16341889973388041 -0.44662227337747468 0 -0.14418441726775449 -0.44656649514055918 0 -0.16400180675990339 -0.42501339701164648 0 -0.18262841694653101 -0.4476035355281206 0 -0.1611175330299125 -0.46571866408999613 0 -0.18262841694653101 -0.4476035355281206 0 -0.16341889973388041 -0.44662227337747468 0 -0.1611175330299125 -0.46571866408999613 0 -0.17138604449760711 -0.46897102066349011 0 -0.18262841694653101 -0.4476035355281206 0 -0.1611175330299125 -0.46571866408999613 0 -0.1567874847332604 -0.46936516145742341 0 -0.1611175330299125 -0.46571866408999613 0 -0.1611175330299125 -0.46571866408999613 0 -0.14436246696391161 -0.46324873218859008 0 -0.14418441726775449 -0.44656649514055918 0 -0.1567874847332604 -0.46936516145742341 0 -0.1611175330299125 -0.46571866408999613 0 -0.14436246696391161 -0.46324873218859008 0 -0.1567874847332604 -0.46936516145742341 0 -0.14436246696391161 -0.46324873218859008 0 -0.14752885826800061 -0.47254876445507921 0 -0.1611175330299125 -0.46571866408999613 0 -0.14418441726775449 -0.44656649514055918 0 -0.16341889973388041 -0.44662227337747468 0 -0.1611175330299125 -0.46571866408999613 0 -0.14418441726775449 -0.44656649514055918 0 -0.14418441726775449 -0.44656649514055918 0 -0.1272513015055963 -0.42741432619112268 0 -0.1238798396010229 -0.45145108631290121 0 -0.14436246696391161 -0.46324873218859008 0 -0.1333849372163978 -0.47471362282386792 0 -0.1238798396010229 -0.45145108631290121 0 -0.14436246696391161 -0.46324873218859008 0 -0.14418441726775449 -0.44656649514055918 0 -0.1238798396010229 -0.45145108631290121 0 -0.1333849372163978 -0.47471362282386792 0 -0.13784661013319971 -0.5 0 -0.1192555726892402 -0.48463918755663837 0 -0.1333849372163978 -0.47471362282386792 0 -0.13784661013319971 -0.5 0 -0.15013500788239889 -0.48394629333042388 0 -0.1652583540521492 -0.5 0 -0.13784661013319971 -0.5 0 -0.15013500788239889 -0.48394629333042388 0 -0.15637408254185381 -0.47565273798686308 0 -0.15013500788239889 -0.48394629333042388 0 -0.14752885826800061 -0.47254876445507921 0 -0.1333849372163978 -0.47471362282386792 0 -0.15013500788239889 -0.48394629333042388 0 -0.14752885826800061 -0.47254876445507921 0 -0.1567874847332604 -0.46936516145742341 0 -0.15637408254185381 -0.47565273798686308 0 -0.14752885826800061 -0.47254876445507921 0 -0.14436246696391161 -0.46324873218859008 0 -0.1333849372163978 -0.47471362282386792 0 -0.14752885826800061 -0.47254876445507921 0 -0.14370648608952019 -0.38862773645452009 0 -0.1344747685878542 -0.40636486414581863 0 -0.1585863769204616 -0.39623948374125278 0 -0.14370648608952019 -0.38862773645452009 0 -0.1585863769204616 -0.39623948374125278 0 -0.15261519566081749 -0.3723309122353673 0 -0.14370648608952019 -0.38862773645452009 0 -0.15261519566081749 -0.3723309122353673 0 -0.13403561704002739 -0.37499600363270391 0 -0.14370648608952019 -0.38862773645452009 0 -0.13403561704002739 -0.37499600363270391 0 -0.12181778925575371 -0.39844338388870459 0 -0.14370648608952019 -0.38862773645452009 0 -0.1344747685878542 -0.40636486414581863 0 -0.12181778925575371 -0.39844338388870459 0 -0.1344747685878542 -0.40636486414581863 0 -0.1272513015055963 -0.42741432619112268 0 -0.145699734208314 -0.42031971324607997 0 -0.14418441726775449 -0.44656649514055918 0 -0.1272513015055963 -0.42741432619112268 0 -0.145699734208314 -0.42031971324607997 0 -0.14418441726775449 -0.44656649514055918 0 -0.1272513015055963 -0.42741432619112268 0 -0.14418441726775449 -0.44656649514055918 0 -0.145699734208314 -0.42031971324607997 0 -0.16400180675990339 -0.42501339701164648 0 -0.145699734208314 -0.42031971324607997 0 -0.16400180675990339 -0.42501339701164648 0 -0.1585863769204616 -0.39623948374125278 0 -0.1344747685878542 -0.40636486414581863 0 -0.145699734208314 -0.42031971324607997 0 -0.1585863769204616 -0.39623948374125278 0 -0.16400180675990339 -0.42501339701164648 0 -0.1806424104550973 -0.40425136167637832 0 -0.1585863769204616 -0.39623948374125278 0 -0.16341889973388041 -0.44662227337747468 0 -0.16400180675990339 -0.42501339701164648 0 -0.18307738695726869 -0.42670255411332381 0 -0.16400180675990339 -0.42501339701164648 0 -0.18307738695726869 -0.42670255411332381 0 -0.1806424104550973 -0.40425136167637832 0 -0.1806424104550973 -0.40425136167637832 0 -0.1585863769204616 -0.39623948374125278 0 -0.17118564966490671 -0.37577775234001087 0 -0.1585863769204616 -0.39623948374125278 0 -0.17118564966490671 -0.37577775234001087 0 -0.15261519566081749 -0.3723309122353673 0 -0.1806424104550973 -0.40425136167637832 0 -0.17118564966490671 -0.37577775234001087 0 -0.19351209054822749 -0.3835595885857801 0 -0.1806424104550973 -0.40425136167637832 0 -0.19351209054822749 -0.3835595885857801 0 -0.2011300562743755 -0.4069951030785558 0 -0.21871586791329439 -0.38649490912460371 0 -0.2011300562743755 -0.4069951030785558 0 -0.22565018477976781 -0.41137327840436982 0 -0.19351209054822749 -0.3835595885857801 0 -0.21871586791329439 -0.38649490912460371 0 -0.2011300562743755 -0.4069951030785558 0 -0.19351209054822749 -0.3835595885857801 0 -0.21871586791329439 -0.38649490912460371 0 -0.20500371770833331 -0.36223576280121927 0 -0.18262841694653101 -0.4476035355281206 0 -0.18307738695726869 -0.42670255411332381 0 -0.20413930086314949 -0.42948840696624507 0 -0.18307738695726869 -0.42670255411332381 0 -0.1806424104550973 -0.40425136167637832 0 -0.2011300562743755 -0.4069951030785558 0 -0.18307738695726869 -0.42670255411332381 0 -0.2011300562743755 -0.4069951030785558 0 -0.20413930086314949 -0.42948840696624507 0 -0.2011300562743755 -0.4069951030785558 0 -0.20413930086314949 -0.42948840696624507 0 -0.22565018477976781 -0.41137327840436982 0 -0.20413930086314949 -0.42948840696624507 0 -0.22565018477976781 -0.41137327840436982 0 -0.2258102174562989 -0.43972678151833461 0 -0.20413930086314949 -0.42948840696624507 0 -0.22565018477976781 -0.41137327840436982 0 -0.2258102174562989 -0.43972678151833461 0 -0.22565018477976781 -0.41137327840436982 0 -0.24791778722959701 -0.43463309942602091 0 -0.22565018477976781 -0.41137327840436982 0 -0.24955857721006669 -0.41285908773862168 0 -0.24791778722959701 -0.43463309942602091 0 -0.21871586791329439 -0.38649490912460371 0 -0.238280145840293 -0.37596329595345818 0 -0.2246302956095424 -0.36325583210269402 0 -0.21871586791329439 -0.38649490912460371 0 -0.22565018477976781 -0.41137327840436982 0 -0.2471610686963861 -0.39325814984249441 0 -0.22565018477976781 -0.41137327840436982 0 -0.24955857721006669 -0.41285908773862168 0 -0.2471610686963861 -0.39325814984249441 0 -0.22565018477976781 -0.41137327840436982 0 -0.2471610686963861 -0.39325814984249441 0 -0.21871586791329439 -0.38649490912460371 0 -0.2471610686963861 -0.39325814984249441 0 -0.238280145840293 -0.37596329595345818 0 -0.25496420142752269 -0.37750749821582408 0 -0.2471610686963861 -0.39325814984249441 0 -0.238280145840293 -0.37596329595345818 0 -0.25094555068030999 -0.35452696527845012 0 -0.25496420142752269 -0.37750749821582408 0 -0.238280145840293 -0.37596329595345818 0 -0.25094555068030999 -0.35452696527845012 0 -0.238280145840293 -0.37596329595345818 0 -0.2246302956095424 -0.36325583210269402 0 -0.25094555068030999 -0.35452696527845012 0 -0.2246302956095424 -0.36325583210269402 0 -0.22725561218632889 -0.3446542086143537 0 -0.2246302956095424 -0.36325583210269402 0 -0.22725561218632889 -0.3446542086143537 0 -0.20500371770833331 -0.36223576280121927 0 -0.25094555068030999 -0.35452696527845012 0 -0.22725561218632889 -0.3446542086143537 0 -0.24824950436326149 -0.33165077796265963 0 -0.22725561218632889 -0.3446542086143537 0 -0.24824950436326149 -0.33165077796265963 0 -0.2302193459239279 -0.32362915248023483 0 -0.24454820548697601 -0.31706654188409522 0 -0.2302193459239279 -0.32362915248023483 0 -0.22865929238281121 -0.30354480251073529 0 -0.24824950436326149 -0.33165077796265963 0 -0.24454820548697601 -0.31706654188409522 0 -0.2302193459239279 -0.32362915248023483 0 -0.2302193459239279 -0.32362915248023483 0 -0.21686720657542161 -0.31368360172412169 0 -0.22865929238281121 -0.30354480251073529 0 -0.22725561218632889 -0.3446542086143537 0 -0.2302193459239279 -0.32362915248023483 0 -0.20812355217488529 -0.33386099789918572 0 -0.20812355217488529 -0.33386099789918572 0 -0.21686720657542161 -0.31368360172412169 0 -0.1963599736564948 -0.31468776302127932 0 -0.2302193459239279 -0.32362915248023483 0 -0.20812355217488529 -0.33386099789918572 0 -0.21686720657542161 -0.31368360172412169 0 -0.1963599736564948 -0.31468776302127932 0 -0.19055697065588331 -0.33038295141173279 0 -0.1783681068119177 -0.32200493933011409 0 -0.20812355217488529 -0.33386099789918572 0 -0.1963599736564948 -0.31468776302127932 0 -0.19055697065588331 -0.33038295141173279 0 -0.20812355217488529 -0.33386099789918572 0 -0.19055697065588331 -0.33038295141173279 0 -0.19106727329699849 -0.34648388114585932 0 -0.20812355217488529 -0.33386099789918572 0 -0.19106727329699849 -0.34648388114585932 0 -0.20500371770833331 -0.36223576280121927 0 -0.19106727329699849 -0.34648388114585932 0 -0.20500371770833331 -0.36223576280121927 0 -0.1853732362713367 -0.36371837984797217 0 -0.19351209054822749 -0.3835595885857801 0 -0.20500371770833331 -0.36223576280121927 0 -0.1853732362713367 -0.36371837984797217 0 -0.21871586791329439 -0.38649490912460371 0 -0.2246302956095424 -0.36325583210269402 0 -0.20500371770833331 -0.36223576280121927 0 -0.22725561218632889 -0.3446542086143537 0 -0.20812355217488529 -0.33386099789918572 0 -0.20500371770833331 -0.36223576280121927 0 -0.22216414812508381 -0.25556308654710619 0 -0.23598303366787521 -0.2544663532418156 0 -0.22997310266599311 -0.27093938546339968 0 -0.22216414812508381 -0.25556308654710619 0 -0.22997310266599311 -0.27093938546339968 0 -0.210466597998656 -0.26978459886532757 0 -0.22216414812508381 -0.25556308654710619 0 -0.23598303366787521 -0.2544663532418156 0 -0.22942034713982301 -0.2444031480609202 0 -0.23598303366787521 -0.2544663532418156 0 -0.24192940426119511 -0.26649787679191372 0 -0.22997310266599311 -0.27093938546339968 0 -0.23598303366787521 -0.2544663532418156 0 -0.2475385819551103 -0.25725403030206673 0 -0.24434930689386869 -0.24968832328900131 0 -0.2475385819551103 -0.25725403030206673 0 -0.24434930689386869 -0.24968832328900131 0 -0.25326344970455439 -0.24921698247872701 0 -0.2520150355445766 -0.26991844180750052 0 -0.2475385819551103 -0.25725403030206673 0 -0.24192940426119511 -0.26649787679191372 0 -0.23598303366787521 -0.2544663532418156 0 -0.2475385819551103 -0.25725403030206673 0 -0.24192940426119511 -0.26649787679191372 0 -0.24374008148319259 -0.27895428437994219 0 -0.22997310266599311 -0.27093938546339968 0 -0.23469933568779311 -0.28961253743386578 0 -0.24192940426119511 -0.26649787679191372 0 -0.24374008148319259 -0.27895428437994219 0 -0.22997310266599311 -0.27093938546339968 0 -0.2520150355445766 -0.26991844180750052 0 -0.24192940426119511 -0.26649787679191372 0 -0.24374008148319259 -0.27895428437994219 0 -0.22997310266599311 -0.27093938546339968 0 -0.22045781593255129 -0.28070217782015 0 -0.23469933568779311 -0.28961253743386578 0 -0.22997310266599311 -0.27093938546339968 0 -0.22045781593255129 -0.28070217782015 0 -0.210466597998656 -0.26978459886532757 0 -0.22045781593255129 -0.28070217782015 0 -0.21926942751654621 -0.29315964059761568 0 -0.23469933568779311 -0.28961253743386578 0 -0.21926942751654621 -0.29315964059761568 0 -0.23469933568779311 -0.28961253743386578 0 -0.22865929238281121 -0.30354480251073529 0 -0.24374008148319259 -0.27895428437994219 0 -0.2478701350447062 -0.29008984568524232 0 -0.23469933568779311 -0.28961253743386578 0 -0.25646028977895879 -0.28254416156978518 0 -0.24374008148319259 -0.27895428437994219 0 -0.2478701350447062 -0.29008984568524232 0 -0.2478701350447062 -0.29008984568524232 0 -0.23469933568779311 -0.28961253743386578 0 -0.24581810928786491 -0.30239570364513141 0 -0.23469933568779311 -0.28961253743386578 0 -0.24581810928786491 -0.30239570364513141 0 -0.22865929238281121 -0.30354480251073529 0 -0.24454820548697601 -0.31706654188409522 0 -0.24581810928786491 -0.30239570364513141 0 -0.22865929238281121 -0.30354480251073529 0 -0.25959622218745459 -0.31530520491224978 0 -0.24454820548697601 -0.31706654188409522 0 -0.24581810928786491 -0.30239570364513141 0 -0.21926942751654621 -0.29315964059761568 0 -0.22865929238281121 -0.30354480251073529 0 -0.2089981942968199 -0.30180333129760001 0 -0.21686720657542161 -0.31368360172412169 0 -0.22865929238281121 -0.30354480251073529 0 -0.2089981942968199 -0.30180333129760001 0 -0.21686720657542161 -0.31368360172412169 0 -0.1963599736564948 -0.31468776302127932 0 -0.2089981942968199 -0.30180333129760001 0 -0.1963599736564948 -0.31468776302127932 0 -0.2089981942968199 -0.30180333129760001 0 -0.18990248211395511 -0.29659313113397301 0 -0.1963599736564948 -0.31468776302127932 0 -0.18990248211395511 -0.29659313113397301 0 -0.1789014257220585 -0.30732475774976908 0 -0.18990248211395511 -0.29659313113397301 0 -0.20628904965278669 -0.28644707425788563 0 -0.18971157069678579 -0.2765065791687617 0 -0.2089981942968199 -0.30180333129760001 0 -0.18990248211395511 -0.29659313113397301 0 -0.20628904965278669 -0.28644707425788563 0 -0.21926942751654621 -0.29315964059761568 0 -0.2089981942968199 -0.30180333129760001 0 -0.20628904965278669 -0.28644707425788563 0 -0.22045781593255129 -0.28070217782015 0 -0.21926942751654621 -0.29315964059761568 0 -0.20628904965278669 -0.28644707425788563 0 -0.22045781593255129 -0.28070217782015 0 -0.20628904965278669 -0.28644707425788563 0 -0.210466597998656 -0.26978459886532757 0 -0.210466597998656 -0.26978459886532757 0 -0.18971157069678579 -0.2765065791687617 0 -0.19542950224683009 -0.25775052655061859 0 -0.20628904965278669 -0.28644707425788563 0 -0.210466597998656 -0.26978459886532757 0 -0.18971157069678579 -0.2765065791687617 0 -0.18971157069678579 -0.2765065791687617 0 -0.19542950224683009 -0.25775052655061859 0 -0.17895335670750931 -0.26234543148671069 0 -0.22216414812508381 -0.25556308654710619 0 -0.210466597998656 -0.26978459886532757 0 -0.2085961274049509 -0.25204373705344069 0 -0.210466597998656 -0.26978459886532757 0 -0.19542950224683009 -0.25775052655061859 0 -0.2085961274049509 -0.25204373705344069 0 -0.16323493901487721 -0.26935675423537753 0 -0.15127485692657869 -0.25823722899614071 0 -0.1633424338862392 -0.24834242444346341 0 -0.17895335670750931 -0.26234543148671069 0 -0.16323493901487721 -0.26935675423537753 0 -0.1633424338862392 -0.24834242444346341 0 -0.19542950224683009 -0.25775052655061859 0 -0.17895335670750931 -0.26234543148671069 0 -0.1831283259367055 -0.24646170020316219 0 -0.17895335670750931 -0.26234543148671069 0 -0.1831283259367055 -0.24646170020316219 0 -0.1633424338862392 -0.24834242444346341 0 -0.17895335670750931 -0.26234543148671069 0 -0.17630997282067981 -0.27377124920661272 0 -0.16323493901487721 -0.26935675423537753 0 -0.18971157069678579 -0.2765065791687617 0 -0.17630997282067981 -0.27377124920661272 0 -0.17397073227152479 -0.28724365642890842 0 -0.18971157069678579 -0.2765065791687617 0 -0.17895335670750931 -0.26234543148671069 0 -0.17630997282067981 -0.27377124920661272 0 -0.17630997282067981 -0.27377124920661272 0 -0.16323493901487721 -0.26935675423537753 0 -0.17397073227152479 -0.28724365642890842 0 -0.16323493901487721 -0.26935675423537753 0 -0.17397073227152479 -0.28724365642890842 0 -0.15453602740202591 -0.28325711295641431 0 -0.16323493901487721 -0.26935675423537753 0 -0.15453602740202591 -0.28325711295641431 0 -0.15127485692657869 -0.25823722899614071 0 -0.17397073227152479 -0.28724365642890842 0 -0.16668287033554671 -0.30393954313862881 0 -0.15453602740202591 -0.28325711295641431 0 -0.18990248211395511 -0.29659313113397301 0 -0.18971157069678579 -0.2765065791687617 0 -0.17397073227152479 -0.28724365642890842 0 -0.18990248211395511 -0.29659313113397301 0 -0.17397073227152479 -0.28724365642890842 0 -0.1789014257220585 -0.30732475774976908 0 -0.17397073227152479 -0.28724365642890842 0 -0.1789014257220585 -0.30732475774976908 0 -0.16668287033554671 -0.30393954313862881 0 -0.1789014257220585 -0.30732475774976908 0 -0.16668287033554671 -0.30393954313862881 0 -0.16720871393960121 -0.31628706703737208 0 -0.16668287033554671 -0.30393954313862881 0 -0.15779719787747329 -0.30827699691668781 0 -0.15453602740202591 -0.28325711295641431 0 -0.16668287033554671 -0.30393954313862881 0 -0.15779719787747329 -0.30827699691668781 0 -0.16668287033554671 -0.30393954313862881 0 -0.15779719787747329 -0.30827699691668781 0 -0.16720871393960121 -0.31628706703737208 0 -0.15779719787747329 -0.30827699691668781 0 -0.14008900923101991 -0.29637915028126749 0 -0.1376549801308691 -0.31810922276968229 0 -0.14008900923101991 -0.29637915028126749 0 -0.1376549801308691 -0.31810922276968229 0 -0.12188063307831221 -0.30575573666362282 0 -0.14008900923101991 -0.29637915028126749 0 -0.12504305204492239 -0.28640580802426319 0 -0.12188063307831221 -0.30575573666362282 0 -0.14008900923101991 -0.29637915028126749 0 -0.12504305204492239 -0.28640580802426319 0 -0.1399691915979909 -0.27294549943429491 0 -0.15779719787747329 -0.30827699691668781 0 -0.15453602740202591 -0.28325711295641431 0 -0.14008900923101991 -0.29637915028126749 0 -0.15453602740202591 -0.28325711295641431 0 -0.1399691915979909 -0.27294549943429491 0 -0.15779719787747329 -0.30827699691668781 0 -0.14008900923101991 -0.29637915028126749 0 -0.15453602740202591 -0.28325711295641431 0 -0.15453602740202591 -0.28325711295641431 0 -0.15127485692657869 -0.25823722899614071 0 -0.15453602740202591 -0.28325711295641431 0 -0.1399691915979909 -0.27294549943429491 0 -0.15127485692657869 -0.25823722899614071 0 -0.12504305204492239 -0.28640580802426319 0 -0.1399691915979909 -0.27294549943429491 0 -0.12484346210913121 -0.27089924838943458 0 -0.1399691915979909 -0.27294549943429491 0 -0.12941299787350219 -0.26242195827267151 0 -0.12484346210913121 -0.27089924838943458 0 -0.13145879489179529 -0.2526639271976463 0 -0.139217952159014 -0.25772733589897689 0 -0.13591918647405871 -0.24048900391613789 0 -0.1399691915979909 -0.27294549943429491 0 -0.12941299787350219 -0.26242195827267151 0 -0.139217952159014 -0.25772733589897689 0 -0.12941299787350219 -0.26242195827267151 0 -0.13145879489179529 -0.2526639271976463 0 -0.139217952159014 -0.25772733589897689 0 -0.1399691915979909 -0.27294549943429491 0 -0.139217952159014 -0.25772733589897689 0 -0.15127485692657869 -0.25823722899614071 0 -0.17118564966490671 -0.37577775234001087 0 -0.16699612951326129 -0.35069480931895203 0 -0.15261519566081749 -0.3723309122353673 0 -0.17118564966490671 -0.37577775234001087 0 -0.19351209054822749 -0.3835595885857801 0 -0.1853732362713367 -0.36371837984797217 0 -0.17118564966490671 -0.37577775234001087 0 -0.16699612951326129 -0.35069480931895203 0 -0.1853732362713367 -0.36371837984797217 0 -0.19106727329699849 -0.34648388114585932 0 -0.16699612951326129 -0.35069480931895203 0 -0.1853732362713367 -0.36371837984797217 0 -0.19106727329699849 -0.34648388114585932 0 -0.16699612951326129 -0.35069480931895203 0 -0.17576716226306499 -0.33584663666911801 0 -0.19106727329699849 -0.34648388114585932 0 -0.16699612951326129 -0.35069480931895203 0 -0.19055697065588331 -0.33038295141173279 0 -0.19106727329699849 -0.34648388114585932 0 -0.17576716226306499 -0.33584663666911801 0 -0.19055697065588331 -0.33038295141173279 0 -0.17576716226306499 -0.33584663666911801 0 -0.1783681068119177 -0.32200493933011409 0 -0.1963599736564948 -0.31468776302127932 0 -0.1789014257220585 -0.30732475774976908 0 -0.1783681068119177 -0.32200493933011409 0 -0.1789014257220585 -0.30732475774976908 0 -0.1783681068119177 -0.32200493933011409 0 -0.16720871393960121 -0.31628706703737208 0 -0.15779719787747329 -0.30827699691668781 0 -0.16035269498318269 -0.32788291495349331 0 -0.16720871393960121 -0.31628706703737208 0 -0.1783681068119177 -0.32200493933011409 0 -0.16035269498318269 -0.32788291495349331 0 -0.16720871393960121 -0.31628706703737208 0 -0.15779719787747329 -0.30827699691668781 0 -0.16035269498318269 -0.32788291495349331 0 -0.16699612951326129 -0.35069480931895203 0 -0.16035269498318269 -0.32788291495349331 0 -0.14292147784591991 -0.33637762056679382 0 -0.16699612951326129 -0.35069480931895203 0 -0.17576716226306499 -0.33584663666911801 0 -0.16035269498318269 -0.32788291495349331 0 -0.17576716226306499 -0.33584663666911801 0 -0.1783681068119177 -0.32200493933011409 0 -0.16035269498318269 -0.32788291495349331 0 -0.15779719787747329 -0.30827699691668781 0 -0.1376549801308691 -0.31810922276968229 0 -0.15779719787747329 -0.30827699691668781 0 -0.16035269498318269 -0.32788291495349331 0 -0.1376549801308691 -0.31810922276968229 0 -0.16035269498318269 -0.32788291495349331 0 -0.14292147784591991 -0.33637762056679382 0 -0.1376549801308691 -0.31810922276968229 0 -0.1376549801308691 -0.31810922276968229 0 -0.1175127623842647 -0.32794144862267638 0 -0.1376549801308691 -0.31810922276968229 0 -0.1175127623842647 -0.32794144862267638 0 -0.12188063307831221 -0.30575573666362282 0 -0.14292147784591991 -0.33637762056679382 0 -0.1376549801308691 -0.31810922276968229 0 -0.1175127623842647 -0.32794144862267638 0 -0.14292147784591991 -0.33637762056679382 0 -0.1243359282520122 -0.34405340197476458 0 -0.1175127623842647 -0.32794144862267638 0 -0.14292498572952411 -0.35490573749204463 0 -0.1243359282520122 -0.34405340197476458 0 -0.11885384194578689 -0.35911666566513728 0 -0.14292498572952411 -0.35490573749204463 0 -0.11885384194578689 -0.35911666566513728 0 -0.14292147784591991 -0.33637762056679382 0 -0.14292498572952411 -0.35490573749204463 0 -0.1243359282520122 -0.34405340197476458 0 -0.16699612951326129 -0.35069480931895203 0 -0.14292498572952411 -0.35490573749204463 0 -0.15261519566081749 -0.3723309122353673 0 -0.16699612951326129 -0.35069480931895203 0 -0.14292498572952411 -0.35490573749204463 0 -0.16699612951326129 -0.35069480931895203 0 -0.14292147784591991 -0.33637762056679382 0 -0.14292498572952411 -0.35490573749204463 0 -0.14292498572952411 -0.35490573749204463 0 -0.15261519566081749 -0.3723309122353673 0 -0.13403561704002739 -0.37499600363270391 0 -0.14292498572952411 -0.35490573749204463 0 -0.13403561704002739 -0.37499600363270391 0 -0.12882000726311121 -0.36518128802598793 0 -0.14292498572952411 -0.35490573749204463 0 -0.12882000726311121 -0.36518128802598793 0 -0.11885384194578689 -0.35911666566513728 0 -0.13403561704002739 -0.37499600363270391 0 -0.12882000726311121 -0.36518128802598793 0 -0.1194655843371064 -0.37170674531406622 0 -0.12882000726311121 -0.36518128802598793 0 -0.1194655843371064 -0.37170674531406622 0 -0.11885384194578689 -0.35911666566513728 0 -0.1194655843371064 -0.37170674531406622 0 -0.1099895602509097 -0.36363927855830708 0 -0.11885384194578689 -0.35911666566513728 0 -0.1194655843371064 -0.37170674531406622 0 -0.1099895602509097 -0.36363927855830708 0 -0.10965655944320379 -0.37751452663088791 0 -0.094782698162049331 -0.3633275938382281 0 -0.11885384194578689 -0.35911666566513728 0 -0.1099895602509097 -0.36363927855830708 0 -0.10275488784813849 -0.37862820044229212 0 -0.093776947756166823 -0.381880921571215 0 -0.094782698162049331 -0.3633275938382281 0 -0.093776947756166823 -0.381880921571215 0 -0.1099895602509097 -0.36363927855830708 0 -0.094782698162049331 -0.3633275938382281 0 -0.093776947756166823 -0.381880921571215 0 -0.1099895602509097 -0.36363927855830708 0 -0.094782698162049331 -0.3633275938382281 0 -0.11885384194578689 -0.35911666566513728 0 -0.1099895602509097 -0.36363927855830708 0 -0.10965655944320379 -0.37751452663088791 0 -0.10275488784813849 -0.37862820044229212 0 -0.1099895602509097 -0.36363927855830708 0 -0.093776947756166823 -0.381880921571215 0 -0.094782698162049331 -0.3633275938382281 0 -0.095125593390421551 -0.35700212032802192 0 -0.094782698162049331 -0.3633275938382281 0 -0.107820307736465 -0.34873897444430402 0 -0.11885384194578689 -0.35911666566513728 0 -0.095377439224732269 -0.34728625000681512 0 -0.107820307736465 -0.34873897444430402 0 -0.097370544637660275 -0.33777367447567053 0 -0.095377439224732269 -0.34728625000681512 0 -0.095125593390421551 -0.35700212032802192 0 -0.107820307736465 -0.34873897444430402 0 -0.094782698162049331 -0.3633275938382281 0 -0.095125593390421551 -0.35700212032802192 0 -0.107820307736465 -0.34873897444430402 0 -0.107820307736465 -0.34873897444430402 0 -0.1243359282520122 -0.34405340197476458 0 -0.11885384194578689 -0.35911666566513728 0 -0.107820307736465 -0.34873897444430402 0 -0.1243359282520122 -0.34405340197476458 0 -0.1175127623842647 -0.32794144862267638 0 -0.1175127623842647 -0.32794144862267638 0 -0.12188063307831221 -0.30575573666362282 0 -0.1029969952440038 -0.31086361468628992 0 -0.095526735227409662 -0.32334493526958591 0 -0.084189907110687828 -0.31423096377136239 0 -0.1029969952440038 -0.31086361468628992 0 -0.1175127623842647 -0.32794144862267638 0 -0.095526735227409662 -0.32334493526958591 0 -0.1029969952440038 -0.31086361468628992 0 -0.107820307736465 -0.34873897444430402 0 -0.1175127623842647 -0.32794144862267638 0 -0.097370544637660275 -0.33777367447567053 0 -0.1175127623842647 -0.32794144862267638 0 -0.095526735227409662 -0.32334493526958591 0 -0.097370544637660275 -0.33777367447567053 0 -0.1175127623842647 -0.32794144862267638 0 -0.097370544637660275 -0.33777367447567053 0 -0.097370544637660275 -0.33777367447567053 0 -0.08319730220092926 -0.32815785670574282 0 -0.085674165447259268 -0.34673123611313761 0 -0.08319730220092926 -0.32815785670574282 0 -0.072312560717583199 -0.33903070961687509 0 -0.085674165447259268 -0.34673123611313761 0 -0.095526735227409662 -0.32334493526958591 0 -0.097370544637660275 -0.33777367447567053 0 -0.08319730220092926 -0.32815785670574282 0 -0.084189907110687828 -0.31423096377136239 0 -0.1029969952440038 -0.31086361468628992 0 -0.095526735227409662 -0.32334493526958591 0 -0.08319730220092926 -0.32815785670574282 0 -0.084189907110687828 -0.31423096377136239 0 -0.08319730220092926 -0.32815785670574282 0 -0.084189907110687828 -0.31423096377136239 0 -0.065382818977371915 -0.31759831285643519 0 -0.084189907110687828 -0.31423096377136239 0 -0.065382818977371915 -0.31759831285643519 0 -0.08319730220092926 -0.32815785670574282 0 -0.065382818977371915 -0.31759831285643519 0 -0.072312560717583199 -0.33903070961687509 0 -0.065382818977371915 -0.31759831285643519 0 -0.072312560717583199 -0.33903070961687509 0 -0.051870141073130718 -0.34391362164220868 0 -0.072312560717583199 -0.33903070961687509 0 -0.06622022676691855 -0.3528987004318021 0 -0.051870141073130718 -0.34391362164220868 0 -0.072312560717583199 -0.33903070961687509 0 -0.075658969143826832 -0.34840575986055627 0 -0.085674165447259268 -0.34673123611313761 0 -0.072312560717583199 -0.33903070961687509 0 -0.075658969143826832 -0.34840575986055627 0 -0.06622022676691855 -0.3528987004318021 0 -0.06622022676691855 -0.3528987004318021 0 -0.066831075731058426 -0.36821736041666042 0 -0.078428923643546367 -0.35496239328041079 0 -0.075658969143826832 -0.34840575986055627 0 -0.06622022676691855 -0.3528987004318021 0 -0.078428923643546367 -0.35496239328041079 0 -0.066831075731058426 -0.36821736041666042 0 -0.084900945360291552 -0.35927094868594728 0 -0.078428923643546367 -0.35496239328041079 0 -0.094782698162049331 -0.3633275938382281 0 -0.066831075731058426 -0.36821736041666042 0 -0.084900945360291552 -0.35927094868594728 0 -0.094782698162049331 -0.3633275938382281 0 -0.066831075731058426 -0.36821736041666042 0 -0.094782698162049331 -0.3633275938382281 0 -0.066831075731058426 -0.36821736041666042 0 -0.089943019202137098 -0.37281061204415589 0 -0.094782698162049331 -0.3633275938382281 0 -0.089943019202137098 -0.37281061204415589 0 -0.093776947756166823 -0.381880921571215 0 -0.066831075731058426 -0.36821736041666042 0 -0.089943019202137098 -0.37281061204415589 0 -0.083329875418187399 -0.37773707926612882 0 -0.094782698162049331 -0.3633275938382281 0 -0.095125593390421551 -0.35700212032802192 0 -0.084900945360291552 -0.35927094868594728 0 -0.095377439224732269 -0.34728625000681512 0 -0.095125593390421551 -0.35700212032802192 0 -0.089336435874382059 -0.35284527556641532 0 -0.095125593390421551 -0.35700212032802192 0 -0.089336435874382059 -0.35284527556641532 0 -0.084900945360291552 -0.35927094868594728 0 -0.095377439224732269 -0.34728625000681512 0 -0.089336435874382059 -0.35284527556641532 0 -0.085674165447259268 -0.34673123611313761 0 -0.095377439224732269 -0.34728625000681512 0 -0.097370544637660275 -0.33777367447567053 0 -0.085674165447259268 -0.34673123611313761 0 -0.075658969143826832 -0.34840575986055627 0 -0.085674165447259268 -0.34673123611313761 0 -0.078428923643546367 -0.35496239328041079 0 -0.089336435874382059 -0.35284527556641532 0 -0.085674165447259268 -0.34673123611313761 0 -0.078428923643546367 -0.35496239328041079 0 -0.089336435874382059 -0.35284527556641532 0 -0.084900945360291552 -0.35927094868594728 0 -0.078428923643546367 -0.35496239328041079 0 -0.11157558860957981 -0.25787378044300507 0 -0.099578042063060132 -0.27177212542142681 0 -0.09169238232736425 -0.26308363368836402 0 -0.11157558860957981 -0.25787378044300507 0 -0.09169238232736425 -0.26308363368836402 0 -0.11157558860957981 -0.25787378044300507 0 -0.0889106203226466 -0.25070880179025701 0 -0.09169238232736425 -0.26308363368836402 0 -0.13145879489179529 -0.2526639271976463 0 -0.11157558860957981 -0.25787378044300507 0 -0.13145879489179529 -0.2526639271976463 0 -0.11157558860957981 -0.25787378044300507 0 -0.1187161955354217 -0.24568453992089831 0 -0.12941299787350219 -0.26242195827267151 0 -0.11157558860957981 -0.25787378044300507 0 -0.12484346210913121 -0.27089924838943458 0 -0.12941299787350219 -0.26242195827267151 0 -0.13145879489179529 -0.2526639271976463 0 -0.11157558860957981 -0.25787378044300507 0 -0.11157558860957981 -0.25787378044300507 0 -0.12484346210913121 -0.27089924838943458 0 -0.1112949778548558 -0.27753581370605579 0 -0.12504305204492239 -0.28640580802426319 0 -0.12484346210913121 -0.27089924838943458 0 -0.1112949778548558 -0.27753581370605579 0 -0.11157558860957981 -0.25787378044300507 0 -0.1112949778548558 -0.27753581370605579 0 -0.099578042063060132 -0.27177212542142681 0 -0.1112949778548558 -0.27753581370605579 0 -0.099578042063060132 -0.27177212542142681 0 -0.096441968543709386 -0.28464414974577013 0 -0.099578042063060132 -0.27177212542142681 0 -0.096441968543709386 -0.28464414974577013 0 -0.086885292979791501 -0.27572324952393901 0 -0.1112949778548558 -0.27753581370605579 0 -0.1079869994347934 -0.29483517559755729 0 -0.096441968543709386 -0.28464414974577013 0 -0.1079869994347934 -0.29483517559755729 0 -0.096441968543709386 -0.28464414974577013 0 -0.091303330407840694 -0.29915766758893181 0 -0.12504305204492239 -0.28640580802426319 0 -0.1079869994347934 -0.29483517559755729 0 -0.12188063307831221 -0.30575573666362282 0 -0.12504305204492239 -0.28640580802426319 0 -0.1112949778548558 -0.27753581370605579 0 -0.1079869994347934 -0.29483517559755729 0 -0.1079869994347934 -0.29483517559755729 0 -0.12188063307831221 -0.30575573666362282 0 -0.1029969952440038 -0.31086361468628992 0 -0.1079869994347934 -0.29483517559755729 0 -0.1029969952440038 -0.31086361468628992 0 -0.091303330407840694 -0.29915766758893181 0 -0.084189907110687828 -0.31423096377136239 0 -0.1029969952440038 -0.31086361468628992 0 -0.091303330407840694 -0.29915766758893181 0 -0.084189907110687828 -0.31423096377136239 0 -0.091303330407840694 -0.29915766758893181 0 -0.073805974182715339 -0.30119461169890771 0 -0.065382818977371915 -0.31759831285643519 0 -0.073805974182715339 -0.30119461169890771 0 -0.055797045516411917 -0.30034122974446031 0 -0.084189907110687828 -0.31423096377136239 0 -0.065382818977371915 -0.31759831285643519 0 -0.073805974182715339 -0.30119461169890771 0 -0.073805974182715339 -0.30119461169890771 0 -0.065563796266144905 -0.29066637376923798 0 -0.055797045516411917 -0.30034122974446031 0 -0.065382818977371915 -0.31759831285643519 0 -0.073805974182715339 -0.30119461169890771 0 -0.073805974182715339 -0.30119461169890771 0 -0.073097767141983391 -0.29003187631275062 0 -0.065563796266144905 -0.29066637376923798 0 -0.073805974182715339 -0.30119461169890771 0 -0.073097767141983391 -0.29003187631275062 0 -0.082229129388058431 -0.28479091054137989 0 -0.073805974182715339 -0.30119461169890771 0 -0.082229129388058431 -0.28479091054137989 0 -0.065563796266144905 -0.29066637376923798 0 -0.070792168731014932 -0.2834756092414768 0 -0.064947799728950734 -0.28005761723523559 0 -0.073097767141983391 -0.29003187631275062 0 -0.065563796266144905 -0.29066637376923798 0 -0.070792168731014932 -0.2834756092414768 0 -0.070792168731014932 -0.2834756092414768 0 -0.082229129388058431 -0.28479091054137989 0 -0.071186370632011234 -0.27727860122997761 0 -0.073097767141983391 -0.29003187631275062 0 -0.070792168731014932 -0.2834756092414768 0 -0.082229129388058431 -0.28479091054137989 0 -0.091303330407840694 -0.29915766758893181 0 -0.073805974182715339 -0.30119461169890771 0 -0.082229129388058431 -0.28479091054137989 0 -0.096441968543709386 -0.28464414974577013 0 -0.091303330407840694 -0.29915766758893181 0 -0.082229129388058431 -0.28479091054137989 0 -0.091303330407840694 -0.29915766758893181 0 -0.082229129388058431 -0.28479091054137989 0 -0.096441968543709386 -0.28464414974577013 0 -0.082229129388058431 -0.28479091054137989 0 -0.086885292979791501 -0.27572324952393901 0 -0.086885292979791501 -0.27572324952393901 0 -0.071809176045148526 -0.26829348693372168 0 -0.09169238232736425 -0.26308363368836402 0 -0.082229129388058431 -0.28479091054137989 0 -0.086885292979791501 -0.27572324952393901 0 -0.071809176045148526 -0.26829348693372168 0 -0.071809176045148526 -0.26829348693372168 0 -0.09169238232736425 -0.26308363368836402 0 -0.099578042063060132 -0.27177212542142681 0 -0.086885292979791501 -0.27572324952393901 0 -0.09169238232736425 -0.26308363368836402 0 -0.082229129388058431 -0.28479091054137989 0 -0.086885292979791501 -0.27572324952393901 0 -0.082229129388058431 -0.28479091054137989 0 -0.071809176045148526 -0.26829348693372168 0 -0.082229129388058431 -0.28479091054137989 0 -0.071186370632011234 -0.27727860122997761 0 -0.071809176045148526 -0.26829348693372168 0 -0.070464099295724392 -0.26616388997779877 0 -0.071809176045148526 -0.26829348693372168 0 -0.09169238232736425 -0.26308363368836402 0 -0.070792168731014932 -0.2834756092414768 0 -0.071186370632011234 -0.27727860122997761 0 -0.064947799728950734 -0.28005761723523559 0 -0.071186370632011234 -0.27727860122997761 0 -0.064947799728950734 -0.28005761723523559 0 -0.066153579266882548 -0.26977538219807318 0 -0.071186370632011234 -0.27727860122997761 0 -0.066153579266882548 -0.26977538219807318 0 -0.071809176045148526 -0.26829348693372168 0 -0.066153579266882548 -0.26977538219807318 0 -0.070464099295724392 -0.26616388997779877 0 -0.071809176045148526 -0.26829348693372168 0 -0.066153579266882548 -0.26977538219807318 0 -0.071809176045148526 -0.26829348693372168 0 -0.066153579266882548 -0.26977538219807318 0 -0.070464099295724392 -0.26616388997779877 0 -0.070464099295724392 -0.26616388997779877 0 -0.071809176045148526 -0.26829348693372168 0 -0.070464099295724392 -0.26616388997779877 0 -0.054853607222116879 -0.24144852974658429 0 -0.070464099295724392 -0.26616388997779877 0 -0.0889106203226466 -0.25070880179025701 0 -0.071960244748720911 -0.24191037302126911 0 -0.070464099295724392 -0.26616388997779877 0 -0.0889106203226466 -0.25070880179025701 0 -0.070464099295724392 -0.26616388997779877 0 -0.0889106203226466 -0.25070880179025701 0 -0.09169238232736425 -0.26308363368836402 0 -0.032983697029401883 -0.25921448172108602 0 -0.049996963324905087 -0.25986794633752452 0 -0.039437776658489992 -0.27677553141677169 0 -0.032983697029401883 -0.25921448172108602 0 -0.049996963324905087 -0.25986794633752452 0 -0.037015257496916913 -0.24268092961745849 0 -0.066153579266882548 -0.26977538219807318 0 -0.070464099295724392 -0.26616388997779877 0 -0.049996963324905087 -0.25986794633752452 0 -0.070464099295724392 -0.26616388997779877 0 -0.049996963324905087 -0.25986794633752452 0 -0.054853607222116879 -0.24144852974658429 0 -0.066153579266882548 -0.26977538219807318 0 -0.039437776658489992 -0.27677553141677169 0 -0.066153579266882548 -0.26977538219807318 0 -0.039437776658489992 -0.27677553141677169 0 -0.051806563852651963 -0.28179577282519191 0 -0.066153579266882548 -0.26977538219807318 0 -0.049996963324905087 -0.25986794633752452 0 -0.039437776658489992 -0.27677553141677169 0 -0.066153579266882548 -0.26977538219807318 0 -0.051806563852651963 -0.28179577282519191 0 -0.064947799728950734 -0.28005761723523559 0 -0.066153579266882548 -0.26977538219807318 0 -0.051806563852651963 -0.28179577282519191 0 -0.039437776658489992 -0.27677553141677169 0 -0.037459548438420628 -0.2938161634523096 0 -0.051806563852651963 -0.28179577282519191 0 -0.037459548438420628 -0.2938161634523096 0 -0.051806563852651963 -0.28179577282519191 0 -0.065563796266144905 -0.29066637376923798 0 -0.051806563852651963 -0.28179577282519191 0 -0.055797045516411917 -0.30034122974446031 0 -0.037459548438420628 -0.2938161634523096 0 -0.051806563852651963 -0.28179577282519191 0 -0.055797045516411917 -0.30034122974446031 0 -0.065563796266144905 -0.29066637376923798 0 -0.064947799728950734 -0.28005761723523559 0 -0.051806563852651963 -0.28179577282519191 0 -0.065382818977371915 -0.31759831285643519 0 -0.055797045516411917 -0.30034122974446031 0 -0.052726936288285113 -0.31159513980788361 0 -0.055797045516411917 -0.30034122974446031 0 -0.052726936288285113 -0.31159513980788361 0 -0.04481025643599118 -0.3071784759925168 0 -0.037459548438420628 -0.2938161634523096 0 -0.055797045516411917 -0.30034122974446031 0 -0.04481025643599118 -0.3071784759925168 0 -0.04481025643599118 -0.3071784759925168 0 -0.032932867679119723 -0.3082818957530693 0 -0.044917624223365447 -0.32126254063812199 0 -0.037459548438420628 -0.2938161634523096 0 -0.04481025643599118 -0.3071784759925168 0 -0.032932867679119723 -0.3082818957530693 0 -0.032932867679119723 -0.3082818957530693 0 -0.022689727626968699 -0.30096584925825409 0 -0.020692177052119249 -0.31338728220007289 0 -0.037459548438420628 -0.2938161634523096 0 -0.032932867679119723 -0.3082818957530693 0 -0.022689727626968699 -0.30096584925825409 0 -0.022689727626968699 -0.30096584925825409 0 -0.009642070915086105 -0.30556822425034719 0 -0.020692177052119249 -0.31338728220007289 0 -0.009642070915086105 -0.30556822425034719 0 -0.020692177052119249 -0.31338728220007289 0 -0.011081764931250781 -0.3185375685786741 0 -0.009642070915086105 -0.30556822425034719 0 -0.0127219740500978 -0.28377568063547148 0 0.01399382855829426 -0.29077582985417127 0 -0.022689727626968699 -0.30096584925825409 0 -0.009642070915086105 -0.30556822425034719 0 -0.0127219740500978 -0.28377568063547148 0 -0.037459548438420628 -0.2938161634523096 0 -0.022689727626968699 -0.30096584925825409 0 -0.0127219740500978 -0.28377568063547148 0 -0.039437776658489992 -0.27677553141677169 0 -0.037459548438420628 -0.2938161634523096 0 -0.0127219740500978 -0.28377568063547148 0 -0.032983697029401883 -0.25921448172108602 0 -0.039437776658489992 -0.27677553141677169 0 -0.016307211057436231 -0.26521563160718198 0 -0.039437776658489992 -0.27677553141677169 0 -0.0127219740500978 -0.28377568063547148 0 -0.039437776658489992 -0.27677553141677169 0 -0.0127219740500978 -0.28377568063547148 0 -0.016307211057436231 -0.26521563160718198 0 -0.0127219740500978 -0.28377568063547148 0 -0.016307211057436231 -0.26521563160718198 0 0.0064113245404139908 -0.26530009043482788 0 -0.016307211057436231 -0.26521563160718198 0 -0.02258028236581823 -0.24850611916615931 0 -0.0042469490959310546 -0.24105588206608369 0 -0.016307211057436231 -0.26521563160718198 0 -0.0042469490959310546 -0.24105588206608369 0 0.0064113245404139908 -0.26530009043482788 0 -0.032983697029401883 -0.25921448172108602 0 -0.016307211057436231 -0.26521563160718198 0 -0.02258028236581823 -0.24850611916615931 0 -0.032983697029401883 -0.25921448172108602 0 -0.02258028236581823 -0.24850611916615931 0 -0.037015257496916913 -0.24268092961745849 0 -0.036348886634394117 -0.35012666513248009 0 -0.051870141073130718 -0.34391362164220868 0 -0.034292521637086362 -0.34258377342290702 0 -0.038357463168889348 -0.37022893042798199 0 -0.051870141073130718 -0.34391362164220868 0 -0.038097721741226213 -0.35885899627459522 0 -0.038357463168889348 -0.37022893042798199 0 -0.051870141073130718 -0.34391362164220868 0 -0.036348886634394117 -0.35012666513248009 0 -0.038097721741226213 -0.35885899627459522 0 -0.051870141073130718 -0.34391362164220868 0 -0.036348886634394117 -0.35012666513248009 0 -0.030727311248269079 -0.35188138613985731 0 -0.028445868207235311 -0.34724322977079741 0 -0.036348886634394117 -0.35012666513248009 0 -0.034292521637086362 -0.34258377342290702 0 -0.028445868207235311 -0.34724322977079741 0 -0.036348886634394117 -0.35012666513248009 0 -0.033289534072552793 -0.35544358401548759 0 -0.038097721741226213 -0.35885899627459522 0 -0.036348886634394117 -0.35012666513248009 0 -0.033289534072552793 -0.35544358401548759 0 -0.030727311248269079 -0.35188138613985731 0 -0.033289534072552793 -0.35544358401548759 0 -0.03197051384657372 -0.36014266471903472 0 -0.028639428813056689 -0.3565170324724794 0 -0.033289534072552793 -0.35544358401548759 0 -0.038097721741226213 -0.35885899627459522 0 -0.03197051384657372 -0.36014266471903472 0 -0.03197051384657372 -0.36014266471903472 0 -0.034272054972404591 -0.36394414689045629 0 -0.029950680310896219 -0.36503764424036023 0 -0.038097721741226213 -0.35885899627459522 0 -0.036138347530512961 -0.36533856872505122 0 -0.038357463168889348 -0.37022893042798199 0 -0.038097721741226213 -0.35885899627459522 0 -0.03197051384657372 -0.36014266471903472 0 -0.034272054972404591 -0.36394414689045629 0 -0.034272054972404591 -0.36394414689045629 0 -0.036138347530512961 -0.36533856872505122 0 -0.03382615023953172 -0.36832220130717119 0 -0.034272054972404591 -0.36394414689045629 0 -0.03382615023953172 -0.36832220130717119 0 -0.029950680310896219 -0.36503764424036023 0 -0.038097721741226213 -0.35885899627459522 0 -0.034272054972404591 -0.36394414689045629 0 -0.036138347530512961 -0.36533856872505122 0 -0.03382615023953172 -0.36832220130717119 0 -0.038879453300067347 -0.37310712699509069 0 -0.023492648059152871 -0.37005212437569401 0 -0.03382615023953172 -0.36832220130717119 0 -0.038357463168889348 -0.37022893042798199 0 -0.038879453300067347 -0.37310712699509069 0 -0.036138347530512961 -0.36533856872505122 0 -0.03382615023953172 -0.36832220130717119 0 -0.038357463168889348 -0.37022893042798199 0 -0.038357463168889348 -0.37022893042798199 0 -0.038879453300067347 -0.37310712699509069 0 -0.052286565267500557 -0.36160269172389681 0 -0.066831075731058426 -0.36821736041666042 0 -0.038879453300067347 -0.37310712699509069 0 -0.052286565267500557 -0.36160269172389681 0 -0.066831075731058426 -0.36821736041666042 0 -0.038879453300067347 -0.37310712699509069 0 -0.050462251829573992 -0.37913080051702591 0 -0.066831075731058426 -0.36821736041666042 0 -0.038879453300067347 -0.37310712699509069 0 -0.06622022676691855 -0.3528987004318021 0 -0.066831075731058426 -0.36821736041666042 0 -0.052286565267500557 -0.36160269172389681 0 -0.038357463168889348 -0.37022893042798199 0 -0.052286565267500557 -0.36160269172389681 0 -0.051870141073130718 -0.34391362164220868 0 -0.06622022676691855 -0.3528987004318021 0 -0.052286565267500557 -0.36160269172389681 0 -0.051870141073130718 -0.34391362164220868 0 -0.065382818977371915 -0.31759831285643519 0 -0.051870141073130718 -0.34391362164220868 0 -0.065382818977371915 -0.31759831285643519 0 -0.052726936288285113 -0.31159513980788361 0 -0.044917624223365447 -0.32126254063812199 0 -0.065382818977371915 -0.31759831285643519 0 -0.044917624223365447 -0.32126254063812199 0 -0.065382818977371915 -0.31759831285643519 0 -0.051870141073130718 -0.34391362164220868 0 -0.044917624223365447 -0.32126254063812199 0 -0.052726936288285113 -0.31159513980788361 0 -0.04481025643599118 -0.3071784759925168 0 -0.044917624223365447 -0.32126254063812199 0 -0.044917624223365447 -0.32126254063812199 0 -0.024452429469359049 -0.32492676841980911 0 -0.044917624223365447 -0.32126254063812199 0 -0.030748774605990872 -0.31696462175276829 0 -0.024452429469359049 -0.32492676841980911 0 -0.044917624223365447 -0.32126254063812199 0 -0.03589445420623863 -0.33329957480317529 0 -0.027148719725146729 -0.32871675370692932 0 -0.044917624223365447 -0.32126254063812199 0 -0.027148719725146729 -0.32871675370692932 0 -0.024452429469359049 -0.32492676841980911 0 -0.032932867679119723 -0.3082818957530693 0 -0.044917624223365447 -0.32126254063812199 0 -0.030748774605990872 -0.31696462175276829 0 -0.051870141073130718 -0.34391362164220868 0 -0.044917624223365447 -0.32126254063812199 0 -0.03589445420623863 -0.33329957480317529 0 -0.051870141073130718 -0.34391362164220868 0 -0.03589445420623863 -0.33329957480317529 0 -0.034292521637086362 -0.34258377342290702 0 -0.03589445420623863 -0.33329957480317529 0 -0.034292521637086362 -0.34258377342290702 0 -0.027795073514937041 -0.33789528235380301 0 -0.027795073514937041 -0.33789528235380301 0 -0.027148719725146729 -0.32871675370692932 0 -0.020168251789178918 -0.34304258763973289 0 -0.034292521637086362 -0.34258377342290702 0 -0.025972663805497152 -0.34308111049497292 0 -0.027795073514937041 -0.33789528235380301 0 -0.025972663805497152 -0.34308111049497292 0 -0.027795073514937041 -0.33789528235380301 0 -0.020168251789178918 -0.34304258763973289 0 -0.03589445420623863 -0.33329957480317529 0 -0.027795073514937041 -0.33789528235380301 0 -0.027148719725146729 -0.32871675370692932 0 -0.027148719725146729 -0.32871675370692932 0 -0.020168251789178918 -0.34304258763973289 0 -0.027148719725146729 -0.32871675370692932 0 -0.019103714461639811 -0.33497039832315051 0 -0.020168251789178918 -0.34304258763973289 0 -0.027148719725146729 -0.32871675370692932 0 -0.02211521354400189 -0.32970155148507291 0 -0.019103714461639811 -0.33497039832315051 0 -0.02211521354400189 -0.32970155148507291 0 -0.016654551398231032 -0.33126239548938452 0 -0.024452429469359049 -0.32492676841980911 0 -0.02211521354400189 -0.32970155148507291 0 -0.016654551398231032 -0.33126239548938452 0 -0.019103714461639811 -0.33497039832315051 0 -0.016654551398231032 -0.33126239548938452 0 -0.019103714461639811 -0.33497039832315051 0 -0.01216283498106986 -0.33533711163028862 0 -0.019103714461639811 -0.33497039832315051 0 -0.020168251789178918 -0.34304258763973289 0 -0.014942801449510089 -0.3413489151488881 0 -0.030748774605990872 -0.31696462175276829 0 -0.024452429469359049 -0.32492676841980911 0 -0.020692177052119249 -0.31338728220007289 0 -0.032932867679119723 -0.3082818957530693 0 -0.030748774605990872 -0.31696462175276829 0 -0.020692177052119249 -0.31338728220007289 0 -0.027148719725146729 -0.32871675370692932 0 -0.02211521354400189 -0.32970155148507291 0 -0.024452429469359049 -0.32492676841980911 0 -0.024452429469359049 -0.32492676841980911 0 -0.020692177052119249 -0.31338728220007289 0 -0.011081764931250781 -0.3185375685786741 0 -0.024452429469359049 -0.32492676841980911 0 -0.0039872347153526583 -0.32859099620149618 0 -0.011081764931250781 -0.3185375685786741 0 -0.0039872347153526583 -0.32859099620149618 0 0.0079812764457104952 -0.31559530161391047 0 -0.024452429469359049 -0.32492676841980911 0 -0.011081764931250781 -0.3185375685786741 0 -0.0039872347153526583 -0.32859099620149618 0 -0.009642070915086105 -0.30556822425034719 0 -0.011081764931250781 -0.3185375685786741 0 0.0079812764457104952 -0.31559530161391047 0 -0.016654551398231032 -0.33126239548938452 0 -0.024452429469359049 -0.32492676841980911 0 -0.0039872347153526583 -0.32859099620149618 0 -0.0039872347153526583 -0.32859099620149618 0 -0.0067461641673570846 -0.34075600069725781 0 0.001736735560337046 -0.34458920157877498 0 -0.014942801449510089 -0.3413489151488881 0 -0.01216283498106986 -0.33533711163028862 0 -0.0067461641673570846 -0.34075600069725781 0 -0.019103714461639811 -0.33497039832315051 0 -0.014942801449510089 -0.3413489151488881 0 -0.01216283498106986 -0.33533711163028862 0 -0.016654551398231032 -0.33126239548938452 0 -0.01216283498106986 -0.33533711163028862 0 -0.0039872347153526583 -0.32859099620149618 0 -0.01216283498106986 -0.33533711163028862 0 -0.0039872347153526583 -0.32859099620149618 0 -0.0067461641673570846 -0.34075600069725781 0 -0.0067461641673570846 -0.34075600069725781 0 -0.01318778385321114 -0.35736842157253651 0 0.001736735560337046 -0.34458920157877498 0 -0.014942801449510089 -0.3413489151488881 0 -0.01318778385321114 -0.35736842157253651 0 -0.014942801449510089 -0.3413489151488881 0 -0.0067461641673570846 -0.34075600069725781 0 -0.01318778385321114 -0.35736842157253651 0 -0.020168251789178918 -0.34304258763973289 0 -0.01318778385321114 -0.35736842157253651 0 -0.02112443206309755 -0.35276937035203543 0 -0.020168251789178918 -0.34304258763973289 0 -0.01318778385321114 -0.35736842157253651 0 -0.020168251789178918 -0.34304258763973289 0 -0.02112443206309755 -0.35276937035203543 0 -0.023690614509014839 -0.34681752223170909 0 -0.020168251789178918 -0.34304258763973289 0 -0.014942801449510089 -0.3413489151488881 0 -0.01318778385321114 -0.35736842157253651 0 -0.025972663805497152 -0.34308111049497292 0 -0.020168251789178918 -0.34304258763973289 0 -0.023690614509014839 -0.34681752223170909 0 -0.01318778385321114 -0.35736842157253651 0 -0.02112443206309755 -0.35276937035203543 0 -0.02484032796641723 -0.36036650515641638 0 -0.02112443206309755 -0.35276937035203543 0 -0.028639428813056689 -0.3565170324724794 0 -0.030727311248269079 -0.35188138613985731 0 -0.02112443206309755 -0.35276937035203543 0 -0.028639428813056689 -0.3565170324724794 0 -0.02484032796641723 -0.36036650515641638 0 -0.03197051384657372 -0.36014266471903472 0 -0.028639428813056689 -0.3565170324724794 0 -0.02484032796641723 -0.36036650515641638 0 -0.033289534072552793 -0.35544358401548759 0 -0.028639428813056689 -0.3565170324724794 0 -0.030727311248269079 -0.35188138613985731 0 -0.02112443206309755 -0.35276937035203543 0 -0.030727311248269079 -0.35188138613985731 0 -0.028445868207235311 -0.34724322977079741 0 -0.034292521637086362 -0.34258377342290702 0 -0.025972663805497152 -0.34308111049497292 0 -0.028445868207235311 -0.34724322977079741 0 -0.025972663805497152 -0.34308111049497292 0 -0.028445868207235311 -0.34724322977079741 0 -0.023690614509014839 -0.34681752223170909 0 -0.02112443206309755 -0.35276937035203543 0 -0.028445868207235311 -0.34724322977079741 0 -0.023690614509014839 -0.34681752223170909 0 -0.038879453300067347 -0.37310712699509069 0 -0.023492648059152871 -0.37005212437569401 0 -0.010927830869076321 -0.37799689357352151 0 -0.01318778385321114 -0.35736842157253651 0 -0.023492648059152871 -0.37005212437569401 0 -0.010927830869076321 -0.37799689357352151 0 -0.03382615023953172 -0.36832220130717119 0 -0.023492648059152871 -0.37005212437569401 0 -0.029950680310896219 -0.36503764424036023 0 -0.023492648059152871 -0.37005212437569401 0 -0.029950680310896219 -0.36503764424036023 0 -0.02484032796641723 -0.36036650515641638 0 -0.03197051384657372 -0.36014266471903472 0 -0.029950680310896219 -0.36503764424036023 0 -0.02484032796641723 -0.36036650515641638 0 -0.01318778385321114 -0.35736842157253651 0 -0.023492648059152871 -0.37005212437569401 0 -0.02484032796641723 -0.36036650515641638 0 -0.01318778385321114 -0.35736842157253651 0 -0.0024102202140195059 -0.37948693688002788 0 -0.010927830869076321 -0.37799689357352151 0 -0.01318778385321114 -0.35736842157253651 0 -0.0024102202140195059 -0.37948693688002788 0 -0.01318778385321114 -0.35736842157253651 0 -0.010927830869076321 -0.37799689357352151 0 -0.01318778385321114 -0.35736842157253651 0 -0.0024102202140195059 -0.37948693688002788 0 0.01545541296792622 -0.35461438492857311 0 -0.0024102202140195059 -0.37948693688002788 0 -0.010927830869076321 -0.37799689357352151 0 -0.0024102202140195059 -0.37948693688002788 0 -0.010927830869076321 -0.37799689357352151 0 0.00014117791405256379 -0.38472310531667142 0 -0.010927830869076321 -0.37799689357352151 0 -0.0083598813377065428 -0.40143670642789148 0 0.00014117791405256379 -0.38472310531667142 0 -0.010927830869076321 -0.37799689357352151 0 -0.0083598813377065428 -0.40143670642789148 0 -0.0024102202140195059 -0.37948693688002788 0 0.0023783755119446211 -0.38032463835499941 0 -0.0024102202140195059 -0.37948693688002788 0 0.00014117791405256379 -0.38472310531667142 0 -0.010927830869076321 -0.37799689357352151 0 -0.0083598813377065428 -0.40143670642789148 0 -0.019657844431308909 -0.39641326729500398 0 -0.0083598813377065428 -0.40143670642789148 0 0.00014117791405256379 -0.38472310531667142 0 -0.0083598813377065428 -0.40143670642789148 0 -0.019657844431308909 -0.39641326729500398 0 -0.023369551806951071 -0.40826308940957612 0 -0.019657844431308909 -0.39641326729500398 0 -0.024671164267109389 -0.3870493122089414 0 -0.03338609232365905 -0.39230373246515138 0 -0.019657844431308909 -0.39641326729500398 0 -0.03338609232365905 -0.39230373246515138 0 -0.033697655402533597 -0.40335699322574331 0 -0.019657844431308909 -0.39641326729500398 0 -0.033697655402533597 -0.40335699322574331 0 -0.023369551806951071 -0.40826308940957612 0 -0.010927830869076321 -0.37799689357352151 0 -0.019657844431308909 -0.39641326729500398 0 -0.024671164267109389 -0.3870493122089414 0 -0.038879453300067347 -0.37310712699509069 0 -0.010927830869076321 -0.37799689357352151 0 -0.010927830869076321 -0.37799689357352151 0 -0.024671164267109389 -0.3870493122089414 0 -0.032806162284348073 -0.38246624356683051 0 -0.038879453300067347 -0.37310712699509069 0 -0.010927830869076321 -0.37799689357352151 0 -0.032806162284348073 -0.38246624356683051 0 -0.024671164267109389 -0.3870493122089414 0 -0.032806162284348073 -0.38246624356683051 0 -0.03338609232365905 -0.39230373246515138 0 -0.038879453300067347 -0.37310712699509069 0 -0.032806162284348073 -0.38246624356683051 0 -0.04123048569355349 -0.38044028747324499 0 -0.04123048569355349 -0.38044028747324499 0 -0.042774075360224532 -0.38705697881403323 0 -0.050462251829573992 -0.37913080051702591 0 -0.038879453300067347 -0.37310712699509069 0 -0.04123048569355349 -0.38044028747324499 0 -0.050462251829573992 -0.37913080051702591 0 -0.032806162284348073 -0.38246624356683051 0 -0.04123048569355349 -0.38044028747324499 0 -0.042774075360224532 -0.38705697881403323 0 -0.032806162284348073 -0.38246624356683051 0 -0.042774075360224532 -0.38705697881403323 0 -0.03338609232365905 -0.39230373246515138 0 -0.03338609232365905 -0.39230373246515138 0 -0.033697655402533597 -0.40335699322574331 0 -0.046709652196429842 -0.39747959968035629 0 -0.033697655402533597 -0.40335699322574331 0 -0.046709652196429842 -0.39747959968035629 0 -0.044113378449205397 -0.40962291633795928 0 -0.042774075360224532 -0.38705697881403323 0 -0.03338609232365905 -0.39230373246515138 0 -0.046709652196429842 -0.39747959968035629 0 -0.0551555910819213 -0.40584962304851468 0 -0.058147249591051699 -0.39016072049415168 0 -0.072297310564672604 -0.40604876458979361 0 -0.042774075360224532 -0.38705697881403323 0 -0.046709652196429842 -0.39747959968035629 0 -0.058147249591051699 -0.39016072049415168 0 -0.046709652196429842 -0.39747959968035629 0 -0.0551555910819213 -0.40584962304851468 0 -0.058147249591051699 -0.39016072049415168 0 -0.046709652196429842 -0.39747959968035629 0 -0.0551555910819213 -0.40584962304851468 0 -0.044113378449205397 -0.40962291633795928 0 -0.058147249591051699 -0.39016072049415168 0 -0.061642478720483521 -0.37961230380905531 0 -0.050462251829573992 -0.37913080051702591 0 -0.066831075731058426 -0.36821736041666042 0 -0.061642478720483521 -0.37961230380905531 0 -0.050462251829573992 -0.37913080051702591 0 -0.042774075360224532 -0.38705697881403323 0 -0.058147249591051699 -0.39016072049415168 0 -0.050462251829573992 -0.37913080051702591 0 -0.0551555910819213 -0.40584962304851468 0 -0.054218214580059307 -0.42639048404150692 0 -0.072297310564672604 -0.40604876458979361 0 -0.0551555910819213 -0.40584962304851468 0 -0.054218214580059307 -0.42639048404150692 0 -0.044113378449205397 -0.40962291633795928 0 -0.054218214580059307 -0.42639048404150692 0 -0.044113378449205397 -0.40962291633795928 0 -0.035020148224450702 -0.41722713339073669 0 -0.033697655402533597 -0.40335699322574331 0 -0.044113378449205397 -0.40962291633795928 0 -0.035020148224450702 -0.41722713339073669 0 -0.054218214580059307 -0.42639048404150692 0 -0.036139118595445947 -0.44673220349322018 0 -0.054218214580059307 -0.42639048404150692 0 -0.035363599074610827 -0.43196503111631612 0 -0.036139118595445947 -0.44673220349322018 0 -0.054218214580059307 -0.42639048404150692 0 -0.035020148224450702 -0.41722713339073669 0 -0.035363599074610827 -0.43196503111631612 0 -0.01984408283602378 -0.42401534718775191 0 -0.031328284334341802 -0.44659398794761201 0 -0.01984408283602378 -0.42401534718775191 0 -0.01650121057911659 -0.43592284220880639 0 -0.02251836002202114 -0.44133264881792161 0 -0.01984408283602378 -0.42401534718775191 0 -0.02251836002202114 -0.44133264881792161 0 -0.031328284334341802 -0.44659398794761201 0 -0.035363599074610827 -0.43196503111631612 0 -0.01984408283602378 -0.42401534718775191 0 -0.031328284334341802 -0.44659398794761201 0 -0.035020148224450702 -0.41722713339073669 0 -0.035363599074610827 -0.43196503111631612 0 -0.01984408283602378 -0.42401534718775191 0 -0.01984408283602378 -0.42401534718775191 0 -0.01650121057911659 -0.43592284220880639 0 -0.012007148298583931 -0.42719589782541972 0 -0.035020148224450702 -0.41722713339073669 0 -0.01984408283602378 -0.42401534718775191 0 -0.023369551806951071 -0.40826308940957612 0 -0.0083598813377065428 -0.40143670642789148 0 -0.01984408283602378 -0.42401534718775191 0 -0.023369551806951071 -0.40826308940957612 0 -0.033697655402533597 -0.40335699322574331 0 -0.035020148224450702 -0.41722713339073669 0 -0.023369551806951071 -0.40826308940957612 0 -0.0083598813377065428 -0.40143670642789148 0 -0.01984408283602378 -0.42401534718775191 0 -0.0083598813377065428 -0.40143670642789148 0 -0.01984408283602378 -0.42401534718775191 0 -0.0066810603723008732 -0.41676070277767069 0 -0.0066810603723008732 -0.41676070277767069 0 0.0037417901428385579 -0.41882230129761472 0 0.001888367606252044 -0.41113361882236621 0 -0.0066810603723008732 -0.41676070277767069 0 0.0037417901428385579 -0.41882230129761472 0 0.0014429593824763661 -0.42588013494941718 0 -0.0083598813377065428 -0.40143670642789148 0 -0.0066810603723008732 -0.41676070277767069 0 -0.0083598813377065428 -0.40143670642789148 0 -0.0066810603723008732 -0.41676070277767069 0 0.001888367606252044 -0.41113361882236621 0 -0.01650121057911659 -0.43592284220880639 0 -0.0050022394068944898 -0.43208469912744968 0 -0.0076618514110308516 -0.43911061028330012 0 -0.01650121057911659 -0.43592284220880639 0 -0.012007148298583931 -0.42719589782541972 0 -0.0050022394068944898 -0.43208469912744968 0 -0.0066810603723008732 -0.41676070277767069 0 -0.012007148298583931 -0.42719589782541972 0 -0.0050022394068944898 -0.43208469912744968 0 -0.01984408283602378 -0.42401534718775191 0 -0.0066810603723008732 -0.41676070277767069 0 -0.012007148298583931 -0.42719589782541972 0 -0.0066810603723008732 -0.41676070277767069 0 -0.0050022394068944898 -0.43208469912744968 0 -0.0066810603723008732 -0.41676070277767069 0 -0.0050022394068944898 -0.43208469912744968 0 0.0014429593824763661 -0.42588013494941718 0 -0.0050022394068944898 -0.43208469912744968 0 -0.0076618514110308516 -0.43911061028330012 0 0.0044305844222376489 -0.43482972146128068 0 -0.0076618514110308516 -0.43911061028330012 0 -0.008490975700803146 -0.4496147156109509 0 0.0044305844222376489 -0.43482972146128068 0 -0.008490975700803146 -0.4496147156109509 0 0.0044305844222376489 -0.43482972146128068 0 -0.0076618514110308516 -0.43911061028330012 0 -0.013451715807841731 -0.44347299961132919 0 -0.008490975700803146 -0.4496147156109509 0 -0.01650121057911659 -0.43592284220880639 0 -0.0076618514110308516 -0.43911061028330012 0 -0.013451715807841731 -0.44347299961132919 0 -0.01255281028239112 -0.45117680618868589 0 -0.0116355677617331 -0.45321279314812402 0 -0.01681511019867191 -0.45281599124287408 0 -0.01255281028239112 -0.45117680618868589 0 -0.01681511019867191 -0.45281599124287408 0 -0.01255281028239112 -0.45117680618868589 0 -0.015361755633898881 -0.45025057895139048 0 -0.01681511019867191 -0.45281599124287408 0 -0.01255281028239112 -0.45117680618868589 0 -0.014074111968911651 -0.4477999998093819 0 -0.01255281028239112 -0.45117680618868589 0 -0.0116355677617331 -0.45321279314812402 0 -0.01255281028239112 -0.45117680618868589 0 -0.015361755633898881 -0.45025057895139048 0 -0.014074111968911651 -0.4477999998093819 0 -0.013451715807841731 -0.44347299961132919 0 -0.014074111968911651 -0.4477999998093819 0 -0.008490975700803146 -0.4496147156109509 0 -0.013451715807841731 -0.44347299961132919 0 -0.014074111968911651 -0.4477999998093819 0 -0.01718570894970162 -0.44632480282174208 0 -0.01255281028239112 -0.45117680618868589 0 -0.008490975700803146 -0.4496147156109509 0 -0.0116355677617331 -0.45321279314812402 0 -0.01255281028239112 -0.45117680618868589 0 -0.008490975700803146 -0.4496147156109509 0 -0.008490975700803146 -0.4496147156109509 0 -0.01029821574952919 -0.45618128969696559 0 -0.0116355677617331 -0.45321279314812402 0 -0.01255281028239112 -0.45117680618868589 0 -0.014074111968911651 -0.4477999998093819 0 -0.008490975700803146 -0.4496147156109509 0 -0.008490975700803146 -0.4496147156109509 0 -0.0116355677617331 -0.45321279314812402 0 -0.01029821574952919 -0.45618128969696559 0 0.0041693236073766524 -0.4638961273049339 0 0.001367869583954965 -0.48207629245983707 0 -0.01029821574952919 -0.45618128969696559 0 -0.016331891731677119 -0.45858637975526662 0 0.001367869583954965 -0.48207629245983707 0 -0.008490975700803146 -0.4496147156109509 0 -0.01029821574952919 -0.45618128969696559 0 0.0031161620136742289 -0.45530284170723789 0 -0.01029821574952919 -0.45618128969696559 0 0.0041693236073766524 -0.4638961273049339 0 0.0031161620136742289 -0.45530284170723789 0 -0.01029821574952919 -0.45618128969696559 0 -0.0116355677617331 -0.45321279314812402 0 -0.01029821574952919 -0.45618128969696559 0 -0.016331891731677119 -0.45858637975526662 0 -0.01029821574952919 -0.45618128969696559 0 -0.0116355677617331 -0.45321279314812402 0 -0.016331891731677119 -0.45858637975526662 0 -0.0116355677617331 -0.45321279314812402 0 -0.016331891731677119 -0.45858637975526662 0 -0.01681511019867191 -0.45281599124287408 0 -0.0116355677617331 -0.45321279314812402 0 -0.016331891731677119 -0.45858637975526662 0 -0.016331891731677119 -0.45858637975526662 0 -0.033820549495001517 -0.46555755239431668 0 -0.016331891731677119 -0.45858637975526662 0 -0.01681511019867191 -0.45281599124287408 0 -0.021586983551244911 -0.45248135458448929 0 -0.016331891731677119 -0.45858637975526662 0 -0.026746410842477919 -0.45594391009222662 0 -0.033820549495001517 -0.46555755239431668 0 -0.016331891731677119 -0.45858637975526662 0 -0.026746410842477919 -0.45594391009222662 0 -0.021586983551244911 -0.45248135458448929 0 -0.016331891731677119 -0.45858637975526662 0 -0.026356392986138961 -0.47005652662524738 0 -0.033820549495001517 -0.46555755239431668 0 -0.016331891731677119 -0.45858637975526662 0 -0.026356392986138961 -0.47005652662524738 0 -0.026746410842477919 -0.45594391009222662 0 -0.02703885549651178 -0.45032221943997758 0 -0.033538010235697323 -0.45347447186390399 0 -0.02703885549651178 -0.45032221943997758 0 -0.02251836002202114 -0.44133264881792161 0 -0.031328284334341802 -0.44659398794761201 0 -0.02703885549651178 -0.45032221943997758 0 -0.031328284334341802 -0.44659398794761201 0 -0.033538010235697323 -0.45347447186390399 0 -0.02703885549651178 -0.45032221943997758 0 -0.02251836002202114 -0.44133264881792161 0 -0.02149425846464522 -0.44753103147462397 0 -0.026746410842477919 -0.45594391009222662 0 -0.02703885549651178 -0.45032221943997758 0 -0.021586983551244911 -0.45248135458448929 0 -0.02251836002202114 -0.44133264881792161 0 -0.018903468421487699 -0.44361046464875797 0 -0.02149425846464522 -0.44753103147462397 0 -0.01650121057911659 -0.43592284220880639 0 -0.02251836002202114 -0.44133264881792161 0 -0.018903468421487699 -0.44361046464875797 0 -0.01650121057911659 -0.43592284220880639 0 -0.013451715807841731 -0.44347299961132919 0 -0.018903468421487699 -0.44361046464875797 0 -0.013451715807841731 -0.44347299961132919 0 -0.018903468421487699 -0.44361046464875797 0 -0.01718570894970162 -0.44632480282174208 0 -0.015361755633898881 -0.45025057895139048 0 -0.014074111968911651 -0.4477999998093819 0 -0.018004990085621821 -0.44920951856461749 0 -0.018903468421487699 -0.44361046464875797 0 -0.01718570894970162 -0.44632480282174208 0 -0.02149425846464522 -0.44753103147462397 0 -0.014074111968911651 -0.4477999998093819 0 -0.01718570894970162 -0.44632480282174208 0 -0.018004990085621821 -0.44920951856461749 0 -0.01718570894970162 -0.44632480282174208 0 -0.018004990085621821 -0.44920951856461749 0 -0.02149425846464522 -0.44753103147462397 0 -0.018004990085621821 -0.44920951856461749 0 -0.01681511019867191 -0.45281599124287408 0 -0.021586983551244911 -0.45248135458448929 0 -0.015361755633898881 -0.45025057895139048 0 -0.018004990085621821 -0.44920951856461749 0 -0.01681511019867191 -0.45281599124287408 0 -0.02703885549651178 -0.45032221943997758 0 -0.021586983551244911 -0.45248135458448929 0 -0.02149425846464522 -0.44753103147462397 0 -0.018004990085621821 -0.44920951856461749 0 -0.021586983551244911 -0.45248135458448929 0 -0.02149425846464522 -0.44753103147462397 0 -0.01224194784849769 -0.5 0 -0.027121754396197711 -0.4910381462299207 0 0.001367869583954965 -0.48207629245983707 0 -0.01224194784849769 -0.5 0 0.001367869583954965 -0.48207629245983707 0 0.0094427674154289355 -0.49999999999999828 0 -0.027121754396197711 -0.4910381462299207 0 0.001367869583954965 -0.48207629245983707 0 -0.016331891731677119 -0.45858637975526662 0 -0.026356392986138961 -0.47005652662524738 0 0.001367869583954965 -0.48207629245983707 0 -0.01029821574952919 -0.45618128969696559 0 0.001367869583954965 -0.48207629245983707 0 -0.026356392986138961 -0.47005652662524738 0 -0.024240963899265791 -0.48078677838110551 0 0.001367869583954965 -0.48207629245983707 0 -0.026356392986138961 -0.47005652662524738 0 -0.024240963899265791 -0.48078677838110551 0 -0.036380894240600842 -0.48152667349522821 0 -0.024240963899265791 -0.48078677838110551 0 -0.027121754396197711 -0.4910381462299207 0 0.001367869583954965 -0.48207629245983707 0 -0.01224194784849769 -0.5 0 -0.027121754396197711 -0.4910381462299207 0 -0.033926663112424371 -0.5 0 -0.024240963899265791 -0.48078677838110551 0 -0.027121754396197711 -0.4910381462299207 0 -0.036380894240600842 -0.48152667349522821 0 -0.027121754396197711 -0.4910381462299207 0 -0.036380894240600842 -0.48152667349522821 0 -0.050356612065808062 -0.49834703163145372 0 -0.027121754396197711 -0.4910381462299207 0 -0.033926663112424371 -0.5 0 -0.050356612065808062 -0.49834703163145372 0 -0.033926663112424371 -0.5 0 -0.055611378376350981 -0.50000000000000222 0 -0.050356612065808062 -0.49834703163145372 0 -0.036380894240600842 -0.48152667349522821 0 -0.050356612065808062 -0.49834703163145372 0 -0.027121754396197711 -0.4910381462299207 0 -0.050356612065808062 -0.49834703163145372 0 -0.036380894240600842 -0.48152667349522821 0 -0.048689749437282853 -0.48506544017766851 0 -0.050356612065808062 -0.49834703163145372 0 -0.026356392986138961 -0.47005652662524738 0 -0.036380894240600842 -0.48152667349522821 0 -0.033820549495001517 -0.46555755239431668 0 -0.036380894240600842 -0.48152667349522821 0 -0.051309207258326342 -0.47252872503336563 0 -0.033820549495001517 -0.46555755239431668 0 -0.051309207258326342 -0.47252872503336563 0 -0.033820549495001517 -0.46555755239431668 0 -0.036380894240600842 -0.48152667349522821 0 -0.051309207258326342 -0.47252872503336563 0 -0.036380894240600842 -0.48152667349522821 0 -0.051309207258326342 -0.47252872503336563 0 -0.048689749437282853 -0.48506544017766851 0 -0.026356392986138961 -0.47005652662524738 0 -0.036380894240600842 -0.48152667349522821 0 -0.051309207258326342 -0.47252872503336563 0 -0.048689749437282853 -0.48506544017766851 0 -0.066701945032644372 -0.47866444075635561 0 -0.051309207258326342 -0.47252872503336563 0 -0.066701945032644372 -0.47866444075635561 0 -0.048689749437282853 -0.48506544017766851 0 -0.057500777082941483 -0.49039098911510359 0 -0.066701945032644372 -0.47866444075635561 0 -0.048689749437282853 -0.48506544017766851 0 -0.057500777082941483 -0.49039098911510359 0 -0.050356612065808062 -0.49834703163145372 0 -0.057500777082941483 -0.49039098911510359 0 -0.055611378376350981 -0.50000000000000222 0 -0.068865021937374274 -0.4907597829570331 0 -0.057500777082941483 -0.49039098911510359 0 -0.055611378376350981 -0.50000000000000222 0 -0.050356612065808062 -0.49834703163145372 0 -0.055611378376350981 -0.50000000000000222 0 -0.050356612065808062 -0.49834703163145372 0 -0.036139118595445947 -0.44673220349322018 0 -0.043579529734614597 -0.45399189962866349 0 -0.053234007280709823 -0.4465236931645134 0 -0.035363599074610827 -0.43196503111631612 0 -0.031328284334341802 -0.44659398794761201 0 -0.036139118595445947 -0.44673220349322018 0 -0.031328284334341802 -0.44659398794761201 0 -0.036139118595445947 -0.44673220349322018 0 -0.033538010235697323 -0.45347447186390399 0 -0.036139118595445947 -0.44673220349322018 0 -0.033538010235697323 -0.45347447186390399 0 -0.043579529734614597 -0.45399189962866349 0 -0.033820549495001517 -0.46555755239431668 0 -0.043579529734614597 -0.45399189962866349 0 -0.052393719649876623 -0.46038501598059262 0 -0.051309207258326342 -0.47252872503336563 0 -0.033820549495001517 -0.46555755239431668 0 -0.052393719649876623 -0.46038501598059262 0 -0.026746410842477919 -0.45594391009222662 0 -0.033538010235697323 -0.45347447186390399 0 -0.033820549495001517 -0.46555755239431668 0 -0.033538010235697323 -0.45347447186390399 0 -0.033820549495001517 -0.46555755239431668 0 -0.043579529734614597 -0.45399189962866349 0 -0.043579529734614597 -0.45399189962866349 0 -0.052393719649876623 -0.46038501598059262 0 -0.053234007280709823 -0.4465236931645134 0 -0.052393719649876623 -0.46038501598059262 0 -0.064481252267154052 -0.45046958483117172 0 -0.069959736108534232 -0.46128723396994592 0 -0.051309207258326342 -0.47252872503336563 0 -0.052393719649876623 -0.46038501598059262 0 -0.069959736108534232 -0.46128723396994592 0 -0.051309207258326342 -0.47252872503336563 0 -0.069959736108534232 -0.46128723396994592 0 -0.053234007280709823 -0.4465236931645134 0 -0.066951430684022123 -0.4400502516403515 0 -0.064481252267154052 -0.45046958483117172 0 -0.052393719649876623 -0.46038501598059262 0 -0.053234007280709823 -0.4465236931645134 0 -0.064481252267154052 -0.45046958483117172 0 -0.054218214580059307 -0.42639048404150692 0 -0.053234007280709823 -0.4465236931645134 0 -0.066951430684022123 -0.4400502516403515 0 -0.054218214580059307 -0.42639048404150692 0 -0.036139118595445947 -0.44673220349322018 0 -0.053234007280709823 -0.4465236931645134 0 -0.064481252267154052 -0.45046958483117172 0 -0.069959736108534232 -0.46128723396994592 0 -0.079867367612627457 -0.444101729400455 0 -0.066951430684022123 -0.4400502516403515 0 -0.064481252267154052 -0.45046958483117172 0 -0.079867367612627457 -0.444101729400455 0 -0.069959736108534232 -0.46128723396994592 0 -0.076327050712074906 -0.47369167445618299 0 -0.08655183890015819 -0.47001486661908631 0 -0.069959736108534232 -0.46128723396994592 0 -0.088116979812619178 -0.45960192199045258 0 -0.08861026495874301 -0.45004574290652782 0 -0.069959736108534232 -0.46128723396994592 0 -0.08861026495874301 -0.45004574290652782 0 -0.069959736108534232 -0.46128723396994592 0 -0.088116979812619178 -0.45960192199045258 0 -0.08655183890015819 -0.47001486661908631 0 -0.088116979812619178 -0.45960192199045258 0 -0.08655183890015819 -0.47001486661908631 0 -0.099185142554807065 -0.4635838094670659 0 -0.088116979812619178 -0.45960192199045258 0 -0.08861026495874301 -0.45004574290652782 0 -0.09835169684233469 -0.45264426994471768 0 -0.069959736108534232 -0.46128723396994592 0 -0.08861026495874301 -0.45004574290652782 0 -0.079867367612627457 -0.444101729400455 0 -0.08861026495874301 -0.45004574290652782 0 -0.090317093083776043 -0.4457057207167367 0 -0.079867367612627457 -0.444101729400455 0 -0.090317093083776043 -0.4457057207167367 0 -0.079867367612627457 -0.444101729400455 0 -0.08040008341822287 -0.42830401303419752 0 -0.055611378376350981 -0.50000000000000222 0 -0.068865021937374274 -0.4907597829570331 0 -0.083023122295300567 -0.5 0 -0.057500777082941483 -0.49039098911510359 0 -0.068865021937374274 -0.4907597829570331 0 -0.066701945032644372 -0.47866444075635561 0 -0.068865021937374274 -0.4907597829570331 0 -0.066701945032644372 -0.47866444075635561 0 -0.082094682806962804 -0.48480015647934432 0 -0.068865021937374274 -0.4907597829570331 0 -0.082094682806962804 -0.48480015647934432 0 -0.083023122295300567 -0.5 0 -0.069959736108534232 -0.46128723396994592 0 -0.066701945032644372 -0.47866444075635561 0 -0.076327050712074906 -0.47369167445618299 0 -0.051309207258326342 -0.47252872503336563 0 -0.069959736108534232 -0.46128723396994592 0 -0.066701945032644372 -0.47866444075635561 0 -0.066701945032644372 -0.47866444075635561 0 -0.082094682806962804 -0.48480015647934432 0 -0.066701945032644372 -0.47866444075635561 0 -0.076327050712074906 -0.47369167445618299 0 -0.082094682806962804 -0.48480015647934432 0 -0.08655183890015819 -0.47001486661908631 0 -0.082094682806962804 -0.48480015647934432 0 -0.1007027674216751 -0.48048124152417859 0 -0.076327050712074906 -0.47369167445618299 0 -0.08655183890015819 -0.47001486661908631 0 -0.082094682806962804 -0.48480015647934432 0 -0.082094682806962804 -0.48480015647934432 0 -0.094063859684547127 -0.49132034950088072 0 -0.1007027674216751 -0.48048124152417859 0 -0.082094682806962804 -0.48480015647934432 0 -0.083023122295300567 -0.5 0 -0.094063859684547127 -0.49132034950088072 0 -0.094063859684547127 -0.49132034950088072 0 -0.1007027674216751 -0.48048124152417859 0 -0.1104348662142501 -0.5 0 -0.083023122295300567 -0.5 0 -0.094063859684547127 -0.49132034950088072 0 -0.1104348662142501 -0.5 0 -0.1007027674216751 -0.48048124152417859 0 -0.099185142554807065 -0.4635838094670659 0 -0.1139086824606783 -0.46800107343514541 0 -0.08655183890015819 -0.47001486661908631 0 -0.1007027674216751 -0.48048124152417859 0 -0.099185142554807065 -0.4635838094670659 0 -0.1333849372163978 -0.47471362282386792 0 -0.1192555726892402 -0.48463918755663837 0 -0.1139086824606783 -0.46800107343514541 0 -0.1007027674216751 -0.48048124152417859 0 -0.1192555726892402 -0.48463918755663837 0 -0.1139086824606783 -0.46800107343514541 0 -0.13784661013319971 -0.5 0 -0.1192555726892402 -0.48463918755663837 0 -0.1104348662142501 -0.5 0 -0.1007027674216751 -0.48048124152417859 0 -0.1192555726892402 -0.48463918755663837 0 -0.1104348662142501 -0.5 0 -0.08861026495874301 -0.45004574290652782 0 -0.1072607938089518 -0.43880425184310962 0 -0.09835169684233469 -0.45264426994471768 0 -0.08861026495874301 -0.45004574290652782 0 -0.1072607938089518 -0.43880425184310962 0 -0.08861026495874301 -0.45004574290652782 0 -0.090317093083776043 -0.4457057207167367 0 -0.1072607938089518 -0.43880425184310962 0 -0.1085675833704421 -0.45215169876741029 0 -0.1072607938089518 -0.43880425184310962 0 -0.09835169684233469 -0.45264426994471768 0 -0.1085675833704421 -0.45215169876741029 0 -0.099185142554807065 -0.4635838094670659 0 -0.1139086824606783 -0.46800107343514541 0 -0.088116979812619178 -0.45960192199045258 0 -0.09835169684233469 -0.45264426994471768 0 -0.099185142554807065 -0.4635838094670659 0 -0.1085675833704421 -0.45215169876741029 0 -0.09835169684233469 -0.45264426994471768 0 -0.099185142554807065 -0.4635838094670659 0 -0.1333849372163978 -0.47471362282386792 0 -0.1139086824606783 -0.46800107343514541 0 -0.1238798396010229 -0.45145108631290121 0 -0.1085675833704421 -0.45215169876741029 0 -0.1139086824606783 -0.46800107343514541 0 -0.1238798396010229 -0.45145108631290121 0 -0.1085675833704421 -0.45215169876741029 0 -0.1072607938089518 -0.43880425184310962 0 -0.1238798396010229 -0.45145108631290121 0 -0.1272513015055963 -0.42741432619112268 0 -0.1072607938089518 -0.43880425184310962 0 -0.1238798396010229 -0.45145108631290121 0 -0.1272513015055963 -0.42741432619112268 0 -0.1072607938089518 -0.43880425184310962 0 -0.1062573022960525 -0.42327972194143548 0 -0.090317093083776043 -0.4457057207167367 0 -0.1062573022960525 -0.42327972194143548 0 -0.09185108153252787 -0.41740785450449319 0 -0.090317093083776043 -0.4457057207167367 0 -0.1072607938089518 -0.43880425184310962 0 -0.1062573022960525 -0.42327972194143548 0 -0.1062573022960525 -0.42327972194143548 0 -0.110318185743438 -0.40826215724168619 0 -0.09185108153252787 -0.41740785450449319 0 -0.1272513015055963 -0.42741432619112268 0 -0.1062573022960525 -0.42327972194143548 0 -0.110318185743438 -0.40826215724168619 0 -0.1344747685878542 -0.40636486414581863 0 -0.1272513015055963 -0.42741432619112268 0 -0.110318185743438 -0.40826215724168619 0 -0.1272513015055963 -0.42741432619112268 0 -0.110318185743438 -0.40826215724168619 0 -0.1344747685878542 -0.40636486414581863 0 -0.110318185743438 -0.40826215724168619 0 -0.12181778925575371 -0.39844338388870459 0 -0.12181778925575371 -0.39844338388870459 0 -0.1155262888794595 -0.38500891988252223 0 -0.10877501563669981 -0.39336423141235111 0 -0.110318185743438 -0.40826215724168619 0 -0.12181778925575371 -0.39844338388870459 0 -0.10877501563669981 -0.39336423141235111 0 -0.13403561704002739 -0.37499600363270391 0 -0.12181778925575371 -0.39844338388870459 0 -0.1155262888794595 -0.38500891988252223 0 -0.13403561704002739 -0.37499600363270391 0 -0.1194655843371064 -0.37170674531406622 0 -0.1155262888794595 -0.38500891988252223 0 -0.1194655843371064 -0.37170674531406622 0 -0.1155262888794595 -0.38500891988252223 0 -0.10965655944320379 -0.37751452663088791 0 -0.10965655944320379 -0.37751452663088791 0 -0.10275488784813849 -0.37862820044229212 0 -0.1028277443235682 -0.38599670775659273 0 -0.1155262888794595 -0.38500891988252223 0 -0.10965655944320379 -0.37751452663088791 0 -0.1028277443235682 -0.38599670775659273 0 -0.1028277443235682 -0.38599670775659273 0 -0.10877501563669981 -0.39336423141235111 0 -0.093385069981279739 -0.38910998829224969 0 -0.1155262888794595 -0.38500891988252223 0 -0.1028277443235682 -0.38599670775659273 0 -0.10877501563669981 -0.39336423141235111 0 -0.1028277443235682 -0.38599670775659273 0 -0.097523627466843232 -0.38410956769445748 0 -0.093385069981279739 -0.38910998829224969 0 -0.097523627466843232 -0.38410956769445748 0 -0.093776947756166823 -0.381880921571215 0 -0.093385069981279739 -0.38910998829224969 0 -0.10275488784813849 -0.37862820044229212 0 -0.1028277443235682 -0.38599670775659273 0 -0.097523627466843232 -0.38410956769445748 0 -0.10275488784813849 -0.37862820044229212 0 -0.097523627466843232 -0.38410956769445748 0 -0.093776947756166823 -0.381880921571215 0 -0.110318185743438 -0.40826215724168619 0 -0.093385069981279739 -0.38910998829224969 0 -0.09185108153252787 -0.41740785450449319 0 -0.110318185743438 -0.40826215724168619 0 -0.10877501563669981 -0.39336423141235111 0 -0.093385069981279739 -0.38910998829224969 0 -0.110318185743438 -0.40826215724168619 0 -0.093385069981279739 -0.38910998829224969 0 -0.09037640654928572 -0.38570704513808018 0 -0.072297310564672604 -0.40604876458979361 0 -0.086977467156941518 -0.39956841313115421 0 -0.09037640654928572 -0.38570704513808018 0 -0.072297310564672604 -0.40604876458979361 0 -0.09037640654928572 -0.38570704513808018 0 -0.072297310564672604 -0.40604876458979361 0 -0.076103244414677862 -0.39122642922788298 0 -0.086977467156941518 -0.39956841313115421 0 -0.093385069981279739 -0.38910998829224969 0 -0.09185108153252787 -0.41740785450449319 0 -0.093385069981279739 -0.38910998829224969 0 -0.09185108153252787 -0.41740785450449319 0 -0.086977467156941518 -0.39956841313115421 0 -0.09037640654928572 -0.38570704513808018 0 -0.093385069981279739 -0.38910998829224969 0 -0.089305959140282082 -0.37854940860711239 0 -0.09037640654928572 -0.38570704513808018 0 -0.083329875418187399 -0.37773707926612882 0 -0.09037640654928572 -0.38570704513808018 0 -0.083329875418187399 -0.37773707926612882 0 -0.089943019202137098 -0.37281061204415589 0 -0.093776947756166823 -0.381880921571215 0 -0.089305959140282082 -0.37854940860711239 0 -0.089943019202137098 -0.37281061204415589 0 -0.089305959140282082 -0.37854940860711239 0 -0.083329875418187399 -0.37773707926612882 0 -0.093776947756166823 -0.381880921571215 0 -0.089305959140282082 -0.37854940860711239 0 -0.09037640654928572 -0.38570704513808018 0 -0.093776947756166823 -0.381880921571215 0 -0.09037640654928572 -0.38570704513808018 0 -0.093385069981279739 -0.38910998829224969 0 -0.093776947756166823 -0.381880921571215 0 -0.093385069981279739 -0.38910998829224969 0 -0.093776947756166823 -0.381880921571215 0 -0.09037640654928572 -0.38570704513808018 0 -0.09037640654928572 -0.38570704513808018 0 -0.093385069981279739 -0.38910998829224969 0 -0.09037640654928572 -0.38570704513808018 0 -0.08023471602810027 -0.3839027218601187 0 -0.076103244414677862 -0.39122642922788298 0 -0.09037640654928572 -0.38570704513808018 0 -0.08023471602810027 -0.3839027218601187 0 -0.083329875418187399 -0.37773707926612882 0 -0.08023471602810027 -0.3839027218601187 0 -0.083329875418187399 -0.37773707926612882 0 -0.071129337730249931 -0.38094033380838282 0 -0.058147249591051699 -0.39016072049415168 0 -0.071129337730249931 -0.38094033380838282 0 -0.076103244414677862 -0.39122642922788298 0 -0.066831075731058426 -0.36821736041666042 0 -0.083329875418187399 -0.37773707926612882 0 -0.071129337730249931 -0.38094033380838282 0 -0.08023471602810027 -0.3839027218601187 0 -0.071129337730249931 -0.38094033380838282 0 -0.076103244414677862 -0.39122642922788298 0 -0.058147249591051699 -0.39016072049415168 0 -0.061642478720483521 -0.37961230380905531 0 -0.071129337730249931 -0.38094033380838282 0 -0.066831075731058426 -0.36821736041666042 0 -0.061642478720483521 -0.37961230380905531 0 -0.071129337730249931 -0.38094033380838282 0 -0.058147249591051699 -0.39016072049415168 0 -0.072297310564672604 -0.40604876458979361 0 -0.076103244414677862 -0.39122642922788298 0 -0.054218214580059307 -0.42639048404150692 0 -0.072297310564672604 -0.40604876458979361 0 -0.054218214580059307 -0.42639048404150692 0 -0.072297310564672604 -0.40604876458979361 0 -0.08040008341822287 -0.42830401303419752 0 -0.054218214580059307 -0.42639048404150692 0 -0.066951430684022123 -0.4400502516403515 0 -0.08040008341822287 -0.42830401303419752 0 -0.066951430684022123 -0.4400502516403515 0 -0.079867367612627457 -0.444101729400455 0 -0.08040008341822287 -0.42830401303419752 0 -0.090317093083776043 -0.4457057207167367 0 -0.08040008341822287 -0.42830401303419752 0 -0.09185108153252787 -0.41740785450449319 0 -0.090317093083776043 -0.4457057207167367 0 -0.09185108153252787 -0.41740785450449319 0 -0.086977467156941518 -0.39956841313115421 0 -0.072297310564672604 -0.40604876458979361 0 -0.09185108153252787 -0.41740785450449319 0 -0.072297310564672604 -0.40604876458979361 0 -0.08040008341822287 -0.42830401303419752 0 -0.09185108153252787 -0.41740785450449319 0 -0.086641807551452121 -0.089857706525528325 0 -0.076870533177213984 -0.074383303996146843 0 -0.1028073127484793 -0.072859735822044663 0 -0.076870533177213984 -0.074383303996146843 0 -0.084252087553963267 -0.06067082283520224 0 -0.074173749765407346 -0.058475782697109638 0 -0.076870533177213984 -0.074383303996146843 0 -0.1028073127484793 -0.072859735822044663 0 -0.084252087553963267 -0.06067082283520224 0 -0.076870533177213984 -0.074383303996146843 0 -0.050852896702191612 -0.066962526099834829 0 -0.076870533177213984 -0.074383303996146843 0 -0.060566372969535653 -0.0822265568142133 0 -0.050852896702191612 -0.066962526099834829 0 -0.076870533177213984 -0.074383303996146843 0 -0.062979033979982585 -0.060662167016319039 0 -0.050852896702191612 -0.066962526099834829 0 -0.076870533177213984 -0.074383303996146843 0 -0.074173749765407346 -0.058475782697109638 0 -0.062979033979982585 -0.060662167016319039 0 -0.086641807551452121 -0.089857706525528325 0 -0.076870533177213984 -0.074383303996146843 0 -0.070759443902044278 -0.097587538592102258 0 -0.070759443902044278 -0.097587538592102258 0 -0.060566372969535653 -0.0822265568142133 0 -0.057440915975040557 -0.098836331457202914 0 -0.076870533177213984 -0.074383303996146843 0 -0.070759443902044278 -0.097587538592102258 0 -0.060566372969535653 -0.0822265568142133 0 -0.070759443902044278 -0.097587538592102258 0 -0.063216140449193714 -0.114329922192949 0 -0.08337921075151683 -0.1149838923318863 0 -0.070759443902044278 -0.097587538592102258 0 -0.063216140449193714 -0.114329922192949 0 -0.057440915975040557 -0.098836331457202914 0 -0.063216140449193714 -0.114329922192949 0 -0.08337921075151683 -0.1149838923318863 0 -0.065789461201513452 -0.13882978760906159 0 -0.086641807551452121 -0.089857706525528325 0 -0.070759443902044278 -0.097587538592102258 0 -0.08337921075151683 -0.1149838923318863 0 -0.086641807551452121 -0.089857706525528325 0 -0.08337921075151683 -0.1149838923318863 0 -0.1016380324132333 -0.10034809147713381 0 -0.1016380324132333 -0.10034809147713381 0 -0.1070098198266619 -0.1238132019720993 0 -0.11545733997741971 -0.10929442453651091 0 -0.08337921075151683 -0.1149838923318863 0 -0.1016380324132333 -0.10034809147713381 0 -0.1070098198266619 -0.1238132019720993 0 -0.1070098198266619 -0.1238132019720993 0 -0.11545733997741971 -0.10929442453651091 0 -0.13092690364411441 -0.1265409505354686 0 -0.11545733997741971 -0.10929442453651091 0 -0.1178841669001897 -0.087472175321314793 0 -0.13065705509224121 -0.1037476996254531 0 -0.1016380324132333 -0.10034809147713381 0 -0.11545733997741971 -0.10929442453651091 0 -0.1178841669001897 -0.087472175321314793 0 -0.1016380324132333 -0.10034809147713381 0 -0.1178841669001897 -0.087472175321314793 0 -0.1028073127484793 -0.072859735822044663 0 -0.086641807551452121 -0.089857706525528325 0 -0.1016380324132333 -0.10034809147713381 0 -0.1028073127484793 -0.072859735822044663 0 -0.1028073127484793 -0.072859735822044663 0 -0.1091755819407214 -0.053660219032921563 0 -0.1028073127484793 -0.072859735822044663 0 -0.097582809850875973 -0.060108248346980517 0 -0.084252087553963267 -0.06067082283520224 0 -0.1028073127484793 -0.072859735822044663 0 -0.1187552070582093 -0.067549590777025603 0 -0.1091755819407214 -0.053660219032921563 0 -0.1178841669001897 -0.087472175321314793 0 -0.1028073127484793 -0.072859735822044663 0 -0.1187552070582093 -0.067549590777025603 0 -0.1178841669001897 -0.087472175321314793 0 -0.1187552070582093 -0.067549590777025603 0 -0.13633038379660131 -0.074063236049282374 0 -0.1187552070582093 -0.067549590777025603 0 -0.1091755819407214 -0.053660219032921563 0 -0.13032092173735429 -0.050714217477754273 0 -0.1155438511329643 -0.034460702243798817 0 -0.1091755819407214 -0.053660219032921563 0 -0.13032092173735429 -0.050714217477754273 0 -0.1155438511329643 -0.034460702243798817 0 -0.1091755819407214 -0.053660219032921563 0 -0.1155438511329643 -0.034460702243798817 0 -0.092108990325596607 -0.048460738020850123 0 -0.1155438511329643 -0.034460702243798817 0 -0.1006299473804472 -0.030831344517563 0 -0.092108990325596607 -0.048460738020850123 0 -0.1155438511329643 -0.034460702243798817 0 -0.1091755819407214 -0.053660219032921563 0 -0.092108990325596607 -0.048460738020850123 0 -0.1091755819407214 -0.053660219032921563 0 -0.097582809850875973 -0.060108248346980517 0 -0.092108990325596607 -0.048460738020850123 0 -0.1028073127484793 -0.072859735822044663 0 -0.1091755819407214 -0.053660219032921563 0 -0.097582809850875973 -0.060108248346980517 0 -0.12182524733560091 -0.015523096402856359 0 -0.1036825067246547 -0.0045004818770412319 0 -0.1140720588942809 0.0050049600080688426 0 -0.12182524733560091 -0.015523096402856359 0 -0.12854145031494629 0.0047253962359545196 0 -0.1140720588942809 0.0050049600080688426 0 -0.1155438511329643 -0.034460702243798817 0 -0.12182524733560091 -0.015523096402856359 0 -0.13098577720095919 -0.025235662709939741 0 -0.1155438511329643 -0.034460702243798817 0 -0.12182524733560091 -0.015523096402856359 0 -0.1006299473804472 -0.030831344517563 0 -0.12182524733560091 -0.015523096402856359 0 -0.1006299473804472 -0.030831344517563 0 -0.1155438511329643 -0.034460702243798817 0 -0.12182524733560091 -0.015523096402856359 0 -0.1155438511329643 -0.034460702243798817 0 -0.13098577720095919 -0.025235662709939741 0 -0.12182524733560091 -0.015523096402856359 0 -0.1006299473804472 -0.030831344517563 0 -0.1016276951379126 -0.016202240437041819 0 -0.1006299473804472 -0.030831344517563 0 -0.1016276951379126 -0.016202240437041819 0 -0.089368645926923201 -0.020903504980655421 0 -0.12182524733560091 -0.015523096402856359 0 -0.1016276951379126 -0.016202240437041819 0 -0.1036825067246547 -0.0045004818770412319 0 -0.1016276951379126 -0.016202240437041819 0 -0.1036825067246547 -0.0045004818770412319 0 -0.093508846051188102 -0.0061041289967056463 0 -0.1016276951379126 -0.016202240437041819 0 -0.093508846051188102 -0.0061041289967056463 0 -0.089368645926923201 -0.020903504980655421 0 -0.1036825067246547 -0.0045004818770412319 0 -0.093508846051188102 -0.0061041289967056463 0 -0.097977441946633964 0.0094916619937897833 0 -0.093508846051188102 -0.0061041289967056463 0 -0.081241390388413409 -0.0097144668808440832 0 -0.086234308810735433 0.0065585250410969426 0 -0.081241390388413409 -0.0097144668808440832 0 -0.071486712659171142 -0.0019413519117704699 0 -0.086234308810735433 0.0065585250410969426 0 -0.093508846051188102 -0.0061041289967056463 0 -0.081241390388413409 -0.0097144668808440832 0 -0.089368645926923201 -0.020903504980655421 0 -0.089368645926923201 -0.020903504980655421 0 -0.079136228461940794 -0.028404699364453681 0 -0.0775279980113176 -0.018691292064058299 0 -0.081241390388413409 -0.0097144668808440832 0 -0.089368645926923201 -0.020903504980655421 0 -0.0775279980113176 -0.018691292064058299 0 -0.1006299473804472 -0.030831344517563 0 -0.089368645926923201 -0.020903504980655421 0 -0.085324788840590443 -0.032662612314520327 0 -0.089368645926923201 -0.020903504980655421 0 -0.079136228461940794 -0.028404699364453681 0 -0.085324788840590443 -0.032662612314520327 0 -0.079136228461940794 -0.028404699364453681 0 -0.069532891256767954 -0.026399857353472219 0 -0.069599729700479424 -0.035646321806430382 0 -0.079136228461940794 -0.028404699364453681 0 -0.069532891256767954 -0.026399857353472219 0 -0.0775279980113176 -0.018691292064058299 0 -0.069532891256767954 -0.026399857353472219 0 -0.069852905135459331 -0.01706696828590943 0 -0.060060063693398162 -0.027139798754781091 0 -0.069532891256767954 -0.026399857353472219 0 -0.069599729700479424 -0.035646321806430382 0 -0.065550560416052256 -0.031547954520313289 0 -0.069532891256767954 -0.026399857353472219 0 -0.065550560416052256 -0.031547954520313289 0 -0.060060063693398162 -0.027139798754781091 0 -0.069852905135459331 -0.01706696828590943 0 -0.0775279980113176 -0.018691292064058299 0 -0.075027251548590371 -0.011853519785645569 0 -0.069532891256767954 -0.026399857353472219 0 -0.069852905135459331 -0.01706696828590943 0 -0.0775279980113176 -0.018691292064058299 0 -0.071486712659171142 -0.0019413519117704699 0 -0.060060063693398162 -0.027139798754781091 0 -0.069852905135459331 -0.01706696828590943 0 -0.071486712659171142 -0.0019413519117704699 0 -0.060060063693398162 -0.027139798754781091 0 -0.071486712659171142 -0.0019413519117704699 0 -0.061634002341188397 -0.01238985637472113 0 -0.060060063693398162 -0.027139798754781091 0 -0.081241390388413409 -0.0097144668808440832 0 -0.075027251548590371 -0.011853519785645569 0 -0.071486712659171142 -0.0019413519117704699 0 -0.081241390388413409 -0.0097144668808440832 0 -0.0775279980113176 -0.018691292064058299 0 -0.075027251548590371 -0.011853519785645569 0 -0.069852905135459331 -0.01706696828590943 0 -0.075027251548590371 -0.011853519785645569 0 -0.071486712659171142 -0.0019413519117704699 0 -0.071486712659171142 -0.0019413519117704699 0 -0.058512249514306398 -0.002368351541725492 0 -0.061634002341188397 -0.01238985637472113 0 -0.081241390388413409 -0.0097144668808440832 0 -0.071486712659171142 -0.0019413519117704699 0 -0.084252087553963267 -0.06067082283520224 0 -0.092108990325596607 -0.048460738020850123 0 -0.079434647425294047 -0.04613959263227032 0 -0.084252087553963267 -0.06067082283520224 0 -0.079434647425294047 -0.04613959263227032 0 -0.074173749765407346 -0.058475782697109638 0 -0.097582809850875973 -0.060108248346980517 0 -0.084252087553963267 -0.06067082283520224 0 -0.092108990325596607 -0.048460738020850123 0 -0.1006299473804472 -0.030831344517563 0 -0.092108990325596607 -0.048460738020850123 0 -0.079434647425294047 -0.04613959263227032 0 -0.1006299473804472 -0.030831344517563 0 -0.085324788840590443 -0.032662612314520327 0 -0.079434647425294047 -0.04613959263227032 0 -0.1006299473804472 -0.030831344517563 0 -0.079434647425294047 -0.04613959263227032 0 -0.085324788840590443 -0.032662612314520327 0 -0.079434647425294047 -0.04613959263227032 0 -0.077263129790127991 -0.037048570076450453 0 -0.079136228461940794 -0.028404699364453681 0 -0.085324788840590443 -0.032662612314520327 0 -0.077263129790127991 -0.037048570076450453 0 -0.079434647425294047 -0.04613959263227032 0 -0.071783490825363255 -0.04250798308850659 0 -0.067332446690582748 -0.050523027005609712 0 -0.079434647425294047 -0.04613959263227032 0 -0.071783490825363255 -0.04250798308850659 0 -0.077263129790127991 -0.037048570076450453 0 -0.079136228461940794 -0.028404699364453681 0 -0.077263129790127991 -0.037048570076450453 0 -0.069599729700479424 -0.035646321806430382 0 -0.071783490825363255 -0.04250798308850659 0 -0.077263129790127991 -0.037048570076450453 0 -0.069599729700479424 -0.035646321806430382 0 -0.063009557013563533 -0.037005840166569479 0 -0.065550560416052256 -0.031547954520313289 0 -0.060060063693398162 -0.027139798754781091 0 -0.069599729700479424 -0.035646321806430382 0 -0.063009557013563533 -0.037005840166569479 0 -0.065287500520332054 -0.043182403921772083 0 -0.069599729700479424 -0.035646321806430382 0 -0.063009557013563533 -0.037005840166569479 0 -0.065550560416052256 -0.031547954520313289 0 -0.071783490825363255 -0.04250798308850659 0 -0.065287500520332054 -0.043182403921772083 0 -0.067332446690582748 -0.050523027005609712 0 -0.071783490825363255 -0.04250798308850659 0 -0.069599729700479424 -0.035646321806430382 0 -0.065287500520332054 -0.043182403921772083 0 -0.067332446690582748 -0.050523027005609712 0 -0.062979033979982585 -0.060662167016319039 0 -0.058921283263176902 -0.051912172557533373 0 -0.065287500520332054 -0.043182403921772083 0 -0.067332446690582748 -0.050523027005609712 0 -0.060723235248039728 -0.046939261305236298 0 -0.079434647425294047 -0.04613959263227032 0 -0.067332446690582748 -0.050523027005609712 0 -0.074173749765407346 -0.058475782697109638 0 -0.067332446690582748 -0.050523027005609712 0 -0.074173749765407346 -0.058475782697109638 0 -0.062979033979982585 -0.060662167016319039 0 -0.048633414727626022 -0.052338245597791849 0 -0.047564236958077141 -0.044800393291365689 0 -0.046940131410059822 -0.065846523029330806 0 -0.047564236958077141 -0.044800393291365689 0 -0.046940131410059822 -0.065846523029330806 0 -0.062979033979982585 -0.060662167016319039 0 -0.053062185991250628 -0.054717717994700793 0 -0.050852896702191612 -0.066962526099834829 0 -0.062979033979982585 -0.060662167016319039 0 -0.053062185991250628 -0.054717717994700793 0 -0.058921283263176902 -0.051912172557533373 0 -0.053062185991250628 -0.054717717994700793 0 -0.048633414727626022 -0.052338245597791849 0 -0.046940131410059822 -0.065846523029330806 0 -0.053062185991250628 -0.054717717994700793 0 -0.050852896702191612 -0.066962526099834829 0 -0.048633414727626022 -0.052338245597791849 0 -0.054584572907550782 -0.047914148632894928 0 -0.057490372858556217 -0.041164554408371377 0 -0.053062185991250628 -0.054717717994700793 0 -0.048633414727626022 -0.052338245597791849 0 -0.05380036422240108 -0.051720571195730217 0 -0.048633414727626022 -0.052338245597791849 0 -0.05380036422240108 -0.051720571195730217 0 -0.054584572907550782 -0.047914148632894928 0 -0.067332446690582748 -0.050523027005609712 0 -0.058921283263176902 -0.051912172557533373 0 -0.060723235248039728 -0.046939261305236298 0 -0.05380036422240108 -0.051720571195730217 0 -0.054584572907550782 -0.047914148632894928 0 -0.058921283263176902 -0.051912172557533373 0 -0.054584572907550782 -0.047914148632894928 0 -0.058921283263176902 -0.051912172557533373 0 -0.060723235248039728 -0.046939261305236298 0 -0.053062185991250628 -0.054717717994700793 0 -0.05380036422240108 -0.051720571195730217 0 -0.058921283263176902 -0.051912172557533373 0 -0.048633414727626022 -0.052338245597791849 0 -0.052388194142889637 -0.035688033877992777 0 -0.047564236958077141 -0.044800393291365689 0 -0.048633414727626022 -0.052338245597791849 0 -0.060060063693398162 -0.027139798754781091 0 -0.052388194142889637 -0.035688033877992777 0 -0.047564236958077141 -0.044800393291365689 0 -0.048188342506094273 -0.023754263553400639 0 -0.065287500520332054 -0.043182403921772083 0 -0.060723235248039728 -0.046939261305236298 0 -0.057490372858556217 -0.041164554408371377 0 -0.048633414727626022 -0.052338245597791849 0 -0.052388194142889637 -0.035688033877992777 0 -0.060060063693398162 -0.027139798754781091 0 -0.047564236958077141 -0.044800393291365689 0 -0.048188342506094273 -0.023754263553400639 0 -0.048633414727626022 -0.052338245597791849 0 -0.057490372858556217 -0.041164554408371377 0 -0.060060063693398162 -0.027139798754781091 0 -0.063009557013563533 -0.037005840166569479 0 -0.065287500520332054 -0.043182403921772083 0 -0.057490372858556217 -0.041164554408371377 0 -0.054584572907550782 -0.047914148632894928 0 -0.060723235248039728 -0.046939261305236298 0 -0.057490372858556217 -0.041164554408371377 0 -0.063009557013563533 -0.037005840166569479 0 -0.057490372858556217 -0.041164554408371377 0 -0.060060063693398162 -0.027139798754781091 0 -0.047564236958077141 -0.044800393291365689 0 -0.040999902580246009 -0.034073414856078607 0 -0.037775796076777883 -0.041990933404727288 0 -0.047564236958077141 -0.044800393291365689 0 -0.037775796076777883 -0.041990933404727288 0 -0.03786401672283507 -0.052399965628294042 0 -0.047564236958077141 -0.044800393291365689 0 -0.040999902580246009 -0.034073414856078607 0 -0.048188342506094273 -0.023754263553400639 0 -0.040999902580246009 -0.034073414856078607 0 -0.035414600816828443 -0.02838459035781557 0 -0.02853407448171897 -0.032411583940171802 0 -0.040999902580246009 -0.034073414856078607 0 -0.037775796076777883 -0.041990933404727288 0 -0.02853407448171897 -0.032411583940171802 0 -0.037775796076777883 -0.041990933404727288 0 -0.03786401672283507 -0.052399965628294042 0 -0.029608662038154529 -0.046050706325775743 0 -0.037775796076777883 -0.041990933404727288 0 -0.029608662038154529 -0.046050706325775743 0 -0.02853407448171897 -0.032411583940171802 0 -0.018406134135962982 -0.057708026034480123 0 -0.046940131410059822 -0.065846523029330806 0 -0.047564236958077141 -0.044800393291365689 0 -0.03786401672283507 -0.052399965628294042 0 -0.046940131410059822 -0.065846523029330806 0 -0.03786401672283507 -0.052399965628294042 0 -0.018406134135962982 -0.057708026034480123 0 -0.046940131410059822 -0.065846523029330806 0 -0.048711118495682479 -0.0061251760765778174 0 -0.05292935103667764 -0.01572729214607739 0 -0.048188342506094273 -0.023754263553400639 0 -0.048711118495682479 -0.0061251760765778174 0 -0.048188342506094273 -0.023754263553400639 0 -0.048711118495682479 -0.0061251760765778174 0 -0.058512249514306398 -0.002368351541725492 0 -0.055322401571001149 -0.0089484214725688658 0 -0.061634002341188397 -0.01238985637472113 0 -0.055322401571001149 -0.0089484214725688658 0 -0.05292935103667764 -0.01572729214607739 0 -0.058512249514306398 -0.002368351541725492 0 -0.061634002341188397 -0.01238985637472113 0 -0.055322401571001149 -0.0089484214725688658 0 -0.048711118495682479 -0.0061251760765778174 0 -0.055322401571001149 -0.0089484214725688658 0 -0.05292935103667764 -0.01572729214607739 0 -0.052988417578496087 -0.021134873193319931 0 -0.05292935103667764 -0.01572729214607739 0 -0.048188342506094273 -0.023754263553400639 0 -0.052988417578496087 -0.021134873193319931 0 -0.05625175729643115 -0.020156178059637781 0 -0.054584219474781287 -0.024901759014163929 0 -0.052988417578496087 -0.021134873193319931 0 -0.054584219474781287 -0.024901759014163929 0 -0.048188342506094273 -0.023754263553400639 0 -0.052988417578496087 -0.021134873193319931 0 -0.05292935103667764 -0.01572729214607739 0 -0.05625175729643115 -0.020156178059637781 0 -0.061634002341188397 -0.01238985637472113 0 -0.05625175729643115 -0.020156178059637781 0 -0.060060063693398162 -0.027139798754781091 0 -0.061634002341188397 -0.01238985637472113 0 -0.05292935103667764 -0.01572729214607739 0 -0.05625175729643115 -0.020156178059637781 0 -0.05625175729643115 -0.020156178059637781 0 -0.060060063693398162 -0.027139798754781091 0 -0.054584219474781287 -0.024901759014163929 0 -0.052388194142889637 -0.035688033877992777 0 -0.060060063693398162 -0.027139798754781091 0 -0.054292344427772227 -0.028609002552051999 0 -0.060060063693398162 -0.027139798754781091 0 -0.054292344427772227 -0.028609002552051999 0 -0.054584219474781287 -0.024901759014163929 0 -0.052388194142889637 -0.035688033877992777 0 -0.054292344427772227 -0.028609002552051999 0 -0.048188342506094273 -0.023754263553400639 0 -0.054292344427772227 -0.028609002552051999 0 -0.054584219474781287 -0.024901759014163929 0 -0.048188342506094273 -0.023754263553400639 0 -0.054584219474781287 -0.024901759014163929 0 -0.048188342506094273 -0.023754263553400639 0 -0.048188342506094273 -0.023754263553400639 0 -0.032543116503993892 -0.020947326223631661 0 -0.04207106360422163 -0.01353430098250028 0 -0.048188342506094273 -0.023754263553400639 0 -0.032543116503993892 -0.020947326223631661 0 -0.048188342506094273 -0.023754263553400639 0 -0.040129620187280772 -0.02692768477132881 0 -0.032543116503993892 -0.020947326223631661 0 -0.040999902580246009 -0.034073414856078607 0 -0.048188342506094273 -0.023754263553400639 0 -0.040129620187280772 -0.02692768477132881 0 -0.035414600816828443 -0.02838459035781557 0 -0.032543116503993892 -0.020947326223631661 0 -0.02853407448171897 -0.032411583940171802 0 -0.040999902580246009 -0.034073414856078607 0 -0.040129620187280772 -0.02692768477132881 0 -0.035414600816828443 -0.02838459035781557 0 -0.040129620187280772 -0.02692768477132881 0 -0.035414600816828443 -0.02838459035781557 0 -0.032543116503993892 -0.020947326223631661 0 -0.032543116503993892 -0.020947326223631661 0 -0.04207106360422163 -0.01353430098250028 0 -0.039385604979905842 -0.001380544215753877 0 -0.032543116503993892 -0.020947326223631661 0 -0.039385604979905842 -0.001380544215753877 0 -0.032543116503993892 -0.020947326223631661 0 -0.039385604979905842 -0.001380544215753877 0 -0.0264311011064059 -0.0053787064823712667 0 -0.048711118495682479 -0.0061251760765778174 0 -0.048188342506094273 -0.023754263553400639 0 -0.04207106360422163 -0.01353430098250028 0 -0.039385604979905842 -0.001380544215753877 0 -0.0264311011064059 -0.0053787064823712667 0 -0.02910033452725326 0.0029567245890428999 0 -0.048711118495682479 -0.0061251760765778174 0 -0.04207106360422163 -0.01353430098250028 0 -0.039385604979905842 -0.001380544215753877 0 -0.032543116503993892 -0.020947326223631661 0 -0.01699800551001408 -0.0081216916378675629 0 -0.002902715634884295 -0.015629490120933679 0 -0.0264311011064059 -0.0053787064823712667 0 -0.01699800551001408 -0.0081216916378675629 0 -0.016748537139514911 0.002749501917021599 0 -0.032543116503993892 -0.020947326223631661 0 -0.0264311011064059 -0.0053787064823712667 0 -0.01699800551001408 -0.0081216916378675629 0 -0.032543116503993892 -0.020947326223631661 0 -0.01406260772622742 -0.030213891336719829 0 -0.002902715634884295 -0.015629490120933679 0 -0.032543116503993892 -0.020947326223631661 0 -0.002902715634884295 -0.015629490120933679 0 -0.032543116503993892 -0.020947326223631661 0 -0.01406260772622742 -0.030213891336719829 0 -0.02853407448171897 -0.032411583940171802 0 -0.032543116503993892 -0.020947326223631661 0 -0.02853407448171897 -0.032411583940171802 0 -0.01406260772622742 -0.030213891336719829 0 -0.002902715634884295 -0.015629490120933679 0 0.0031290989705711758 -0.029797021315310531 0 -0.01699800551001408 -0.0081216916378675629 0 -0.002902715634884295 -0.015629490120933679 0 -0.0056325041382708106 -0.001671571725724148 0 -0.002902715634884295 -0.015629490120933679 0 -0.0056325041382708106 -0.001671571725724148 0 0.0068720610923031717 -0.0055029179110838711 0 -0.01699800551001408 -0.0081216916378675629 0 -0.0056325041382708106 -0.001671571725724148 0 -0.016748537139514911 0.002749501917021599 0 -0.03786401672283507 -0.052399965628294042 0 -0.018406134135962982 -0.057708026034480123 0 -0.029608662038154529 -0.046050706325775743 0 -0.018406134135962982 -0.057708026034480123 0 -0.029608662038154529 -0.046050706325775743 0 -0.01973942659402618 -0.042027535521083542 0 -0.029608662038154529 -0.046050706325775743 0 -0.02853407448171897 -0.032411583940171802 0 -0.01973942659402618 -0.042027535521083542 0 -0.01406260772622742 -0.030213891336719829 0 -0.02853407448171897 -0.032411583940171802 0 -0.01973942659402618 -0.042027535521083542 0 -0.01406260772622742 -0.030213891336719829 0 -0.0078170970257354904 -0.042035043314792367 0 0.0031290989705711758 -0.029797021315310531 0 -0.01406260772622742 -0.030213891336719829 0 -0.01973942659402618 -0.042027535521083542 0 -0.0078170970257354904 -0.042035043314792367 0 -0.018406134135962982 -0.057708026034480123 0 -0.0078170970257354904 -0.042035043314792367 0 0.010127863138133689 -0.049569529039628912 0 -0.018406134135962982 -0.057708026034480123 0 0.010127863138133689 -0.049569529039628912 0 -0.018406134135962982 -0.057708026034480123 0 0.0056488667538581293 -0.065527085463935736 0 0.010127863138133689 -0.049569529039628912 0 -0.018406134135962982 -0.057708026034480123 0 -0.01973942659402618 -0.042027535521083542 0 -0.0078170970257354904 -0.042035043314792367 0 -0.018406134135962982 -0.057708026034480123 0 -0.0057488126967492458 -0.077864854612590587 0 0.0056488667538581293 -0.065527085463935736 0 -0.0057488126967492458 -0.077864854612590587 0 -0.0192993204778612 -0.089616024626191337 0 -0.0064178238754883671 -0.095728903008746299 0 -0.0057488126967492458 -0.077864854612590587 0 -0.0064178238754883671 -0.095728903008746299 0 0.0086630023115394222 -0.091407271345933974 0 -0.0057488126967492458 -0.077864854612590587 0 -0.0192993204778612 -0.089616024626191337 0 -0.030194712640123491 -0.079005430161347423 0 -0.0192993204778612 -0.089616024626191337 0 -0.030194712640123491 -0.079005430161347423 0 -0.030740920476551529 -0.092921286473910403 0 -0.018406134135962982 -0.057708026034480123 0 -0.0057488126967492458 -0.077864854612590587 0 -0.030194712640123491 -0.079005430161347423 0 -0.018406134135962982 -0.057708026034480123 0 -0.030194712640123491 -0.079005430161347423 0 -0.046940131410059822 -0.065846523029330806 0 -0.046130959150176808 -0.093133485011905798 0 -0.046940131410059822 -0.065846523029330806 0 -0.030194712640123491 -0.079005430161347423 0 -0.046130959150176808 -0.093133485011905798 0 -0.046940131410059822 -0.065846523029330806 0 -0.030194712640123491 -0.079005430161347423 0 -0.030740920476551529 -0.092921286473910403 0 -0.046130959150176808 -0.093133485011905798 0 -0.046130959150176808 -0.093133485011905798 0 -0.060566372969535653 -0.0822265568142133 0 -0.057440915975040557 -0.098836331457202914 0 -0.046130959150176808 -0.093133485011905798 0 -0.060566372969535653 -0.0822265568142133 0 -0.050852896702191612 -0.066962526099834829 0 -0.046130959150176808 -0.093133485011905798 0 -0.050852896702191612 -0.066962526099834829 0 -0.046130959150176808 -0.093133485011905798 0 -0.050852896702191612 -0.066962526099834829 0 -0.046940131410059822 -0.065846523029330806 0 -0.053062185991250628 -0.054717717994700793 0 -0.050852896702191612 -0.066962526099834829 0 -0.046940131410059822 -0.065846523029330806 0 -0.050852896702191612 -0.066962526099834829 0 -0.046940131410059822 -0.065846523029330806 0 -0.052073512718747529 -0.11091963612683919 0 -0.042500922524487297 -0.1132526709040811 0 -0.05136941187484477 -0.12523985298404811 0 -0.063216140449193714 -0.114329922192949 0 -0.052073512718747529 -0.11091963612683919 0 -0.05136941187484477 -0.12523985298404811 0 -0.063216140449193714 -0.114329922192949 0 -0.052073512718747529 -0.11091963612683919 0 -0.057440915975040557 -0.098836331457202914 0 -0.046130959150176808 -0.093133485011905798 0 -0.057440915975040557 -0.098836331457202914 0 -0.045840172770171342 -0.10293940309591471 0 -0.052073512718747529 -0.11091963612683919 0 -0.057440915975040557 -0.098836331457202914 0 -0.045840172770171342 -0.10293940309591471 0 -0.046130959150176808 -0.093133485011905798 0 -0.035655763720785189 -0.10211594544835401 0 -0.042500922524487297 -0.1132526709040811 0 -0.046130959150176808 -0.093133485011905798 0 -0.045840172770171342 -0.10293940309591471 0 -0.042500922524487297 -0.1132526709040811 0 -0.052073512718747529 -0.11091963612683919 0 -0.045840172770171342 -0.10293940309591471 0 -0.042500922524487297 -0.1132526709040811 0 -0.046130959150176808 -0.093133485011905798 0 -0.042500922524487297 -0.1132526709040811 0 -0.046130959150176808 -0.093133485011905798 0 -0.045840172770171342 -0.10293940309591471 0 -0.030740920476551529 -0.092921286473910403 0 -0.046130959150176808 -0.093133485011905798 0 -0.035655763720785189 -0.10211594544835401 0 -0.035655763720785189 -0.10211594544835401 0 -0.03183517801372588 -0.10933594068392891 0 -0.042500922524487297 -0.1132526709040811 0 -0.042500922524487297 -0.1132526709040811 0 -0.038870885898797947 -0.13337185679625649 0 -0.03183517801372588 -0.10933594068392891 0 -0.042500922524487297 -0.1132526709040811 0 -0.025789693109237639 -0.1194154975089186 0 -0.042500922524487297 -0.1132526709040811 0 -0.025789693109237639 -0.1194154975089186 0 -0.038870885898797947 -0.13337185679625649 0 -0.042500922524487297 -0.1132526709040811 0 -0.05136941187484477 -0.12523985298404811 0 -0.038870885898797947 -0.13337185679625649 0 -0.025789693109237639 -0.1194154975089186 0 -0.0233943327003934 -0.102559648874362 0 -0.0088475822703880137 -0.1121173624287804 0 -0.03183517801372588 -0.10933594068392891 0 -0.025789693109237639 -0.1194154975089186 0 -0.0233943327003934 -0.102559648874362 0 -0.0192993204778612 -0.089616024626191337 0 -0.0233943327003934 -0.102559648874362 0 -0.0064178238754883671 -0.095728903008746299 0 -0.030740920476551529 -0.092921286473910403 0 -0.035655763720785189 -0.10211594544835401 0 -0.0233943327003934 -0.102559648874362 0 -0.0192993204778612 -0.089616024626191337 0 -0.030740920476551529 -0.092921286473910403 0 -0.0233943327003934 -0.102559648874362 0 -0.035655763720785189 -0.10211594544835401 0 -0.03183517801372588 -0.10933594068392891 0 -0.0233943327003934 -0.102559648874362 0 -0.0233943327003934 -0.102559648874362 0 -0.0064178238754883671 -0.095728903008746299 0 -0.0088475822703880137 -0.1121173624287804 0 -0.0064178238754883671 -0.095728903008746299 0 -0.0088475822703880137 -0.1121173624287804 0 0.0080312610179324 -0.1062209242384643 0 -0.0088475822703880137 -0.1121173624287804 0 -0.0095636458269275949 -0.13064788567915631 0 0.0038204708684723399 -0.1199975449956384 0 -0.025789693109237639 -0.1194154975089186 0 -0.0088475822703880137 -0.1121173624287804 0 -0.0095636458269275949 -0.13064788567915631 0 -0.0095636458269275949 -0.13064788567915631 0 -0.0016517895909729759 -0.14913519766653521 0 0.0090665138201122611 -0.13458367275464961 0 -0.0095636458269275949 -0.13064788567915631 0 -0.025327914197250449 -0.13703274264739981 0 -0.017174496878180429 -0.1482374305642358 0 -0.025789693109237639 -0.1194154975089186 0 -0.025327914197250449 -0.13703274264739981 0 -0.038870885898797947 -0.13337185679625649 0 -0.025789693109237639 -0.1194154975089186 0 -0.0095636458269275949 -0.13064788567915631 0 -0.025327914197250449 -0.13703274264739981 0 -0.025327914197250449 -0.13703274264739981 0 -0.017174496878180429 -0.1482374305642358 0 -0.035240849273108603 -0.15349104268843189 0 -0.017174496878180429 -0.1482374305642358 0 -0.027878758612033299 -0.1648620794893364 0 -0.035240849273108603 -0.15349104268843189 0 -0.0095636458269275949 -0.13064788567915631 0 -0.017174496878180429 -0.1482374305642358 0 -0.0016517895909729759 -0.14913519766653521 0 -0.017174496878180429 -0.1482374305642358 0 -0.0016517895909729759 -0.14913519766653521 0 -0.0094394010493911388 -0.16441980552007959 0 -0.0016517895909729759 -0.14913519766653521 0 -0.0094394010493911388 -0.16441980552007959 0 0.0064191928339507407 -0.164292436503471 0 -0.0094394010493911388 -0.16441980552007959 0 -0.0065904008473937452 -0.17748729088198689 0 0.0064191928339507407 -0.164292436503471 0 -0.0065904008473937452 -0.17748729088198689 0 -0.019355071396077748 -0.17643872387955539 0 -0.011684435195542121 -0.19235029798179959 0 -0.0065904008473937452 -0.17748729088198689 0 -0.011684435195542121 -0.19235029798179959 0 0.0089288639899517616 -0.1799517076714372 0 -0.0094394010493911388 -0.16441980552007959 0 -0.0065904008473937452 -0.17748729088198689 0 -0.019355071396077748 -0.17643872387955539 0 -0.019355071396077748 -0.17643872387955539 0 -0.039255058066132442 -0.18172219091421191 0 -0.011684435195542121 -0.19235029798179959 0 -0.019355071396077748 -0.17643872387955539 0 -0.027878758612033299 -0.1648620794893364 0 -0.039255058066132442 -0.18172219091421191 0 -0.039255058066132442 -0.18172219091421191 0 -0.011684435195542121 -0.19235029798179959 0 -0.0094394010493911388 -0.16441980552007959 0 -0.019355071396077748 -0.17643872387955539 0 -0.027878758612033299 -0.1648620794893364 0 -0.017174496878180429 -0.1482374305642358 0 -0.0094394010493911388 -0.16441980552007959 0 -0.027878758612033299 -0.1648620794893364 0 -0.027878758612033299 -0.1648620794893364 0 -0.046807675009309449 -0.16486328336950401 0 -0.039255058066132442 -0.18172219091421191 0 -0.027878758612033299 -0.1648620794893364 0 -0.046807675009309449 -0.16486328336950401 0 -0.035240849273108603 -0.15349104268843189 0 -0.039255058066132442 -0.18172219091421191 0 -0.066825680936722795 -0.17109408384662431 0 -0.039255058066132442 -0.18172219091421191 0 -0.056503149089448139 -0.1992335659070881 0 -0.066825680936722795 -0.17109408384662431 0 -0.046807675009309449 -0.16486328336950401 0 -0.039255058066132442 -0.18172219091421191 0 -0.066825680936722795 -0.17109408384662431 0 -0.046807675009309449 -0.16486328336950401 0 -0.050817327365716161 -0.1478149845489877 0 -0.066825680936722795 -0.17109408384662431 0 -0.050817327365716161 -0.1478149845489877 0 -0.065789461201513452 -0.13882978760906159 0 -0.066825680936722795 -0.17109408384662431 0 -0.050817327365716161 -0.1478149845489877 0 -0.05136941187484477 -0.12523985298404811 0 -0.038870885898797947 -0.13337185679625649 0 -0.050817327365716161 -0.1478149845489877 0 -0.05136941187484477 -0.12523985298404811 0 -0.065789461201513452 -0.13882978760906159 0 -0.063216140449193714 -0.114329922192949 0 -0.05136941187484477 -0.12523985298404811 0 -0.065789461201513452 -0.13882978760906159 0 -0.046807675009309449 -0.16486328336950401 0 -0.050817327365716161 -0.1478149845489877 0 -0.035240849273108603 -0.15349104268843189 0 -0.038870885898797947 -0.13337185679625649 0 -0.035240849273108603 -0.15349104268843189 0 -0.025327914197250449 -0.13703274264739981 0 -0.038870885898797947 -0.13337185679625649 0 -0.035240849273108603 -0.15349104268843189 0 -0.050817327365716161 -0.1478149845489877 0 -0.038870885898797947 -0.13337185679625649 0 -0.035240849273108603 -0.15349104268843189 0 -0.02258028236581823 -0.24850611916615931 0 -0.0042469490959310546 -0.24105588206608369 0 -0.022433879890756511 -0.23031533121802281 0 -0.02258028236581823 -0.24850611916615931 0 -0.022433879890756511 -0.23031533121802281 0 -0.037015257496916913 -0.24268092961745849 0 -0.0042469490959310546 -0.24105588206608369 0 -0.0075191979051155893 -0.22189190745688231 0 -0.022433879890756511 -0.23031533121802281 0 -0.0042469490959310546 -0.24105588206608369 0 -0.0075191979051155893 -0.22189190745688231 0 0.0080886019295227304 -0.22334361936230621 0 -0.0075191979051155893 -0.22189190745688231 0 -0.022433879890756511 -0.23031533121802281 0 -0.01809097832856018 -0.20917685360831631 0 -0.01809097832856018 -0.20917685360831631 0 -0.023632623074888979 -0.19201780928416379 0 -0.039243115148502858 -0.21673316951537391 0 -0.022433879890756511 -0.23031533121802281 0 -0.01809097832856018 -0.20917685360831631 0 -0.039243115148502858 -0.21673316951537391 0 -0.01809097832856018 -0.20917685360831631 0 -0.001950199932115194 -0.2097495786964387 0 -0.011684435195542121 -0.19235029798179959 0 -0.0075191979051155893 -0.22189190745688231 0 -0.01809097832856018 -0.20917685360831631 0 -0.001950199932115194 -0.2097495786964387 0 -0.0075191979051155893 -0.22189190745688231 0 -0.001950199932115194 -0.2097495786964387 0 0.0080886019295227304 -0.22334361936230621 0 -0.039255058066132442 -0.18172219091421191 0 -0.011684435195542121 -0.19235029798179959 0 -0.023632623074888979 -0.19201780928416379 0 -0.01809097832856018 -0.20917685360831631 0 -0.011684435195542121 -0.19235029798179959 0 -0.023632623074888979 -0.19201780928416379 0 -0.023632623074888979 -0.19201780928416379 0 -0.039658486344743102 -0.1974266839052094 0 -0.039243115148502858 -0.21673316951537391 0 -0.039255058066132442 -0.18172219091421191 0 -0.023632623074888979 -0.19201780928416379 0 -0.039658486344743102 -0.1974266839052094 0 -0.039255058066132442 -0.18172219091421191 0 -0.039658486344743102 -0.1974266839052094 0 -0.056503149089448139 -0.1992335659070881 0 -0.056503149089448139 -0.1992335659070881 0 -0.039243115148502858 -0.21673316951537391 0 -0.063461304414367314 -0.2221677618094664 0 -0.039658486344743102 -0.1974266839052094 0 -0.056503149089448139 -0.1992335659070881 0 -0.039243115148502858 -0.21673316951537391 0 -0.023632623074888979 -0.19201780928416379 0 -0.039243115148502858 -0.21673316951537391 0 -0.039243115148502858 -0.21673316951537391 0 -0.054853607222116879 -0.24144852974658429 0 -0.037015257496916913 -0.24268092961745849 0 -0.022433879890756511 -0.23031533121802281 0 -0.039243115148502858 -0.21673316951537391 0 -0.037015257496916913 -0.24268092961745849 0 -0.039243115148502858 -0.21673316951537391 0 -0.054853607222116879 -0.24144852974658429 0 -0.063461304414367314 -0.2221677618094664 0 -0.039243115148502858 -0.21673316951537391 0 -0.054853607222116879 -0.24144852974658429 0 -0.049996963324905087 -0.25986794633752452 0 -0.054853607222116879 -0.24144852974658429 0 -0.037015257496916913 -0.24268092961745849 0 -0.0889106203226466 -0.25070880179025701 0 -0.071960244748720911 -0.24191037302126911 0 -0.082710506610490842 -0.22967556715644799 0 -0.0889106203226466 -0.25070880179025701 0 -0.082710506610490842 -0.22967556715644799 0 -0.1073571413495695 -0.2352537136027161 0 -0.054853607222116879 -0.24144852974658429 0 -0.071960244748720911 -0.24191037302126911 0 -0.063461304414367314 -0.2221677618094664 0 -0.070464099295724392 -0.26616388997779877 0 -0.054853607222116879 -0.24144852974658429 0 -0.071960244748720911 -0.24191037302126911 0 -0.071960244748720911 -0.24191037302126911 0 -0.063461304414367314 -0.2221677618094664 0 -0.082710506610490842 -0.22967556715644799 0 -0.063461304414367314 -0.2221677618094664 0 -0.082710506610490842 -0.22967556715644799 0 -0.081764241036819785 -0.21041650526575151 0 -0.082710506610490842 -0.22967556715644799 0 -0.081764241036819785 -0.21041650526575151 0 -0.10107004364483881 -0.21942016767359149 0 -0.056503149089448139 -0.1992335659070881 0 -0.063461304414367314 -0.2221677618094664 0 -0.081764241036819785 -0.21041650526575151 0 -0.056503149089448139 -0.1992335659070881 0 -0.081764241036819785 -0.21041650526575151 0 -0.085595787846451749 -0.1868426035143782 0 -0.081764241036819785 -0.21041650526575151 0 -0.1077146668508213 -0.20195642692786689 0 -0.085595787846451749 -0.1868426035143782 0 -0.1077146668508213 -0.20195642692786689 0 -0.085595787846451749 -0.1868426035143782 0 -0.1077846154709222 -0.1811669103367502 0 -0.1077146668508213 -0.20195642692786689 0 -0.13028668286636291 -0.20456095131218849 0 -0.12570726048984121 -0.19136794154072639 0 -0.1077146668508213 -0.20195642692786689 0 -0.1077846154709222 -0.1811669103367502 0 -0.12570726048984121 -0.19136794154072639 0 -0.1077146668508213 -0.20195642692786689 0 -0.10107004364483881 -0.21942016767359149 0 -0.1258036623764924 -0.21979862541517509 0 -0.1077146668508213 -0.20195642692786689 0 -0.1258036623764924 -0.21979862541517509 0 -0.13028668286636291 -0.20456095131218849 0 -0.081764241036819785 -0.21041650526575151 0 -0.1077146668508213 -0.20195642692786689 0 -0.10107004364483881 -0.21942016767359149 0 -0.082710506610490842 -0.22967556715644799 0 -0.10107004364483881 -0.21942016767359149 0 -0.1073571413495695 -0.2352537136027161 0 -0.10107004364483881 -0.21942016767359149 0 -0.1073571413495695 -0.2352537136027161 0 -0.1258036623764924 -0.21979862541517509 0 -0.1244732572907425 -0.23694673844022579 0 -0.1073571413495695 -0.2352537136027161 0 -0.1258036623764924 -0.21979862541517509 0 -0.1073571413495695 -0.2352537136027161 0 -0.1258036623764924 -0.21979862541517509 0 -0.1187161955354217 -0.24568453992089831 0 -0.1244732572907425 -0.23694673844022579 0 -0.1073571413495695 -0.2352537136027161 0 -0.13145879489179529 -0.2526639271976463 0 -0.1187161955354217 -0.24568453992089831 0 -0.1244732572907425 -0.23694673844022579 0 -0.11157558860957981 -0.25787378044300507 0 -0.1187161955354217 -0.24568453992089831 0 -0.1073571413495695 -0.2352537136027161 0 -0.11157558860957981 -0.25787378044300507 0 -0.0889106203226466 -0.25070880179025701 0 -0.1073571413495695 -0.2352537136027161 0 -0.0889106203226466 -0.25070880179025701 0 -0.1073571413495695 -0.2352537136027161 0 -0.079585289977758572 -0.15205623460722839 0 -0.065789461201513452 -0.13882978760906159 0 -0.066825680936722795 -0.17109408384662431 0 -0.079585289977758572 -0.15205623460722839 0 -0.092843917422119338 -0.1394349798543188 0 -0.065789461201513452 -0.13882978760906159 0 -0.079585289977758572 -0.15205623460722839 0 -0.092843917422119338 -0.1394349798543188 0 -0.09439630380731312 -0.1604659767790366 0 -0.08337921075151683 -0.1149838923318863 0 -0.092843917422119338 -0.1394349798543188 0 -0.065789461201513452 -0.13882978760906159 0 -0.056503149089448139 -0.1992335659070881 0 -0.066825680936722795 -0.17109408384662431 0 -0.085595787846451749 -0.1868426035143782 0 -0.066825680936722795 -0.17109408384662431 0 -0.085595787846451749 -0.1868426035143782 0 -0.09439630380731312 -0.1604659767790366 0 -0.079585289977758572 -0.15205623460722839 0 -0.066825680936722795 -0.17109408384662431 0 -0.09439630380731312 -0.1604659767790366 0 -0.066825680936722795 -0.17109408384662431 0 -0.09439630380731312 -0.1604659767790366 0 -0.09439630380731312 -0.1604659767790366 0 -0.1077846154709222 -0.1811669103367502 0 -0.1182738237979221 -0.16704065101966981 0 -0.085595787846451749 -0.1868426035143782 0 -0.09439630380731312 -0.1604659767790366 0 -0.1077846154709222 -0.1811669103367502 0 -0.1077846154709222 -0.1811669103367502 0 -0.1348672452572483 -0.17289155333416559 0 -0.12570726048984121 -0.19136794154072639 0 -0.1077846154709222 -0.1811669103367502 0 -0.1348672452572483 -0.17289155333416559 0 -0.1077846154709222 -0.1811669103367502 0 -0.1182738237979221 -0.16704065101966981 0 -0.1348672452572483 -0.17289155333416559 0 -0.09439630380731312 -0.1604659767790366 0 -0.1182738237979221 -0.16704065101966981 0 -0.1219669266779035 -0.14983786971144891 0 -0.092843917422119338 -0.1394349798543188 0 -0.09439630380731312 -0.1604659767790366 0 -0.1219669266779035 -0.14983786971144891 0 -0.09439630380731312 -0.1604659767790366 0 -0.1219669266779035 -0.14983786971144891 0 -0.1070098198266619 -0.1238132019720993 0 -0.092843917422119338 -0.1394349798543188 0 -0.1219669266779035 -0.14983786971144891 0 -0.08337921075151683 -0.1149838923318863 0 -0.1070098198266619 -0.1238132019720993 0 -0.092843917422119338 -0.1394349798543188 0 -0.1070098198266619 -0.1238132019720993 0 -0.1219669266779035 -0.14983786971144891 0 -0.13092690364411441 -0.1265409505354686 0 -0.1219669266779035 -0.14983786971144891 0 -0.13092690364411441 -0.1265409505354686 0 -0.1495375495484938 -0.13920976264386131 0 -0.13092690364411441 -0.1265409505354686 0 -0.14585925972330091 -0.12642845074079229 0 -0.1495375495484938 -0.13920976264386131 0 -0.14585925972330091 -0.12642845074079229 0 -0.1495375495484938 -0.13920976264386131 0 -0.15639221479190751 -0.1247511956167188 0 -0.1495375495484938 -0.13920976264386131 0 -0.14052905172606081 -0.1579207068024307 0 -0.1565788900312228 -0.1539282077738576 0 -0.1219669266779035 -0.14983786971144891 0 -0.1495375495484938 -0.13920976264386131 0 -0.14052905172606081 -0.1579207068024307 0 -0.1219669266779035 -0.14983786971144891 0 -0.1495375495484938 -0.13920976264386131 0 -0.1182738237979221 -0.16704065101966981 0 -0.14052905172606081 -0.1579207068024307 0 -0.1348672452572483 -0.17289155333416559 0 -0.1182738237979221 -0.16704065101966981 0 -0.1219669266779035 -0.14983786971144891 0 -0.14052905172606081 -0.1579207068024307 0 -0.1348672452572483 -0.17289155333416559 0 -0.12570726048984121 -0.19136794154072639 0 -0.13996907400678371 -0.1879713947995747 0 -0.1348672452572483 -0.17289155333416559 0 -0.15135463223807441 -0.1802623341376309 0 -0.13996907400678371 -0.1879713947995747 0 -0.1348672452572483 -0.17289155333416559 0 -0.15135463223807441 -0.1802623341376309 0 -0.16194987504357461 -0.16461619633158159 0 -0.15135463223807441 -0.1802623341376309 0 -0.13996907400678371 -0.1879713947995747 0 -0.1501525800939332 -0.1916447189057128 0 -0.15135463223807441 -0.1802623341376309 0 -0.16444836310021591 -0.18742085310816081 0 -0.1501525800939332 -0.1916447189057128 0 -0.14052905172606081 -0.1579207068024307 0 -0.16194987504357461 -0.16461619633158159 0 -0.1565788900312228 -0.1539282077738576 0 -0.14052905172606081 -0.1579207068024307 0 -0.1348672452572483 -0.17289155333416559 0 -0.16194987504357461 -0.16461619633158159 0 -0.1348672452572483 -0.17289155333416559 0 -0.16194987504357461 -0.16461619633158159 0 -0.16194987504357461 -0.16461619633158159 0 -0.1644332209404851 -0.16385738620051341 0 -0.1565788900312228 -0.1539282077738576 0 -0.15135463223807441 -0.1802623341376309 0 -0.16194987504357461 -0.16461619633158159 0 -0.16267611831738249 -0.16606138371951709 0 -0.16194987504357461 -0.16461619633158159 0 -0.1565788900312228 -0.1539282077738576 0 -0.16267611831738249 -0.16606138371951709 0 -0.1644332209404851 -0.16385738620051341 0 -0.16194987504357461 -0.16461619633158159 0 -0.1644332209404851 -0.16385738620051341 0 -0.16194987504357461 -0.16461619633158159 0 -0.16267611831738249 -0.16606138371951709 0 -0.1644332209404851 -0.16385738620051341 0 -0.16194987504357461 -0.16461619633158159 0 -0.16267611831738249 -0.16606138371951709 0 -0.16267611831738249 -0.16606138371951709 0 -0.1711512238048282 -0.17175659658039399 0 -0.1644332209404851 -0.16385738620051341 0 -0.1711512238048282 -0.17175659658039399 0 -0.1644332209404851 -0.16385738620051341 0 -0.17821001311716919 -0.16652238839260031 0 -0.15135463223807441 -0.1802623341376309 0 -0.16858948714723851 -0.17782868864511539 0 -0.16444836310021591 -0.18742085310816081 0 -0.1711512238048282 -0.17175659658039399 0 -0.16858948714723851 -0.17782868864511539 0 -0.17486928145899069 -0.19032516174913211 0 -0.15135463223807441 -0.1802623341376309 0 -0.16267611831738249 -0.16606138371951709 0 -0.16858948714723851 -0.17782868864511539 0 -0.15135463223807441 -0.1802623341376309 0 -0.16267611831738249 -0.16606138371951709 0 -0.16267611831738249 -0.16606138371951709 0 -0.1711512238048282 -0.17175659658039399 0 -0.16858948714723851 -0.17782868864511539 0 -0.16267611831738249 -0.16606138371951709 0 -0.16858948714723851 -0.17782868864511539 0 -0.16858948714723851 -0.17782868864511539 0 -0.16444836310021591 -0.18742085310816081 0 -0.16858948714723851 -0.17782868864511539 0 -0.16444836310021591 -0.18742085310816081 0 -0.17486928145899069 -0.19032516174913211 0 -0.16858948714723851 -0.17782868864511539 0 -0.17486928145899069 -0.19032516174913211 0 -0.1711512238048282 -0.17175659658039399 0 -0.17897754726419091 -0.17979516207091589 0 -0.17486928145899069 -0.19032516174913211 0 -0.17897754726419091 -0.17979516207091589 0 -0.18499632321587209 -0.18632912630854739 0 -0.17486928145899069 -0.19032516174913211 0 -0.1711512238048282 -0.17175659658039399 0 -0.17897754726419091 -0.17979516207091589 0 -0.1783585260734207 -0.17322696892317921 0 -0.1783585260734207 -0.17322696892317921 0 -0.18551238176784271 -0.17733795679332701 0 -0.18380244461565159 -0.1696600613861575 0 -0.18551238176784271 -0.17733795679332701 0 -0.18380244461565159 -0.1696600613861575 0 -0.19114585085426569 -0.17219698820699511 0 -0.17897754726419091 -0.17979516207091589 0 -0.1783585260734207 -0.17322696892317921 0 -0.18551238176784271 -0.17733795679332701 0 -0.17897754726419091 -0.17979516207091589 0 -0.18551238176784271 -0.17733795679332701 0 -0.18499632321587209 -0.18632912630854739 0 -0.1644332209404851 -0.16385738620051341 0 -0.17821001311716919 -0.16652238839260031 0 -0.18500883319888761 -0.15757031074556499 0 -0.1644332209404851 -0.16385738620051341 0 -0.18500883319888761 -0.15757031074556499 0 -0.1711512238048282 -0.17175659658039399 0 -0.1783585260734207 -0.17322696892317921 0 -0.17821001311716919 -0.16652238839260031 0 -0.17821001311716919 -0.16652238839260031 0 -0.18380244461565159 -0.1696600613861575 0 -0.18650583006974161 -0.1630630065197918 0 -0.18380244461565159 -0.1696600613861575 0 -0.18650583006974161 -0.1630630065197918 0 -0.19114585085426569 -0.17219698820699511 0 -0.1783585260734207 -0.17322696892317921 0 -0.17821001311716919 -0.16652238839260031 0 -0.18380244461565159 -0.1696600613861575 0 -0.18650583006974161 -0.1630630065197918 0 -0.18500883319888761 -0.15757031074556499 0 -0.17821001311716919 -0.16652238839260031 0 -0.18650583006974161 -0.1630630065197918 0 -0.18500883319888761 -0.15757031074556499 0 -0.1644332209404851 -0.16385738620051341 0 -0.18500883319888761 -0.15757031074556499 0 -0.18104381995857091 -0.14302210968128279 0 -0.18500883319888761 -0.15757031074556499 0 -0.18104381995857091 -0.14302210968128279 0 -0.19260644246319311 -0.14774124181599391 0 -0.1644332209404851 -0.16385738620051341 0 -0.18104381995857091 -0.14302210968128279 0 -0.18500883319888761 -0.15757031074556499 0 -0.18104381995857091 -0.14302210968128279 0 -0.18104381995857091 -0.14302210968128279 0 -0.1771081724190843 -0.12858165557627399 0 -0.1657403305795716 -0.1457198243751579 0 -0.18104381995857091 -0.14302210968128279 0 -0.1771081724190843 -0.12858165557627399 0 -0.1994101674429766 -0.1199845342109961 0 -0.18104381995857091 -0.14302210968128279 0 -0.1771081724190843 -0.12858165557627399 0 -0.1495375495484938 -0.13920976264386131 0 -0.1771081724190843 -0.12858165557627399 0 -0.1495375495484938 -0.13920976264386131 0 -0.1771081724190843 -0.12858165557627399 0 -0.15639221479190751 -0.1247511956167188 0 -0.1495375495484938 -0.13920976264386131 0 -0.1771081724190843 -0.12858165557627399 0 -0.1657403305795716 -0.1457198243751579 0 -0.1495375495484938 -0.13920976264386131 0 -0.1657403305795716 -0.1457198243751579 0 -0.1565788900312228 -0.1539282077738576 0 -0.1644332209404851 -0.16385738620051341 0 -0.18104381995857091 -0.14302210968128279 0 -0.1657403305795716 -0.1457198243751579 0 -0.1644332209404851 -0.16385738620051341 0 -0.1657403305795716 -0.1457198243751579 0 -0.1565788900312228 -0.1539282077738576 0 -0.139217952159014 -0.25772733589897689 0 -0.14801368645113169 -0.23321734503586691 0 -0.139217952159014 -0.25772733589897689 0 -0.15127485692657869 -0.25823722899614071 0 -0.14801368645113169 -0.23321734503586691 0 -0.15127485692657869 -0.25823722899614071 0 -0.14801368645113169 -0.23321734503586691 0 -0.15127485692657869 -0.25823722899614071 0 -0.14801368645113169 -0.23321734503586691 0 -0.1633424338862392 -0.24834242444346341 0 -0.139217952159014 -0.25772733589897689 0 -0.13591918647405871 -0.24048900391613789 0 -0.14801368645113169 -0.23321734503586691 0 -0.13145879489179529 -0.2526639271976463 0 -0.1244732572907425 -0.23694673844022579 0 -0.13591918647405871 -0.24048900391613789 0 -0.1258036623764924 -0.21979862541517509 0 -0.14801368645113169 -0.23321734503586691 0 -0.14425018340341639 -0.20434353722763551 0 -0.1244732572907425 -0.23694673844022579 0 -0.13591918647405871 -0.24048900391613789 0 -0.1258036623764924 -0.21979862541517509 0 -0.13591918647405871 -0.24048900391613789 0 -0.1258036623764924 -0.21979862541517509 0 -0.14801368645113169 -0.23321734503586691 0 -0.14801368645113169 -0.23321734503586691 0 -0.14425018340341639 -0.20434353722763551 0 -0.14801368645113169 -0.23321734503586691 0 -0.1562310247756741 -0.21031909907201399 0 -0.14801368645113169 -0.23321734503586691 0 -0.1562310247756741 -0.21031909907201399 0 -0.14425018340341639 -0.20434353722763551 0 -0.1258036623764924 -0.21979862541517509 0 -0.14425018340341639 -0.20434353722763551 0 -0.1258036623764924 -0.21979862541517509 0 -0.14425018340341639 -0.20434353722763551 0 -0.13028668286636291 -0.20456095131218849 0 -0.14425018340341639 -0.20434353722763551 0 -0.13028668286636291 -0.20456095131218849 0 -0.13589786844009979 -0.1981893966692142 0 -0.13028668286636291 -0.20456095131218849 0 -0.13589786844009979 -0.1981893966692142 0 -0.12570726048984121 -0.19136794154072639 0 -0.13589786844009979 -0.1981893966692142 0 -0.12570726048984121 -0.19136794154072639 0 -0.13996907400678371 -0.1879713947995747 0 -0.13589786844009979 -0.1981893966692142 0 -0.13996907400678371 -0.1879713947995747 0 -0.14324788897263141 -0.1939397719466433 0 -0.16444836310021591 -0.18742085310816081 0 -0.1562310247756741 -0.21031909907201399 0 -0.14425018340341639 -0.20434353722763551 0 -0.16444836310021591 -0.18742085310816081 0 -0.14425018340341639 -0.20434353722763551 0 -0.1501525800939332 -0.1916447189057128 0 -0.13996907400678371 -0.1879713947995747 0 -0.14324788897263141 -0.1939397719466433 0 -0.1501525800939332 -0.1916447189057128 0 -0.16444836310021591 -0.18742085310816081 0 -0.14425018340341639 -0.20434353722763551 0 -0.14324788897263141 -0.1939397719466433 0 -0.1438393783595823 -0.20119181774396139 0 -0.1501525800939332 -0.1916447189057128 0 -0.13589786844009979 -0.1981893966692142 0 -0.14324788897263141 -0.1939397719466433 0 -0.1438393783595823 -0.20119181774396139 0 -0.14425018340341639 -0.20434353722763551 0 -0.1438393783595823 -0.20119181774396139 0 -0.1501525800939332 -0.1916447189057128 0 -0.14425018340341639 -0.20434353722763551 0 -0.13589786844009979 -0.1981893966692142 0 -0.1438393783595823 -0.20119181774396139 0 -0.14425018340341639 -0.20434353722763551 0 -0.1438393783595823 -0.20119181774396139 0 -0.16444836310021591 -0.18742085310816081 0 -0.1562310247756741 -0.21031909907201399 0 -0.17185568473372059 -0.2057793685060926 0 -0.16444836310021591 -0.18742085310816081 0 -0.1562310247756741 -0.21031909907201399 0 -0.16444836310021591 -0.18742085310816081 0 -0.17486928145899069 -0.19032516174913211 0 -0.17185568473372059 -0.2057793685060926 0 -0.17486928145899069 -0.19032516174913211 0 -0.18706244460059909 -0.2145889397787471 0 -0.17486928145899069 -0.19032516174913211 0 -0.1845056998680506 -0.1960801791109146 0 -0.18748681253055749 -0.21170825556932521 0 -0.18499632321587209 -0.18632912630854739 0 -0.17486928145899069 -0.19032516174913211 0 -0.1845056998680506 -0.1960801791109146 0 -0.18499632321587209 -0.18632912630854739 0 -0.1845056998680506 -0.1960801791109146 0 -0.19067038226678221 -0.19595817281665379 0 -0.17486928145899069 -0.19032516174913211 0 -0.18706244460059909 -0.2145889397787471 0 -0.17185568473372059 -0.2057793685060926 0 -0.17486928145899069 -0.19032516174913211 0 -0.18748681253055749 -0.21170825556932521 0 -0.18706244460059909 -0.2145889397787471 0 -0.18706244460059909 -0.2145889397787471 0 -0.17185568473372059 -0.2057793685060926 0 -0.17053307858903199 -0.2216348908795131 0 -0.1562310247756741 -0.21031909907201399 0 -0.17185568473372059 -0.2057793685060926 0 -0.17053307858903199 -0.2216348908795131 0 -0.14801368645113169 -0.23321734503586691 0 -0.17053307858903199 -0.2216348908795131 0 -0.17357675764715999 -0.2365614148105982 0 -0.14801368645113169 -0.23321734503586691 0 -0.1562310247756741 -0.21031909907201399 0 -0.17053307858903199 -0.2216348908795131 0 -0.18706244460059909 -0.2145889397787471 0 -0.17053307858903199 -0.2216348908795131 0 -0.18313440094061359 -0.23187360603631829 0 -0.17053307858903199 -0.2216348908795131 0 -0.18313440094061359 -0.23187360603631829 0 -0.17357675764715999 -0.2365614148105982 0 -0.17357675764715999 -0.2365614148105982 0 -0.1831283259367055 -0.24646170020316219 0 -0.1633424338862392 -0.24834242444346341 0 -0.18313440094061359 -0.23187360603631829 0 -0.17357675764715999 -0.2365614148105982 0 -0.1831283259367055 -0.24646170020316219 0 -0.14801368645113169 -0.23321734503586691 0 -0.17357675764715999 -0.2365614148105982 0 -0.1633424338862392 -0.24834242444346341 0 -0.22216414812508381 -0.25556308654710619 0 -0.2085961274049509 -0.25204373705344069 0 -0.21496550729837299 -0.23978769946231451 0 -0.2085961274049509 -0.25204373705344069 0 -0.21496550729837299 -0.23978769946231451 0 -0.19925560774220741 -0.23885271780836209 0 -0.18313440094061359 -0.23187360603631829 0 -0.1831283259367055 -0.24646170020316219 0 -0.19925560774220741 -0.23885271780836209 0 -0.19542950224683009 -0.25775052655061859 0 -0.1831283259367055 -0.24646170020316219 0 -0.19925560774220741 -0.23885271780836209 0 -0.19542950224683009 -0.25775052655061859 0 -0.2085961274049509 -0.25204373705344069 0 -0.19925560774220741 -0.23885271780836209 0 -0.18706244460059909 -0.2145889397787471 0 -0.19925560774220741 -0.23885271780836209 0 -0.2058313297006428 -0.2201105782855487 0 -0.18706244460059909 -0.2145889397787471 0 -0.18313440094061359 -0.23187360603631829 0 -0.19925560774220741 -0.23885271780836209 0 -0.18706244460059909 -0.2145889397787471 0 -0.19925560774220741 -0.23885271780836209 0 -0.21496550729837299 -0.23978769946231451 0 -0.19925560774220741 -0.23885271780836209 0 -0.2058313297006428 -0.2201105782855487 0 -0.2058313297006428 -0.2201105782855487 0 -0.22417584687072811 -0.2285129010017721 0 -0.21496550729837299 -0.23978769946231451 0 -0.2058313297006428 -0.2201105782855487 0 -0.22417584687072811 -0.2285129010017721 0 -0.2058313297006428 -0.2201105782855487 0 -0.20230520973234409 -0.20335193225707091 0 -0.22325023517875819 -0.20615650830739701 0 -0.2058313297006428 -0.2201105782855487 0 -0.22325023517875819 -0.20615650830739701 0 -0.22417584687072811 -0.2285129010017721 0 -0.18748681253055749 -0.21170825556932521 0 -0.18706244460059909 -0.2145889397787471 0 -0.2058313297006428 -0.2201105782855487 0 -0.18748681253055749 -0.21170825556932521 0 -0.20230520973234409 -0.20335193225707091 0 -0.19067038226678221 -0.19595817281665379 0 -0.18748681253055749 -0.21170825556932521 0 -0.2058313297006428 -0.2201105782855487 0 -0.20230520973234409 -0.20335193225707091 0 -0.18748681253055749 -0.21170825556932521 0 -0.2058313297006428 -0.2201105782855487 0 -0.20230520973234409 -0.20335193225707091 0 -0.19067038226678221 -0.19595817281665379 0 -0.1972024346788554 -0.1837432770420826 0 -0.1845056998680506 -0.1960801791109146 0 -0.18748681253055749 -0.21170825556932521 0 -0.19067038226678221 -0.19595817281665379 0 -0.18499632321587209 -0.18632912630854739 0 -0.19067038226678221 -0.19595817281665379 0 -0.1972024346788554 -0.1837432770420826 0 -0.20230520973234409 -0.20335193225707091 0 -0.21146275887221511 -0.18994193191646019 0 -0.22325023517875819 -0.20615650830739701 0 -0.20230520973234409 -0.20335193225707091 0 -0.21146275887221511 -0.18994193191646019 0 -0.1972024346788554 -0.1837432770420826 0 -0.24224808373301501 -0.20222981672090101 0 -0.22325023517875819 -0.20615650830739701 0 -0.22580205168060069 -0.1802030052315193 0 -0.21146275887221511 -0.18994193191646019 0 -0.22325023517875819 -0.20615650830739701 0 -0.22580205168060069 -0.1802030052315193 0 -0.24224808373301501 -0.20222981672090101 0 -0.22580205168060069 -0.1802030052315193 0 -0.25474498459293587 -0.18904997959439709 0 -0.24224808373301501 -0.20222981672090101 0 -0.22325023517875819 -0.20615650830739701 0 -0.24189504502654169 -0.2203890017647181 0 -0.24224808373301501 -0.20222981672090101 0 -0.24189504502654169 -0.2203890017647181 0 -0.26070826614519721 -0.2083567688920665 0 -0.22325023517875819 -0.20615650830739701 0 -0.22417584687072811 -0.2285129010017721 0 -0.24189504502654169 -0.2203890017647181 0 -0.22417584687072811 -0.2285129010017721 0 -0.24252036404081309 -0.2369152237179962 0 -0.22417584687072811 -0.2285129010017721 0 -0.24487403972011709 -0.22855122397832259 0 -0.24252036404081309 -0.2369152237179962 0 -0.22417584687072811 -0.2285129010017721 0 -0.24189504502654169 -0.2203890017647181 0 -0.24487403972011709 -0.22855122397832259 0 -0.24189504502654169 -0.2203890017647181 0 -0.24487403972011709 -0.22855122397832259 0 -0.25250477308712949 -0.2265099558855713 0 -0.24487403972011709 -0.22855122397832259 0 -0.24252036404081309 -0.2369152237179962 0 -0.25250477308712949 -0.2265099558855713 0 -0.22417584687072811 -0.2285129010017721 0 -0.23683353244117369 -0.24176985931727299 0 -0.24252036404081309 -0.2369152237179962 0 -0.24188290406533 -0.23950624351627389 0 -0.2404023493560272 -0.2413194907562384 0 -0.24252036404081309 -0.2369152237179962 0 -0.23683353244117369 -0.24176985931727299 0 -0.2404023493560272 -0.2413194907562384 0 -0.24252036404081309 -0.2369152237179962 0 -0.24188290406533 -0.23950624351627389 0 -0.2404023493560272 -0.2413194907562384 0 -0.2435057183802378 -0.2424044402530191 0 -0.24188290406533 -0.23950624351627389 0 -0.24252036404081309 -0.2369152237179962 0 -0.2435057183802378 -0.2424044402530191 0 -0.2435057183802378 -0.2424044402530191 0 -0.24434930689386869 -0.24968832328900131 0 -0.25326344970455439 -0.24921698247872701 0 -0.24252036404081309 -0.2369152237179962 0 -0.2435057183802378 -0.2424044402530191 0 -0.25326344970455439 -0.24921698247872701 0 -0.23598303366787521 -0.2544663532418156 0 -0.2383615760939706 -0.24570410471229659 0 -0.22942034713982301 -0.2444031480609202 0 -0.23683353244117369 -0.24176985931727299 0 -0.2383615760939706 -0.24570410471229659 0 -0.22942034713982301 -0.2444031480609202 0 -0.23598303366787521 -0.2544663532418156 0 -0.24434930689386869 -0.24968832328900131 0 -0.2383615760939706 -0.24570410471229659 0 -0.2435057183802378 -0.2424044402530191 0 -0.24434930689386869 -0.24968832328900131 0 -0.2383615760939706 -0.24570410471229659 0 -0.23683353244117369 -0.24176985931727299 0 -0.2404023493560272 -0.2413194907562384 0 -0.2383615760939706 -0.24570410471229659 0 -0.2404023493560272 -0.2413194907562384 0 -0.2435057183802378 -0.2424044402530191 0 -0.2383615760939706 -0.24570410471229659 0 -0.21496550729837299 -0.23978769946231451 0 -0.22417584687072811 -0.2285129010017721 0 -0.22942034713982301 -0.2444031480609202 0 -0.22216414812508381 -0.25556308654710619 0 -0.21496550729837299 -0.23978769946231451 0 -0.22942034713982301 -0.2444031480609202 0 -0.22417584687072811 -0.2285129010017721 0 -0.23683353244117369 -0.24176985931727299 0 -0.22942034713982301 -0.2444031480609202 0 -0.20668734273359521 -0.1509462344612813 0 -0.22836585226830269 -0.14432215817699751 0 -0.20668734273359521 -0.1509462344612813 0 -0.20924177563600649 -0.13534065963961101 0 -0.22836585226830269 -0.14432215817699751 0 -0.20668734273359521 -0.1509462344612813 0 -0.20924177563600649 -0.13534065963961101 0 -0.19768577396171819 -0.1394263123758458 0 -0.2211198202754685 -0.1319415908395026 0 -0.21896419417125709 -0.1203112829452766 0 -0.21176171816064021 -0.12324555720773921 0 -0.20924177563600649 -0.13534065963961101 0 -0.2211198202754685 -0.1319415908395026 0 -0.21176171816064021 -0.12324555720773921 0 -0.20924177563600649 -0.13534065963961101 0 -0.21176171816064021 -0.12324555720773921 0 -0.1994101674429766 -0.1199845342109961 0 -0.20924177563600649 -0.13534065963961101 0 -0.19768577396171819 -0.1394263123758458 0 -0.1994101674429766 -0.1199845342109961 0 -0.18104381995857091 -0.14302210968128279 0 -0.19768577396171819 -0.1394263123758458 0 -0.1994101674429766 -0.1199845342109961 0 -0.18104381995857091 -0.14302210968128279 0 -0.1994101674429766 -0.1199845342109961 0 -0.18500883319888761 -0.15757031074556499 0 -0.20668734273359521 -0.1509462344612813 0 -0.18104381995857091 -0.14302210968128279 0 -0.19768577396171819 -0.1394263123758458 0 -0.19260644246319311 -0.14774124181599391 0 -0.18500883319888761 -0.15757031074556499 0 -0.20668734273359521 -0.1509462344612813 0 -0.19260644246319311 -0.14774124181599391 0 -0.20668734273359521 -0.1509462344612813 0 -0.19768577396171819 -0.1394263123758458 0 -0.19260644246319311 -0.14774124181599391 0 -0.18650583006974161 -0.1630630065197918 0 -0.18500883319888761 -0.15757031074556499 0 -0.20270616313923739 -0.16718063929361629 0 -0.18650583006974161 -0.1630630065197918 0 -0.20270616313923739 -0.16718063929361629 0 -0.19114585085426569 -0.17219698820699511 0 -0.18500883319888761 -0.15757031074556499 0 -0.20668734273359521 -0.1509462344612813 0 -0.20270616313923739 -0.16718063929361629 0 -0.20270616313923739 -0.16718063929361629 0 -0.19114585085426569 -0.17219698820699511 0 -0.1972024346788554 -0.1837432770420826 0 -0.18551238176784271 -0.17733795679332701 0 -0.18499632321587209 -0.18632912630854739 0 -0.1972024346788554 -0.1837432770420826 0 -0.18551238176784271 -0.17733795679332701 0 -0.19114585085426569 -0.17219698820699511 0 -0.1972024346788554 -0.1837432770420826 0 -0.21146275887221511 -0.18994193191646019 0 -0.20270616313923739 -0.16718063929361629 0 -0.1972024346788554 -0.1837432770420826 0 -0.21146275887221511 -0.18994193191646019 0 -0.20270616313923739 -0.16718063929361629 0 -0.22580205168060069 -0.1802030052315193 0 -0.20270616313923739 -0.16718063929361629 0 -0.22668588880058721 -0.16072016637776601 0 -0.22580205168060069 -0.1802030052315193 0 -0.20668734273359521 -0.1509462344612813 0 -0.20270616313923739 -0.16718063929361629 0 -0.22668588880058721 -0.16072016637776601 0 -0.22580205168060069 -0.1802030052315193 0 -0.2530619017956105 -0.1689134438408601 0 -0.22580205168060069 -0.1802030052315193 0 -0.25474498459293587 -0.18904997959439709 0 -0.2530619017956105 -0.1689134438408601 0 -0.22668588880058721 -0.16072016637776601 0 -0.24349202118617669 -0.15275551726232131 0 -0.2530619017956105 -0.1689134438408601 0 -0.22668588880058721 -0.16072016637776601 0 -0.22580205168060069 -0.1802030052315193 0 -0.2530619017956105 -0.1689134438408601 0 -0.22836585226830269 -0.14432215817699751 0 -0.25004436180301032 -0.13769808189271379 0 -0.24349202118617669 -0.15275551726232131 0 -0.22836585226830269 -0.14432215817699751 0 -0.25004436180301032 -0.13769808189271379 0 -0.22668588880058721 -0.16072016637776601 0 -0.24349202118617669 -0.15275551726232131 0 -0.22836585226830269 -0.14432215817699751 0 -0.20668734273359521 -0.1509462344612813 0 -0.22668588880058721 -0.16072016637776601 0 -0.22836585226830269 -0.14432215817699751 0 -0.20924177563600649 -0.13534065963961101 0 -0.22836585226830269 -0.14432215817699751 0 -0.2211198202754685 -0.1319415908395026 0 -0.2211198202754685 -0.1319415908395026 0 -0.2339709384586745 -0.13671145350930181 0 -0.23491245244405129 -0.12996608631745779 0 -0.22836585226830269 -0.14432215817699751 0 -0.2211198202754685 -0.1319415908395026 0 -0.2339709384586745 -0.13671145350930181 0 -0.2211198202754685 -0.1319415908395026 0 -0.23491245244405129 -0.12996608631745779 0 -0.226031113501033 -0.1170640876451315 0 -0.22836585226830269 -0.14432215817699751 0 -0.2339709384586745 -0.13671145350930181 0 -0.25004436180301032 -0.13769808189271379 0 -0.2339709384586745 -0.13671145350930181 0 -0.2421882661673623 -0.1342162083483999 0 -0.25004436180301032 -0.13769808189271379 0 -0.23491245244405129 -0.12996608631745779 0 -0.226031113501033 -0.1170640876451315 0 -0.25030223064789259 -0.1321082191367223 0 -0.2339709384586745 -0.13671145350930181 0 -0.23491245244405129 -0.12996608631745779 0 -0.2421882661673623 -0.1342162083483999 0 -0.2421882661673623 -0.1342162083483999 0 -0.25030223064789259 -0.1321082191367223 0 -0.25004436180301032 -0.13769808189271379 0 -0.23491245244405129 -0.12996608631745779 0 -0.2421882661673623 -0.1342162083483999 0 -0.25030223064789259 -0.1321082191367223 0 -0.24120802237439709 -0.1194401866379733 0 -0.226031113501033 -0.1170640876451315 0 -0.25030223064789259 -0.1321082191367223 0 -0.24120802237439709 -0.1194401866379733 0 -0.25127600885182111 -0.1207935333161253 0 -0.25030223064789259 -0.1321082191367223 0 -0.226031113501033 -0.1170640876451315 0 -0.25030223064789259 -0.1321082191367223 0 -0.2351082592218304 -0.1125823311022742 0 -0.2408745329879505 -0.1126369953606932 0 -0.23854971147061579 -0.1048967624745798 0 -0.24120802237439709 -0.1194401866379733 0 -0.2351082592218304 -0.1125823311022742 0 -0.2408745329879505 -0.1126369953606932 0 -0.24120802237439709 -0.1194401866379733 0 -0.2408745329879505 -0.1126369953606932 0 -0.2478381361207303 -0.1111100829214466 0 -0.2408745329879505 -0.1126369953606932 0 -0.2478381361207303 -0.1111100829214466 0 -0.23854971147061579 -0.1048967624745798 0 -0.24120802237439709 -0.1194401866379733 0 -0.2478381361207303 -0.1111100829214466 0 -0.25127600885182111 -0.1207935333161253 0 -0.22880806052069669 -0.1086520388713752 0 -0.23809773504415799 -0.080511352488007504 0 -0.24398573986649591 -0.092599113663045754 0 -0.23854971147061579 -0.1048967624745798 0 -0.22880806052069669 -0.1086520388713752 0 -0.24398573986649591 -0.092599113663045754 0 -0.23854971147061579 -0.1048967624745798 0 -0.24398573986649591 -0.092599113663045754 0 -0.25445804849926851 -0.1035680778320642 0 -0.2478381361207303 -0.1111100829214466 0 -0.23854971147061579 -0.1048967624745798 0 -0.25445804849926851 -0.1035680778320642 0 -0.23854971147061579 -0.1048967624745798 0 -0.22880806052069669 -0.1086520388713752 0 -0.2351082592218304 -0.1125823311022742 0 -0.23854971147061579 -0.1048967624745798 0 -0.22880806052069669 -0.1086520388713752 0 -0.22880806052069669 -0.1086520388713752 0 -0.23809773504415799 -0.080511352488007504 0 -0.22880806052069669 -0.1086520388713752 0 -0.21955152596569991 -0.094419051894296183 0 -0.23809773504415799 -0.080511352488007504 0 -0.22880806052069669 -0.1086520388713752 0 -0.21955152596569991 -0.094419051894296183 0 -0.22044864111786411 -0.104505409072636 0 -0.22880806052069669 -0.1086520388713752 0 -0.22044864111786411 -0.104505409072636 0 -0.21872841625361819 -0.1125376071799505 0 -0.22880806052069669 -0.1086520388713752 0 -0.226031113501033 -0.1170640876451315 0 -0.21872841625361819 -0.1125376071799505 0 -0.22880806052069669 -0.1086520388713752 0 -0.21872841625361819 -0.1125376071799505 0 -0.226031113501033 -0.1170640876451315 0 -0.21896419417125709 -0.1203112829452766 0 -0.21872841625361819 -0.1125376071799505 0 -0.226031113501033 -0.1170640876451315 0 -0.21872841625361819 -0.1125376071799505 0 -0.2211198202754685 -0.1319415908395026 0 -0.226031113501033 -0.1170640876451315 0 -0.2211198202754685 -0.1319415908395026 0 -0.226031113501033 -0.1170640876451315 0 -0.21896419417125709 -0.1203112829452766 0 -0.22880806052069669 -0.1086520388713752 0 -0.226031113501033 -0.1170640876451315 0 -0.2351082592218304 -0.1125823311022742 0 -0.22880806052069669 -0.1086520388713752 0 -0.226031113501033 -0.1170640876451315 0 -0.24120802237439709 -0.1194401866379733 0 -0.2351082592218304 -0.1125823311022742 0 -0.226031113501033 -0.1170640876451315 0 -0.23809773504415799 -0.080511352488007504 0 -0.2272234272434013 -0.060330195903647417 0 -0.24738740956761601 -0.052370666104638718 0 -0.23809773504415799 -0.080511352488007504 0 -0.24738740956761601 -0.052370666104638718 0 -0.23809773504415799 -0.080511352488007504 0 -0.24738740956761601 -0.052370666104638718 0 -0.25898461841731502 -0.073915256537161383 0 -0.23809773504415799 -0.080511352488007504 0 -0.24398573986649591 -0.092599113663045754 0 -0.25898461841731502 -0.073915256537161383 0 -0.21955152596569991 -0.094419051894296183 0 -0.23809773504415799 -0.080511352488007504 0 -0.2192936703339923 -0.076245823293276421 0 -0.23809773504415799 -0.080511352488007504 0 -0.2192936703339923 -0.076245823293276421 0 -0.2272234272434013 -0.060330195903647417 0 -0.2192936703339923 -0.076245823293276421 0 -0.20653881105991409 -0.062053291343171363 0 -0.2272234272434013 -0.060330195903647417 0 -0.2192936703339923 -0.076245823293276421 0 -0.20480389978589539 -0.084868085077447475 0 -0.20653881105991409 -0.062053291343171363 0 -0.21955152596569991 -0.094419051894296183 0 -0.2192936703339923 -0.076245823293276421 0 -0.20480389978589539 -0.084868085077447475 0 -0.21955152596569991 -0.094419051894296183 0 -0.20480389978589539 -0.084868085077447475 0 -0.20869820181576071 -0.095935945270887155 0 -0.20480389978589539 -0.084868085077447475 0 -0.20869820181576071 -0.095935945270887155 0 -0.20042895118978479 -0.094571214560788597 0 -0.20480389978589539 -0.084868085077447475 0 -0.18927172455835151 -0.094279265774014492 0 -0.18743505908263899 -0.07255620770851641 0 -0.20480389978589539 -0.084868085077447475 0 -0.20042895118978479 -0.094571214560788597 0 -0.18927172455835151 -0.094279265774014492 0 -0.20480389978589539 -0.084868085077447475 0 -0.18743505908263899 -0.07255620770851641 0 -0.20653881105991409 -0.062053291343171363 0 -0.20656195550121809 -0.1110137871814537 0 -0.21872841625361819 -0.1125376071799505 0 -0.1994101674429766 -0.1199845342109961 0 -0.21872841625361819 -0.1125376071799505 0 -0.1994101674429766 -0.1199845342109961 0 -0.21176171816064021 -0.12324555720773921 0 -0.21872841625361819 -0.1125376071799505 0 -0.1994101674429766 -0.1199845342109961 0 -0.21896419417125709 -0.1203112829452766 0 -0.21176171816064021 -0.12324555720773921 0 -0.21872841625361819 -0.1125376071799505 0 -0.21872841625361819 -0.1125376071799505 0 -0.21470656173143859 -0.10241293834492091 0 -0.20400007040598481 -0.1034084364769825 0 -0.22044864111786411 -0.104505409072636 0 -0.21872841625361819 -0.1125376071799505 0 -0.21470656173143859 -0.10241293834492091 0 -0.21872841625361819 -0.1125376071799505 0 -0.20400007040598481 -0.1034084364769825 0 -0.21955152596569991 -0.094419051894296183 0 -0.22044864111786411 -0.104505409072636 0 -0.21470656173143859 -0.10241293834492091 0 -0.21955152596569991 -0.094419051894296183 0 -0.21470656173143859 -0.10241293834492091 0 -0.20869820181576071 -0.095935945270887155 0 -0.21470656173143859 -0.10241293834492091 0 -0.20869820181576071 -0.095935945270887155 0 -0.20400007040598481 -0.1034084364769825 0 -0.20869820181576071 -0.095935945270887155 0 -0.20400007040598481 -0.1034084364769825 0 -0.20042895118978479 -0.094571214560788597 0 -0.20656195550121809 -0.1110137871814537 0 -0.21872841625361819 -0.1125376071799505 0 -0.20400007040598481 -0.1034084364769825 0 -0.20656195550121809 -0.1110137871814537 0 -0.20400007040598481 -0.1034084364769825 0 -0.20013779006105781 -0.1107556060333484 0 -0.20400007040598481 -0.1034084364769825 0 -0.19057896689405229 -0.1086156662639616 0 -0.20013779006105781 -0.1107556060333484 0 -0.20400007040598481 -0.1034084364769825 0 -0.18927172455835151 -0.094279265774014492 0 -0.20400007040598481 -0.1034084364769825 0 -0.20042895118978479 -0.094571214560788597 0 -0.18927172455835151 -0.094279265774014492 0 -0.20400007040598481 -0.1034084364769825 0 -0.18927172455835151 -0.094279265774014492 0 -0.19057896689405229 -0.1086156662639616 0 -0.1771081724190843 -0.12858165557627399 0 -0.19057896689405229 -0.1086156662639616 0 -0.1994101674429766 -0.1199845342109961 0 -0.1771081724190843 -0.12858165557627399 0 -0.1994101674429766 -0.1199845342109961 0 -0.19057896689405229 -0.1086156662639616 0 -0.20013779006105781 -0.1107556060333484 0 -0.1994101674429766 -0.1199845342109961 0 -0.20656195550121809 -0.1110137871814537 0 -0.1994101674429766 -0.1199845342109961 0 -0.20656195550121809 -0.1110137871814537 0 -0.20013779006105781 -0.1107556060333484 0 -0.1994101674429766 -0.1199845342109961 0 -0.1771081724190843 -0.12858165557627399 0 -0.19057896689405229 -0.1086156662639616 0 -0.16943805513155391 -0.1004388974762247 0 -0.1771081724190843 -0.12858165557627399 0 -0.16943805513155391 -0.1004388974762247 0 -0.1771081724190843 -0.12858165557627399 0 -0.15968283676074191 -0.112895103098321 0 -0.15639221479190751 -0.1247511956167188 0 -0.1771081724190843 -0.12858165557627399 0 -0.15968283676074191 -0.112895103098321 0 -0.16943805513155391 -0.1004388974762247 0 -0.15968283676074191 -0.112895103098321 0 -0.16943805513155391 -0.1004388974762247 0 -0.1488953705524762 -0.095491872655267152 0 -0.18927172455835151 -0.094279265774014492 0 -0.19057896689405229 -0.1086156662639616 0 -0.16943805513155391 -0.1004388974762247 0 -0.18927172455835151 -0.094279265774014492 0 -0.17697819415414109 -0.084892627583732963 0 -0.18743505908263899 -0.07255620770851641 0 -0.18927172455835151 -0.094279265774014492 0 -0.16943805513155391 -0.1004388974762247 0 -0.17697819415414109 -0.084892627583732963 0 -0.17697819415414109 -0.084892627583732963 0 -0.18743505908263899 -0.07255620770851641 0 -0.1617679378440198 -0.07229613937617628 0 -0.18743505908263899 -0.07255620770851641 0 -0.1617679378440198 -0.07229613937617628 0 -0.18116055476129331 -0.050442219006726248 0 -0.16943805513155391 -0.1004388974762247 0 -0.1617679378440198 -0.07229613937617628 0 -0.1488953705524762 -0.095491872655267152 0 -0.16943805513155391 -0.1004388974762247 0 -0.1617679378440198 -0.07229613937617628 0 -0.16943805513155391 -0.1004388974762247 0 -0.17697819415414109 -0.084892627583732963 0 -0.1617679378440198 -0.07229613937617628 0 -0.1617679378440198 -0.07229613937617628 0 -0.13633038379660131 -0.074063236049282374 0 -0.1488953705524762 -0.095491872655267152 0 -0.1617679378440198 -0.07229613937617628 0 -0.13633038379660131 -0.074063236049282374 0 -0.14562926598361531 -0.060306743544835208 0 -0.1187552070582093 -0.067549590777025603 0 -0.13633038379660131 -0.074063236049282374 0 -0.13032092173735429 -0.050714217477754273 0 -0.13633038379660131 -0.074063236049282374 0 -0.1334417440853771 -0.090193745912829346 0 -0.1488953705524762 -0.095491872655267152 0 -0.1178841669001897 -0.087472175321314793 0 -0.13633038379660131 -0.074063236049282374 0 -0.1334417440853771 -0.090193745912829346 0 -0.1178841669001897 -0.087472175321314793 0 -0.1334417440853771 -0.090193745912829346 0 -0.13065705509224121 -0.1037476996254531 0 -0.1334417440853771 -0.090193745912829346 0 -0.13065705509224121 -0.1037476996254531 0 -0.1488953705524762 -0.095491872655267152 0 -0.13092690364411441 -0.1265409505354686 0 -0.13065705509224121 -0.1037476996254531 0 -0.14658037090868781 -0.1152118941671207 0 -0.11545733997741971 -0.10929442453651091 0 -0.13092690364411441 -0.1265409505354686 0 -0.13065705509224121 -0.1037476996254531 0 -0.13092690364411441 -0.1265409505354686 0 -0.14585925972330091 -0.12642845074079229 0 -0.14658037090868781 -0.1152118941671207 0 -0.15968283676074191 -0.112895103098321 0 -0.15639221479190751 -0.1247511956167188 0 -0.14658037090868781 -0.1152118941671207 0 -0.14585925972330091 -0.12642845074079229 0 -0.15639221479190751 -0.1247511956167188 0 -0.14658037090868781 -0.1152118941671207 0 -0.15968283676074191 -0.112895103098321 0 -0.14658037090868781 -0.1152118941671207 0 -0.1488953705524762 -0.095491872655267152 0 -0.13065705509224121 -0.1037476996254531 0 -0.14658037090868781 -0.1152118941671207 0 -0.1488953705524762 -0.095491872655267152 0 -0.14642770326895321 -0.016010623176079181 0 -0.15409782055648569 -0.044153381276127952 0 -0.14642770326895321 -0.016010623176079181 0 -0.15409782055648569 -0.044153381276127952 0 -0.1672904820072624 -0.026983347752226772 0 -0.14642770326895321 -0.016010623176079181 0 -0.13098577720095919 -0.025235662709939741 0 -0.15409782055648569 -0.044153381276127952 0 -0.14642770326895321 -0.016010623176079181 0 -0.14227034481614481 -0.00075667999809755221 0 -0.1645487358015624 -0.0051850797321069536 0 -0.14642770326895321 -0.016010623176079181 0 -0.1645487358015624 -0.0051850797321069536 0 -0.14642770326895321 -0.016010623176079181 0 -0.14227034481614481 -0.00075667999809755221 0 -0.12182524733560091 -0.015523096402856359 0 -0.14642770326895321 -0.016010623176079181 0 -0.14227034481614481 -0.00075667999809755221 0 -0.12182524733560091 -0.015523096402856359 0 -0.12854145031494629 0.0047253962359545196 0 -0.12182524733560091 -0.015523096402856359 0 -0.14227034481614481 -0.00075667999809755221 0 -0.12854145031494629 0.0047253962359545196 0 -0.12182524733560091 -0.015523096402856359 0 -0.14227034481614481 -0.00075667999809755221 0 -0.12182524733560091 -0.015523096402856359 0 -0.14642770326895321 -0.016010623176079181 0 -0.13098577720095919 -0.025235662709939741 0 -0.14642770326895321 -0.016010623176079181 0 -0.13098577720095919 -0.025235662709939741 0 -0.1155438511329643 -0.034460702243798817 0 -0.13098577720095919 -0.025235662709939741 0 -0.13032092173735429 -0.050714217477754273 0 -0.13098577720095919 -0.025235662709939741 0 -0.13032092173735429 -0.050714217477754273 0 -0.15409782055648569 -0.044153381276127952 0 -0.13633038379660131 -0.074063236049282374 0 -0.13032092173735429 -0.050714217477754273 0 -0.14562926598361531 -0.060306743544835208 0 -0.1617679378440198 -0.07229613937617628 0 -0.14562926598361531 -0.060306743544835208 0 -0.15409782055648569 -0.044153381276127952 0 -0.13032092173735429 -0.050714217477754273 0 -0.14562926598361531 -0.060306743544835208 0 -0.15409782055648569 -0.044153381276127952 0 -0.15409782055648569 -0.044153381276127952 0 -0.18116055476129331 -0.050442219006726248 0 -0.1672904820072624 -0.026983347752226772 0 -0.1617679378440198 -0.07229613937617628 0 -0.15409782055648569 -0.044153381276127952 0 -0.18116055476129331 -0.050442219006726248 0 -0.1617679378440198 -0.07229613937617628 0 -0.15409782055648569 -0.044153381276127952 0 -0.18116055476129331 -0.050442219006726248 0 -0.1873835636720092 -0.032194723117865642 0 -0.1672904820072624 -0.026983347752226772 0 -0.1873835636720092 -0.032194723117865642 0 -0.1672904820072624 -0.026983347752226772 0 -0.1826544244738543 -0.01231190546291203 0 -0.14642770326895321 -0.016010623176079181 0 -0.1672904820072624 -0.026983347752226772 0 -0.1645487358015624 -0.0051850797321069536 0 -0.1672904820072624 -0.026983347752226772 0 -0.1645487358015624 -0.0051850797321069536 0 -0.1826544244738543 -0.01231190546291203 0 -0.1826544244738543 -0.01231190546291203 0 -0.17677062004640959 0.0057961302073779933 0 -0.1934257132969133 0.0045407741827038824 0 -0.1645487358015624 -0.0051850797321069536 0 -0.1826544244738543 -0.01231190546291203 0 -0.17677062004640959 0.0057961302073779933 0 -0.1826544244738543 -0.01231190546291203 0 -0.2099765986836159 -0.015482271656309349 0 -0.1934257132969133 0.0045407741827038824 0 -0.1873835636720092 -0.032194723117865642 0 -0.2099765986836159 -0.015482271656309349 0 -0.20361020910672309 -0.042858442472999407 0 -0.1873835636720092 -0.032194723117865642 0 -0.1826544244738543 -0.01231190546291203 0 -0.2099765986836159 -0.015482271656309349 0 -0.18116055476129331 -0.050442219006726248 0 -0.20361020910672309 -0.042858442472999407 0 -0.20653881105991409 -0.062053291343171363 0 -0.18743505908263899 -0.07255620770851641 0 -0.18116055476129331 -0.050442219006726248 0 -0.20653881105991409 -0.062053291343171363 0 -0.18116055476129331 -0.050442219006726248 0 -0.1873835636720092 -0.032194723117865642 0 -0.20361020910672309 -0.042858442472999407 0 -0.2099765986836159 -0.015482271656309349 0 -0.20361020910672309 -0.042858442472999407 0 -0.22259376379314111 -0.03877878758358129 0 -0.20361020910672309 -0.042858442472999407 0 -0.20653881105991409 -0.062053291343171363 0 -0.22259376379314111 -0.03877878758358129 0 -0.22259376379314111 -0.03877878758358129 0 -0.24738740956761601 -0.052370666104638718 0 -0.24406646980874039 -0.020222515413696619 0 -0.2272234272434013 -0.060330195903647417 0 -0.22259376379314111 -0.03877878758358129 0 -0.24738740956761601 -0.052370666104638718 0 -0.20653881105991409 -0.062053291343171363 0 -0.2272234272434013 -0.060330195903647417 0 -0.22259376379314111 -0.03877878758358129 0 -0.2099765986836159 -0.015482271656309349 0 -0.24406646980874039 -0.020222515413696619 0 -0.2337160865262925 0.0017344760905013 0 -0.2099765986836159 -0.015482271656309349 0 -0.22259376379314111 -0.03877878758358129 0 -0.24406646980874039 -0.020222515413696619 0 -0.24406646980874039 -0.020222515413696619 0 -0.2524730899657871 0.002620317666743947 0 -0.2337160865262925 0.0017344760905013 0 -0.24406646980874039 -0.020222515413696619 0 -0.27256492024186901 -0.011683114862415271 0 -0.2524730899657871 0.002620317666743947 0 -0.24406646980874039 -0.020222515413696619 0 -0.27256492024186901 -0.011683114862415271 0 -0.26506042169409361 -0.035987677109705463 0 -0.27256492024186901 -0.011683114862415271 0 -0.28842934899257278 -0.037937465970881462 0 -0.26506042169409361 -0.035987677109705463 0 -0.27256492024186901 -0.011683114862415271 0 -0.29336439161630767 -0.015729301795790272 0 -0.28763510092564448 0.01396908177017148 0 -0.27256492024186901 -0.011683114862415271 0 -0.29336439161630767 -0.015729301795790272 0 -0.28842934899257278 -0.037937465970881462 0 -0.29336439161630767 -0.015729301795790272 0 -0.28842934899257278 -0.037937465970881462 0 -0.31352583540375728 -0.027574284799572871 0 -0.29336439161630767 -0.015729301795790272 0 -0.31314961176658529 -0.0081441385305092706 0 -0.31352583540375728 -0.027574284799572871 0 -0.29336439161630767 -0.015729301795790272 0 -0.31314961176658529 -0.0081441385305092706 0 -0.28763510092564448 0.01396908177017148 0 -0.30532052086078171 -0.050521538229011752 0 -0.28842934899257278 -0.037937465970881462 0 -0.28741309656698638 -0.069337693907746717 0 -0.28842934899257278 -0.037937465970881462 0 -0.26933249423323818 -0.054788489874417833 0 -0.28741309656698638 -0.069337693907746717 0 -0.30532052086078171 -0.050521538229011752 0 -0.28842934899257278 -0.037937465970881462 0 -0.31352583540375728 -0.027574284799572871 0 -0.24738740956761601 -0.052370666104638718 0 -0.24406646980874039 -0.020222515413696619 0 -0.26506042169409361 -0.035987677109705463 0 -0.28842934899257278 -0.037937465970881462 0 -0.26933249423323818 -0.054788489874417833 0 -0.26506042169409361 -0.035987677109705463 0 -0.24738740956761601 -0.052370666104638718 0 -0.26933249423323818 -0.054788489874417833 0 -0.26506042169409361 -0.035987677109705463 0 -0.24738740956761601 -0.052370666104638718 0 -0.26933249423323818 -0.054788489874417833 0 -0.25898461841731502 -0.073915256537161383 0 -0.24398573986649591 -0.092599113663045754 0 -0.25898461841731502 -0.073915256537161383 0 -0.26799744726159153 -0.091687378314134163 0 -0.26799744726159153 -0.091687378314134163 0 -0.28741309656698638 -0.069337693907746717 0 -0.28741583458053582 -0.093048312189451948 0 -0.25898461841731502 -0.073915256537161383 0 -0.26799744726159153 -0.091687378314134163 0 -0.28741309656698638 -0.069337693907746717 0 -0.26933249423323818 -0.054788489874417833 0 -0.25898461841731502 -0.073915256537161383 0 -0.28741309656698638 -0.069337693907746717 0 -0.25819375882274559 -0.11427773087739269 0 -0.26759886816990708 -0.1173464856508443 0 -0.26106186369438761 -0.12502239806573329 0 -0.25127600885182111 -0.1207935333161253 0 -0.25819375882274559 -0.11427773087739269 0 -0.26106186369438761 -0.12502239806573329 0 -0.2478381361207303 -0.1111100829214466 0 -0.25127600885182111 -0.1207935333161253 0 -0.25819375882274559 -0.11427773087739269 0 -0.2478381361207303 -0.1111100829214466 0 -0.25819375882274559 -0.11427773087739269 0 -0.25445804849926851 -0.1035680778320642 0 -0.25819375882274559 -0.11427773087739269 0 -0.27018349745343168 -0.1068373987417861 0 -0.26759886816990708 -0.1173464856508443 0 -0.26799744726159153 -0.091687378314134163 0 -0.25445804849926851 -0.1035680778320642 0 -0.27018349745343168 -0.1068373987417861 0 -0.25819375882274559 -0.11427773087739269 0 -0.25445804849926851 -0.1035680778320642 0 -0.27018349745343168 -0.1068373987417861 0 -0.24398573986649591 -0.092599113663045754 0 -0.26799744726159153 -0.091687378314134163 0 -0.25445804849926851 -0.1035680778320642 0 -0.27018349745343168 -0.1068373987417861 0 -0.28220425536107069 -0.11748960263554931 0 -0.28741583458053582 -0.093048312189451948 0 -0.26799744726159153 -0.091687378314134163 0 -0.27018349745343168 -0.1068373987417861 0 -0.28741583458053582 -0.093048312189451948 0 -0.27018349745343168 -0.1068373987417861 0 -0.26759886816990708 -0.1173464856508443 0 -0.28220425536107069 -0.11748960263554931 0 -0.26759886816990708 -0.1173464856508443 0 -0.28220425536107069 -0.11748960263554931 0 -0.27072370109804039 -0.1273500930325199 0 -0.26759886816990708 -0.1173464856508443 0 -0.26106186369438761 -0.12502239806573329 0 -0.27072370109804039 -0.1273500930325199 0 -0.28220425536107069 -0.11748960263554931 0 -0.30210540009272469 -0.1104384698647544 0 -0.29439136700192092 -0.13115029502462081 0 -0.28220425536107069 -0.11748960263554931 0 -0.30210540009272469 -0.1104384698647544 0 -0.28741583458053582 -0.093048312189451948 0 -0.30210540009272469 -0.1104384698647544 0 -0.3037180262208955 -0.085387511552541026 0 -0.31985354906786451 -0.093904143806664828 0 -0.30210540009272469 -0.1104384698647544 0 -0.28741583458053582 -0.093048312189451948 0 -0.3037180262208955 -0.085387511552541026 0 -0.30210540009272469 -0.1104384698647544 0 -0.31985354906786451 -0.093904143806664828 0 -0.30210540009272469 -0.1104384698647544 0 -0.29439136700192092 -0.13115029502462081 0 -0.3154463265729513 -0.12676884881984379 0 -0.28741309656698638 -0.069337693907746717 0 -0.28741583458053582 -0.093048312189451948 0 -0.3037180262208955 -0.085387511552541026 0 -0.28741309656698638 -0.069337693907746717 0 -0.3037180262208955 -0.085387511552541026 0 -0.31541355214619698 -0.067866478841462158 0 -0.30532052086078171 -0.050521538229011752 0 -0.28741309656698638 -0.069337693907746717 0 -0.31541355214619698 -0.067866478841462158 0 -0.3037180262208955 -0.085387511552541026 0 -0.31541355214619698 -0.067866478841462158 0 -0.31985354906786451 -0.093904143806664828 0 -0.31541355214619698 -0.067866478841462158 0 -0.33760169804300427 -0.077369817748575181 0 -0.31985354906786451 -0.093904143806664828 0 -0.33760169804300427 -0.077369817748575181 0 -0.31985354906786451 -0.093904143806664828 0 -0.33914554028312821 -0.094863814424989923 0 -0.33760169804300427 -0.077369817748575181 0 -0.31985354906786451 -0.093904143806664828 0 -0.31541355214619698 -0.067866478841462158 0 -0.33760169804300427 -0.077369817748575181 0 -0.33872230242454149 -0.052308041145211308 0 -0.33195595105886838 -0.1127223960201493 0 -0.3154463265729513 -0.12676884881984379 0 -0.33484145214063982 -0.13504475966888241 0 -0.30210540009272469 -0.1104384698647544 0 -0.33195595105886838 -0.1127223960201493 0 -0.3154463265729513 -0.12676884881984379 0 -0.30210540009272469 -0.1104384698647544 0 -0.31985354906786451 -0.093904143806664828 0 -0.33195595105886838 -0.1127223960201493 0 -0.33914554028312821 -0.094863814424989923 0 -0.33195595105886838 -0.1127223960201493 0 -0.35626605292775482 -0.10249292726764191 0 -0.31985354906786451 -0.093904143806664828 0 -0.33914554028312821 -0.094863814424989923 0 -0.33195595105886838 -0.1127223960201493 0 -0.33195595105886838 -0.1127223960201493 0 -0.33484145214063982 -0.13504475966888241 0 -0.35603333632701561 -0.12554380828826811 0 -0.33195595105886838 -0.1127223960201493 0 -0.35626605292775482 -0.10249292726764191 0 -0.35603333632701561 -0.12554380828826811 0 -0.33914554028312821 -0.094863814424989923 0 -0.35626605292775482 -0.10249292726764191 0 -0.35485967490135928 -0.083907783265857225 0 -0.35626605292775482 -0.10249292726764191 0 -0.37550420936536277 -0.093343086593504876 0 -0.38105015918785412 -0.1170517985583005 0 -0.35626605292775482 -0.10249292726764191 0 -0.35603333632701561 -0.12554380828826811 0 -0.38105015918785412 -0.1170517985583005 0 -0.33760169804300427 -0.077369817748575181 0 -0.35534984701814398 -0.060835491690485542 0 -0.33872230242454149 -0.052308041145211308 0 -0.33760169804300427 -0.077369817748575181 0 -0.35534984701814398 -0.060835491690485542 0 -0.33760169804300427 -0.077369817748575181 0 -0.35485967490135928 -0.083907783265857225 0 -0.35534984701814398 -0.060835491690485542 0 -0.33760169804300427 -0.077369817748575181 0 -0.33914554028312821 -0.094863814424989923 0 -0.35485967490135928 -0.083907783265857225 0 -0.35485967490135928 -0.083907783265857225 0 -0.36954043907186451 -0.075056641139928049 0 -0.37550420936536277 -0.093343086593504876 0 -0.35626605292775482 -0.10249292726764191 0 -0.35485967490135928 -0.083907783265857225 0 -0.37550420936536277 -0.093343086593504876 0 -0.35485967490135928 -0.083907783265857225 0 -0.36954043907186451 -0.075056641139928049 0 -0.35534984701814398 -0.060835491690485542 0 -0.36954043907186451 -0.075056641139928049 0 -0.35534984701814398 -0.060835491690485542 0 -0.38460502433228499 -0.060895238748742121 0 -0.35534984701814398 -0.060835491690485542 0 -0.37309799599328392 -0.044301165632395917 0 -0.38460502433228499 -0.060895238748742121 0 -0.35534984701814398 -0.060835491690485542 0 -0.37309799599328392 -0.044301165632395917 0 -0.35534984701814398 -0.060835491690485542 0 -0.35188825096228182 -0.038876239122399937 0 -0.37309799599328392 -0.044301165632395917 0 -0.35534984701814398 -0.060835491690485542 0 -0.35188825096228182 -0.038876239122399937 0 -0.33872230242454149 -0.052308041145211308 0 -0.35188825096228182 -0.038876239122399937 0 -0.3622989416244346 -0.031909157371975243 0 -0.35467568002401301 -0.029341415354986002 0 -0.3622989416244346 -0.031909157371975243 0 -0.37309799599328392 -0.044301165632395917 0 -0.37386469003277067 -0.025622291247220749 0 -0.35188825096228182 -0.038876239122399937 0 -0.3622989416244346 -0.031909157371975243 0 -0.37309799599328392 -0.044301165632395917 0 -0.37386469003277067 -0.025622291247220749 0 -0.36704294731186271 -0.0046943202715755018 0 -0.35874664073871437 -0.022099560746481731 0 -0.3622989416244346 -0.031909157371975243 0 -0.37386469003277067 -0.025622291247220749 0 -0.35874664073871437 -0.022099560746481731 0 -0.36704294731186271 -0.0046943202715755018 0 -0.35874664073871437 -0.022099560746481731 0 -0.35312068326451168 -0.0160452109766131 0 -0.37386469003277067 -0.025622291247220749 0 -0.36704294731186271 -0.0046943202715755018 0 -0.383603564472072 -0.012098883920076331 0 -0.36704294731186271 -0.0046943202715755018 0 -0.34092425823684869 -0.01290625870930805 0 -0.36704294731186271 -0.0046943202715755018 0 -0.34661561390107859 -0.010090426369404821 0 -0.34092425823684869 -0.01290625870930805 0 -0.36704294731186271 -0.0046943202715755018 0 -0.34661561390107859 -0.010090426369404821 0 -0.35874072808383523 2.368727293597579e-05 0 -0.36704294731186271 -0.0046943202715755018 0 -0.35312068326451168 -0.0160452109766131 0 -0.34092425823684869 -0.01290625870930805 0 -0.34661561390107859 -0.010090426369404821 0 -0.35511398119079668 0.0092691537269610526 0 -0.34661561390107859 -0.010090426369404821 0 -0.35874072808383523 2.368727293597579e-05 0 -0.35472683228226981 0.0066565317562330686 0 -0.3622989416244346 -0.031909157371975243 0 -0.35467568002401301 -0.029341415354986002 0 -0.35874664073871437 -0.022099560746481731 0 -0.35467568002401301 -0.029341415354986002 0 -0.35874664073871437 -0.022099560746481731 0 -0.34576888677062129 -0.024480704179087109 0 -0.35874664073871437 -0.022099560746481731 0 -0.35312068326451168 -0.0160452109766131 0 -0.34576888677062129 -0.024480704179087109 0 -0.35312068326451168 -0.0160452109766131 0 -0.34576888677062129 -0.024480704179087109 0 -0.34092425823684869 -0.01290625870930805 0 -0.35188825096228182 -0.038876239122399937 0 -0.35467568002401301 -0.029341415354986002 0 -0.34576888677062129 -0.024480704179087109 0 -0.34576888677062129 -0.024480704179087109 0 -0.33554921227042522 -0.02022256296116956 0 -0.3334767862619632 -0.031746384742102382 0 -0.34576888677062129 -0.024480704179087109 0 -0.33554921227042522 -0.02022256296116956 0 -0.34092425823684869 -0.01290625870930805 0 -0.33554921227042522 -0.02022256296116956 0 -0.32717891870591342 -0.0096970911718550386 0 -0.32457607288172891 -0.01947689244104182 0 -0.33554921227042522 -0.02022256296116956 0 -0.32457607288172891 -0.01947689244104182 0 -0.3334767862619632 -0.031746384742102382 0 -0.34661561390107859 -0.010090426369404821 0 -0.33806769043839408 -0.0052815962120841371 0 -0.34364033572837438 0.0023346474945074719 0 -0.34661561390107859 -0.010090426369404821 0 -0.33806769043839408 -0.0052815962120841371 0 -0.34092425823684869 -0.01290625870930805 0 -0.33806769043839408 -0.0052815962120841371 0 -0.34092425823684869 -0.01290625870930805 0 -0.32717891870591342 -0.0096970911718550386 0 -0.33554921227042522 -0.02022256296116956 0 -0.34092425823684869 -0.01290625870930805 0 -0.32717891870591342 -0.0096970911718550386 0 -0.33806769043839408 -0.0052815962120841371 0 -0.32717891870591342 -0.0096970911718550386 0 -0.33197932561975563 0.0039511476956397493 0 -0.32717891870591342 -0.0096970911718550386 0 -0.31314961176658529 -0.0081441385305092706 0 -0.33197932561975563 0.0039511476956397493 0 -0.32717891870591342 -0.0096970911718550386 0 -0.31314961176658529 -0.0081441385305092706 0 -0.32457607288172891 -0.01947689244104182 0 -0.31352583540375728 -0.027574284799572871 0 -0.32457607288172891 -0.01947689244104182 0 -0.3334767862619632 -0.031746384742102382 0 -0.31314961176658529 -0.0081441385305092706 0 -0.31352583540375728 -0.027574284799572871 0 -0.32457607288172891 -0.01947689244104182 0 -0.31352583540375728 -0.027574284799572871 0 -0.32086735623403267 -0.045548189264421182 0 -0.3334767862619632 -0.031746384742102382 0 -0.30532052086078171 -0.050521538229011752 0 -0.31352583540375728 -0.027574284799572871 0 -0.32086735623403267 -0.045548189264421182 0 -0.30532052086078171 -0.050521538229011752 0 -0.31541355214619698 -0.067866478841462158 0 -0.32086735623403267 -0.045548189264421182 0 -0.31541355214619698 -0.067866478841462158 0 -0.32086735623403267 -0.045548189264421182 0 -0.33872230242454149 -0.052308041145211308 0 -0.35188825096228182 -0.038876239122399937 0 -0.33872230242454149 -0.052308041145211308 0 -0.3334767862619632 -0.031746384742102382 0 -0.32086735623403267 -0.045548189264421182 0 -0.33872230242454149 -0.052308041145211308 0 -0.3334767862619632 -0.031746384742102382 0 -0.35188825096228182 -0.038876239122399937 0 -0.34576888677062129 -0.024480704179087109 0 -0.3334767862619632 -0.031746384742102382 0 -0.31007351155781449 -0.2437470698782758 0 -0.29243357304739442 -0.22331764998326881 0 -0.3173901775506851 -0.21651886311590479 0 -0.29243357304739442 -0.22331764998326881 0 -0.3173901775506851 -0.21651886311590479 0 -0.29243357304739442 -0.22331764998326881 0 -0.28471683507770318 -0.2404827603702297 0 -0.26747696854410391 -0.23011643685063279 0 -0.31007351155781449 -0.2437470698782758 0 -0.29243357304739442 -0.22331764998326881 0 -0.28471683507770318 -0.2404827603702297 0 -0.28822662681253119 -0.25785002218664882 0 -0.31007351155781449 -0.2437470698782758 0 -0.28471683507770318 -0.2404827603702297 0 -0.28822662681253119 -0.25785002218664882 0 -0.28471683507770318 -0.2404827603702297 0 -0.26537349542667238 -0.2473826229523223 0 -0.28471683507770318 -0.2404827603702297 0 -0.26537349542667238 -0.2473826229523223 0 -0.26747696854410391 -0.23011643685063279 0 -0.24252036404081309 -0.2369152237179962 0 -0.26537349542667238 -0.2473826229523223 0 -0.24252036404081309 -0.2369152237179962 0 -0.26537349542667238 -0.2473826229523223 0 -0.26747696854410391 -0.23011643685063279 0 -0.24252036404081309 -0.2369152237179962 0 -0.26537349542667238 -0.2473826229523223 0 -0.25326344970455439 -0.24921698247872701 0 -0.24252036404081309 -0.2369152237179962 0 -0.25250477308712949 -0.2265099558855713 0 -0.26747696854410391 -0.23011643685063279 0 -0.24252036404081309 -0.2369152237179962 0 -0.26747696854410391 -0.23011643685063279 0 -0.25250477308712949 -0.2265099558855713 0 -0.26747696854410391 -0.23011643685063279 0 -0.26070826614519721 -0.2083567688920665 0 -0.29243357304739442 -0.22331764998326881 0 -0.26747696854410391 -0.23011643685063279 0 -0.27749436723618942 -0.21387899189652559 0 -0.29243357304739442 -0.22331764998326881 0 -0.26747696854410391 -0.23011643685063279 0 -0.26747696854410391 -0.23011643685063279 0 -0.27749436723618942 -0.21387899189652559 0 -0.26070826614519721 -0.2083567688920665 0 -0.27749436723618942 -0.21387899189652559 0 -0.26070826614519721 -0.2083567688920665 0 -0.27952148726385267 -0.19632453601941491 0 -0.24189504502654169 -0.2203890017647181 0 -0.26070826614519721 -0.2083567688920665 0 -0.24189504502654169 -0.2203890017647181 0 -0.25250477308712949 -0.2265099558855713 0 -0.26070826614519721 -0.2083567688920665 0 -0.26070826614519721 -0.2083567688920665 0 -0.25474498459293587 -0.18904997959439709 0 -0.26614357299317998 -0.19613124679998001 0 -0.24224808373301501 -0.20222981672090101 0 -0.26070826614519721 -0.2083567688920665 0 -0.25474498459293587 -0.18904997959439709 0 -0.25474498459293587 -0.18904997959439709 0 -0.26614357299317998 -0.19613124679998001 0 -0.27469544361061182 -0.18584186101177469 0 -0.26070826614519721 -0.2083567688920665 0 -0.26614357299317998 -0.19613124679998001 0 -0.27952148726385267 -0.19632453601941491 0 -0.26070826614519721 -0.2083567688920665 0 -0.27952148726385267 -0.19632453601941491 0 -0.26614357299317998 -0.19613124679998001 0 -0.27952148726385267 -0.19632453601941491 0 -0.27469544361061182 -0.18584186101177469 0 -0.27952148726385267 -0.19632453601941491 0 -0.29833470838250858 -0.18429230314676379 0 -0.27469544361061182 -0.18584186101177469 0 -0.27952148726385267 -0.19632453601941491 0 -0.29833470838250858 -0.18429230314676379 0 -0.27952148726385267 -0.19632453601941491 0 -0.29739518618176602 -0.20422549172476279 0 -0.29833470838250858 -0.18429230314676379 0 -0.27749436723618942 -0.21387899189652559 0 -0.27952148726385267 -0.19632453601941491 0 -0.29739518618176602 -0.20422549172476279 0 -0.29243357304739442 -0.22331764998326881 0 -0.27749436723618942 -0.21387899189652559 0 -0.29739518618176602 -0.20422549172476279 0 -0.29243357304739442 -0.22331764998326881 0 -0.29739518618176602 -0.20422549172476279 0 -0.3173901775506851 -0.21651886311590479 0 -0.29739518618176602 -0.20422549172476279 0 -0.31288832222571389 -0.19762975320212711 0 -0.3173901775506851 -0.21651886311590479 0 -0.29739518618176602 -0.20422549172476279 0 -0.29833470838250858 -0.18429230314676379 0 -0.31288832222571389 -0.19762975320212711 0 -0.29833470838250858 -0.18429230314676379 0 -0.32537153670884161 -0.1825200344073484 0 -0.31288832222571389 -0.19762975320212711 0 -0.29833470838250858 -0.18429230314676379 0 -0.32377394263855253 -0.16802231999288789 0 -0.29833470838250858 -0.18429230314676379 0 -0.29895715488821162 -0.16419753734635681 0 -0.32377394263855253 -0.16802231999288789 0 -0.29833470838250858 -0.18429230314676379 0 -0.32537153670884161 -0.1825200344073484 0 -0.29895715488821162 -0.16419753734635681 0 -0.30758160202563001 -0.14633432105954169 0 -0.32377394263855253 -0.16802231999288789 0 -0.29895715488821162 -0.16419753734635681 0 -0.28771020967418348 -0.17206955866584239 0 -0.28032175191062031 -0.1576238824502009 0 -0.29833470838250858 -0.18429230314676379 0 -0.27469544361061182 -0.18584186101177469 0 -0.29833470838250858 -0.18429230314676379 0 -0.29895715488821162 -0.16419753734635681 0 -0.28771020967418348 -0.17206955866584239 0 -0.29833470838250858 -0.18429230314676379 0 -0.28771020967418348 -0.17206955866584239 0 -0.27469544361061182 -0.18584186101177469 0 -0.25474498459293587 -0.18904997959439709 0 -0.27469544361061182 -0.18584186101177469 0 -0.2530619017956105 -0.1689134438408601 0 -0.2530619017956105 -0.1689134438408601 0 -0.28032175191062031 -0.1576238824502009 0 -0.26009497160843431 -0.15261885590238899 0 -0.24349202118617669 -0.15275551726232131 0 -0.2530619017956105 -0.1689134438408601 0 -0.26009497160843431 -0.15261885590238899 0 -0.28771020967418348 -0.17206955866584239 0 -0.27469544361061182 -0.18584186101177469 0 -0.28032175191062031 -0.1576238824502009 0 -0.2530619017956105 -0.1689134438408601 0 -0.28032175191062031 -0.1576238824502009 0 -0.27469544361061182 -0.18584186101177469 0 -0.2530619017956105 -0.1689134438408601 0 -0.28032175191062031 -0.1576238824502009 0 -0.28032175191062031 -0.1576238824502009 0 -0.27457334779475229 -0.14715235062831289 0 -0.26009497160843431 -0.15261885590238899 0 -0.28032175191062031 -0.1576238824502009 0 -0.27457334779475229 -0.14715235062831289 0 -0.28729334799422868 -0.14334927050683491 0 -0.27457334779475229 -0.14715235062831289 0 -0.27959867123821991 -0.13448550337149801 0 -0.28729334799422868 -0.14334927050683491 0 -0.27457334779475229 -0.14715235062831289 0 -0.26009497160843431 -0.15261885590238899 0 -0.25004436180301032 -0.13769808189271379 0 -0.24349202118617669 -0.15275551726232131 0 -0.26009497160843431 -0.15261885590238899 0 -0.25004436180301032 -0.13769808189271379 0 -0.27457334779475229 -0.14715235062831289 0 -0.25030223064789259 -0.1321082191367223 0 -0.27457334779475229 -0.14715235062831289 0 -0.25030223064789259 -0.1321082191367223 0 -0.26725196289465852 -0.1332237128469573 0 -0.25030223064789259 -0.1321082191367223 0 -0.26106186369438761 -0.12502239806573329 0 -0.26725196289465852 -0.1332237128469573 0 -0.27457334779475229 -0.14715235062831289 0 -0.25030223064789259 -0.1321082191367223 0 -0.25004436180301032 -0.13769808189271379 0 -0.25127600885182111 -0.1207935333161253 0 -0.25030223064789259 -0.1321082191367223 0 -0.26106186369438761 -0.12502239806573329 0 -0.28220425536107069 -0.11748960263554931 0 -0.27072370109804039 -0.1273500930325199 0 -0.27959867123821991 -0.13448550337149801 0 -0.27072370109804039 -0.1273500930325199 0 -0.26725196289465852 -0.1332237128469573 0 -0.27959867123821991 -0.13448550337149801 0 -0.26106186369438761 -0.12502239806573329 0 -0.27072370109804039 -0.1273500930325199 0 -0.26725196289465852 -0.1332237128469573 0 -0.27457334779475229 -0.14715235062831289 0 -0.26725196289465852 -0.1332237128469573 0 -0.27959867123821991 -0.13448550337149801 0 -0.29439136700192092 -0.13115029502462081 0 -0.28729334799422868 -0.14334927050683491 0 -0.30758160202563001 -0.14633432105954169 0 -0.28220425536107069 -0.11748960263554931 0 -0.27959867123821991 -0.13448550337149801 0 -0.29439136700192092 -0.13115029502462081 0 -0.27959867123821991 -0.13448550337149801 0 -0.29439136700192092 -0.13115029502462081 0 -0.28729334799422868 -0.14334927050683491 0 -0.28032175191062031 -0.1576238824502009 0 -0.28729334799422868 -0.14334927050683491 0 -0.30758160202563001 -0.14633432105954169 0 -0.28032175191062031 -0.1576238824502009 0 -0.30758160202563001 -0.14633432105954169 0 -0.29895715488821162 -0.16419753734635681 0 -0.28032175191062031 -0.1576238824502009 0 -0.30758160202563001 -0.14633432105954169 0 -0.29439136700192092 -0.13115029502462081 0 -0.30758160202563001 -0.14633432105954169 0 -0.3154463265729513 -0.12676884881984379 0 -0.30758160202563001 -0.14633432105954169 0 -0.3154463265729513 -0.12676884881984379 0 -0.33484145214063982 -0.13504475966888241 0 -0.30758160202563001 -0.14633432105954169 0 -0.33484145214063982 -0.13504475966888241 0 -0.30758160202563001 -0.14633432105954169 0 -0.33023932504507519 -0.1518462008594185 0 -0.32377394263855253 -0.16802231999288789 0 -0.30758160202563001 -0.14633432105954169 0 -0.33023932504507519 -0.1518462008594185 0 -0.33484145214063982 -0.13504475966888241 0 -0.33023932504507519 -0.1518462008594185 0 -0.35475770219178182 -0.14882678094213189 0 -0.34269545824414549 -0.1640245729020928 0 -0.33023932504507519 -0.1518462008594185 0 -0.33484145214063982 -0.13504475966888241 0 -0.35475770219178182 -0.14882678094213189 0 -0.33484145214063982 -0.13504475966888241 0 -0.35603333632701561 -0.12554380828826811 0 -0.35475770219178182 -0.14882678094213189 0 -0.35603333632701561 -0.12554380828826811 0 -0.37467681482193882 -0.13801713847274361 0 -0.38105015918785412 -0.1170517985583005 0 -0.35603333632701561 -0.12554380828826811 0 -0.37467681482193882 -0.13801713847274361 0 -0.35475770219178182 -0.14882678094213189 0 -0.37467681482193882 -0.13801713847274361 0 -0.37127604760323929 -0.15425172644207549 0 -0.35475770219178182 -0.14882678094213189 0 -0.35475770219178182 -0.14882678094213189 0 -0.35921065004210218 -0.1664102554851456 0 -0.34269545824414549 -0.1640245729020928 0 -0.35921065004210218 -0.1664102554851456 0 -0.35240836503517448 -0.1807477656679326 0 -0.34269545824414549 -0.1640245729020928 0 -0.37127604760323929 -0.15425172644207549 0 -0.35475770219178182 -0.14882678094213189 0 -0.35921065004210218 -0.1664102554851456 0 -0.35921065004210218 -0.1664102554851456 0 -0.3743540822614187 -0.16632197927049719 0 -0.36409935508291691 -0.18072029736033679 0 -0.37127604760323929 -0.15425172644207549 0 -0.35921065004210218 -0.1664102554851456 0 -0.3743540822614187 -0.16632197927049719 0 -0.36409935508291691 -0.18072029736033679 0 -0.3382112901059206 -0.1873032043992213 0 -0.36409935508291691 -0.18072029736033679 0 -0.35240836503517448 -0.1807477656679326 0 -0.3382112901059206 -0.1873032043992213 0 -0.35921065004210218 -0.1664102554851456 0 -0.36409935508291691 -0.18072029736033679 0 -0.35240836503517448 -0.1807477656679326 0 -0.35240836503517448 -0.1807477656679326 0 -0.33606232565667837 -0.1738286732425654 0 -0.32537153670884161 -0.1825200344073484 0 -0.35240836503517448 -0.1807477656679326 0 -0.3382112901059206 -0.1873032043992213 0 -0.32537153670884161 -0.1825200344073484 0 -0.35240836503517448 -0.1807477656679326 0 -0.32537153670884161 -0.1825200344073484 0 -0.35240836503517448 -0.1807477656679326 0 -0.33606232565667837 -0.1738286732425654 0 -0.34269545824414549 -0.1640245729020928 0 -0.33606232565667837 -0.1738286732425654 0 -0.32377394263855253 -0.16802231999288789 0 -0.32537153670884161 -0.1825200344073484 0 -0.33023932504507519 -0.1518462008594185 0 -0.34269545824414549 -0.1640245729020928 0 -0.32377394263855253 -0.16802231999288789 0 -0.33606232565667837 -0.1738286732425654 0 -0.34269545824414549 -0.1640245729020928 0 -0.32377394263855253 -0.16802231999288789 0 -0.29833470838250858 -0.18429230314676379 0 -0.32377394263855253 -0.16802231999288789 0 -0.32537153670884161 -0.1825200344073484 0 -0.32537153670884161 -0.1825200344073484 0 -0.32595000230476878 -0.20059207361585579 0 -0.31288832222571389 -0.19762975320212711 0 -0.32595000230476878 -0.20059207361585579 0 -0.31288832222571389 -0.19762975320212711 0 -0.3173901775506851 -0.21651886311590479 0 -0.32595000230476878 -0.20059207361585579 0 -0.3173901775506851 -0.21651886311590479 0 -0.34234678205397578 -0.20972007624854089 0 -0.3173901775506851 -0.21651886311590479 0 -0.34234678205397578 -0.20972007624854089 0 -0.3382112901059206 -0.1873032043992213 0 -0.32537153670884161 -0.1825200344073484 0 -0.32595000230476878 -0.20059207361585579 0 -0.3382112901059206 -0.1873032043992213 0 -0.32595000230476878 -0.20059207361585579 0 -0.34234678205397578 -0.20972007624854089 0 -0.3382112901059206 -0.1873032043992213 0 -0.34234678205397578 -0.20972007624854089 0 -0.3547227712097541 -0.1967541953563193 0 -0.36409935508291691 -0.18072029736033679 0 -0.3382112901059206 -0.1873032043992213 0 -0.3547227712097541 -0.1967541953563193 0 -0.36409935508291691 -0.18072029736033679 0 -0.36737550214270348 -0.19369006425660171 0 -0.3803362456847923 -0.1903784000621217 0 -0.36409935508291691 -0.18072029736033679 0 -0.3547227712097541 -0.1967541953563193 0 -0.36737550214270348 -0.19369006425660171 0 -0.3547227712097541 -0.1967541953563193 0 -0.36737550214270348 -0.19369006425660171 0 -0.36897598874601167 -0.20703636471057291 0 -0.36737550214270348 -0.19369006425660171 0 -0.36897598874601167 -0.20703636471057291 0 -0.38213170992260498 -0.20346501256523 0 -0.36897598874601167 -0.20703636471057291 0 -0.36605271049587967 -0.23047935322310331 0 -0.38522485898440129 -0.21823004788216591 0 -0.3547227712097541 -0.1967541953563193 0 -0.36897598874601167 -0.20703636471057291 0 -0.35564327352492708 -0.2147019842924166 0 -0.36897598874601167 -0.20703636471057291 0 -0.35564327352492708 -0.2147019842924166 0 -0.36605271049587967 -0.23047935322310331 0 -0.34234678205397578 -0.20972007624854089 0 -0.35564327352492708 -0.2147019842924166 0 -0.34611811511901452 -0.22951993192354689 0 -0.34234678205397578 -0.20972007624854089 0 -0.3547227712097541 -0.1967541953563193 0 -0.35564327352492708 -0.2147019842924166 0 -0.35564327352492708 -0.2147019842924166 0 -0.34611811511901452 -0.22951993192354689 0 -0.36605271049587967 -0.23047935322310331 0 -0.36276416121781768 -0.25026291011615542 0 -0.36605271049587967 -0.23047935322310331 0 -0.3754815455226328 -0.24515134388580481 0 -0.36276416121781768 -0.25026291011615542 0 -0.36605271049587967 -0.23047935322310331 0 -0.3497292610593602 -0.24450603086655481 0 -0.34611811511901452 -0.22951993192354689 0 -0.36605271049587967 -0.23047935322310331 0 -0.3497292610593602 -0.24450603086655481 0 -0.34611811511901452 -0.22951993192354689 0 -0.3497292610593602 -0.24450603086655481 0 -0.33422280334630938 -0.2474119697110238 0 -0.34611811511901452 -0.22951993192354689 0 -0.33422280334630938 -0.2474119697110238 0 -0.32818825608441438 -0.231659332092359 0 -0.3173901775506851 -0.21651886311590479 0 -0.34234678205397578 -0.20972007624854089 0 -0.32818825608441438 -0.231659332092359 0 -0.34234678205397578 -0.20972007624854089 0 -0.34611811511901452 -0.22951993192354689 0 -0.32818825608441438 -0.231659332092359 0 -0.31007351155781449 -0.2437470698782758 0 -0.3173901775506851 -0.21651886311590479 0 -0.32818825608441438 -0.231659332092359 0 -0.31007351155781449 -0.2437470698782758 0 -0.33422280334630938 -0.2474119697110238 0 -0.32818825608441438 -0.231659332092359 0 -0.43615447772397598 -0.25463875365883232 0 -0.42842422739751879 -0.24396335671878699 0 -0.44510061421837188 -0.2439699360773388 0 -0.42842422739751879 -0.24396335671878699 0 -0.43630642285243482 -0.23278535401567049 0 -0.44510061421837188 -0.2439699360773388 0 -0.42842422739751879 -0.24396335671878699 0 -0.43630642285243482 -0.23278535401567049 0 -0.42073919474494381 -0.2290866253107017 0 -0.42073919474494381 -0.2290866253107017 0 -0.42986506512247791 -0.21461445575166041 0 -0.44105867115202618 -0.2186522404939448 0 -0.43630642285243482 -0.23278535401567049 0 -0.42073919474494381 -0.2290866253107017 0 -0.44105867115202618 -0.2186522404939448 0 -0.42073919474494381 -0.2290866253107017 0 -0.44105867115202618 -0.2186522404939448 0 -0.41233133140309569 -0.23773118800038329 0 -0.40379357901214807 -0.21984965530865591 0 -0.42986506512247791 -0.21461445575166041 0 -0.42073919474494381 -0.2290866253107017 0 -0.41233133140309569 -0.23773118800038329 0 -0.42986506512247791 -0.21461445575166041 0 -0.41233133140309569 -0.23773118800038329 0 -0.40379357901214807 -0.21984965530865591 0 -0.41233133140309569 -0.23773118800038329 0 -0.42986506512247791 -0.21461445575166041 0 -0.42842422739751879 -0.24396335671878699 0 -0.42073919474494381 -0.2290866253107017 0 -0.41233133140309569 -0.23773118800038329 0 -0.42374012975747299 -0.26162586090792711 0 -0.42842422739751879 -0.24396335671878699 0 -0.41233133140309569 -0.23773118800038329 0 -0.41054962973794951 -0.25699269170388722 0 -0.41233133140309569 -0.23773118800038329 0 -0.40533759214738879 -0.24695183662999681 0 -0.42374012975747299 -0.26162586090792711 0 -0.41233133140309569 -0.23773118800038329 0 -0.41233133140309569 -0.23773118800038329 0 -0.40533759214738879 -0.24695183662999681 0 -0.39905962203334883 -0.253280537170463 0 -0.40533759214738879 -0.24695183662999681 0 -0.39533825663743127 -0.24429407101779799 0 -0.40533759214738879 -0.24695183662999681 0 -0.39836413017475181 -0.23439990515976661 0 -0.39533825663743127 -0.24429407101779799 0 -0.41233133140309569 -0.23773118800038329 0 -0.40533759214738879 -0.24695183662999681 0 -0.39836413017475181 -0.23439990515976661 0 -0.39836413017475181 -0.23439990515976661 0 -0.39533825663743127 -0.24429407101779799 0 -0.38424057204281581 -0.2353297534589805 0 -0.38759006934406082 -0.25292219297864371 0 -0.39533825663743127 -0.24429407101779799 0 -0.38424057204281581 -0.2353297534589805 0 -0.38759006934406082 -0.25292219297864371 0 -0.38424057204281581 -0.2353297534589805 0 -0.3754815455226328 -0.24515134388580481 0 -0.36605271049587967 -0.23047935322310331 0 -0.38424057204281581 -0.2353297534589805 0 -0.3754815455226328 -0.24515134388580481 0 -0.36605271049587967 -0.23047935322310331 0 -0.38424057204281581 -0.2353297534589805 0 -0.38522485898440129 -0.21823004788216591 0 -0.39836413017475181 -0.23439990515976661 0 -0.38424057204281581 -0.2353297534589805 0 -0.38522485898440129 -0.21823004788216591 0 -0.39836413017475181 -0.23439990515976661 0 -0.40379357901214807 -0.21984965530865591 0 -0.38522485898440129 -0.21823004788216591 0 -0.41233133140309569 -0.23773118800038329 0 -0.39836413017475181 -0.23439990515976661 0 -0.40379357901214807 -0.21984965530865591 0 -0.40379357901214807 -0.21984965530865591 0 -0.39525582662120379 -0.20196812261692701 0 -0.40379357901214807 -0.21984965530865591 0 -0.38522485898440129 -0.21823004788216591 0 -0.39525582662120379 -0.20196812261692701 0 -0.40379357901214807 -0.21984965530865591 0 -0.39525582662120379 -0.20196812261692701 0 -0.41404579845200018 -0.20461877501261891 0 -0.38522485898440129 -0.21823004788216591 0 -0.38213170992260498 -0.20346501256523 0 -0.39525582662120379 -0.20196812261692701 0 -0.36897598874601167 -0.20703636471057291 0 -0.38522485898440129 -0.21823004788216591 0 -0.38213170992260498 -0.20346501256523 0 -0.3803362456847923 -0.1903784000621217 0 -0.39525582662120379 -0.20196812261692701 0 -0.3960145127932917 -0.18739051167618981 0 -0.36737550214270348 -0.19369006425660171 0 -0.38213170992260498 -0.20346501256523 0 -0.3803362456847923 -0.1903784000621217 0 -0.38213170992260498 -0.20346501256523 0 -0.3803362456847923 -0.1903784000621217 0 -0.39525582662120379 -0.20196812261692701 0 -0.39525582662120379 -0.20196812261692701 0 -0.41130887339181121 -0.19028366245475359 0 -0.3960145127932917 -0.18739051167618981 0 -0.39525582662120379 -0.20196812261692701 0 -0.41130887339181121 -0.19028366245475359 0 -0.41404579845200018 -0.20461877501261891 0 -0.41130887339181121 -0.19028366245475359 0 -0.42654669865987299 -0.1934972091310852 0 -0.42138958698615803 -0.18000191931131371 0 -0.41130887339181121 -0.19028366245475359 0 -0.41404579845200018 -0.20461877501261891 0 -0.42654669865987299 -0.1934972091310852 0 -0.40379357901214807 -0.21984965530865591 0 -0.41404579845200018 -0.20461877501261891 0 -0.42986506512247791 -0.21461445575166041 0 -0.41404579845200018 -0.20461877501261891 0 -0.42986506512247791 -0.21461445575166041 0 -0.42654669865987299 -0.1934972091310852 0 -0.42986506512247791 -0.21461445575166041 0 -0.42654669865987299 -0.1934972091310852 0 -0.44739879884185862 -0.19149772350293651 0 -0.42654669865987299 -0.1934972091310852 0 -0.43527206916493238 -0.17996671875322789 0 -0.44739879884185862 -0.19149772350293651 0 -0.4304675129301887 -0.1713703412132303 0 -0.41587548503690952 -0.1675544832825677 0 -0.42138958698615803 -0.18000191931131371 0 -0.43527206916493238 -0.17996671875322789 0 -0.4304675129301887 -0.1713703412132303 0 -0.42138958698615803 -0.18000191931131371 0 -0.42654669865987299 -0.1934972091310852 0 -0.43527206916493238 -0.17996671875322789 0 -0.42138958698615803 -0.18000191931131371 0 -0.43527206916493238 -0.17996671875322789 0 -0.4304675129301887 -0.1713703412132303 0 -0.43848929206371001 -0.17046543359702049 0 -0.41587548503690952 -0.1675544832825677 0 -0.44176355001390571 -0.16097157624368319 0 -0.4304675129301887 -0.1713703412132303 0 -0.41587548503690952 -0.1675544832825677 0 -0.44176355001390571 -0.16097157624368319 0 -0.4304675129301887 -0.1713703412132303 0 -0.44176355001390571 -0.16097157624368319 0 -0.43848929206371001 -0.17046543359702049 0 -0.41346790589157628 -0.15718901736956131 0 -0.44011749743671619 -0.15811948772889789 0 -0.41587548503690952 -0.1675544832825677 0 -0.44176355001390571 -0.16097157624368319 0 -0.44011749743671619 -0.15811948772889789 0 -0.41587548503690952 -0.1675544832825677 0 -0.41346790589157628 -0.15718901736956131 0 -0.44011749743671619 -0.15811948772889789 0 -0.41587548503690952 -0.1675544832825677 0 -0.41346790589157628 -0.15718901736956131 0 -0.39991850236931747 -0.1631567703307967 0 -0.41587548503690952 -0.1675544832825677 0 -0.40649373795596011 -0.17951855152499319 0 -0.42138958698615803 -0.18000191931131371 0 -0.41130887339181121 -0.19028366245475359 0 -0.40649373795596011 -0.17951855152499319 0 -0.42138958698615803 -0.18000191931131371 0 -0.41587548503690952 -0.1675544832825677 0 -0.40649373795596011 -0.17951855152499319 0 -0.38998742005991333 -0.1741373903214522 0 -0.41130887339181121 -0.19028366245475359 0 -0.40649373795596011 -0.17951855152499319 0 -0.3960145127932917 -0.18739051167618981 0 -0.40649373795596011 -0.17951855152499319 0 -0.3960145127932917 -0.18739051167618981 0 -0.38998742005991333 -0.1741373903214522 0 -0.36409935508291691 -0.18072029736033679 0 -0.3803362456847923 -0.1903784000621217 0 -0.38998742005991333 -0.1741373903214522 0 -0.3743540822614187 -0.16632197927049719 0 -0.36409935508291691 -0.18072029736033679 0 -0.38998742005991333 -0.1741373903214522 0 -0.3803362456847923 -0.1903784000621217 0 -0.3960145127932917 -0.18739051167618981 0 -0.38998742005991333 -0.1741373903214522 0 -0.36409935508291691 -0.18072029736033679 0 -0.38998742005991333 -0.1741373903214522 0 -0.3743540822614187 -0.16632197927049719 0 -0.38998742005991333 -0.1741373903214522 0 -0.38681831434643632 -0.1562585470102246 0 -0.37127604760323929 -0.15425172644207549 0 -0.3743540822614187 -0.16632197927049719 0 -0.38681831434643632 -0.1562585470102246 0 -0.41346790589157628 -0.15718901736956131 0 -0.38681831434643632 -0.1562585470102246 0 -0.41346790589157628 -0.15718901736956131 0 -0.38681831434643632 -0.1562585470102246 0 -0.39991850236931747 -0.1631567703307967 0 -0.38998742005991333 -0.1741373903214522 0 -0.38681831434643632 -0.1562585470102246 0 -0.39991850236931747 -0.1631567703307967 0 -0.41587548503690952 -0.1675544832825677 0 -0.38998742005991333 -0.1741373903214522 0 -0.39991850236931747 -0.1631567703307967 0 -0.41587548503690952 -0.1675544832825677 0 -0.38998742005991333 -0.1741373903214522 0 -0.41346790589157628 -0.15718901736956131 0 -0.38681831434643632 -0.1562585470102246 0 -0.40139522891787088 -0.14786621909678041 0 -0.38681831434643632 -0.1562585470102246 0 -0.40139522891787088 -0.14786621909678041 0 -0.3918884293007685 -0.1359905333409617 0 -0.37467681482193882 -0.13801713847274361 0 -0.37127604760323929 -0.15425172644207549 0 -0.38681831434643632 -0.1562585470102246 0 -0.37467681482193882 -0.13801713847274361 0 -0.38681831434643632 -0.1562585470102246 0 -0.3918884293007685 -0.1359905333409617 0 -0.37467681482193882 -0.13801713847274361 0 -0.3918884293007685 -0.1359905333409617 0 -0.38105015918785412 -0.1170517985583005 0 -0.40139522891787088 -0.14786621909678041 0 -0.3918884293007685 -0.1359905333409617 0 -0.408409132073492 -0.1350344510788912 0 -0.3918884293007685 -0.1359905333409617 0 -0.408409132073492 -0.1350344510788912 0 -0.39898092645701888 -0.1217150458288304 0 -0.408409132073492 -0.1350344510788912 0 -0.42443257019248248 -0.13030871616955039 0 -0.42059534252594671 -0.1196245816549861 0 -0.41774614104896007 -0.13989084485642639 0 -0.408409132073492 -0.1350344510788912 0 -0.42443257019248248 -0.13030871616955039 0 -0.408409132073492 -0.1350344510788912 0 -0.39898092645701888 -0.1217150458288304 0 -0.42059534252594671 -0.1196245816549861 0 -0.41774614104896007 -0.13989084485642639 0 -0.408409132073492 -0.1350344510788912 0 -0.4111987259044842 -0.14633540316072491 0 -0.40139522891787088 -0.14786621909678041 0 -0.408409132073492 -0.1350344510788912 0 -0.4111987259044842 -0.14633540316072491 0 -0.41346790589157628 -0.15718901736956131 0 -0.4193409690000065 -0.1466843133343379 0 -0.42948711468511758 -0.150301535908303 0 -0.41346790589157628 -0.15718901736956131 0 -0.40139522891787088 -0.14786621909678041 0 -0.4111987259044842 -0.14633540316072491 0 -0.41346790589157628 -0.15718901736956131 0 -0.4111987259044842 -0.14633540316072491 0 -0.4193409690000065 -0.1466843133343379 0 -0.41774614104896007 -0.13989084485642639 0 -0.4193409690000065 -0.1466843133343379 0 -0.42718126759941322 -0.14019774453471509 0 -0.41774614104896007 -0.13989084485642639 0 -0.4111987259044842 -0.14633540316072491 0 -0.4193409690000065 -0.1466843133343379 0 -0.4193409690000065 -0.1466843133343379 0 -0.42948711468511758 -0.150301535908303 0 -0.42718126759941322 -0.14019774453471509 0 -0.41346790589157628 -0.15718901736956131 0 -0.42948711468511758 -0.150301535908303 0 -0.44011749743671619 -0.15811948772889789 0 -0.42948711468511758 -0.150301535908303 0 -0.43829575132507048 -0.14919097666389461 0 -0.44011749743671619 -0.15811948772889789 0 -0.42948711468511758 -0.150301535908303 0 -0.43416375198831197 -0.14349824762054419 0 -0.42718126759941322 -0.14019774453471509 0 -0.42948711468511758 -0.150301535908303 0 -0.43416375198831197 -0.14349824762054419 0 -0.43829575132507048 -0.14919097666389461 0 -0.42443257019248248 -0.13030871616955039 0 -0.42718126759941322 -0.14019774453471509 0 -0.4390297308358993 -0.13122899565131979 0 -0.43416375198831197 -0.14349824762054419 0 -0.42718126759941322 -0.14019774453471509 0 -0.4390297308358993 -0.13122899565131979 0 -0.42443257019248248 -0.13030871616955039 0 -0.4390297308358993 -0.13122899565131979 0 -0.43363380707118337 -0.1158756792409639 0 -0.41774614104896007 -0.13989084485642639 0 -0.42443257019248248 -0.13030871616955039 0 -0.42718126759941322 -0.14019774453471509 0 -0.44825963496598681 -0.13871968911220081 0 -0.4390297308358993 -0.13122899565131979 0 -0.45612184019430752 -0.13012501911324351 0 -0.4390297308358993 -0.13122899565131979 0 -0.45612184019430752 -0.13012501911324351 0 -0.44855516291812941 -0.1136702476144863 0 -0.43416375198831197 -0.14349824762054419 0 -0.4390297308358993 -0.13122899565131979 0 -0.44091163932406452 -0.142658088263906 0 -0.44825963496598681 -0.13871968911220081 0 -0.4390297308358993 -0.13122899565131979 0 -0.44091163932406452 -0.142658088263906 0 -0.44765015815530967 -0.1505621285727004 0 -0.46676708898185632 -0.15904995808823461 0 -0.44011749743671619 -0.15811948772889789 0 -0.44091163932406452 -0.142658088263906 0 -0.43829575132507048 -0.14919097666389461 0 -0.44765015815530967 -0.1505621285727004 0 -0.43416375198831197 -0.14349824762054419 0 -0.44091163932406452 -0.142658088263906 0 -0.43829575132507048 -0.14919097666389461 0 -0.43829575132507048 -0.14919097666389461 0 -0.44765015815530967 -0.1505621285727004 0 -0.44011749743671619 -0.15811948772889789 0 -0.44825963496598681 -0.13871968911220081 0 -0.44765015815530967 -0.1505621285727004 0 -0.4561353863875155 -0.1430997609173546 0 -0.44825963496598681 -0.13871968911220081 0 -0.44091163932406452 -0.142658088263906 0 -0.44765015815530967 -0.1505621285727004 0 -0.44765015815530967 -0.1505621285727004 0 -0.4561353863875155 -0.1430997609173546 0 -0.45965764532177028 -0.14935565988859331 0 -0.44765015815530967 -0.1505621285727004 0 -0.45965764532177028 -0.14935565988859331 0 -0.46676708898185632 -0.15904995808823461 0 -0.45965764532177028 -0.14935565988859331 0 -0.46807794776239969 -0.14471079197608369 0 -0.46676708898185632 -0.15904995808823461 0 -0.4561353863875155 -0.1430997609173546 0 -0.45965764532177028 -0.14935565988859331 0 -0.46807794776239969 -0.14471079197608369 0 -0.46807794776239969 -0.14471079197608369 0 -0.45612184019430752 -0.13012501911324351 0 -0.47595505156672019 -0.1272332183239564 0 -0.44825963496598681 -0.13871968911220081 0 -0.4561353863875155 -0.1430997609173546 0 -0.45612184019430752 -0.13012501911324351 0 -0.4561353863875155 -0.1430997609173546 0 -0.46807794776239969 -0.14471079197608369 0 -0.45612184019430752 -0.13012501911324351 0 -0.46807794776239969 -0.14471079197608369 0 -0.47595505156672019 -0.1272332183239564 0 -0.48246626628062023 -0.14526425900548859 0 -0.49389920798873022 -0.14821260668859379 0 -0.50000000000000067 -0.12214752675676439 0 -0.49389920798873022 -0.14821260668859379 0 -0.48246626628062023 -0.14526425900548859 0 -0.50000000000000067 -0.12214752675676439 0 -0.47595505156672019 -0.1272332183239564 0 -0.48246626628062023 -0.14526425900548859 0 -0.50000000000000067 -0.12214752675676439 0 -0.5 -0.1450797498050185 0 -0.49389920798873022 -0.14821260668859379 0 -0.50000000000000067 -0.12214752675676439 0 -0.48246626628062023 -0.14526425900548859 0 -0.50000000000000067 -0.12214752675676439 0 -0.49389920798873022 -0.14821260668859379 0 -0.48246626628062023 -0.14526425900548859 0 -0.48779841597745921 -0.1729980387745115 0 -0.5 -0.1450797498050185 0 -0.49389920798873022 -0.14821260668859379 0 -0.5 -0.16673232500736079 0 -0.46807794776239969 -0.14471079197608369 0 -0.48246626628062023 -0.14526425900548859 0 -0.46676708898185632 -0.15904995808823461 0 -0.48246626628062023 -0.14526425900548859 0 -0.48779841597745921 -0.1729980387745115 0 -0.46493253256123951 -0.1683809912542126 0 -0.48246626628062023 -0.14526425900548859 0 -0.46493253256123951 -0.1683809912542126 0 -0.48246626628062023 -0.14526425900548859 0 -0.46493253256123951 -0.1683809912542126 0 -0.46676708898185632 -0.15904995808823461 0 -0.49389920798873022 -0.14821260668859379 0 -0.5 -0.16673232500736079 0 -0.48779841597745921 -0.1729980387745115 0 -0.49389920798873022 -0.14821260668859379 0 -0.48779841597745921 -0.1729980387745115 0 -0.5 -0.16673232500736079 0 -0.48779841597745921 -0.1729980387745115 0 -0.50000000000000044 -0.18838490020970311 0 -0.48779841597745921 -0.1729980387745115 0 -0.48169762396619031 -0.19778347086042969 0 -0.50000000000000044 -0.18838490020970311 0 -0.48779841597745921 -0.1729980387745115 0 -0.48169762396619031 -0.19778347086042969 0 -0.48779841597745921 -0.1729980387745115 0 -0.46493253256123951 -0.1683809912542126 0 -0.46864110378117141 -0.18777561601385589 0 -0.48779841597745921 -0.1729980387745115 0 -0.46864110378117141 -0.18777561601385589 0 -0.48169762396619031 -0.19778347086042969 0 -0.46493253256123951 -0.1683809912542126 0 -0.44752570325357599 -0.17528142734483149 0 -0.44739879884185862 -0.19149772350293651 0 -0.46493253256123951 -0.1683809912542126 0 -0.44739879884185862 -0.19149772350293651 0 -0.46864110378117141 -0.18777561601385589 0 -0.46493253256123951 -0.1683809912542126 0 -0.44739879884185862 -0.19149772350293651 0 -0.46676708898185632 -0.15904995808823461 0 -0.44011749743671619 -0.15811948772889789 0 -0.46493253256123951 -0.1683809912542126 0 -0.44899954756517602 -0.16755415556356201 0 -0.44752570325357599 -0.17528142734483149 0 -0.46493253256123951 -0.1683809912542126 0 -0.44899954756517602 -0.16755415556356201 0 -0.45228665993344891 -0.16267134937806199 0 -0.46493253256123951 -0.1683809912542126 0 -0.46676708898185632 -0.15904995808823461 0 -0.45228665993344891 -0.16267134937806199 0 -0.46676708898185632 -0.15904995808823461 0 -0.45228665993344891 -0.16267134937806199 0 -0.44011749743671619 -0.15811948772889789 0 -0.44899954756517602 -0.16755415556356201 0 -0.45228665993344891 -0.16267134937806199 0 -0.44176355001390571 -0.16097157624368319 0 -0.45228665993344891 -0.16267134937806199 0 -0.44176355001390571 -0.16097157624368319 0 -0.44011749743671619 -0.15811948772889789 0 -0.44899954756517602 -0.16755415556356201 0 -0.43848929206371001 -0.17046543359702049 0 -0.44752570325357599 -0.17528142734483149 0 -0.44899954756517602 -0.16755415556356201 0 -0.44176355001390571 -0.16097157624368319 0 -0.43848929206371001 -0.17046543359702049 0 -0.43527206916493238 -0.17996671875322789 0 -0.43848929206371001 -0.17046543359702049 0 -0.44752570325357599 -0.17528142734483149 0 -0.43527206916493238 -0.17996671875322789 0 -0.44752570325357599 -0.17528142734483149 0 -0.44739879884185862 -0.19149772350293651 0 -0.42986506512247791 -0.21461445575166041 0 -0.44739879884185862 -0.19149772350293651 0 -0.44739879884185862 -0.19149772350293651 0 -0.44560162060213998 -0.20754408559195561 0 -0.4613781475591085 -0.2082178556771879 0 -0.44105867115202618 -0.2186522404939448 0 -0.4613781475591085 -0.2082178556771879 0 -0.44560162060213998 -0.20754408559195561 0 -0.44105867115202618 -0.2186522404939448 0 -0.4613781475591085 -0.2082178556771879 0 -0.42986506512247791 -0.21461445575166041 0 -0.44739879884185862 -0.19149772350293651 0 -0.44560162060213998 -0.20754408559195561 0 -0.42986506512247791 -0.21461445575166041 0 -0.44560162060213998 -0.20754408559195561 0 -0.44105867115202618 -0.2186522404939448 0 -0.44105867115202618 -0.2186522404939448 0 -0.4613781475591085 -0.2082178556771879 0 -0.45864885613006218 -0.22641592812780209 0 -0.4613781475591085 -0.2082178556771879 0 -0.47619663240551868 -0.22013211878684341 0 -0.45864885613006218 -0.22641592812780209 0 -0.44739879884185862 -0.19149772350293651 0 -0.4613781475591085 -0.2082178556771879 0 -0.46864110378117141 -0.18777561601385589 0 -0.4613781475591085 -0.2082178556771879 0 -0.48169762396619031 -0.19778347086042969 0 -0.4613781475591085 -0.2082178556771879 0 -0.46864110378117141 -0.18777561601385589 0 -0.48169762396619031 -0.19778347086042969 0 -0.48169762396619031 -0.19778347086042969 0 -0.50000000000000044 -0.18838490020970311 0 -0.5 -0.20367152845382189 0 -0.48169762396619031 -0.19778347086042969 0 -0.50000000000000044 -0.18838490020970311 0 -0.48169762396619031 -0.19778347086042969 0 -0.5 -0.20367152845382189 0 -0.48889906342239731 -0.2132713641637628 0 -0.5 -0.20367152845382189 0 -0.48889906342239731 -0.2132713641637628 0 -0.50000000000000033 -0.21895815669794069 0 -0.4613781475591085 -0.2082178556771879 0 -0.48169762396619031 -0.19778347086042969 0 -0.47619663240551868 -0.22013211878684341 0 -0.48169762396619031 -0.19778347086042969 0 -0.47619663240551868 -0.22013211878684341 0 -0.48169762396619031 -0.19778347086042969 0 -0.48889906342239731 -0.2132713641637628 0 -0.47619663240551868 -0.22013211878684341 0 -0.47619663240551868 -0.22013211878684341 0 -0.48064663003722308 -0.23281295913462419 0 -0.47069564084484927 -0.24248076671325761 0 -0.47619663240551868 -0.22013211878684341 0 -0.47069564084484927 -0.24248076671325761 0 -0.47619663240551868 -0.22013211878684341 0 -0.48064663003722308 -0.23281295913462419 0 -0.48660106074027681 -0.22581154601977721 0 -0.48889906342239731 -0.2132713641637628 0 -0.47619663240551868 -0.22013211878684341 0 -0.48660106074027681 -0.22581154601977721 0 -0.48660106074027681 -0.22581154601977721 0 -0.50000000000000033 -0.21895815669794069 0 -0.48909318615824737 -0.24282740501861871 0 -0.50000000000000033 -0.21895815669794069 0 -0.48909318615824737 -0.24282740501861871 0 -0.48889906342239731 -0.2132713641637628 0 -0.48660106074027681 -0.22581154601977721 0 -0.50000000000000033 -0.21895815669794069 0 -0.48064663003722308 -0.23281295913462419 0 -0.48660106074027681 -0.22581154601977721 0 -0.48909318615824737 -0.24282740501861871 0 -0.50000000000000033 -0.21895815669794069 0 -0.5 -0.24687567812541461 0 -0.48909318615824737 -0.24282740501861871 0 -0.49857429831377958 -0.25440312686868832 0 -0.5 -0.24687567812541461 0 -0.48909318615824737 -0.24282740501861871 0 -0.48064663003722308 -0.23281295913462419 0 -0.48909318615824737 -0.24282740501861871 0 -0.47069564084484927 -0.24248076671325761 0 -0.47390686384186381 -0.25476380209278099 0 -0.48909318615824737 -0.24282740501861871 0 -0.47069564084484927 -0.24248076671325761 0 -0.45886506956069772 -0.25039642629868519 0 -0.46156804221782949 -0.25671402825117062 0 -0.47069564084484927 -0.24248076671325761 0 -0.47069564084484927 -0.24248076671325761 0 -0.45605922755895367 -0.2406105769225815 0 -0.45864885613006218 -0.22641592812780209 0 -0.45886506956069772 -0.25039642629868519 0 -0.47069564084484927 -0.24248076671325761 0 -0.45605922755895367 -0.2406105769225815 0 -0.45886506956069772 -0.25039642629868519 0 -0.45605922755895367 -0.2406105769225815 0 -0.45179914680882421 -0.24963270404343879 0 -0.47619663240551868 -0.22013211878684341 0 -0.47069564084484927 -0.24248076671325761 0 -0.45864885613006218 -0.22641592812780209 0 -0.45605922755895367 -0.2406105769225815 0 -0.45864885613006218 -0.22641592812780209 0 -0.44743475838236968 -0.23248680712746761 0 -0.44105867115202618 -0.2186522404939448 0 -0.45864885613006218 -0.22641592812780209 0 -0.44743475838236968 -0.23248680712746761 0 -0.43630642285243482 -0.23278535401567049 0 -0.44105867115202618 -0.2186522404939448 0 -0.44743475838236968 -0.23248680712746761 0 -0.43630642285243482 -0.23278535401567049 0 -0.44743475838236968 -0.23248680712746761 0 -0.44510061421837188 -0.2439699360773388 0 -0.45605922755895367 -0.2406105769225815 0 -0.44510061421837188 -0.2439699360773388 0 -0.45179914680882421 -0.24963270404343879 0 -0.45605922755895367 -0.2406105769225815 0 -0.44743475838236968 -0.23248680712746761 0 -0.44510061421837188 -0.2439699360773388 0 -0.40705028932688841 -0.052793553274689597 0 -0.42726664030900863 -0.044984642368434392 0 -0.41006921123658407 -0.03081853901660515 0 -0.40705028932688841 -0.052793553274689597 0 -0.42726664030900863 -0.044984642368434392 0 -0.42245556625257491 -0.065841183371676687 0 -0.42726664030900863 -0.044984642368434392 0 -0.42245556625257491 -0.065841183371676687 0 -0.44728355610844373 -0.059282533582093469 0 -0.42726664030900863 -0.044984642368434392 0 -0.43188900239433359 -0.02387479631718414 0 -0.41006921123658407 -0.03081853901660515 0 -0.41872243370916967 -0.0092929525273164684 0 -0.44407855404828123 -0.0034906610811578009 0 -0.41928032546189081 0.01172955660388964 0 -0.43188900239433359 -0.02387479631718414 0 -0.41872243370916967 -0.0092929525273164684 0 -0.44407855404828123 -0.0034906610811578009 0 -0.41872243370916967 -0.0092929525273164684 0 -0.40558727534347139 -0.0033871311787529931 0 -0.41928032546189081 0.01172955660388964 0 -0.41872243370916967 -0.0092929525273164684 0 -0.40558727534347139 -0.0033871311787529931 0 -0.40298703267491498 -0.014523599885359669 0 -0.41872243370916967 -0.0092929525273164684 0 -0.41006921123658407 -0.03081853901660515 0 -0.40298703267491498 -0.014523599885359669 0 -0.43188900239433359 -0.02387479631718414 0 -0.41872243370916967 -0.0092929525273164684 0 -0.41006921123658407 -0.03081853901660515 0 -0.39084614496842363 -0.027766839574306281 0 -0.40298703267491498 -0.014523599885359669 0 -0.39378494848450452 -0.0083662782511355321 0 -0.41006921123658407 -0.03081853901660515 0 -0.39084614496842363 -0.027766839574306281 0 -0.40298703267491498 -0.014523599885359669 0 -0.40558727534347139 -0.0033871311787529931 0 -0.40298703267491498 -0.014523599885359669 0 -0.39378494848450452 -0.0083662782511355321 0 -0.40558727534347139 -0.0033871311787529931 0 -0.39378494848450452 -0.0083662782511355321 0 -0.39316163638687668 0.0035176181661570622 0 -0.36704294731186271 -0.0046943202715755018 0 -0.39316163638687668 0.0035176181661570622 0 -0.36704294731186271 -0.0046943202715755018 0 -0.383603564472072 -0.012098883920076331 0 -0.39316163638687668 0.0035176181661570622 0 -0.39378494848450452 -0.0083662782511355321 0 -0.383603564472072 -0.012098883920076331 0 -0.39316163638687668 0.0035176181661570622 0 -0.37386469003277067 -0.025622291247220749 0 -0.39084614496842363 -0.027766839574306281 0 -0.383603564472072 -0.012098883920076331 0 -0.39084614496842363 -0.027766839574306281 0 -0.39378494848450452 -0.0083662782511355321 0 -0.383603564472072 -0.012098883920076331 0 -0.37309799599328392 -0.044301165632395917 0 -0.37386469003277067 -0.025622291247220749 0 -0.39084614496842363 -0.027766839574306281 0 -0.37309799599328392 -0.044301165632395917 0 -0.39084614496842363 -0.027766839574306281 0 -0.37309799599328392 -0.044301165632395917 0 -0.39084614496842363 -0.027766839574306281 0 -0.39178318828678749 -0.044849336674204612 0 -0.41006921123658407 -0.03081853901660515 0 -0.39084614496842363 -0.027766839574306281 0 -0.39178318828678749 -0.044849336674204612 0 -0.40705028932688841 -0.052793553274689597 0 -0.41006921123658407 -0.03081853901660515 0 -0.39178318828678749 -0.044849336674204612 0 -0.40705028932688841 -0.052793553274689597 0 -0.39178318828678749 -0.044849336674204612 0 -0.38460502433228499 -0.060895238748742121 0 -0.40705028932688841 -0.052793553274689597 0 -0.38460502433228499 -0.060895238748742121 0 -0.40442230130491008 -0.069074115522954199 0 -0.37309799599328392 -0.044301165632395917 0 -0.39178318828678749 -0.044849336674204612 0 -0.38460502433228499 -0.060895238748742121 0 -0.36954043907186451 -0.075056641139928049 0 -0.38460502433228499 -0.060895238748742121 0 -0.39146638553635849 -0.078816435780334523 0 -0.36954043907186451 -0.075056641139928049 0 -0.39146638553635849 -0.078816435780334523 0 -0.36954043907186451 -0.075056641139928049 0 -0.37550420936536277 -0.093343086593504876 0 -0.39146638553635849 -0.078816435780334523 0 -0.37550420936536277 -0.093343086593504876 0 -0.39146638553635849 -0.078816435780334523 0 -0.40058034618176053 -0.102822357033339 0 -0.39146638553635849 -0.078816435780334523 0 -0.40058034618176053 -0.102822357033339 0 -0.41339233200085251 -0.082576230420740984 0 -0.39146638553635849 -0.078816435780334523 0 -0.41339233200085251 -0.082576230420740984 0 -0.39146638553635849 -0.078816435780334523 0 -0.40442230130491008 -0.069074115522954199 0 -0.41339233200085251 -0.082576230420740984 0 -0.38460502433228499 -0.060895238748742121 0 -0.39146638553635849 -0.078816435780334523 0 -0.40442230130491008 -0.069074115522954199 0 -0.37550420936536277 -0.093343086593504876 0 -0.38105015918785412 -0.1170517985583005 0 -0.40058034618176053 -0.102822357033339 0 -0.3918884293007685 -0.1359905333409617 0 -0.38105015918785412 -0.1170517985583005 0 -0.39898092645701888 -0.1217150458288304 0 -0.38105015918785412 -0.1170517985583005 0 -0.40058034618176053 -0.102822357033339 0 -0.39898092645701888 -0.1217150458288304 0 -0.40058034618176053 -0.102822357033339 0 -0.39898092645701888 -0.1217150458288304 0 -0.42059534252594671 -0.1196245816549861 0 -0.40058034618176053 -0.102822357033339 0 -0.42059534252594671 -0.1196245816549861 0 -0.41588558908773049 -0.097576340765692895 0 -0.42059534252594671 -0.1196245816549861 0 -0.41588558908773049 -0.097576340765692895 0 -0.42795681049564671 -0.1029803033580669 0 -0.40058034618176053 -0.102822357033339 0 -0.41588558908773049 -0.097576340765692895 0 -0.41339233200085251 -0.082576230420740984 0 -0.41588558908773049 -0.097576340765692895 0 -0.42795681049564671 -0.1029803033580669 0 -0.43531827846534638 -0.086336025061147542 0 -0.42795681049564671 -0.1029803033580669 0 -0.43531827846534638 -0.086336025061147542 0 -0.42795681049564671 -0.1029803033580669 0 -0.43531827846534638 -0.086336025061147542 0 -0.44282459742635238 -0.10049902711262811 0 -0.42795681049564671 -0.1029803033580669 0 -0.43363380707118337 -0.1158756792409639 0 -0.44282459742635238 -0.10049902711262811 0 -0.42059534252594671 -0.1196245816549861 0 -0.42795681049564671 -0.1029803033580669 0 -0.42059534252594671 -0.1196245816549861 0 -0.42795681049564671 -0.1029803033580669 0 -0.43363380707118337 -0.1158756792409639 0 -0.42443257019248248 -0.13030871616955039 0 -0.42059534252594671 -0.1196245816549861 0 -0.43363380707118337 -0.1158756792409639 0 -0.40705028932688841 -0.052793553274689597 0 -0.40442230130491008 -0.069074115522954199 0 -0.42245556625257491 -0.065841183371676687 0 -0.40442230130491008 -0.069074115522954199 0 -0.41339233200085251 -0.082576230420740984 0 -0.42245556625257491 -0.065841183371676687 0 -0.41588558908773049 -0.097576340765692895 0 -0.41339233200085251 -0.082576230420740984 0 -0.43531827846534638 -0.086336025061147542 0 -0.41339233200085251 -0.082576230420740984 0 -0.43531827846534638 -0.086336025061147542 0 -0.41339233200085251 -0.082576230420740984 0 -0.43531827846534638 -0.086336025061147542 0 -0.42245556625257491 -0.065841183371676687 0 -0.43531827846534638 -0.086336025061147542 0 -0.42245556625257491 -0.065841183371676687 0 -0.44728355610844373 -0.059282533582093469 0 -0.43531827846534638 -0.086336025061147542 0 -0.44728355610844373 -0.059282533582093469 0 -0.43531827846534638 -0.086336025061147542 0 -0.45235237833983077 -0.08925698072050503 0 -0.44728355610844373 -0.059282533582093469 0 -0.43531827846534638 -0.086336025061147542 0 -0.45235237833983077 -0.08925698072050503 0 -0.43531827846534638 -0.086336025061147542 0 -0.45235237833983077 -0.08925698072050503 0 -0.44282459742635238 -0.10049902711262811 0 -0.45235237833983077 -0.08925698072050503 0 -0.4730840874991033 -0.070335345045437592 0 -0.47243859988592918 -0.091500339545936907 0 -0.45235237833983077 -0.08925698072050503 0 -0.4730840874991033 -0.070335345045437592 0 -0.44728355610844373 -0.059282533582093469 0 -0.4390297308358993 -0.13122899565131979 0 -0.43363380707118337 -0.1158756792409639 0 -0.44855516291812941 -0.1136702476144863 0 -0.43363380707118337 -0.1158756792409639 0 -0.44855516291812941 -0.1136702476144863 0 -0.44282459742635238 -0.10049902711262811 0 -0.44855516291812941 -0.1136702476144863 0 -0.44282459742635238 -0.10049902711262811 0 -0.46073661083418588 -0.10185218273278469 0 -0.45235237833983077 -0.08925698072050503 0 -0.44282459742635238 -0.10049902711262811 0 -0.46073661083418588 -0.10185218273278469 0 -0.45235237833983077 -0.08925698072050503 0 -0.46073661083418588 -0.10185218273278469 0 -0.47243859988592918 -0.091500339545936907 0 -0.46073661083418588 -0.10185218273278469 0 -0.46389026018735779 -0.11620889470624129 0 -0.47808263542344598 -0.10816380574673549 0 -0.45612184019430752 -0.13012501911324351 0 -0.47595505156672019 -0.1272332183239564 0 -0.46389026018735779 -0.11620889470624129 0 -0.45612184019430752 -0.13012501911324351 0 -0.44855516291812941 -0.1136702476144863 0 -0.46389026018735779 -0.11620889470624129 0 -0.44855516291812941 -0.1136702476144863 0 -0.46073661083418588 -0.10185218273278469 0 -0.46389026018735779 -0.11620889470624129 0 -0.47595505156672019 -0.1272332183239564 0 -0.46389026018735779 -0.11620889470624129 0 -0.47808263542344598 -0.10816380574673549 0 -0.47808263542344598 -0.10816380574673549 0 -0.47243859988592918 -0.091500339545936907 0 -0.5 -0.092261306646644781 0 -0.46073661083418588 -0.10185218273278469 0 -0.47808263542344598 -0.10816380574673549 0 -0.47243859988592918 -0.091500339545936907 0 -0.47808263542344598 -0.10816380574673549 0 -0.50000000000000067 -0.12214752675676439 0 -0.5 -0.092261306646644781 0 -0.47595505156672019 -0.1272332183239564 0 -0.47808263542344598 -0.10816380574673549 0 -0.50000000000000067 -0.12214752675676439 0 -0.4730840874991033 -0.070335345045437592 0 -0.47243859988592918 -0.091500339545936907 0 -0.5 -0.092261306646644781 0 -0.4730840874991033 -0.070335345045437592 0 -0.5 -0.092261306646644781 0 -0.5 -0.062375086536525133 0 -0.5 -0.062375086536525133 0 -0.5 -0.032488866426405583 0 -0.4795347106842488 -0.046428583608304597 0 -0.5 -0.032488866426405583 0 -0.4795347106842488 -0.046428583608304597 0 -0.47985034610301702 -0.02489928592852959 0 -0.4795347106842488 -0.046428583608304597 0 -0.45924883375154069 -0.032229042103039209 0 -0.47985034610301702 -0.02489928592852959 0 -0.4730840874991033 -0.070335345045437592 0 -0.5 -0.062375086536525133 0 -0.4795347106842488 -0.046428583608304597 0 -0.4795347106842488 -0.046428583608304597 0 -0.45924883375154069 -0.032229042103039209 0 -0.44728355610844373 -0.059282533582093469 0 -0.42726664030900863 -0.044984642368434392 0 -0.43188900239433359 -0.02387479631718414 0 -0.45924883375154069 -0.032229042103039209 0 -0.4730840874991033 -0.070335345045437592 0 -0.4795347106842488 -0.046428583608304597 0 -0.44728355610844373 -0.059282533582093469 0 -0.42726664030900863 -0.044984642368434392 0 -0.45924883375154069 -0.032229042103039209 0 -0.44728355610844373 -0.059282533582093469 0 -0.45924883375154069 -0.032229042103039209 0 -0.44728355610844373 -0.059282533582093469 0 -0.43188900239433359 -0.02387479631718414 0 -0.45924883375154069 -0.032229042103039209 0 -0.44407855404828123 -0.0034906610811578009 0 -0.45924883375154069 -0.032229042103039209 0 -0.47121411139463759 -0.0051755506239849619 0 -0.45924883375154069 -0.032229042103039209 0 -0.44407855404828123 -0.0034906610811578009 0 -0.47121411139463759 -0.0051755506239849619 0 -0.47121411139463759 -0.0051755506239849619 0 -0.47985034610301702 -0.02489928592852959 0 -0.5 -0.0026026463162862612 0 -0.45924883375154069 -0.032229042103039209 0 -0.47121411139463759 -0.0051755506239849619 0 -0.47985034610301702 -0.02489928592852959 0 -0.5 -0.032488866426405583 0 -0.47985034610301702 -0.02489928592852959 0 -0.5 -0.0026026463162862612 0 -0.47121411139463759 -0.0051755506239849619 0 -0.5 -0.0026026463162862612 0 -0.48317938903773461 0.021877940855069319 0 -0.5 -0.0026026463162862612 0 -0.5 0.02728357379383306 0 -0.48317938903773461 0.021877940855069319 0 -0.5 0.02728357379383306 0 -0.48317938903773461 0.021877940855069319 0 -0.48393880842145109 0.039947218198231459 0 -0.4715177036119188 0.028153433479354711 0 -0.48317938903773461 0.021877940855069319 0 -0.48393880842145109 0.039947218198231459 0 -0.4715177036119188 0.028153433479354711 0 -0.48317938903773461 0.021877940855069319 0 -0.4630777545258955 0.0122613315341807 0 -0.47121411139463759 -0.0051755506239849619 0 -0.48317938903773461 0.021877940855069319 0 -0.4630777545258955 0.0122613315341807 0 -0.47121411139463759 -0.0051755506239849619 0 -0.48317938903773461 0.021877940855069319 0 -0.5 0.057169793903952382 0 -0.48393880842145109 0.039947218198231459 0 -0.47033005504529563 0.055236358835870719 0 -0.5 0.02728357379383306 0 -0.5 0.057169793903952382 0 -0.48393880842145109 0.039947218198231459 0 -0.48393880842145109 0.039947218198231459 0 -0.47033005504529563 0.055236358835870719 0 -0.46271601179182592 0.04099668278548789 0 -0.4715177036119188 0.028153433479354711 0 -0.48393880842145109 0.039947218198231459 0 -0.46271601179182592 0.04099668278548789 0 -0.5 0.057169793903952382 0 -0.47033005504529563 0.055236358835870719 0 -0.47714609425374499 0.073921166783849135 0 -0.47033005504529563 0.055236358835870719 0 -0.45627276181183901 0.054536827645239747 0 -0.45666911169983171 0.071215939162900824 0 -0.47033005504529563 0.055236358835870719 0 -0.45627276181183901 0.054536827645239747 0 -0.46271601179182592 0.04099668278548789 0 -0.45627276181183901 0.054536827645239747 0 -0.46271601179182592 0.04099668278548789 0 -0.44799998506499122 0.044937466103419747 0 -0.44799998506499122 0.044937466103419747 0 -0.44539901453690489 0.019941495041622209 0 -0.4290388313196436 0.046168201164070367 0 -0.46271601179182592 0.04099668278548789 0 -0.44799998506499122 0.044937466103419747 0 -0.44539901453690489 0.019941495041622209 0 -0.44799998506499122 0.044937466103419747 0 -0.44364864545725052 0.060297691338519532 0 -0.4290388313196436 0.046168201164070367 0 -0.45627276181183901 0.054536827645239747 0 -0.44364864545725052 0.060297691338519532 0 -0.45666911169983171 0.071215939162900824 0 -0.45627276181183901 0.054536827645239747 0 -0.44799998506499122 0.044937466103419747 0 -0.44364864545725052 0.060297691338519532 0 -0.44407855404828123 -0.0034906610811578009 0 -0.47121411139463759 -0.0051755506239849619 0 -0.4630777545258955 0.0122613315341807 0 -0.4715177036119188 0.028153433479354711 0 -0.44539901453690489 0.019941495041622209 0 -0.4715177036119188 0.028153433479354711 0 -0.4630777545258955 0.0122613315341807 0 -0.44539901453690489 0.019941495041622209 0 -0.4715177036119188 0.028153433479354711 0 -0.46271601179182592 0.04099668278548789 0 -0.44539901453690489 0.019941495041622209 0 -0.44407855404828123 -0.0034906610811578009 0 -0.4630777545258955 0.0122613315341807 0 -0.44539901453690489 0.019941495041622209 0 -0.44407855404828123 -0.0034906610811578009 0 -0.44539901453690489 0.019941495041622209 0 -0.41928032546189081 0.01172955660388964 0 -0.42133024812048447 0.02852880645042109 0 -0.4070747407721822 0.039428787964841068 0 -0.4053224272476742 0.01600643882183031 0 -0.41928032546189081 0.01172955660388964 0 -0.42133024812048447 0.02852880645042109 0 -0.4053224272476742 0.01600643882183031 0 -0.44539901453690489 0.019941495041622209 0 -0.41928032546189081 0.01172955660388964 0 -0.44539901453690489 0.019941495041622209 0 -0.41928032546189081 0.01172955660388964 0 -0.42133024812048447 0.02852880645042109 0 -0.44539901453690489 0.019941495041622209 0 -0.42133024812048447 0.02852880645042109 0 -0.4290388313196436 0.046168201164070367 0 -0.44364864545725052 0.060297691338519532 0 -0.4290388313196436 0.046168201164070367 0 -0.42915456808308761 0.067802850259535627 0 -0.4290388313196436 0.046168201164070367 0 -0.40955742664561767 0.06136239212241866 0 -0.42915456808308761 0.067802850259535627 0 -0.4290388313196436 0.046168201164070367 0 -0.40955742664561767 0.06136239212241866 0 -0.4070747407721822 0.039428787964841068 0 -0.42133024812048447 0.02852880645042109 0 -0.4290388313196436 0.046168201164070367 0 -0.4070747407721822 0.039428787964841068 0 -0.4070747407721822 0.039428787964841068 0 -0.39012952640417409 0.040263842459668603 0 -0.39476515066022061 0.02670100919566509 0 -0.4070747407721822 0.039428787964841068 0 -0.39514740987657621 0.052881422959827853 0 -0.39012952640417409 0.040263842459668603 0 -0.40955742664561767 0.06136239212241866 0 -0.4070747407721822 0.039428787964841068 0 -0.39514740987657621 0.052881422959827853 0 -0.40955742664561767 0.06136239212241866 0 -0.39514740987657621 0.052881422959827853 0 -0.39727088217793449 0.06376737556491642 0 -0.39514740987657621 0.052881422959827853 0 -0.38513376322721732 0.060281059303391067 0 -0.39727088217793449 0.06376737556491642 0 -0.39514740987657621 0.052881422959827853 0 -0.38446703681765138 0.050451295925603483 0 -0.39012952640417409 0.040263842459668603 0 -0.39514740987657621 0.052881422959827853 0 -0.38513376322721732 0.060281059303391067 0 -0.38446703681765138 0.050451295925603483 0 -0.38446703681765138 0.050451295925603483 0 -0.37937571165769718 0.042400823377937782 0 -0.37482735535405842 0.054176914602964747 0 -0.38513376322721732 0.060281059303391067 0 -0.38446703681765138 0.050451295925603483 0 -0.37482735535405842 0.054176914602964747 0 -0.3810340272311365 0.068315931809421748 0 -0.37482735535405842 0.054176914602964747 0 -0.3810340272311365 0.068315931809421748 0 -0.37482735535405842 0.054176914602964747 0 -0.37111499658023278 0.064037810781107221 0 -0.38513376322721732 0.060281059303391067 0 -0.3810340272311365 0.068315931809421748 0 -0.37482735535405842 0.054176914602964747 0 -0.39012952640417409 0.040263842459668603 0 -0.37937571165769718 0.042400823377937782 0 -0.37997324745135203 0.025947958042830961 0 -0.37937571165769718 0.042400823377937782 0 -0.37997324745135203 0.025947958042830961 0 -0.3686206834769824 0.040037897396506802 0 -0.38446703681765138 0.050451295925603483 0 -0.39012952640417409 0.040263842459668603 0 -0.37937571165769718 0.042400823377937782 0 -0.39012952640417409 0.040263842459668603 0 -0.37997324745135203 0.025947958042830961 0 -0.39476515066022061 0.02670100919566509 0 -0.37997324745135203 0.025947958042830961 0 -0.39132581142572082 0.011858018689154501 0 -0.37997324745135203 0.025947958042830961 0 -0.39132581142572082 0.011858018689154501 0 -0.39476515066022061 0.02670100919566509 0 -0.37997324745135203 0.025947958042830961 0 -0.37700050034496302 0.01357910260870961 0 -0.39132581142572082 0.011858018689154501 0 -0.37700050034496302 0.01357910260870961 0 -0.37845448083625521 0.0046526360579804086 0 -0.38498560724845388 0.0084018438805003957 0 -0.36704294731186271 -0.0046943202715755018 0 -0.37845448083625521 0.0046526360579804086 0 -0.39316163638687668 0.0035176181661570622 0 -0.37845448083625521 0.0046526360579804086 0 -0.38498560724845388 0.0084018438805003957 0 -0.39316163638687668 0.0035176181661570622 0 -0.37700050034496302 0.01357910260870961 0 -0.38498560724845388 0.0084018438805003957 0 -0.39132581142572082 0.011858018689154501 0 -0.38498560724845388 0.0084018438805003957 0 -0.39132581142572082 0.011858018689154501 0 -0.39316163638687668 0.0035176181661570622 0 -0.41928032546189081 0.01172955660388964 0 -0.39316163638687668 0.0035176181661570622 0 -0.4053224272476742 0.01600643882183031 0 -0.39132581142572082 0.011858018689154501 0 -0.39316163638687668 0.0035176181661570622 0 -0.4053224272476742 0.01600643882183031 0 -0.40558727534347139 -0.0033871311787529931 0 -0.41928032546189081 0.01172955660388964 0 -0.39316163638687668 0.0035176181661570622 0 -0.41928032546189081 0.01172955660388964 0 -0.39316163638687668 0.0035176181661570622 0 -0.4070747407721822 0.039428787964841068 0 -0.4053224272476742 0.01600643882183031 0 -0.39476515066022061 0.02670100919566509 0 -0.39132581142572082 0.011858018689154501 0 -0.4053224272476742 0.01600643882183031 0 -0.39476515066022061 0.02670100919566509 0 -0.39779768804226889 0.099810832366628521 0 -0.39309797774276589 0.11484902385173899 0 -0.41335609469743467 0.1008081964446662 0 -0.39309797774276589 0.11484902385173899 0 -0.41335609469743467 0.1008081964446662 0 -0.39779768804226889 0.099810832366628521 0 -0.39309797774276589 0.11484902385173899 0 -0.38881149500407602 0.10522090777299389 0 -0.39779768804226889 0.099810832366628521 0 -0.38881149500407602 0.10522090777299389 0 -0.38890844110743911 0.092193914118739256 0 -0.39309797774276589 0.11484902385173899 0 -0.41413606188538532 0.1164945853513954 0 -0.40269489929480728 0.1363111444669157 0 -0.39309797774276589 0.11484902385173899 0 -0.38180638531457378 0.1137320772065072 0 -0.38881149500407602 0.10522090777299389 0 -0.39309797774276589 0.11484902385173899 0 -0.37283986078809711 0.12888985125881189 0 -0.38180638531457378 0.1137320772065072 0 -0.37966223146468242 0.1027999454358668 0 -0.3714730378573759 0.11966603184392639 0 -0.39309797774276589 0.11484902385173899 0 -0.38180638531457378 0.1137320772065072 0 -0.37283986078809711 0.12888985125881189 0 -0.38180638531457378 0.1137320772065072 0 -0.37186965138911587 0.12234252454249191 0 -0.3714730378573759 0.11966603184392639 0 -0.38180638531457378 0.1137320772065072 0 -0.37283986078809711 0.12888985125881189 0 -0.37186965138911587 0.12234252454249191 0 -0.38180638531457378 0.1137320772065072 0 -0.3714730378573759 0.11966603184392639 0 -0.38180638531457378 0.1137320772065072 0 -0.37966223146468242 0.1027999454358668 0 -0.38881149500407602 0.10522090777299389 0 -0.37966223146468242 0.1027999454358668 0 -0.38881149500407602 0.10522090777299389 0 -0.38890844110743911 0.092193914118739256 0 -0.37966223146468242 0.1027999454358668 0 -0.37953623085406007 0.088693829425257234 0 -0.36800313447318611 0.096249858846341754 0 -0.37966223146468242 0.1027999454358668 0 -0.37953623085406007 0.088693829425257234 0 -0.38890844110743911 0.092193914118739256 0 -0.37953623085406007 0.088693829425257234 0 -0.37523743191216852 0.077938482474668502 0 -0.38720297124539821 0.077499778137126149 0 -0.37953623085406007 0.088693829425257234 0 -0.38890844110743911 0.092193914118739256 0 -0.38720297124539821 0.077499778137126149 0 -0.38513376322721732 0.060281059303391067 0 -0.3810340272311365 0.068315931809421748 0 -0.38720297124539821 0.077499778137126149 0 -0.38513376322721732 0.060281059303391067 0 -0.38720297124539821 0.077499778137126149 0 -0.39924492896232688 0.080544627874028107 0 -0.3810340272311365 0.068315931809421748 0 -0.37523743191216852 0.077938482474668502 0 -0.37111499658023278 0.064037810781107221 0 -0.3810340272311365 0.068315931809421748 0 -0.37523743191216852 0.077938482474668502 0 -0.38720297124539821 0.077499778137126149 0 -0.38513376322721732 0.060281059303391067 0 -0.39924492896232688 0.080544627874028107 0 -0.38513376322721732 0.060281059303391067 0 -0.39727088217793449 0.06376737556491642 0 -0.39924492896232688 0.080544627874028107 0 -0.40955742664561767 0.06136239212241866 0 -0.39727088217793449 0.06376737556491642 0 -0.39924492896232688 0.080544627874028107 0 -0.39779768804226889 0.099810832366628521 0 -0.39924492896232688 0.080544627874028107 0 -0.41335609469743467 0.1008081964446662 0 -0.39779768804226889 0.099810832366628521 0 -0.38890844110743911 0.092193914118739256 0 -0.39924492896232688 0.080544627874028107 0 -0.38890844110743911 0.092193914118739256 0 -0.38720297124539821 0.077499778137126149 0 -0.39924492896232688 0.080544627874028107 0 -0.39924492896232688 0.080544627874028107 0 -0.41335609469743467 0.1008081964446662 0 -0.39924492896232688 0.080544627874028107 0 -0.42006312025691722 0.080926409736438387 0 -0.41903236866959842 0.096873991536245985 0 -0.39924492896232688 0.080544627874028107 0 -0.41903236866959842 0.096873991536245985 0 -0.41335609469743467 0.1008081964446662 0 -0.40955742664561767 0.06136239212241866 0 -0.42006312025691722 0.080926409736438387 0 -0.42915456808308761 0.067802850259535627 0 -0.40955742664561767 0.06136239212241866 0 -0.39924492896232688 0.080544627874028107 0 -0.42006312025691722 0.080926409736438387 0 -0.42006312025691722 0.080926409736438387 0 -0.42915456808308761 0.067802850259535627 0 -0.43580433137814711 0.08548660045018186 0 -0.42915456808308761 0.067802850259535627 0 -0.43580433137814711 0.08548660045018186 0 -0.44289791427937902 0.073433609156242238 0 -0.42705343394434242 0.091664196699224459 0 -0.43580433137814711 0.08548660045018186 0 -0.4306685135208414 0.1014881596291083 0 -0.42006312025691722 0.080926409736438387 0 -0.42705343394434242 0.091664196699224459 0 -0.41903236866959842 0.096873991536245985 0 -0.42006312025691722 0.080926409736438387 0 -0.42705343394434242 0.091664196699224459 0 -0.43580433137814711 0.08548660045018186 0 -0.4306685135208414 0.1014881596291083 0 -0.41335609469743467 0.1008081964446662 0 -0.42887594837161458 0.1230946343645667 0 -0.42705343394434242 0.091664196699224459 0 -0.4306685135208414 0.1014881596291083 0 -0.41903236866959842 0.096873991536245985 0 -0.4306685135208414 0.1014881596291083 0 -0.41903236866959842 0.096873991536245985 0 -0.41335609469743467 0.1008081964446662 0 -0.41903236866959842 0.096873991536245985 0 -0.41335609469743467 0.1008081964446662 0 -0.39309797774276589 0.11484902385173899 0 -0.41335609469743467 0.1008081964446662 0 -0.41413606188538532 0.1164945853513954 0 -0.41335609469743467 0.1008081964446662 0 -0.41413606188538532 0.1164945853513954 0 -0.42887594837161458 0.1230946343645667 0 -0.41335609469743467 0.1008081964446662 0 -0.42887594837161458 0.1230946343645667 0 -0.41413606188538532 0.1164945853513954 0 -0.42887594837161458 0.1230946343645667 0 -0.41664700042878272 0.13064622286372729 0 -0.4306685135208414 0.1014881596291083 0 -0.42887594837161458 0.1230946343645667 0 -0.44597163768778769 0.11454406520123139 0 -0.42887594837161458 0.1230946343645667 0 -0.44597163768778769 0.11454406520123139 0 -0.44469311589764421 0.12749794139464049 0 -0.44597163768778769 0.11454406520123139 0 -0.44469311589764421 0.12749794139464049 0 -0.45952907548538152 0.12697199372829551 0 -0.4306685135208414 0.1014881596291083 0 -0.44597163768778769 0.11454406520123139 0 -0.44832139687198458 0.098255208399729788 0 -0.43580433137814711 0.08548660045018186 0 -0.4306685135208414 0.1014881596291083 0 -0.44832139687198458 0.098255208399729788 0 -0.44597163768778769 0.11454406520123139 0 -0.44832139687198458 0.098255208399729788 0 -0.46461130603559209 0.1079684460980459 0 -0.44832139687198458 0.098255208399729788 0 -0.46461130603559209 0.1079684460980459 0 -0.46224855414732119 0.087591946215640662 0 -0.46461130603559209 0.1079684460980459 0 -0.46224855414732119 0.087591946215640662 0 -0.47753050124419621 0.091825952279245074 0 -0.46461130603559209 0.1079684460980459 0 -0.4780439981652162 0.13472721275081109 0 -0.45952907548538152 0.12697199372829551 0 -0.44597163768778769 0.11454406520123139 0 -0.46461130603559209 0.1079684460980459 0 -0.45952907548538152 0.12697199372829551 0 -0.44364864545725052 0.060297691338519532 0 -0.44289791427937902 0.073433609156242238 0 -0.45666911169983171 0.071215939162900824 0 -0.44364864545725052 0.060297691338519532 0 -0.42915456808308761 0.067802850259535627 0 -0.44289791427937902 0.073433609156242238 0 -0.44289791427937902 0.073433609156242238 0 -0.44921291477857772 0.082364964570073335 0 -0.45666911169983171 0.071215939162900824 0 -0.43580433137814711 0.08548660045018186 0 -0.44832139687198458 0.098255208399729788 0 -0.44921291477857772 0.082364964570073335 0 -0.43580433137814711 0.08548660045018186 0 -0.44289791427937902 0.073433609156242238 0 -0.44921291477857772 0.082364964570073335 0 -0.44832139687198458 0.098255208399729788 0 -0.44921291477857772 0.082364964570073335 0 -0.46224855414732119 0.087591946215640662 0 -0.44921291477857772 0.082364964570073335 0 -0.46224855414732119 0.087591946215640662 0 -0.45666911169983171 0.071215939162900824 0 -0.47033005504529563 0.055236358835870719 0 -0.45666911169983171 0.071215939162900824 0 -0.47714609425374499 0.073921166783849135 0 -0.46224855414732119 0.087591946215640662 0 -0.45666911169983171 0.071215939162900824 0 -0.47714609425374499 0.073921166783849135 0 -0.46224855414732119 0.087591946215640662 0 -0.47714609425374499 0.073921166783849135 0 -0.47753050124419621 0.091825952279245074 0 -0.47714609425374499 0.073921166783849135 0 -0.47753050124419621 0.091825952279245074 0 -0.5 0.087056014014071703 0 -0.5 0.057169793903952382 0 -0.47714609425374499 0.073921166783849135 0 -0.5 0.087056014014071703 0 -0.46461130603559209 0.1079684460980459 0 -0.48395619509052729 0.10728496409458591 0 -0.4780439981652162 0.13472721275081109 0 -0.46461130603559209 0.1079684460980459 0 -0.47753050124419621 0.091825952279245074 0 -0.48395619509052729 0.10728496409458591 0 -0.47753050124419621 0.091825952279245074 0 -0.5 0.087056014014071703 0 -0.48395619509052729 0.10728496409458591 0 -0.5 0.087056014014071703 0 -0.48395619509052729 0.10728496409458591 0 -0.5 0.116942234124191 0 -0.48395619509052729 0.10728496409458591 0 -0.5 0.116942234124191 0 -0.4780439981652162 0.13472721275081109 0 -0.5 0.116942234124191 0 -0.4780439981652162 0.13472721275081109 0 -0.5 0.14682845423431029 0 -0.4780439981652162 0.13472721275081109 0 -0.5 0.14682845423431029 0 -0.47442947822498949 0.1601649005026449 0 -0.4780439981652162 0.13472721275081109 0 -0.47442947822498949 0.1601649005026449 0 -0.46162275612798431 0.15082097061686059 0 -0.5 0.14682845423431029 0 -0.5 0.1767146743444297 0 -0.47442947822498949 0.1601649005026449 0 -0.5 0.1767146743444297 0 -0.4764182484176796 0.1785539896578211 0 -0.47980663731201451 0.19656607211068591 0 -0.4764182484176796 0.1785539896578211 0 -0.46027738774709559 0.18529318572109879 0 -0.47980663731201451 0.19656607211068591 0 -0.5 0.1767146743444297 0 -0.4764182484176796 0.1785539896578211 0 -0.47442947822498949 0.1601649005026449 0 -0.4764182484176796 0.1785539896578211 0 -0.47442947822498949 0.1601649005026449 0 -0.46579250726371318 0.17446508480825129 0 -0.45651048129048749 0.16662236165275521 0 -0.45270730969033213 0.1569617269907039 0 -0.46162275612798431 0.15082097061686059 0 -0.47442947822498949 0.1601649005026449 0 -0.45651048129048749 0.16662236165275521 0 -0.46162275612798431 0.15082097061686059 0 -0.47442947822498949 0.1601649005026449 0 -0.45651048129048749 0.16662236165275521 0 -0.46579250726371318 0.17446508480825129 0 -0.4764182484176796 0.1785539896578211 0 -0.46027738774709559 0.18529318572109879 0 -0.46579250726371318 0.17446508480825129 0 -0.45651048129048749 0.16662236165275521 0 -0.46027738774709559 0.18529318572109879 0 -0.46579250726371318 0.17446508480825129 0 -0.45651048129048749 0.16662236165275521 0 -0.46027738774709559 0.18529318572109879 0 -0.43975681285017348 0.18077880470442451 0 -0.46027738774709559 0.18529318572109879 0 -0.43975681285017348 0.18077880470442451 0 -0.44801815376423648 0.1946220718935126 0 -0.44519462288260081 0.16056291007625059 0 -0.44439580204579121 0.1453810722844697 0 -0.42975661778565 0.16318910926463781 0 -0.43975681285017348 0.18077880470442451 0 -0.44519462288260081 0.16056291007625059 0 -0.42975661778565 0.16318910926463781 0 -0.45651048129048749 0.16662236165275521 0 -0.43975681285017348 0.18077880470442451 0 -0.44519462288260081 0.16056291007625059 0 -0.45651048129048749 0.16662236165275521 0 -0.45270730969033213 0.1569617269907039 0 -0.44519462288260081 0.16056291007625059 0 -0.44750137846025601 0.14984066561694939 0 -0.44439580204579121 0.1453810722844697 0 -0.45952907548538152 0.12697199372829551 0 -0.44519462288260081 0.16056291007625059 0 -0.44750137846025601 0.14984066561694939 0 -0.44439580204579121 0.1453810722844697 0 -0.45270730969033213 0.1569617269907039 0 -0.44519462288260081 0.16056291007625059 0 -0.44750137846025601 0.14984066561694939 0 -0.44750137846025601 0.14984066561694939 0 -0.44439580204579121 0.1453810722844697 0 -0.44439580204579121 0.1453810722844697 0 -0.45952907548538152 0.12697199372829551 0 -0.42887594837161458 0.1230946343645667 0 -0.44439580204579121 0.1453810722844697 0 -0.44469311589764421 0.12749794139464049 0 -0.44439580204579121 0.1453810722844697 0 -0.44469311589764421 0.12749794139464049 0 -0.45952907548538152 0.12697199372829551 0 -0.4780439981652162 0.13472721275081109 0 -0.45952907548538152 0.12697199372829551 0 -0.46162275612798431 0.15082097061686059 0 -0.44750137846025601 0.14984066561694939 0 -0.45952907548538152 0.12697199372829551 0 -0.46162275612798431 0.15082097061686059 0 -0.45270730969033213 0.1569617269907039 0 -0.44750137846025601 0.14984066561694939 0 -0.46162275612798431 0.15082097061686059 0 -0.47675850892230648 0.23748435826430511 0 -0.46099016809325821 0.24544934887813891 0 -0.4736346384558503 0.2509449944427371 0 -0.47675850892230648 0.23748435826430511 0 -0.48629441403109691 0.2495838039864175 0 -0.4736346384558503 0.2509449944427371 0 -0.48629441403109691 0.2495838039864175 0 -0.5 0.23432748659434191 0 -0.5 0.262054078734135 0 -0.47675850892230648 0.23748435826430511 0 -0.48629441403109691 0.2495838039864175 0 -0.5 0.23432748659434191 0 -0.47675850892230648 0.23748435826430511 0 -0.5 0.23432748659434191 0 -0.4771999350586803 0.21896416710744579 0 -0.5 0.23432748659434191 0 -0.4771999350586803 0.21896416710744579 0 -0.50000000000000155 0.20660089445454899 0 -0.47675850892230648 0.23748435826430511 0 -0.4771999350586803 0.21896416710744579 0 -0.45439987011735861 0.23132743976034201 0 -0.4771999350586803 0.21896416710744579 0 -0.47980663731201451 0.19656607211068591 0 -0.45641168670786231 0.2075041188308511 0 -0.4771999350586803 0.21896416710744579 0 -0.50000000000000155 0.20660089445454899 0 -0.47980663731201451 0.19656607211068591 0 -0.4771999350586803 0.21896416710744579 0 -0.50000000000000155 0.20660089445454899 0 -0.5 0.1767146743444297 0 -0.50000000000000155 0.20660089445454899 0 -0.47980663731201451 0.19656607211068591 0 -0.46027738774709559 0.18529318572109879 0 -0.44801815376423648 0.1946220718935126 0 -0.45641168670786231 0.2075041188308511 0 -0.46027738774709559 0.18529318572109879 0 -0.47980663731201451 0.19656607211068591 0 -0.45641168670786231 0.2075041188308511 0 -0.44801815376423648 0.1946220718935126 0 -0.45641168670786231 0.2075041188308511 0 -0.43562672775181421 0.204912178317676 0 -0.43975681285017348 0.18077880470442451 0 -0.44801815376423648 0.1946220718935126 0 -0.43562672775181421 0.204912178317676 0 -0.45641168670786231 0.2075041188308511 0 -0.44018516371656408 0.22104838995953241 0 -0.43562672775181421 0.204912178317676 0 -0.4771999350586803 0.21896416710744579 0 -0.45439987011735861 0.23132743976034201 0 -0.4771999350586803 0.21896416710744579 0 -0.45641168670786231 0.2075041188308511 0 -0.45439987011735861 0.23132743976034201 0 -0.45641168670786231 0.2075041188308511 0 -0.45439987011735861 0.23132743976034201 0 -0.44018516371656408 0.22104838995953241 0 -0.45439987011735861 0.23132743976034201 0 -0.44018516371656408 0.22104838995953241 0 -0.43175780585290852 0.2361786356169556 0 -0.45439987011735861 0.23132743976034201 0 -0.44385238052221482 0.24856057350411129 0 -0.43175780585290852 0.2361786356169556 0 -0.45439987011735861 0.23132743976034201 0 -0.44385238052221482 0.24856057350411129 0 -0.46099016809325821 0.24544934887813891 0 -0.47675850892230648 0.23748435826430511 0 -0.45439987011735861 0.23132743976034201 0 -0.46099016809325821 0.24544934887813891 0 -0.43175780585290852 0.2361786356169556 0 -0.40577057457472349 0.24313069415562391 0 -0.43175780585290852 0.2361786356169556 0 -0.40577057457472349 0.24313069415562391 0 -0.42360250984710962 0.25372911735208947 0 -0.44385238052221482 0.24856057350411129 0 -0.43175780585290852 0.2361786356169556 0 -0.42360250984710962 0.25372911735208947 0 -0.44018516371656408 0.22104838995953241 0 -0.43175780585290852 0.2361786356169556 0 -0.41928529583428331 0.2206245649573213 0 -0.41928529583428331 0.2206245649573213 0 -0.40096549596587328 0.22642439854412449 0 -0.40577057457472349 0.24313069415562391 0 -0.43175780585290852 0.2361786356169556 0 -0.41928529583428331 0.2206245649573213 0 -0.40577057457472349 0.24313069415562391 0 -0.41928529583428331 0.2206245649573213 0 -0.40186006723269441 0.21357527886985209 0 -0.40096549596587328 0.22642439854412449 0 -0.41858880666892739 0.19877193073561841 0 -0.40047824926536862 0.19880518322497481 0 -0.40186006723269441 0.21357527886985209 0 -0.41928529583428331 0.2206245649573213 0 -0.41858880666892739 0.19877193073561841 0 -0.40186006723269441 0.21357527886985209 0 -0.44018516371656408 0.22104838995953241 0 -0.41928529583428331 0.2206245649573213 0 -0.43562672775181421 0.204912178317676 0 -0.41928529583428331 0.2206245649573213 0 -0.43562672775181421 0.204912178317676 0 -0.41858880666892739 0.19877193073561841 0 -0.43975681285017348 0.18077880470442451 0 -0.43562672775181421 0.204912178317676 0 -0.41858880666892739 0.19877193073561841 0 -0.40047824926536862 0.19880518322497481 0 -0.41511743352550928 0.18099714624480631 0 -0.41858880666892739 0.19877193073561841 0 -0.40047824926536862 0.19880518322497481 0 -0.41511743352550928 0.18099714624480631 0 -0.40047824926536862 0.19880518322497481 0 -0.38239646710350428 0.1933813145574648 0 -0.39769205940950703 0.18463609810962861 0 -0.40047824926536862 0.19880518322497481 0 -0.41511743352550928 0.18099714624480631 0 -0.39769205940950703 0.18463609810962861 0 -0.40047824926536862 0.19880518322497481 0 -0.38239646710350428 0.1933813145574648 0 -0.3858390650052288 0.21661322020514409 0 -0.38239646710350428 0.1933813145574648 0 -0.39769205940950703 0.18463609810962861 0 -0.38239646710350428 0.1933813145574648 0 -0.37597798323128129 0.1825859301249094 0 -0.36805430097796082 0.1889783187395748 0 -0.38239646710350428 0.1933813145574648 0 -0.37531806796805323 0.2080250123765425 0 -0.3858390650052288 0.21661322020514409 0 -0.37531806796805323 0.2080250123765425 0 -0.3858390650052288 0.21661322020514409 0 -0.36995258670303433 0.21889047848972701 0 -0.38239646710350428 0.1933813145574648 0 -0.3858390650052288 0.21661322020514409 0 -0.3858390650052288 0.21661322020514409 0 -0.38643470655258411 0.22063282650914931 0 -0.40047824926536862 0.19880518322497481 0 -0.3858390650052288 0.21661322020514409 0 -0.40186006723269441 0.21357527886985209 0 -0.3858390650052288 0.21661322020514409 0 -0.40186006723269441 0.21357527886985209 0 -0.38643470655258411 0.22063282650914931 0 -0.40047824926536862 0.19880518322497481 0 -0.3858390650052288 0.21661322020514409 0 -0.40096549596587328 0.22642439854412449 0 -0.38643470655258411 0.22063282650914931 0 -0.38828643046537792 0.23562572782755839 0 -0.40186006723269441 0.21357527886985209 0 -0.40096549596587328 0.22642439854412449 0 -0.38643470655258411 0.22063282650914931 0 -0.3858390650052288 0.21661322020514409 0 -0.37268350437052311 0.2326164828265142 0 -0.3858390650052288 0.21661322020514409 0 -0.36995258670303433 0.21889047848972701 0 -0.37268350437052311 0.2326164828265142 0 -0.3858390650052288 0.21661322020514409 0 -0.38643470655258411 0.22063282650914931 0 -0.37268350437052311 0.2326164828265142 0 -0.38643470655258411 0.22063282650914931 0 -0.38828643046537792 0.23562572782755839 0 -0.37268350437052311 0.2326164828265142 0 -0.38828643046537792 0.23562572782755839 0 -0.37268350437052311 0.2326164828265142 0 -0.37978334329653862 0.2500827526942922 0 -0.40577057457472349 0.24313069415562391 0 -0.37978334329653862 0.2500827526942922 0 -0.38828643046537792 0.23562572782755839 0 -0.40577057457472349 0.24313069415562391 0 -0.37978334329653862 0.2500827526942922 0 -0.40096549596587328 0.22642439854412449 0 -0.38828643046537792 0.23562572782755839 0 -0.40577057457472349 0.24313069415562391 0 -0.41116443937021258 0.15606372678703651 0 -0.4222557845494766 0.14244765167189211 0 -0.40269489929480728 0.1363111444669157 0 -0.41116443937021258 0.15606372678703651 0 -0.4222557845494766 0.14244765167189211 0 -0.42975661778565 0.16318910926463781 0 -0.41413606188538532 0.1164945853513954 0 -0.41664700042878272 0.13064622286372729 0 -0.40269489929480728 0.1363111444669157 0 -0.41413606188538532 0.1164945853513954 0 -0.40269489929480728 0.1363111444669157 0 -0.41664700042878272 0.13064622286372729 0 -0.4222557845494766 0.14244765167189211 0 -0.40269489929480728 0.1363111444669157 0 -0.42887594837161458 0.1230946343645667 0 -0.44439580204579121 0.1453810722844697 0 -0.42887594837161458 0.1230946343645667 0 -0.41664700042878272 0.13064622286372729 0 -0.4222557845494766 0.14244765167189211 0 -0.42887594837161458 0.1230946343645667 0 -0.44439580204579121 0.1453810722844697 0 -0.4222557845494766 0.14244765167189211 0 -0.44439580204579121 0.1453810722844697 0 -0.42975661778565 0.16318910926463781 0 -0.44439580204579121 0.1453810722844697 0 -0.4222557845494766 0.14244765167189211 0 -0.42975661778565 0.16318910926463781 0 -0.43975681285017348 0.18077880470442451 0 -0.41858880666892739 0.19877193073561841 0 -0.41511743352550928 0.18099714624480631 0 -0.42975661778565 0.16318910926463781 0 -0.41511743352550928 0.18099714624480631 0 -0.43975681285017348 0.18077880470442451 0 -0.42975661778565 0.16318910926463781 0 -0.41511743352550928 0.18099714624480631 0 -0.41511743352550928 0.18099714624480631 0 -0.412987651715509 0.17589088166179109 0 -0.39769205940950703 0.18463609810962861 0 -0.42975661778565 0.16318910926463781 0 -0.41511743352550928 0.18099714624480631 0 -0.412987651715509 0.17589088166179109 0 -0.412987651715509 0.17589088166179109 0 -0.40903901181445079 0.1662565756287932 0 -0.40470304577412658 0.17403048765678589 0 -0.42975661778565 0.16318910926463781 0 -0.412987651715509 0.17589088166179109 0 -0.40903901181445079 0.1662565756287932 0 -0.41116443937021258 0.15606372678703651 0 -0.42975661778565 0.16318910926463781 0 -0.40903901181445079 0.1662565756287932 0 -0.41116443937021258 0.15606372678703651 0 -0.40903901181445079 0.1662565756287932 0 -0.39909346015703961 0.16933839522693089 0 -0.41116443937021258 0.15606372678703651 0 -0.39909346015703961 0.16933839522693089 0 -0.39125373670422908 0.15612770358243599 0 -0.39909346015703961 0.16933839522693089 0 -0.39070055241605361 0.17628257451996721 0 -0.39125373670422908 0.15612770358243599 0 -0.40903901181445079 0.1662565756287932 0 -0.39909346015703961 0.16933839522693089 0 -0.40470304577412658 0.17403048765678589 0 -0.412987651715509 0.17589088166179109 0 -0.39769205940950703 0.18463609810962861 0 -0.39909346015703961 0.16933839522693089 0 -0.40470304577412658 0.17403048765678589 0 -0.39769205940950703 0.18463609810962861 0 -0.412987651715509 0.17589088166179109 0 -0.40470304577412658 0.17403048765678589 0 -0.39769205940950703 0.18463609810962861 0 -0.39909346015703961 0.16933839522693089 0 -0.39070055241605361 0.17628257451996721 0 -0.39769205940950703 0.18463609810962861 0 -0.38239646710350428 0.1933813145574648 0 -0.37981257411365049 0.17594426269795599 0 -0.37597798323128129 0.1825859301249094 0 -0.38239646710350428 0.1933813145574648 0 -0.39070055241605361 0.17628257451996721 0 -0.37981257411365049 0.17594426269795599 0 -0.38239646710350428 0.1933813145574648 0 -0.37981257411365049 0.17594426269795599 0 -0.38239646710350428 0.1933813145574648 0 -0.39070055241605361 0.17628257451996721 0 -0.39769205940950703 0.18463609810962861 0 -0.37981257411365049 0.17594426269795599 0 -0.37597798323128129 0.1825859301249094 0 -0.37189710763601591 0.17627618365630821 0 -0.37981257411365049 0.17594426269795599 0 -0.37597798323128129 0.1825859301249094 0 -0.39070055241605361 0.17628257451996721 0 -0.37981257411365049 0.17594426269795599 0 -0.39125373670422908 0.15612770358243599 0 -0.37981257411365049 0.17594426269795599 0 -0.37632621745087358 0.15241705697838401 0 -0.37981257411365049 0.17594426269795599 0 -0.39125373670422908 0.15612770358243599 0 -0.37981257411365049 0.17594426269795599 0 -0.37567904917799028 0.15669549312901959 0 -0.37632621745087358 0.15241705697838401 0 -0.37981257411365049 0.17594426269795599 0 -0.37567904917799028 0.15669549312901959 0 -0.37217721119341612 0.16347027157715971 0 -0.37981257411365049 0.17594426269795599 0 -0.37632621745087358 0.15241705697838401 0 -0.39125373670422908 0.15612770358243599 0 -0.37632621745087358 0.15241705697838401 0 -0.39125373670422908 0.15612770358243599 0 -0.38724253839615458 0.1377189560276573 0 -0.39125373670422908 0.15612770358243599 0 -0.40269489929480728 0.1363111444669157 0 -0.39125373670422908 0.15612770358243599 0 -0.40269489929480728 0.1363111444669157 0 -0.38724253839615458 0.1377189560276573 0 -0.41116443937021258 0.15606372678703651 0 -0.39125373670422908 0.15612770358243599 0 -0.40269489929480728 0.1363111444669157 0 -0.39309797774276589 0.11484902385173899 0 -0.40269489929480728 0.1363111444669157 0 -0.38724253839615458 0.1377189560276573 0 -0.37632621745087358 0.15241705697838401 0 -0.38724253839615458 0.1377189560276573 0 -0.37283986078809711 0.12888985125881189 0 -0.39309797774276589 0.11484902385173899 0 -0.38724253839615458 0.1377189560276573 0 -0.37283986078809711 0.12888985125881189 0 -0.37283986078809711 0.12888985125881189 0 -0.37186965138911587 0.12234252454249191 0 -0.37283986078809711 0.12888985125881189 0 -0.36476541222021619 0.13448622228394599 0 -0.37632621745087358 0.15241705697838401 0 -0.37283986078809711 0.12888985125881189 0 -0.36476541222021619 0.13448622228394599 0 -0.37283986078809711 0.12888985125881189 0 -0.36757992834226172 0.1280565862510615 0 -0.36476541222021619 0.13448622228394599 0 -0.37283986078809711 0.12888985125881189 0 -0.36757992834226172 0.1280565862510615 0 -0.37186965138911587 0.12234252454249191 0 -0.36757992834226172 0.1280565862510615 0 -0.36476541222021619 0.13448622228394599 0 -0.36056179151519407 0.12593184658600001 0 -0.36476541222021619 0.13448622228394599 0 -0.36056179151519407 0.12593184658600001 0 -0.35708601276042878 0.12792782257983171 0 -0.36757992834226172 0.1280565862510615 0 -0.36056179151519407 0.12593184658600001 0 -0.37186965138911587 0.12234252454249191 0 -0.36476541222021619 0.13448622228394599 0 -0.36056179151519407 0.12593184658600001 0 -0.35708601276042878 0.12792782257983171 0 -0.32997166189558752 0.13817169653216979 0 -0.34654223540871221 0.1237417205043463 0 -0.35708601276042878 0.12792782257983171 0 -0.34549783582189109 0.14784050962303349 0 -0.33161819428315359 0.14255279093439621 0 -0.36056179151519407 0.12593184658600001 0 -0.35708601276042878 0.12792782257983171 0 -0.36056179151519407 0.12593184658600001 0 -0.35708601276042878 0.12792782257983171 0 -0.34654223540871221 0.1237417205043463 0 -0.35708601276042878 0.12792782257983171 0 -0.33161819428315359 0.14255279093439621 0 -0.36476541222021619 0.13448622228394599 0 -0.35708601276042878 0.12792782257983171 0 -0.34549783582189109 0.14784050962303349 0 -0.36476541222021619 0.13448622228394599 0 -0.34549783582189109 0.14784050962303349 0 -0.36015102315350278 0.1502478097734844 0 -0.36476541222021619 0.13448622228394599 0 -0.34549783582189109 0.14784050962303349 0 -0.34549783582189109 0.14784050962303349 0 -0.36015102315350278 0.1502478097734844 0 -0.35458651278289482 0.15948964281090811 0 -0.36015102315350278 0.1502478097734844 0 -0.36738612991490638 0.1513053763089699 0 -0.36581379296138877 0.15882569438964711 0 -0.36015102315350278 0.1502478097734844 0 -0.36581379296138877 0.15882569438964711 0 -0.35458651278289482 0.15948964281090811 0 -0.37567904917799028 0.15669549312901959 0 -0.36476541222021619 0.13448622228394599 0 -0.36738612991490638 0.1513053763089699 0 -0.37567904917799028 0.15669549312901959 0 -0.36476541222021619 0.13448622228394599 0 -0.37632621745087358 0.15241705697838401 0 -0.37283986078809711 0.12888985125881189 0 -0.36476541222021619 0.13448622228394599 0 -0.36015102315350278 0.1502478097734844 0 -0.36738612991490638 0.1513053763089699 0 -0.37567904917799028 0.15669549312901959 0 -0.37632621745087358 0.15241705697838401 0 -0.36476541222021619 0.13448622228394599 0 -0.37567904917799028 0.15669549312901959 0 -0.36738612991490638 0.1513053763089699 0 -0.3702640458119254 0.15757420885119899 0 -0.36738612991490638 0.1513053763089699 0 -0.3702640458119254 0.15757420885119899 0 -0.36581379296138877 0.15882569438964711 0 -0.37217721119341612 0.16347027157715971 0 -0.36905926765261732 0.1696142457004233 0 -0.36581379296138877 0.15882569438964711 0 -0.37567904917799028 0.15669549312901959 0 -0.3702640458119254 0.15757420885119899 0 -0.37217721119341612 0.16347027157715971 0 -0.3702640458119254 0.15757420885119899 0 -0.37217721119341612 0.16347027157715971 0 -0.36581379296138877 0.15882569438964711 0 -0.37981257411365049 0.17594426269795599 0 -0.37217721119341612 0.16347027157715971 0 -0.36905926765261732 0.1696142457004233 0 -0.36905926765261732 0.1696142457004233 0 -0.36099591742146397 0.167637108724809 0 -0.36581379296138877 0.15882569438964711 0 -0.36099591742146397 0.167637108724809 0 -0.36581379296138877 0.15882569438964711 0 -0.35458651278289482 0.15948964281090811 0 -0.37597798323128129 0.1825859301249094 0 -0.36325374907306579 0.17907846415931961 0 -0.36805430097796082 0.1889783187395748 0 -0.37597798323128129 0.1825859301249094 0 -0.37189710763601591 0.17627618365630821 0 -0.36325374907306579 0.17907846415931961 0 -0.37981257411365049 0.17594426269795599 0 -0.36905926765261732 0.1696142457004233 0 -0.37189710763601591 0.17627618365630821 0 -0.36905926765261732 0.1696142457004233 0 -0.37189710763601591 0.17627618365630821 0 -0.36325374907306579 0.17907846415931961 0 -0.36905926765261732 0.1696142457004233 0 -0.36099591742146397 0.167637108724809 0 -0.36325374907306579 0.17907846415931961 0 -0.36325374907306579 0.17907846415931961 0 -0.36805430097796082 0.1889783187395748 0 -0.35681994731681221 0.191499133190593 0 -0.36325374907306579 0.17907846415931961 0 -0.34798984363815039 0.1851353083336682 0 -0.35681994731681221 0.191499133190593 0 -0.36099591742146397 0.167637108724809 0 -0.36325374907306579 0.17907846415931961 0 -0.35226626463735328 0.17117749656374701 0 -0.36325374907306579 0.17907846415931961 0 -0.34798984363815039 0.1851353083336682 0 -0.35226626463735328 0.17117749656374701 0 -0.34798984363815039 0.1851353083336682 0 -0.35226626463735328 0.17117749656374701 0 -0.33676964057918651 0.17731445932354159 0 -0.34549783582189109 0.14784050962303349 0 -0.35458651278289482 0.15948964281090811 0 -0.34248353986660512 0.16382920220981589 0 -0.36099591742146397 0.167637108724809 0 -0.35458651278289482 0.15948964281090811 0 -0.35226626463735328 0.17117749656374701 0 -0.35226626463735328 0.17117749656374701 0 -0.34248353986660512 0.16382920220981589 0 -0.33676964057918651 0.17731445932354159 0 -0.35458651278289482 0.15948964281090811 0 -0.35226626463735328 0.17117749656374701 0 -0.34248353986660512 0.16382920220981589 0 -0.34549783582189109 0.14784050962303349 0 -0.34248353986660512 0.16382920220981589 0 -0.32623025942356559 0.1611947969621205 0 -0.34248353986660512 0.16382920220981589 0 -0.33676964057918651 0.17731445932354159 0 -0.32623025942356559 0.1611947969621205 0 -0.33676964057918651 0.17731445932354159 0 -0.32268911462362743 0.17911823868166801 0 -0.32623025942356559 0.1611947969621205 0 -0.34798984363815039 0.1851353083336682 0 -0.33676964057918651 0.17731445932354159 0 -0.33134405203596867 0.19560910388663499 0 -0.33676964057918651 0.17731445932354159 0 -0.32268911462362743 0.17911823868166801 0 -0.33134405203596867 0.19560910388663499 0 -0.32268911462362743 0.17911823868166801 0 -0.30993917094092882 0.19553789426199999 0 -0.30696268302524021 0.17454908430120741 0 -0.32623025942356559 0.1611947969621205 0 -0.30615037580587878 0.15717775928896099 0 -0.30696268302524021 0.17454908430120741 0 -0.32268911462362743 0.17911823868166801 0 -0.32623025942356559 0.1611947969621205 0 -0.30696268302524021 0.17454908430120741 0 -0.32623025942356559 0.1611947969621205 0 -0.30696268302524021 0.17454908430120741 0 -0.33161819428315359 0.14255279093439621 0 -0.30615037580587878 0.15717775928896099 0 -0.32997166189558752 0.13817169653216979 0 -0.33161819428315359 0.14255279093439621 0 -0.30285731103074609 0.14841557048450729 0 -0.32997166189558752 0.13817169653216979 0 -0.30285731103074609 0.14841557048450729 0 -0.32997166189558752 0.13817169653216979 0 -0.30756663117520322 0.13713898436148381 0 -0.30285731103074609 0.14841557048450729 0 -0.32623025942356559 0.1611947969621205 0 -0.33161819428315359 0.14255279093439621 0 -0.30615037580587878 0.15717775928896099 0 -0.33161819428315359 0.14255279093439621 0 -0.30285731103074609 0.14841557048450729 0 -0.30615037580587878 0.15717775928896099 0 -0.31537476438474549 0.13125738153752159 0 -0.32997166189558752 0.13817169653216979 0 -0.30756663117520322 0.13713898436148381 0 -0.31537476438474549 0.13125738153752159 0 -0.32380070494992602 0.12852288969592429 0 -0.31609502722627969 0.12166860123308219 0 -0.31537476438474549 0.13125738153752159 0 -0.32380070494992602 0.12852288969592429 0 -0.32997166189558752 0.13817169653216979 0 -0.35708601276042878 0.12792782257983171 0 -0.32997166189558752 0.13817169653216979 0 -0.32997166189558752 0.13817169653216979 0 -0.33386454596605392 0.1261601336156089 0 -0.34654223540871221 0.1237417205043463 0 -0.35708601276042878 0.12792782257983171 0 -0.32997166189558752 0.13817169653216979 0 -0.33161819428315359 0.14255279093439621 0 -0.32380070494992602 0.12852288969592429 0 -0.33386454596605392 0.1261601336156089 0 -0.32738278272788812 0.12237069330744289 0 -0.32380070494992602 0.12852288969592429 0 -0.32997166189558752 0.13817169653216979 0 -0.33386454596605392 0.1261601336156089 0 -0.34549783582189109 0.14784050962303349 0 -0.32623025942356559 0.1611947969621205 0 -0.33161819428315359 0.14255279093439621 0 -0.34549783582189109 0.14784050962303349 0 -0.32623025942356559 0.1611947969621205 0 -0.35421041704060041 0.2327450296272297 0 -0.33277624872290262 0.2431759369511014 0 -0.35379611201835381 0.25703481123296051 0 -0.36428609693314717 0.24402325401059971 0 -0.35421041704060041 0.2327450296272297 0 -0.35379611201835381 0.25703481123296051 0 -0.36428609693314717 0.24402325401059971 0 -0.37268350437052311 0.2326164828265142 0 -0.35421041704060041 0.2327450296272297 0 -0.36428609693314717 0.24402325401059971 0 -0.37268350437052311 0.2326164828265142 0 -0.37978334329653862 0.2500827526942922 0 -0.36995258670303433 0.21889047848972701 0 -0.35421041704060041 0.2327450296272297 0 -0.35942475591462791 0.2065153326788243 0 -0.36995258670303433 0.21889047848972701 0 -0.37268350437052311 0.2326164828265142 0 -0.35421041704060041 0.2327450296272297 0 -0.35421041704060041 0.2327450296272297 0 -0.35942475591462791 0.2065153326788243 0 -0.33645304472575083 0.21964935080018269 0 -0.35942475591462791 0.2065153326788243 0 -0.34590221032005503 0.19875426435606899 0 -0.33645304472575083 0.21964935080018269 0 -0.35942475591462791 0.2065153326788243 0 -0.33645304472575083 0.21964935080018269 0 -0.37531806796805323 0.2080250123765425 0 -0.36995258670303433 0.21889047848972701 0 -0.35942475591462791 0.2065153326788243 0 -0.35942475591462791 0.2065153326788243 0 -0.36805430097796082 0.1889783187395748 0 -0.35681994731681221 0.191499133190593 0 -0.38239646710350428 0.1933813145574648 0 -0.35942475591462791 0.2065153326788243 0 -0.36805430097796082 0.1889783187395748 0 -0.38239646710350428 0.1933813145574648 0 -0.35942475591462791 0.2065153326788243 0 -0.38239646710350428 0.1933813145574648 0 -0.37531806796805323 0.2080250123765425 0 -0.35942475591462791 0.2065153326788243 0 -0.35942475591462791 0.2065153326788243 0 -0.35681994731681221 0.191499133190593 0 -0.34590221032005503 0.19875426435606899 0 -0.34798984363815039 0.1851353083336682 0 -0.35681994731681221 0.191499133190593 0 -0.34590221032005503 0.19875426435606899 0 -0.34798984363815039 0.1851353083336682 0 -0.34590221032005503 0.19875426435606899 0 -0.33134405203596867 0.19560910388663499 0 -0.32268911462362743 0.17911823868166801 0 -0.33134405203596867 0.19560910388663499 0 -0.30993917094092882 0.19553789426199999 0 -0.33134405203596867 0.19560910388663499 0 -0.31818974344527678 0.21432913181036711 0 -0.30993917094092882 0.19553789426199999 0 -0.33134405203596867 0.19560910388663499 0 -0.31818974344527678 0.21432913181036711 0 -0.33645304472575083 0.21964935080018269 0 -0.34590221032005503 0.19875426435606899 0 -0.33134405203596867 0.19560910388663499 0 -0.33645304472575083 0.21964935080018269 0 -0.35421041704060041 0.2327450296272297 0 -0.33645304472575083 0.21964935080018269 0 -0.33277624872290262 0.2431759369511014 0 -0.31818974344527678 0.21432913181036711 0 -0.33645304472575083 0.21964935080018269 0 -0.31348133353687369 0.232783368921541 0 -0.33645304472575083 0.21964935080018269 0 -0.31348133353687369 0.232783368921541 0 -0.33645304472575083 0.21964935080018269 0 -0.31348133353687369 0.232783368921541 0 -0.33277624872290262 0.2431759369511014 0 -0.31348133353687369 0.232783368921541 0 -0.33277624872290262 0.2431759369511014 0 -0.3093470477056508 0.25302678202252799 0 -0.31348133353687369 0.232783368921541 0 -0.29050962234799671 0.24591738704289931 0 -0.31348133353687369 0.232783368921541 0 -0.29050962234799671 0.24591738704289931 0 -0.3093470477056508 0.25302678202252799 0 -0.31818974344527678 0.21432913181036711 0 -0.31348133353687369 0.232783368921541 0 -0.29418436836282469 0.21789122507113209 0 -0.31348133353687369 0.232783368921541 0 -0.29050962234799671 0.24591738704289931 0 -0.29418436836282469 0.21789122507113209 0 -0.29050962234799671 0.24591738704289931 0 -0.29418436836282469 0.21789122507113209 0 -0.27193084798757372 0.23268238727926821 0 -0.29418436836282469 0.21789122507113209 0 -0.2877459290900638 0.1920624425780352 0 -0.2671035351026565 0.21120983775145299 0 -0.31818974344527678 0.21432913181036711 0 -0.29418436836282469 0.21789122507113209 0 -0.30993917094092882 0.19553789426199999 0 -0.29418436836282469 0.21789122507113209 0 -0.30993917094092882 0.19553789426199999 0 -0.2877459290900638 0.1920624425780352 0 -0.2877459290900638 0.1920624425780352 0 -0.26314889669037839 0.19432258294127289 0 -0.2671035351026565 0.21120983775145299 0 -0.2877459290900638 0.1920624425780352 0 -0.26314889669037839 0.19432258294127289 0 -0.26808125620719753 0.1811742475821537 0 -0.2877459290900638 0.1920624425780352 0 -0.2671035351026565 0.21120983775145299 0 -0.26314889669037839 0.19432258294127289 0 -0.25111163591805252 0.1841976838221375 0 -0.2387365590242915 0.20049379810163989 0 -0.26314889669037839 0.19432258294127289 0 -0.2671035351026565 0.21120983775145299 0 -0.2387365590242915 0.20049379810163989 0 -0.2671035351026565 0.21120983775145299 0 -0.24646114111524919 0.23035723292487079 0 -0.2387365590242915 0.20049379810163989 0 -0.29418436836282469 0.21789122507113209 0 -0.2671035351026565 0.21120983775145299 0 -0.27193084798757372 0.23268238727926821 0 -0.2671035351026565 0.21120983775145299 0 -0.24646114111524919 0.23035723292487079 0 -0.2671035351026565 0.21120983775145299 0 -0.27193084798757372 0.23268238727926821 0 -0.24646114111524919 0.23035723292487079 0 -0.27193084798757372 0.23268238727926821 0 -0.2616708012182547 0.2440301657032401 0 -0.24646114111524919 0.23035723292487079 0 -0.2616708012182547 0.2440301657032401 0 -0.25063676029139842 0.25291648499014979 0 -0.24646114111524919 0.23035723292487079 0 -0.29050962234799671 0.24591738704289931 0 -0.27193084798757372 0.23268238727926821 0 -0.27243740744556921 0.247158999558652 0 -0.2616708012182547 0.2440301657032401 0 -0.27243740744556921 0.247158999558652 0 -0.26744233816693491 0.25654795535771091 0 -0.27193084798757372 0.23268238727926821 0 -0.2616708012182547 0.2440301657032401 0 -0.27243740744556921 0.247158999558652 0 -0.30285731103074609 0.14841557048450729 0 -0.27574296016590472 0.1586594444368449 0 -0.28831475003939172 0.14602375476192181 0 -0.30285731103074609 0.14841557048450729 0 -0.27574296016590472 0.1586594444368449 0 -0.28831475003939172 0.14602375476192181 0 -0.30285731103074609 0.14841557048450729 0 -0.29705865191048658 0.1407703141767053 0 -0.28831475003939172 0.14602375476192181 0 -0.28942548408560648 0.13669010184468869 0 -0.29705865191048658 0.1407703141767053 0 -0.28831475003939172 0.14602375476192181 0 -0.28268679239208683 0.14241524557985019 0 -0.28942548408560648 0.13669010184468869 0 -0.28831475003939172 0.14602375476192181 0 -0.28268679239208683 0.14241524557985019 0 -0.27545895125388542 0.14756106143372341 0 -0.28268679239208683 0.14241524557985019 0 -0.28942548408560648 0.13669010184468869 0 -0.2793350296760036 0.13715765898973109 0 -0.28942548408560648 0.13669010184468869 0 -0.2793350296760036 0.13715765898973109 0 -0.29525783326206201 0.1169146962713736 0 -0.27495932648653321 0.1364702931358131 0 -0.29525783326206201 0.1169146962713736 0 -0.28942548408560648 0.13669010184468869 0 -0.29698562730805372 0.13314086169346259 0 -0.29525783326206201 0.1169146962713736 0 -0.2793350296760036 0.13715765898973109 0 -0.27495932648653321 0.1364702931358131 0 -0.29525783326206201 0.1169146962713736 0 -0.28942548408560648 0.13669010184468869 0 -0.29698562730805372 0.13314086169346259 0 -0.29705865191048658 0.1407703141767053 0 -0.29698562730805372 0.13314086169346259 0 -0.30534856692658729 0.12854777012121929 0 -0.30756663117520322 0.13713898436148381 0 -0.29698562730805372 0.13314086169346259 0 -0.30534856692658729 0.12854777012121929 0 -0.29525783326206201 0.1169146962713736 0 -0.29698562730805372 0.13314086169346259 0 -0.30756663117520322 0.13713898436148381 0 -0.29705865191048658 0.1407703141767053 0 -0.31537476438474549 0.13125738153752159 0 -0.30534856692658729 0.12854777012121929 0 -0.30756663117520322 0.13713898436148381 0 -0.31537476438474549 0.13125738153752159 0 -0.30534856692658729 0.12854777012121929 0 -0.31609502722627969 0.12166860123308219 0 -0.30756663117520322 0.13713898436148381 0 -0.30285731103074609 0.14841557048450729 0 -0.29705865191048658 0.1407703141767053 0 -0.30285731103074609 0.14841557048450729 0 -0.30615037580587878 0.15717775928896099 0 -0.29198621725060597 0.16676715165192479 0 -0.30615037580587878 0.15717775928896099 0 -0.30696268302524021 0.17454908430120741 0 -0.29198621725060597 0.16676715165192479 0 -0.30993917094092882 0.19553789426199999 0 -0.2877459290900638 0.1920624425780352 0 -0.30696268302524021 0.17454908430120741 0 -0.2877459290900638 0.1920624425780352 0 -0.30696268302524021 0.17454908430120741 0 -0.29198621725060597 0.16676715165192479 0 -0.2877459290900638 0.1920624425780352 0 -0.29198621725060597 0.16676715165192479 0 -0.2783528757222487 0.17284180618219461 0 -0.30285731103074609 0.14841557048450729 0 -0.29198621725060597 0.16676715165192479 0 -0.27574296016590472 0.1586594444368449 0 -0.29198621725060597 0.16676715165192479 0 -0.27574296016590472 0.1586594444368449 0 -0.2783528757222487 0.17284180618219461 0 -0.27574296016590472 0.1586594444368449 0 -0.2658392469504246 0.17145408030196629 0 -0.2783528757222487 0.17284180618219461 0 -0.2877459290900638 0.1920624425780352 0 -0.2783528757222487 0.17284180618219461 0 -0.26808125620719753 0.1811742475821537 0 -0.2658392469504246 0.17145408030196629 0 -0.2783528757222487 0.17284180618219461 0 -0.26808125620719753 0.1811742475821537 0 -0.26808125620719753 0.1811742475821537 0 -0.25839053335570877 0.17569158491945591 0 -0.25111163591805252 0.1841976838221375 0 -0.26314889669037839 0.19432258294127289 0 -0.26808125620719753 0.1811742475821537 0 -0.25111163591805252 0.1841976838221375 0 -0.2658392469504246 0.17145408030196629 0 -0.25839053335570877 0.17569158491945591 0 -0.24862860930106331 0.16890331838918241 0 -0.2658392469504246 0.17145408030196629 0 -0.26808125620719753 0.1811742475821537 0 -0.25839053335570877 0.17569158491945591 0 -0.25839053335570877 0.17569158491945591 0 -0.25111163591805252 0.1841976838221375 0 -0.24862860930106331 0.16890331838918241 0 -0.27574296016590472 0.1586594444368449 0 -0.2658392469504246 0.17145408030196629 0 -0.24862860930106331 0.16890331838918241 0 -0.27574296016590472 0.1586594444368449 0 -0.24862860930106331 0.16890331838918241 0 -0.27574296016590472 0.1586594444368449 0 -0.24978662902869239 0.1607216890103832 0 -0.24862860930106331 0.16890331838918241 0 -0.26237297775761248 0.1485959910730979 0 -0.24973077750056691 0.1325072174046828 0 -0.24924630865098449 0.14877550299698519 0 -0.27574296016590472 0.1586594444368449 0 -0.26237297775761248 0.1485959910730979 0 -0.24978662902869239 0.1607216890103832 0 -0.26237297775761248 0.1485959910730979 0 -0.24924630865098449 0.14877550299698519 0 -0.24978662902869239 0.1607216890103832 0 -0.26237297775761248 0.1485959910730979 0 -0.24978662902869239 0.1607216890103832 0 -0.27574296016590472 0.1586594444368449 0 -0.26237297775761248 0.1485959910730979 0 -0.27545895125388542 0.14756106143372341 0 -0.26237297775761248 0.1485959910730979 0 -0.27495932648653321 0.1364702931358131 0 -0.26237297775761248 0.1485959910730979 0 -0.27545895125388542 0.14756106143372341 0 -0.27495932648653321 0.1364702931358131 0 -0.27545895125388542 0.14756106143372341 0 -0.27790139000223513 0.14191902438130191 0 -0.27495932648653321 0.1364702931358131 0 -0.28268679239208683 0.14241524557985019 0 -0.27545895125388542 0.14756106143372341 0 -0.27790139000223513 0.14191902438130191 0 -0.28831475003939172 0.14602375476192181 0 -0.27574296016590472 0.1586594444368449 0 -0.27545895125388542 0.14756106143372341 0 -0.28268679239208683 0.14241524557985019 0 -0.27790139000223513 0.14191902438130191 0 -0.2793350296760036 0.13715765898973109 0 -0.27790139000223513 0.14191902438130191 0 -0.2793350296760036 0.13715765898973109 0 -0.27495932648653321 0.1364702931358131 0 -0.2793350296760036 0.13715765898973109 0 -0.27495932648653321 0.1364702931358131 0 -0.26237297775761248 0.1485959910730979 0 -0.27495932648653321 0.1364702931358131 0 -0.24973077750056691 0.1325072174046828 0 -0.27495932648653321 0.1364702931358131 0 -0.26297056459447937 0.12060595418652451 0 -0.24973077750056691 0.1325072174046828 0 -0.27495932648653321 0.1364702931358131 0 -0.24973077750056691 0.1325072174046828 0 -0.26297056459447937 0.12060595418652451 0 -0.26656998734962772 0.10255445112006679 0 -0.24412649612905951 0.1109158123134662 0 -0.26297056459447937 0.12060595418652451 0 -0.24412649612905951 0.1109158123134662 0 -0.24973077750056691 0.1325072174046828 0 -0.26656998734962772 0.10255445112006679 0 -0.2495686801242398 0.087265410611016947 0 -0.24412649612905951 0.1109158123134662 0 -0.26656998734962772 0.10255445112006679 0 -0.2770957741208171 0.1148350994880601 0 -0.28572115891138339 0.097630102726522783 0 -0.26297056459447937 0.12060595418652451 0 -0.26656998734962772 0.10255445112006679 0 -0.2770957741208171 0.1148350994880601 0 -0.27495932648653321 0.1364702931358131 0 -0.26297056459447937 0.12060595418652451 0 -0.2770957741208171 0.1148350994880601 0 -0.2770957741208171 0.1148350994880601 0 -0.29525783326206201 0.1169146962713736 0 -0.28572115891138339 0.097630102726522783 0 -0.27495932648653321 0.1364702931358131 0 -0.2770957741208171 0.1148350994880601 0 -0.29525783326206201 0.1169146962713736 0 -0.29525783326206201 0.1169146962713736 0 -0.28572115891138339 0.097630102726522783 0 -0.29969944305778662 0.098944480390275591 0 -0.29525783326206201 0.1169146962713736 0 -0.29969944305778662 0.098944480390275591 0 -0.31555634003759131 0.097359099406934574 0 -0.29525783326206201 0.1169146962713736 0 -0.31555634003759131 0.097359099406934574 0 -0.29525783326206201 0.1169146962713736 0 -0.31848920349681331 0.1094619235774094 0 -0.31555634003759131 0.097359099406934574 0 -0.29525783326206201 0.1169146962713736 0 -0.31848920349681331 0.1094619235774094 0 -0.31609502722627969 0.12166860123308219 0 -0.30534856692658729 0.12854777012121929 0 -0.29525783326206201 0.1169146962713736 0 -0.31609502722627969 0.12166860123308219 0 -0.29907921172493279 0.064031126665179752 0 -0.31036105895695643 0.074169545424710714 0 -0.30226244002010971 0.083874023156271404 0 -0.29907921172493279 0.064031126665179752 0 -0.31036105895695643 0.074169545424710714 0 -0.31777546229319559 0.065273475035345002 0 -0.29969944305778662 0.098944480390275591 0 -0.30226244002010971 0.083874023156271404 0 -0.31555634003759131 0.097359099406934574 0 -0.31036105895695643 0.074169545424710714 0 -0.30226244002010971 0.083874023156271404 0 -0.32090569118881312 0.079666296583938589 0 -0.28572115891138339 0.097630102726522783 0 -0.29969944305778662 0.098944480390275591 0 -0.30226244002010971 0.083874023156271404 0 -0.30226244002010971 0.083874023156271404 0 -0.27447437546997611 0.07408361296006713 0 -0.28572115891138339 0.097630102726522783 0 -0.30226244002010971 0.083874023156271404 0 -0.27447437546997611 0.07408361296006713 0 -0.29907921172493279 0.064031126665179752 0 -0.30226244002010971 0.083874023156271404 0 -0.27447437546997611 0.07408361296006713 0 -0.26656998734962772 0.10255445112006679 0 -0.28572115891138339 0.097630102726522783 0 -0.27447437546997611 0.07408361296006713 0 -0.26656998734962772 0.10255445112006679 0 -0.27447437546997611 0.07408361296006713 0 -0.2495686801242398 0.087265410611016947 0 -0.27447437546997611 0.07408361296006713 0 -0.24668631091984261 0.064293202763862828 0 -0.27447437546997611 0.07408361296006713 0 -0.24668631091984261 0.064293202763862828 0 -0.2495686801242398 0.087265410611016947 0 -0.27447437546997611 0.07408361296006713 0 -0.26271753236154932 0.044364767317522487 0 -0.24668631091984261 0.064293202763862828 0 -0.26271753236154932 0.044364767317522487 0 -0.2672152718208281 0.020937870246160971 0 -0.2835107553079429 0.043786610682043439 0 -0.27447437546997611 0.07408361296006713 0 -0.26271753236154932 0.044364767317522487 0 -0.2835107553079429 0.043786610682043439 0 -0.27256492024186901 -0.011683114862415271 0 -0.2672152718208281 0.020937870246160971 0 -0.28763510092564448 0.01396908177017148 0 -0.27256492024186901 -0.011683114862415271 0 -0.2524730899657871 0.002620317666743947 0 -0.2672152718208281 0.020937870246160971 0 -0.2524730899657871 0.002620317666743947 0 -0.2672152718208281 0.020937870246160971 0 -0.24480270143120561 0.02233487227316935 0 -0.26271753236154932 0.044364767317522487 0 -0.2672152718208281 0.020937870246160971 0 -0.24480270143120561 0.02233487227316935 0 -0.2672152718208281 0.020937870246160971 0 -0.28763510092564448 0.01396908177017148 0 -0.2835107553079429 0.043786610682043439 0 -0.27256492024186901 -0.011683114862415271 0 -0.28763510092564448 0.01396908177017148 0 -0.31314961176658529 -0.0081441385305092706 0 -0.28763510092564448 0.01396908177017148 0 -0.31969460253400428 0.01770563413147689 0 -0.28763510092564448 0.01396908177017148 0 -0.31600973694813261 0.032392078055526713 0 -0.31969460253400428 0.01770563413147689 0 -0.28763510092564448 0.01396908177017148 0 -0.30270528160942012 0.039621278402758253 0 -0.28763510092564448 0.01396908177017148 0 -0.30270528160942012 0.039621278402758253 0 -0.31600973694813261 0.032392078055526713 0 -0.29907921172493279 0.064031126665179752 0 -0.27447437546997611 0.07408361296006713 0 -0.2835107553079429 0.043786610682043439 0 -0.29907921172493279 0.064031126665179752 0 -0.2835107553079429 0.043786610682043439 0 -0.30270528160942012 0.039621278402758253 0 -0.28763510092564448 0.01396908177017148 0 -0.2835107553079429 0.043786610682043439 0 -0.30270528160942012 0.039621278402758253 0 -0.29907921172493279 0.064031126665179752 0 -0.30270528160942012 0.039621278402758253 0 -0.31777546229319559 0.065273475035345002 0 -0.30270528160942012 0.039621278402758253 0 -0.31777546229319559 0.065273475035345002 0 -0.32219317418615218 0.047851641287924712 0 -0.33278458406884309 0.06940517945544919 0 -0.32219317418615218 0.047851641287924712 0 -0.31777546229319559 0.065273475035345002 0 -0.33278458406884309 0.06940517945544919 0 -0.32219317418615218 0.047851641287924712 0 -0.32623959330142321 0.043555406793463161 0 -0.33278458406884309 0.06940517945544919 0 -0.30270528160942012 0.039621278402758253 0 -0.32219317418615218 0.047851641287924712 0 -0.31777546229319559 0.065273475035345002 0 -0.30270528160942012 0.039621278402758253 0 -0.32219317418615218 0.047851641287924712 0 -0.31600973694813261 0.032392078055526713 0 -0.32219317418615218 0.047851641287924712 0 -0.31600973694813261 0.032392078055526713 0 -0.32623959330142321 0.043555406793463161 0 -0.32623959330142321 0.043555406793463161 0 -0.33783357645498818 0.040659493977433493 0 -0.33595161521413952 0.051419875148335993 0 -0.32623959330142321 0.043555406793463161 0 -0.33783357645498818 0.040659493977433493 0 -0.33853592606959992 0.02831862868904407 0 -0.33783357645498818 0.040659493977433493 0 -0.33853592606959992 0.02831862868904407 0 -0.35085670018041432 0.04056227251858982 0 -0.33783357645498818 0.040659493977433493 0 -0.33595161521413952 0.051419875148335993 0 -0.34344678179523258 0.04795257331868516 0 -0.34344678179523258 0.04795257331868516 0 -0.34118042989332492 0.057247962368863557 0 -0.34632293690551891 0.05532834718239614 0 -0.33595161521413952 0.051419875148335993 0 -0.34344678179523258 0.04795257331868516 0 -0.34118042989332492 0.057247962368863557 0 -0.33595161521413952 0.051419875148335993 0 -0.34118042989332492 0.057247962368863557 0 -0.33278458406884309 0.06940517945544919 0 -0.32623959330142321 0.043555406793463161 0 -0.33595161521413952 0.051419875148335993 0 -0.33278458406884309 0.06940517945544919 0 -0.32623959330142321 0.043555406793463161 0 -0.33278458406884309 0.06940517945544919 0 -0.31314961176658529 -0.0081441385305092706 0 -0.31969460253400428 0.01770563413147689 0 -0.33197932561975563 0.0039511476956397493 0 -0.31314961176658529 -0.0081441385305092706 0 -0.31969460253400428 0.01770563413147689 0 -0.32623959330142321 0.043555406793463161 0 -0.31969460253400428 0.01770563413147689 0 -0.31600973694813261 0.032392078055526713 0 -0.32623959330142321 0.043555406793463161 0 -0.31969460253400428 0.01770563413147689 0 -0.31969460253400428 0.01770563413147689 0 -0.33853592606959992 0.02831862868904407 0 -0.33340693887910688 0.016278260356625839 0 -0.32623959330142321 0.043555406793463161 0 -0.31969460253400428 0.01770563413147689 0 -0.33853592606959992 0.02831862868904407 0 -0.33853592606959992 0.02831862868904407 0 -0.33340693887910688 0.016278260356625839 0 -0.34341790129306787 0.015137630910342641 0 -0.31969460253400428 0.01770563413147689 0 -0.33340693887910688 0.016278260356625839 0 -0.33197932561975563 0.0039511476956397493 0 -0.33340693887910688 0.016278260356625839 0 -0.34341790129306787 0.015137630910342641 0 -0.33197932561975563 0.0039511476956397493 0 -0.34341790129306787 0.015137630910342641 0 -0.34364033572837438 0.0023346474945074719 0 -0.33197932561975563 0.0039511476956397493 0 -0.33806769043839408 -0.0052815962120841371 0 -0.34364033572837438 0.0023346474945074719 0 -0.33197932561975563 0.0039511476956397493 0 -0.34661561390107859 -0.010090426369404821 0 -0.35472683228226981 0.0066565317562330686 0 -0.35511398119079668 0.0092691537269610526 0 -0.34661561390107859 -0.010090426369404821 0 -0.34364033572837438 0.0023346474945074719 0 -0.35511398119079668 0.0092691537269610526 0 -0.35874072808383523 2.368727293597579e-05 0 -0.35472683228226981 0.0066565317562330686 0 -0.36440244299436342 0.0080534506019937172 0 -0.34341790129306787 0.015137630910342641 0 -0.34364033572837438 0.0023346474945074719 0 -0.35511398119079668 0.0092691537269610526 0 -0.35472683228226981 0.0066565317562330686 0 -0.35511398119079668 0.0092691537269610526 0 -0.36440244299436342 0.0080534506019937172 0 -0.35472683228226981 0.0066565317562330686 0 -0.35511398119079668 0.0092691537269610526 0 -0.34341790129306787 0.015137630910342641 0 -0.35511398119079668 0.0092691537269610526 0 -0.35808865444780141 0.029343333289066881 0 -0.35511398119079668 0.0092691537269610526 0 -0.35808865444780141 0.029343333289066881 0 -0.36186733233388968 0.024653525561733881 0 -0.33853592606959992 0.02831862868904407 0 -0.34341790129306787 0.015137630910342641 0 -0.35808865444780141 0.029343333289066881 0 -0.35511398119079668 0.0092691537269610526 0 -0.35808865444780141 0.029343333289066881 0 -0.35511398119079668 0.0092691537269610526 0 -0.36186733233388968 0.024653525561733881 0 -0.37997324745135203 0.025947958042830961 0 -0.37700050034496302 0.01357910260870961 0 -0.36186733233388968 0.024653525561733881 0 -0.37997324745135203 0.025947958042830961 0 -0.36186733233388968 0.024653525561733881 0 -0.3686206834769824 0.040037897396506802 0 -0.37700050034496302 0.01357910260870961 0 -0.36186733233388968 0.024653525561733881 0 -0.36440244299436342 0.0080534506019937172 0 -0.35511398119079668 0.0092691537269610526 0 -0.36186733233388968 0.024653525561733881 0 -0.36440244299436342 0.0080534506019937172 0 -0.37700050034496302 0.01357910260870961 0 -0.37845448083625521 0.0046526360579804086 0 -0.36440244299436342 0.0080534506019937172 0 -0.36704294731186271 -0.0046943202715755018 0 -0.37845448083625521 0.0046526360579804086 0 -0.36440244299436342 0.0080534506019937172 0 -0.36704294731186271 -0.0046943202715755018 0 -0.35874072808383523 2.368727293597579e-05 0 -0.36440244299436342 0.0080534506019937172 0 -0.36106332770480992 0.049417512851172053 0 -0.36453323108899732 0.072833685848757004 0 -0.34936918232790498 0.063931397073775348 0 -0.35167967381583948 0.049722213443588043 0 -0.36106332770480992 0.049417512851172053 0 -0.34936918232790498 0.063931397073775348 0 -0.36106332770480992 0.049417512851172053 0 -0.34936918232790498 0.063931397073775348 0 -0.34118042989332492 0.057247962368863557 0 -0.34632293690551891 0.05532834718239614 0 -0.34936918232790498 0.063931397073775348 0 -0.35167967381583948 0.049722213443588043 0 -0.34632293690551891 0.05532834718239614 0 -0.34936918232790498 0.063931397073775348 0 -0.34344678179523258 0.04795257331868516 0 -0.35167967381583948 0.049722213443588043 0 -0.34632293690551891 0.05532834718239614 0 -0.33853592606959992 0.02831862868904407 0 -0.35808865444780141 0.029343333289066881 0 -0.35085670018041432 0.04056227251858982 0 -0.34344678179523258 0.04795257331868516 0 -0.35167967381583948 0.049722213443588043 0 -0.35085670018041432 0.04056227251858982 0 -0.33783357645498818 0.040659493977433493 0 -0.34344678179523258 0.04795257331868516 0 -0.35085670018041432 0.04056227251858982 0 -0.35808865444780141 0.029343333289066881 0 -0.35085670018041432 0.04056227251858982 0 -0.36106332770480992 0.049417512851172053 0 -0.35167967381583948 0.049722213443588043 0 -0.35085670018041432 0.04056227251858982 0 -0.36106332770480992 0.049417512851172053 0 -0.3686206834769824 0.040037897396506802 0 -0.36106332770480992 0.049417512851172053 0 -0.35808865444780141 0.029343333289066881 0 -0.3686206834769824 0.040037897396506802 0 -0.36106332770480992 0.049417512851172053 0 -0.35808865444780141 0.029343333289066881 0 -0.36106332770480992 0.049417512851172053 0 -0.35808865444780141 0.029343333289066881 0 -0.36186733233388968 0.024653525561733881 0 -0.3686206834769824 0.040037897396506802 0 -0.36186733233388968 0.024653525561733881 0 -0.3686206834769824 0.040037897396506802 0 -0.37997324745135203 0.025947958042830961 0 -0.3686206834769824 0.040037897396506802 0 -0.37937571165769718 0.042400823377937782 0 -0.3686206834769824 0.040037897396506802 0 -0.37482735535405842 0.054176914602964747 0 -0.36106332770480992 0.049417512851172053 0 -0.37111499658023278 0.064037810781107221 0 -0.36453323108899732 0.072833685848757004 0 -0.3686206834769824 0.040037897396506802 0 -0.37482735535405842 0.054176914602964747 0 -0.36106332770480992 0.049417512851172053 0 -0.36453323108899732 0.072833685848757004 0 -0.3686206834769824 0.040037897396506802 0 -0.37482735535405842 0.054176914602964747 0 -0.36106332770480992 0.049417512851172053 0 -0.37482735535405842 0.054176914602964747 0 -0.36106332770480992 0.049417512851172053 0 -0.37111499658023278 0.064037810781107221 0 -0.37523743191216852 0.077938482474668502 0 -0.37111499658023278 0.064037810781107221 0 -0.36453323108899732 0.072833685848757004 0 -0.36453323108899732 0.072833685848757004 0 -0.35161929760174648 0.078105157304854747 0 -0.34936918232790498 0.063931397073775348 0 -0.35161929760174648 0.078105157304854747 0 -0.34936918232790498 0.063931397073775348 0 -0.33731405773028522 0.078622666505989564 0 -0.36453323108899732 0.072833685848757004 0 -0.35161929760174648 0.078105157304854747 0 -0.35550040774959363 0.088505145608280461 0 -0.35161929760174648 0.078105157304854747 0 -0.35550040774959363 0.088505145608280461 0 -0.34204365321762742 0.088247401832299205 0 -0.37523743191216852 0.077938482474668502 0 -0.36453323108899732 0.072833685848757004 0 -0.36800313447318611 0.096249858846341754 0 -0.37953623085406007 0.088693829425257234 0 -0.37523743191216852 0.077938482474668502 0 -0.36800313447318611 0.096249858846341754 0 -0.36453323108899732 0.072833685848757004 0 -0.35550040774959363 0.088505145608280461 0 -0.36800313447318611 0.096249858846341754 0 -0.36453323108899732 0.072833685848757004 0 -0.36800313447318611 0.096249858846341754 0 -0.37966223146468242 0.1027999454358668 0 -0.36800313447318611 0.096249858846341754 0 -0.3714730378573759 0.11966603184392639 0 -0.36800313447318611 0.096249858846341754 0 -0.3714730378573759 0.11966603184392639 0 -0.36800313447318611 0.096249858846341754 0 -0.36146406062307918 0.11356221558468869 0 -0.3513027223664108 0.10708962420914959 0 -0.36800313447318611 0.096249858846341754 0 -0.3714730378573759 0.11966603184392639 0 -0.36146406062307918 0.11356221558468869 0 -0.36056179151519407 0.12593184658600001 0 -0.37186965138911587 0.12234252454249191 0 -0.3714730378573759 0.11966603184392639 0 -0.37186965138911587 0.12234252454249191 0 -0.3714730378573759 0.11966603184392639 0 -0.36056179151519407 0.12593184658600001 0 -0.3714730378573759 0.11966603184392639 0 -0.36146406062307918 0.11356221558468869 0 -0.36056179151519407 0.12593184658600001 0 -0.37186965138911587 0.12234252454249191 0 -0.36056179151519407 0.12593184658600001 0 -0.3714730378573759 0.11966603184392639 0 -0.36056179151519407 0.12593184658600001 0 -0.3513027223664108 0.10708962420914959 0 -0.36056179151519407 0.12593184658600001 0 -0.36146406062307918 0.11356221558468869 0 -0.3513027223664108 0.10708962420914959 0 -0.36056179151519407 0.12593184658600001 0 -0.34654223540871221 0.1237417205043463 0 -0.3513027223664108 0.10708962420914959 0 -0.3513027223664108 0.10708962420914959 0 -0.34204365321762742 0.088247401832299205 0 -0.34654223540871221 0.1237417205043463 0 -0.3513027223664108 0.10708962420914959 0 -0.33966340973877718 0.096573449979897905 0 -0.35550040774959363 0.088505145608280461 0 -0.36800313447318611 0.096249858846341754 0 -0.3513027223664108 0.10708962420914959 0 -0.3513027223664108 0.10708962420914959 0 -0.33966340973877718 0.096573449979897905 0 -0.34204365321762742 0.088247401832299205 0 -0.35550040774959363 0.088505145608280461 0 -0.3513027223664108 0.10708962420914959 0 -0.34204365321762742 0.088247401832299205 0 -0.33966340973877718 0.096573449979897905 0 -0.33161034161413189 0.1058474493736201 0 -0.33551070641253278 0.11515342247429999 0 -0.33161034161413189 0.1058474493736201 0 -0.33177158930862261 0.099257313627644297 0 -0.3257621013113382 0.10094392180458341 0 -0.33177158930862261 0.099257313627644297 0 -0.3257621013113382 0.10094392180458341 0 -0.33005050457024349 0.09366443335247579 0 -0.33966340973877718 0.096573449979897905 0 -0.33177158930862261 0.099257313627644297 0 -0.33005050457024349 0.09366443335247579 0 -0.33966340973877718 0.096573449979897905 0 -0.33161034161413189 0.1058474493736201 0 -0.33177158930862261 0.099257313627644297 0 -0.34654223540871221 0.1237417205043463 0 -0.33966340973877718 0.096573449979897905 0 -0.34654223540871221 0.1237417205043463 0 -0.33966340973877718 0.096573449979897905 0 -0.33551070641253278 0.11515342247429999 0 -0.33386454596605392 0.1261601336156089 0 -0.34654223540871221 0.1237417205043463 0 -0.33551070641253278 0.11515342247429999 0 -0.33161034161413189 0.1058474493736201 0 -0.33551070641253278 0.11515342247429999 0 -0.32688125148364561 0.114547687702275 0 -0.33386454596605392 0.1261601336156089 0 -0.33551070641253278 0.11515342247429999 0 -0.32738278272788812 0.12237069330744289 0 -0.33551070641253278 0.11515342247429999 0 -0.32738278272788812 0.12237069330744289 0 -0.32688125148364561 0.114547687702275 0 -0.32380070494992602 0.12852288969592429 0 -0.32738278272788812 0.12237069330744289 0 -0.31609502722627969 0.12166860123308219 0 -0.32738278272788812 0.12237069330744289 0 -0.32688125148364561 0.114547687702275 0 -0.31609502722627969 0.12166860123308219 0 -0.33161034161413189 0.1058474493736201 0 -0.32688125148364561 0.114547687702275 0 -0.31848920349681331 0.1094619235774094 0 -0.32688125148364561 0.114547687702275 0 -0.31848920349681331 0.1094619235774094 0 -0.31609502722627969 0.12166860123308219 0 -0.3257621013113382 0.10094392180458341 0 -0.31555634003759131 0.097359099406934574 0 -0.33005050457024349 0.09366443335247579 0 -0.33161034161413189 0.1058474493736201 0 -0.31848920349681331 0.1094619235774094 0 -0.3257621013113382 0.10094392180458341 0 -0.31848920349681331 0.1094619235774094 0 -0.3257621013113382 0.10094392180458341 0 -0.31555634003759131 0.097359099406934574 0 -0.30226244002010971 0.083874023156271404 0 -0.31555634003759131 0.097359099406934574 0 -0.33005050457024349 0.09366443335247579 0 -0.30226244002010971 0.083874023156271404 0 -0.32090569118881312 0.079666296583938589 0 -0.33005050457024349 0.09366443335247579 0 -0.32090569118881312 0.079666296583938589 0 -0.33278458406884309 0.06940517945544919 0 -0.33005050457024349 0.09366443335247579 0 -0.30226244002010971 0.083874023156271404 0 -0.33005050457024349 0.09366443335247579 0 -0.31036105895695643 0.074169545424710714 0 -0.32090569118881312 0.079666296583938589 0 -0.31777546229319559 0.065273475035345002 0 -0.32090569118881312 0.079666296583938589 0 -0.31777546229319559 0.065273475035345002 0 -0.33278458406884309 0.06940517945544919 0 -0.34118042989332492 0.057247962368863557 0 -0.34936918232790498 0.063931397073775348 0 -0.33278458406884309 0.06940517945544919 0 -0.34936918232790498 0.063931397073775348 0 -0.33278458406884309 0.06940517945544919 0 -0.33731405773028522 0.078622666505989564 0 -0.33278458406884309 0.06940517945544919 0 -0.33731405773028522 0.078622666505989564 0 -0.34936918232790498 0.063931397073775348 0 -0.33731405773028522 0.078622666505989564 0 -0.33966340973877718 0.096573449979897905 0 -0.33278458406884309 0.06940517945544919 0 -0.33966340973877718 0.096573449979897905 0 -0.33278458406884309 0.06940517945544919 0 -0.33005050457024349 0.09366443335247579 0 -0.33966340973877718 0.096573449979897905 0 -0.33731405773028522 0.078622666505989564 0 -0.34204365321762742 0.088247401832299205 0 -0.33966340973877718 0.096573449979897905 0 -0.33278458406884309 0.06940517945544919 0 -0.33731405773028522 0.078622666505989564 0 -0.35161929760174648 0.078105157304854747 0 -0.33731405773028522 0.078622666505989564 0 -0.34204365321762742 0.088247401832299205 0 -0.33731405773028522 0.078622666505989564 0 -0.34204365321762742 0.088247401832299205 0 -0.40238286469040901 0.47663793499862123 0 -0.39121329185248183 0.46635761121431307 0 -0.41290573267449421 0.46473459016810009 0 -0.40238286469040901 0.47663793499862123 0 -0.40002569382721898 0.49132971719092561 0 -0.38941478022255549 0.48153494532181118 0 -0.40238286469040901 0.47663793499862123 0 -0.38941478022255549 0.48153494532181118 0 -0.39121329185248183 0.46635761121431307 0 -0.40238286469040901 0.47663793499862123 0 -0.40002569382721898 0.49132971719092561 0 -0.41502033478992451 0.48271894582609642 0 -0.38482779842745751 0.5 0 -0.38665123452756622 0.49723461666833102 0 -0.41181411260010697 0.49999999999999989 0 -0.40002569382721898 0.49132971719092561 0 -0.38665123452756622 0.49723461666833102 0 -0.41181411260010697 0.49999999999999989 0 -0.38665123452756622 0.49723461666833102 0 -0.41181411260010697 0.49999999999999989 0 -0.40002569382721898 0.49132971719092561 0 -0.39035096104677292 0.4897735438020891 0 -0.38665123452756622 0.49723461666833102 0 -0.40002569382721898 0.49132971719092561 0 -0.39035096104677292 0.4897735438020891 0 -0.38941478022255549 0.48153494532181118 0 -0.38460179781997678 0.48806751274411758 0 -0.39035096104677292 0.4897735438020891 0 -0.38665123452756622 0.49723461666833102 0 -0.38482779842745751 0.5 0 -0.38665123452756622 0.49723461666833102 0 -0.36148835645502531 0.49446923333666221 0 -0.38460179781997678 0.48806751274411758 0 -0.39035096104677292 0.4897735438020891 0 -0.38941478022255549 0.48153494532181118 0 -0.38665123452756622 0.49723461666833102 0 -0.37638951432927531 0.48840212903384927 0 -0.369152346519662 0.48948878099050602 0 -0.38460179781997678 0.48806751274411758 0 -0.37638951432927531 0.48840212903384927 0 -0.37975853785510572 0.48281271434252571 0 -0.38460179781997678 0.48806751274411758 0 -0.38665123452756622 0.49723461666833102 0 -0.37638951432927531 0.48840212903384927 0 -0.37975853785510572 0.48281271434252571 0 -0.38941478022255549 0.48153494532181118 0 -0.37796734355910272 0.47293612834561438 0 -0.37638951432927531 0.48840212903384927 0 -0.37975853785510572 0.48281271434252571 0 -0.37225706123870639 0.48100674866295301 0 -0.37975853785510572 0.48281271434252571 0 -0.37796734355910272 0.47293612834561438 0 -0.37225706123870639 0.48100674866295301 0 -0.38460179781997678 0.48806751274411758 0 -0.37975853785510572 0.48281271434252571 0 -0.38941478022255549 0.48153494532181118 0 -0.38941478022255549 0.48153494532181118 0 -0.37796734355910272 0.47293612834561438 0 -0.39121329185248183 0.46635761121431307 0 -0.37796734355910272 0.47293612834561438 0 -0.38121719652013158 0.46286071326470951 0 -0.37233533601448809 0.46031367839212439 0 -0.38121719652013158 0.46286071326470951 0 -0.38335281465445409 0.45183543510678598 0 -0.37233533601448809 0.46031367839212439 0 -0.38121719652013158 0.46286071326470951 0 -0.38335281465445409 0.45183543510678598 0 -0.39121329185248183 0.46635761121431307 0 -0.37796734355910272 0.47293612834561438 0 -0.38121719652013158 0.46286071326470951 0 -0.39121329185248183 0.46635761121431307 0 -0.38335281465445409 0.45183543510678598 0 -0.39103453089599088 0.43883790537951589 0 -0.37725777757625412 0.43344442267531541 0 -0.38335281465445409 0.45183543510678598 0 -0.37725777757625412 0.43344442267531541 0 -0.36972833167532548 0.44672894741451702 0 -0.38335281465445409 0.45183543510678598 0 -0.36972833167532548 0.44672894741451702 0 -0.37233533601448809 0.46031367839212439 0 -0.39942086103592522 0.44998897885654848 0 -0.4149860164551763 0.4457162658260363 0 -0.40351341848830419 0.43339111409957931 0 -0.38335281465445409 0.45183543510678598 0 -0.39942086103592522 0.44998897885654848 0 -0.39103453089599088 0.43883790537951589 0 -0.39942086103592522 0.44998897885654848 0 -0.39103453089599088 0.43883790537951589 0 -0.40351341848830419 0.43339111409957931 0 -0.39942086103592522 0.44998897885654848 0 -0.39121329185248183 0.46635761121431307 0 -0.41290573267449421 0.46473459016810009 0 -0.38335281465445409 0.45183543510678598 0 -0.39942086103592522 0.44998897885654848 0 -0.39121329185248183 0.46635761121431307 0 -0.41290573267449421 0.46473459016810009 0 -0.4149860164551763 0.4457162658260363 0 -0.42615682922371378 0.45396674949329868 0 -0.39942086103592522 0.44998897885654848 0 -0.41290573267449421 0.46473459016810009 0 -0.4149860164551763 0.4457162658260363 0 -0.4149860164551763 0.4457162658260363 0 -0.41458667353850892 0.43357726507732031 0 -0.40351341848830419 0.43339111409957931 0 -0.4149860164551763 0.4457162658260363 0 -0.42615682922371378 0.45396674949329868 0 -0.42813208308547179 0.43132225407126101 0 -0.44169183222861957 0.45376631595447992 0 -0.42813208308547179 0.43132225407126101 0 -0.42615682922371378 0.45396674949329868 0 -0.44169183222861957 0.45376631595447992 0 -0.42813208308547179 0.43132225407126101 0 -0.41290573267449421 0.46473459016810009 0 -0.42615682922371378 0.45396674949329868 0 -0.43306848167480733 0.47429432144661599 0 -0.42615682922371378 0.45396674949329868 0 -0.43306848167480733 0.47429432144661599 0 -0.44169183222861957 0.45376631595447992 0 -0.43306848167480733 0.47429432144661599 0 -0.41502033478992451 0.48271894582609642 0 -0.42884546134313412 0.48826105120495672 0 -0.43306848167480733 0.47429432144661599 0 -0.42884546134313412 0.48826105120495672 0 -0.44364274751061461 0.48599599999203441 0 -0.40238286469040901 0.47663793499862123 0 -0.41290573267449421 0.46473459016810009 0 -0.41502033478992451 0.48271894582609642 0 -0.41290573267449421 0.46473459016810009 0 -0.43306848167480733 0.47429432144661599 0 -0.41502033478992451 0.48271894582609642 0 -0.41502033478992451 0.48271894582609642 0 -0.41181411260010697 0.49999999999999989 0 -0.42884546134313412 0.48826105120495672 0 -0.40002569382721898 0.49132971719092561 0 -0.41502033478992451 0.48271894582609642 0 -0.41181411260010697 0.49999999999999989 0 -0.41181411260010697 0.49999999999999989 0 -0.42884546134313412 0.48826105120495672 0 -0.44094514135121682 0.49999999999999978 0 -0.44094514135121682 0.49999999999999978 0 -0.44364274751061461 0.48599599999203441 0 -0.46063009423414591 0.49462227195082692 0 -0.44094514135121682 0.49999999999999978 0 -0.46063009423414591 0.49462227195082692 0 -0.5 0.5 0 -0.44094514135121682 0.49999999999999978 0 -0.46063009423414591 0.49462227195082692 0 -0.42884546134313412 0.48826105120495672 0 -0.44094514135121682 0.49999999999999978 0 -0.44364274751061461 0.48599599999203441 0 -0.43306848167480733 0.47429432144661599 0 -0.44364274751061461 0.48599599999203441 0 -0.45525158137176752 0.47621037783769871 0 -0.45525158137176752 0.47621037783769871 0 -0.47223173932012408 0.47178945836549763 0 -0.45819400091953449 0.45905981736975582 0 -0.45525158137176752 0.47621037783769871 0 -0.46710711551077821 0.48296666301391938 0 -0.47223173932012408 0.47178945836549763 0 -0.44364274751061461 0.48599599999203441 0 -0.45525158137176752 0.47621037783769871 0 -0.46063009423414591 0.49462227195082692 0 -0.45525158137176752 0.47621037783769871 0 -0.46710711551077821 0.48296666301391938 0 -0.46063009423414591 0.49462227195082692 0 -0.46063009423414591 0.49462227195082692 0 -0.48031504711707512 0.48924454390165428 0 -0.46710711551077821 0.48296666301391938 0 -0.46063009423414591 0.49462227195082692 0 -0.48031504711707512 0.48924454390165428 0 -0.46063009423414591 0.49462227195082692 0 -0.48031504711707512 0.48924454390165428 0 -0.5 0.5 0 -0.46710711551077821 0.48296666301391938 0 -0.48031504711707512 0.48924454390165428 0 -0.47223173932012408 0.47178945836549763 0 -0.48031504711707512 0.48924454390165428 0 -0.47223173932012408 0.47178945836549763 0 -0.48623220906158382 0.47160715716200019 0 -0.500000000000004 0.4838668158524807 0 -0.48623220906158382 0.47160715716200019 0 -0.5 0.45614022371268748 0 -0.48031504711707512 0.48924454390165428 0 -0.500000000000004 0.4838668158524807 0 -0.48623220906158382 0.47160715716200019 0 -0.48031504711707512 0.48924454390165428 0 -0.500000000000004 0.4838668158524807 0 -0.48031504711707512 0.48924454390165428 0 -0.500000000000004 0.4838668158524807 0 -0.5 0.5 0 -0.4848352729932553 0.43955590582223952 0 -0.5 0.45614022371268748 0 -0.5 0.42841363157289442 0 -0.4848352729932553 0.43955590582223952 0 -0.5 0.45614022371268748 0 -0.47861425887071929 0.45699474397768097 0 -0.48623220906158382 0.47160715716200019 0 -0.5 0.45614022371268748 0 -0.47861425887071929 0.45699474397768097 0 -0.47223173932012408 0.47178945836549763 0 -0.47861425887071929 0.45699474397768097 0 -0.45819400091953449 0.45905981736975582 0 -0.47223173932012408 0.47178945836549763 0 -0.48623220906158382 0.47160715716200019 0 -0.47861425887071929 0.45699474397768097 0 -0.4848352729932553 0.43955590582223952 0 -0.47861425887071929 0.45699474397768097 0 -0.46756990009417942 0.43815016340063118 0 -0.47861425887071929 0.45699474397768097 0 -0.46756990009417942 0.43815016340063118 0 -0.45819400091953449 0.45905981736975582 0 -0.46756990009417942 0.43815016340063118 0 -0.45819400091953449 0.45905981736975582 0 -0.44563677248474343 0.43280907221520509 0 -0.45525158137176752 0.47621037783769871 0 -0.45819400091953449 0.45905981736975582 0 -0.44169183222861957 0.45376631595447992 0 -0.45525158137176752 0.47621037783769871 0 -0.44169183222861957 0.45376631595447992 0 -0.43306848167480733 0.47429432144661599 0 -0.45525158137176752 0.47621037783769871 0 -0.44169183222861957 0.45376631595447992 0 -0.44169183222861957 0.45376631595447992 0 -0.44563677248474343 0.43280907221520509 0 -0.42813208308547179 0.43132225407126101 0 -0.45819400091953449 0.45905981736975582 0 -0.44169183222861957 0.45376631595447992 0 -0.44563677248474343 0.43280907221520509 0 -0.45819400091953449 0.45905981736975582 0 -0.44563677248474343 0.43280907221520509 0 -0.44563677248474343 0.43280907221520509 0 -0.4537544324387488 0.41373360287049532 0 -0.4595697764005463 0.42612631956542618 0 -0.44563677248474343 0.43280907221520509 0 -0.43307954404995219 0.40655832706065448 0 -0.44563677248474343 0.43280907221520509 0 -0.4537544324387488 0.41373360287049532 0 -0.43307954404995219 0.40655832706065448 0 -0.4537544324387488 0.41373360287049532 0 -0.4595697764005463 0.42612631956542618 0 -0.4751104783315766 0.41655958553576411 0 -0.4537544324387488 0.41373360287049532 0 -0.4751104783315766 0.41655958553576411 0 -0.46369856168449142 0.40066943618775802 0 -0.46756990009417942 0.43815016340063118 0 -0.4595697764005463 0.42612631956542618 0 -0.4751104783315766 0.41655958553576411 0 -0.46756990009417942 0.43815016340063118 0 -0.44563677248474343 0.43280907221520509 0 -0.4595697764005463 0.42612631956542618 0 -0.4848352729932553 0.43955590582223952 0 -0.46756990009417942 0.43815016340063118 0 -0.4751104783315766 0.41655958553576411 0 -0.4751104783315766 0.41655958553576411 0 -0.5 0.42841363157289442 0 -0.5 0.40068703943310108 0 -0.4848352729932553 0.43955590582223952 0 -0.4751104783315766 0.41655958553576411 0 -0.5 0.42841363157289442 0 -0.5 0.40068703943310108 0 -0.48056625429294392 0.39007739280928871 0 -0.5 0.37296044729330791 0 -0.48056625429294392 0.39007739280928871 0 -0.48278279059743462 0.36573341856167452 0 -0.5 0.37296044729330791 0 -0.4751104783315766 0.41655958553576411 0 -0.5 0.40068703943310108 0 -0.48056625429294392 0.39007739280928871 0 -0.4751104783315766 0.41655958553576411 0 -0.48056625429294392 0.39007739280928871 0 -0.46369856168449142 0.40066943618775802 0 -0.48056625429294392 0.39007739280928871 0 -0.46305513385887159 0.38235965462319171 0 -0.46369856168449142 0.40066943618775802 0 -0.48056625429294392 0.39007739280928871 0 -0.46305513385887159 0.38235965462319171 0 -0.48278279059743462 0.36573341856167452 0 -0.4537544324387488 0.41373360287049532 0 -0.46369856168449142 0.40066943618775802 0 -0.44850538692973779 0.39762739465818031 0 -0.46305513385887159 0.38235965462319171 0 -0.46369856168449142 0.40066943618775802 0 -0.44850538692973779 0.39762739465818031 0 -0.4537544324387488 0.41373360287049532 0 -0.44850538692973779 0.39762739465818031 0 -0.43307954404995219 0.40655832706065448 0 -0.44850538692973779 0.39762739465818031 0 -0.44135762672262829 0.3825327620140726 0 -0.43307954404995219 0.40655832706065448 0 -0.46305513385887159 0.38235965462319171 0 -0.44850538692973779 0.39762739465818031 0 -0.44135762672262829 0.3825327620140726 0 -0.46305513385887159 0.38235965462319171 0 -0.44135762672262829 0.3825327620140726 0 -0.44923032442813893 0.36645196570045319 0 -0.44135762672262829 0.3825327620140726 0 -0.42052231561516112 0.38030758190610392 0 -0.43307954404995219 0.40655832706065448 0 -0.42052231561516112 0.38030758190610392 0 -0.40101258479917612 0.38643413030482332 0 -0.40296808621962638 0.37070139713490941 0 -0.42052231561516112 0.38030758190610392 0 -0.41457233394232401 0.40887819218804222 0 -0.40101258479917612 0.38643413030482332 0 -0.41457233394232401 0.40887819218804222 0 -0.40101258479917612 0.38643413030482332 0 -0.42052231561516112 0.38030758190610392 0 -0.43307954404995219 0.40655832706065448 0 -0.42052231561516112 0.38030758190610392 0 -0.43307954404995219 0.40655832706065448 0 -0.41457233394232401 0.40887819218804222 0 -0.43307954404995219 0.40655832706065448 0 -0.42813208308547179 0.43132225407126101 0 -0.41457233394232401 0.40887819218804222 0 -0.44563677248474343 0.43280907221520509 0 -0.43307954404995219 0.40655832706065448 0 -0.42813208308547179 0.43132225407126101 0 -0.42813208308547179 0.43132225407126101 0 -0.41458667353850892 0.43357726507732031 0 -0.41171517612508318 0.42387942631240438 0 -0.4149860164551763 0.4457162658260363 0 -0.42813208308547179 0.43132225407126101 0 -0.41458667353850892 0.43357726507732031 0 -0.41458667353850892 0.43357726507732031 0 -0.41171517612508318 0.42387942631240438 0 -0.40351341848830419 0.43339111409957931 0 -0.42813208308547179 0.43132225407126101 0 -0.41457233394232401 0.40887819218804222 0 -0.41171517612508318 0.42387942631240438 0 -0.41457233394232401 0.40887819218804222 0 -0.39870929055914461 0.41719170425641661 0 -0.42813208308547179 0.43132225407126101 0 -0.41171517612508318 0.42387942631240438 0 -0.41457233394232401 0.40887819218804222 0 -0.39870929055914461 0.41719170425641661 0 -0.39107883642827018 0.42683645631403172 0 -0.38224422239727329 0.41759015990180209 0 -0.41457233394232401 0.40887819218804222 0 -0.39870929055914461 0.41719170425641661 0 -0.38861173365081991 0.40007655122806168 0 -0.39870929055914461 0.41719170425641661 0 -0.40351341848830419 0.43339111409957931 0 -0.39107883642827018 0.42683645631403172 0 -0.41171517612508318 0.42387942631240438 0 -0.39870929055914461 0.41719170425641661 0 -0.40351341848830419 0.43339111409957931 0 -0.39103453089599088 0.43883790537951589 0 -0.40351341848830419 0.43339111409957931 0 -0.39107883642827018 0.42683645631403172 0 -0.39107883642827018 0.42683645631403172 0 -0.37725777757625412 0.43344442267531541 0 -0.38224422239727329 0.41759015990180209 0 -0.39103453089599088 0.43883790537951589 0 -0.39107883642827018 0.42683645631403172 0 -0.37725777757625412 0.43344442267531541 0 -0.39870929055914461 0.41719170425641661 0 -0.38224422239727329 0.41759015990180209 0 -0.38861173365081991 0.40007655122806168 0 -0.38224422239727329 0.41759015990180209 0 -0.38861173365081991 0.40007655122806168 0 -0.37262694462895762 0.40953714644184108 0 -0.38861173365081991 0.40007655122806168 0 -0.37972885165370901 0.38715201548729872 0 -0.37131714700829549 0.39748888062532062 0 -0.38861173365081991 0.40007655122806168 0 -0.37131714700829549 0.39748888062532062 0 -0.37262694462895762 0.40953714644184108 0 -0.38861173365081991 0.40007655122806168 0 -0.37972885165370901 0.38715201548729872 0 -0.40101258479917612 0.38643413030482332 0 -0.37972885165370901 0.38715201548729872 0 -0.40101258479917612 0.38643413030482332 0 -0.38473487600604839 0.37291704145495369 0 -0.37972885165370901 0.38715201548729872 0 -0.38473487600604839 0.37291704145495369 0 -0.3699864109590707 0.37741506647222678 0 -0.40101258479917612 0.38643413030482332 0 -0.40296808621962638 0.37070139713490941 0 -0.38473487600604839 0.37291704145495369 0 -0.41457233394232401 0.40887819218804222 0 -0.38861173365081991 0.40007655122806168 0 -0.40101258479917612 0.38643413030482332 0 -0.40321910070300909 0.35658891413923199 0 -0.39234029174566531 0.36237875355477789 0 -0.39027275342375362 0.35091256228140039 0 -0.40124670150395803 0.345450897887567 0 -0.39027275342375362 0.35091256228140039 0 -0.38817416787512771 0.33739688933664991 0 -0.40124670150395803 0.345450897887567 0 -0.40321910070300909 0.35658891413923199 0 -0.39027275342375362 0.35091256228140039 0 -0.40124670150395803 0.345450897887567 0 -0.40321910070300909 0.35658891413923199 0 -0.41270085997702938 0.34862770755649169 0 -0.40296808621962638 0.37070139713490941 0 -0.39234029174566531 0.36237875355477789 0 -0.38473487600604839 0.37291704145495369 0 -0.40321910070300909 0.35658891413923199 0 -0.40296808621962638 0.37070139713490941 0 -0.39234029174566531 0.36237875355477789 0 -0.39234029174566531 0.36237875355477789 0 -0.38473487600604839 0.37291704145495369 0 -0.38092249945398943 0.35886446663359478 0 -0.38473487600604839 0.37291704145495369 0 -0.38092249945398943 0.35886446663359478 0 -0.36968375071915682 0.36508379924367751 0 -0.38092249945398943 0.35886446663359478 0 -0.3785908648924512 0.34815308868201028 0 -0.3689187022479119 0.3525043622488932 0 -0.38092249945398943 0.35886446663359478 0 -0.39027275342375362 0.35091256228140039 0 -0.3785908648924512 0.34815308868201028 0 -0.39234029174566531 0.36237875355477789 0 -0.38092249945398943 0.35886446663359478 0 -0.39027275342375362 0.35091256228140039 0 -0.39027275342375362 0.35091256228140039 0 -0.3785908648924512 0.34815308868201028 0 -0.38817416787512771 0.33739688933664991 0 -0.37892072672623811 0.33022566068961989 0 -0.38817416787512771 0.33739688933664991 0 -0.36466620146147338 0.34108716290951352 0 -0.3785908648924512 0.34815308868201028 0 -0.38817416787512771 0.33739688933664991 0 -0.36466620146147338 0.34108716290951352 0 -0.37892072672623811 0.33022566068961989 0 -0.38817416787512771 0.33739688933664991 0 -0.39968353259923151 0.32340567593245501 0 -0.38817416787512771 0.33739688933664991 0 -0.36466620146147338 0.34108716290951352 0 -0.39968353259923151 0.32340567593245501 0 -0.38530255797231072 0.30940268968826812 0 -0.37319216171912978 0.31910727167416209 0 -0.37892072672623811 0.33022566068961989 0 -0.39968353259923151 0.32340567593245501 0 -0.37319216171912978 0.31910727167416209 0 -0.39968353259923151 0.32340567593245501 0 -0.37319216171912978 0.31910727167416209 0 -0.38530255797231072 0.30940268968826812 0 -0.37319216171912978 0.31910727167416209 0 -0.39968353259923151 0.32340567593245501 0 -0.39840838968348408 0.30968419609546632 0 -0.38530255797231072 0.30940268968826812 0 -0.39968353259923151 0.32340567593245501 0 -0.40792902660412528 0.31065345283635731 0 -0.39840838968348408 0.30968419609546632 0 -0.38817416787512771 0.33739688933664991 0 -0.41168213428878192 0.33370661576378641 0 -0.40124670150395803 0.345450897887567 0 -0.38817416787512771 0.33739688933664991 0 -0.41168213428878192 0.33370661576378641 0 -0.38817416787512771 0.33739688933664991 0 -0.39968353259923151 0.32340567593245501 0 -0.41168213428878192 0.33370661576378641 0 -0.41168213428878192 0.33370661576378641 0 -0.42617490347933301 0.32770408019074843 0 -0.42541792936357442 0.34556371995185969 0 -0.40124670150395803 0.345450897887567 0 -0.41168213428878192 0.33370661576378641 0 -0.41270085997702938 0.34862770755649169 0 -0.39968353259923151 0.32340567593245501 0 -0.41168213428878192 0.33370661576378641 0 -0.42617490347933301 0.32770408019074843 0 -0.41168213428878192 0.33370661576378641 0 -0.42541792936357442 0.34556371995185969 0 -0.41270085997702938 0.34862770755649169 0 -0.39968353259923151 0.32340567593245501 0 -0.42617490347933301 0.32770408019074843 0 -0.40792902660412528 0.31065345283635731 0 -0.42617490347933301 0.32770408019074843 0 -0.42347662150082849 0.31322924932934848 0 -0.40792902660412528 0.31065345283635731 0 -0.39968353259923151 0.32340567593245501 0 -0.42617490347933301 0.32770408019074843 0 -0.42617490347933301 0.32770408019074843 0 -0.42347662150082849 0.31322924932934848 0 -0.44063576107961322 0.32084085729332301 0 -0.42347662150082849 0.31322924932934848 0 -0.44063576107961322 0.32084085729332301 0 -0.43637005683862973 0.30616198295830788 0 -0.42617490347933301 0.32770408019074843 0 -0.43690028815217968 0.33801225273121949 0 -0.42541792936357442 0.34556371995185969 0 -0.43690028815217968 0.33801225273121949 0 -0.42541792936357442 0.34556371995185969 0 -0.44334204540637667 0.34677872633322859 0 -0.42541792936357442 0.34556371995185969 0 -0.41650184102963272 0.36089390307479902 0 -0.43401781645331888 0.36155496821741617 0 -0.42541792936357442 0.34556371995185969 0 -0.43401781645331888 0.36155496821741617 0 -0.44334204540637667 0.34677872633322859 0 -0.42541792936357442 0.34556371995185969 0 -0.41270085997702938 0.34862770755649169 0 -0.41650184102963272 0.36089390307479902 0 -0.40321910070300909 0.35658891413923199 0 -0.41270085997702938 0.34862770755649169 0 -0.41650184102963272 0.36089390307479902 0 -0.42052231561516112 0.38030758190610392 0 -0.40296808621962638 0.37070139713490941 0 -0.41650184102963272 0.36089390307479902 0 -0.40321910070300909 0.35658891413923199 0 -0.40296808621962638 0.37070139713490941 0 -0.41650184102963272 0.36089390307479902 0 -0.42052231561516112 0.38030758190610392 0 -0.41650184102963272 0.36089390307479902 0 -0.43401781645331888 0.36155496821741617 0 -0.44135762672262829 0.3825327620140726 0 -0.42052231561516112 0.38030758190610392 0 -0.43401781645331888 0.36155496821741617 0 -0.44135762672262829 0.3825327620140726 0 -0.43401781645331888 0.36155496821741617 0 -0.44923032442813893 0.36645196570045319 0 -0.43401781645331888 0.36155496821741617 0 -0.44923032442813893 0.36645196570045319 0 -0.44334204540637667 0.34677872633322859 0 -0.44923032442813893 0.36645196570045319 0 -0.44334204540637667 0.34677872633322859 0 -0.46437899969949897 0.35903371731435701 0 -0.43401781645331888 0.36155496821741617 0 -0.44334204540637667 0.34677872633322859 0 -0.44334204540637667 0.34677872633322859 0 -0.4622325354213882 0.34415435404541178 0 -0.46437899969949897 0.35903371731435701 0 -0.46305513385887159 0.38235965462319171 0 -0.44923032442813893 0.36645196570045319 0 -0.46437899969949897 0.35903371731435701 0 -0.46305513385887159 0.38235965462319171 0 -0.46437899969949897 0.35903371731435701 0 -0.48278279059743462 0.36573341856167452 0 -0.4622325354213882 0.34415435404541178 0 -0.46437899969949897 0.35903371731435701 0 -0.48470194100963082 0.34789264333502717 0 -0.46437899969949897 0.35903371731435701 0 -0.48278279059743462 0.36573341856167452 0 -0.48470194100963082 0.34789264333502717 0 -0.48278279059743462 0.36573341856167452 0 -0.48470194100963082 0.34789264333502717 0 -0.5 0.34523385515351468 0 -0.48470194100963082 0.34789264333502717 0 -0.5 0.34523385515351468 0 -0.49763432548334507 0.3392988551545445 0 -0.48278279059743462 0.36573341856167452 0 -0.5 0.34523385515351468 0 -0.5 0.37296044729330791 0 -0.5 0.31750726301372151 0 -0.48805342818389608 0.32703708996639008 0 -0.48753107233041731 0.31047294152006072 0 -0.5 0.31750726301372151 0 -0.48805342818389608 0.32703708996639008 0 -0.49763432548334507 0.3392988551545445 0 -0.48805342818389608 0.32703708996639008 0 -0.47928126988460651 0.3150912355484205 0 -0.48753107233041731 0.31047294152006072 0 -0.48470194100963082 0.34789264333502717 0 -0.49763432548334507 0.3392988551545445 0 -0.47515029992138991 0.3356506698017932 0 -0.5 0.34523385515351468 0 -0.5 0.31750726301372151 0 -0.49763432548334507 0.3392988551545445 0 -0.48805342818389608 0.32703708996639008 0 -0.49763432548334507 0.3392988551545445 0 -0.47515029992138991 0.3356506698017932 0 -0.49763432548334507 0.3392988551545445 0 -0.47515029992138991 0.3356506698017932 0 -0.4622325354213882 0.34415435404541178 0 -0.48470194100963082 0.34789264333502717 0 -0.47515029992138991 0.3356506698017932 0 -0.48805342818389608 0.32703708996639008 0 -0.47928126988460651 0.3150912355484205 0 -0.46235058519592281 0.31665561554202248 0 -0.48805342818389608 0.32703708996639008 0 -0.47515029992138991 0.3356506698017932 0 -0.46235058519592281 0.31665561554202248 0 -0.47928126988460651 0.3150912355484205 0 -0.46235058519592281 0.31665561554202248 0 -0.47433355216015999 0.3092895033873172 0 -0.48805342818389608 0.32703708996639008 0 -0.46235058519592281 0.31665561554202248 0 -0.47515029992138991 0.3356506698017932 0 -0.46235058519592281 0.31665561554202248 0 -0.45266627435943468 0.33200248444904112 0 -0.46235058519592281 0.31665561554202248 0 -0.45266627435943468 0.33200248444904112 0 -0.47515029992138991 0.3356506698017932 0 -0.45266627435943468 0.33200248444904112 0 -0.4622325354213882 0.34415435404541178 0 -0.47515029992138991 0.3356506698017932 0 -0.45266627435943468 0.33200248444904112 0 -0.42617490347933301 0.32770408019074843 0 -0.43690028815217968 0.33801225273121949 0 -0.45266627435943468 0.33200248444904112 0 -0.42617490347933301 0.32770408019074843 0 -0.45266627435943468 0.33200248444904112 0 -0.43690028815217968 0.33801225273121949 0 -0.44334204540637667 0.34677872633322859 0 -0.45266627435943468 0.33200248444904112 0 -0.44334204540637667 0.34677872633322859 0 -0.4622325354213882 0.34415435404541178 0 -0.45266627435943468 0.33200248444904112 0 -0.44334204540637667 0.34677872633322859 0 -0.45266627435943468 0.33200248444904112 0 -0.46235058519592281 0.31665561554202248 0 -0.45266627435943468 0.33200248444904112 0 -0.44063576107961322 0.32084085729332301 0 -0.46235058519592281 0.31665561554202248 0 -0.44063576107961322 0.32084085729332301 0 -0.43637005683862973 0.30616198295830788 0 -0.42617490347933301 0.32770408019074843 0 -0.45266627435943468 0.33200248444904112 0 -0.44063576107961322 0.32084085729332301 0 -0.46235058519592281 0.31665561554202248 0 -0.46002150126415031 0.30331858147678742 0 -0.43637005683862973 0.30616198295830788 0 -0.46235058519592281 0.31665561554202248 0 -0.43637005683862973 0.30616198295830788 0 -0.44887314784765647 0.29563643817433388 0 -0.46002150126415031 0.30331858147678742 0 -0.43637005683862973 0.30616198295830788 0 -0.438717785400558 0.28201471197966621 0 -0.44887314784765647 0.29563643817433388 0 -0.4538637612119138 0.28378291366510311 0 -0.44887314784765647 0.29563643817433388 0 -0.46321320378472408 0.28730562278876021 0 -0.47306240108016528 0.29968044437008817 0 -0.4538637612119138 0.28378291366510311 0 -0.46321320378472408 0.28730562278876021 0 -0.46326484923437738 0.2756266064169251 0 -0.44887314784765647 0.29563643817433388 0 -0.4538637612119138 0.28378291366510311 0 -0.46321320378472408 0.28730562278876021 0 -0.46235058519592281 0.31665561554202248 0 -0.47306240108016528 0.29968044437008817 0 -0.44887314784765647 0.29563643817433388 0 -0.46002150126415031 0.30331858147678742 0 -0.47306240108016528 0.29968044437008817 0 -0.46235058519592281 0.31665561554202248 0 -0.46002150126415031 0.30331858147678742 0 -0.47306240108016528 0.29968044437008817 0 -0.44887314784765647 0.29563643817433388 0 -0.47306240108016528 0.29968044437008817 0 -0.46235058519592281 0.31665561554202248 0 -0.47433355216015999 0.3092895033873172 0 -0.47306240108016528 0.29968044437008817 0 -0.47928126988460651 0.3150912355484205 0 -0.48087793267422241 0.30786934280627459 0 -0.48753107233041731 0.31047294152006072 0 -0.47433355216015999 0.3092895033873172 0 -0.48087793267422241 0.30786934280627459 0 -0.4773591851783005 0.3003987890559548 0 -0.47928126988460651 0.3150912355484205 0 -0.47433355216015999 0.3092895033873172 0 -0.48087793267422241 0.30786934280627459 0 -0.48087793267422241 0.30786934280627459 0 -0.48379091691715959 0.30275980316689027 0 -0.48753107233041731 0.31047294152006072 0 -0.4773591851783005 0.3003987890559548 0 -0.47306240108016528 0.29968044437008817 0 -0.48366729090925481 0.29413640054592127 0 -0.48379091691715959 0.30275980316689027 0 -0.4773591851783005 0.3003987890559548 0 -0.48366729090925481 0.29413640054592127 0 -0.48087793267422241 0.30786934280627459 0 -0.48379091691715959 0.30275980316689027 0 -0.4773591851783005 0.3003987890559548 0 -0.47433355216015999 0.3092895033873172 0 -0.4773591851783005 0.3003987890559548 0 -0.47306240108016528 0.29968044437008817 0 -0.4773591851783005 0.3003987890559548 0 -0.47306240108016528 0.29968044437008817 0 -0.46321320378472408 0.28730562278876021 0 -0.47306240108016528 0.29968044437008817 0 -0.47318149445830732 0.28056061607353011 0 -0.47306240108016528 0.29968044437008817 0 -0.48366729090925481 0.29413640054592127 0 -0.4886319823727151 0.27500710136527201 0 -0.47306240108016528 0.29968044437008817 0 -0.4886319823727151 0.27500710136527201 0 -0.47318149445830732 0.28056061607353011 0 -0.47306240108016528 0.29968044437008817 0 -0.4886319823727151 0.27500710136527201 0 -0.48366729090925481 0.29413640054592127 0 -0.5 0.28978067087392823 0 -0.4886319823727151 0.27500710136527201 0 -0.48366729090925481 0.29413640054592127 0 -0.5 0.28978067087392823 0 -0.49061376152259861 0.30131566146064048 0 -0.5 0.31750726301372151 0 -0.5 0.28978067087392823 0 -0.49061376152259861 0.30131566146064048 0 -0.5 0.31750726301372151 0 -0.48753107233041731 0.31047294152006072 0 -0.49061376152259861 0.30131566146064048 0 -0.48379091691715959 0.30275980316689027 0 -0.48753107233041731 0.31047294152006072 0 -0.49061376152259861 0.30131566146064048 0 -0.48379091691715959 0.30275980316689027 0 -0.48366729090925481 0.29413640054592127 0 -0.49061376152259861 0.30131566146064048 0 -0.48629441403109691 0.2495838039864175 0 -0.5 0.262054078734135 0 -0.47773503581955412 0.26518330542660518 0 -0.5 0.28978067087392823 0 -0.5 0.262054078734135 0 -0.4886319823727151 0.27500710136527201 0 -0.5 0.262054078734135 0 -0.4886319823727151 0.27500710136527201 0 -0.47773503581955412 0.26518330542660518 0 -0.4886319823727151 0.27500710136527201 0 -0.47318149445830732 0.28056061607353011 0 -0.47773503581955412 0.26518330542660518 0 -0.47318149445830732 0.28056061607353011 0 -0.47773503581955412 0.26518330542660518 0 -0.46326484923437738 0.2756266064169251 0 -0.47773503581955412 0.26518330542660518 0 -0.4736346384558503 0.2509449944427371 0 -0.45630544244856053 0.25892937841919889 0 -0.48629441403109691 0.2495838039864175 0 -0.47773503581955412 0.26518330542660518 0 -0.4736346384558503 0.2509449944427371 0 -0.46099016809325821 0.24544934887813891 0 -0.4736346384558503 0.2509449944427371 0 -0.45630544244856053 0.25892937841919889 0 -0.44385238052221482 0.24856057350411129 0 -0.46099016809325821 0.24544934887813891 0 -0.45630544244856053 0.25892937841919889 0 -0.45630544244856053 0.25892937841919889 0 -0.46326484923437738 0.2756266064169251 0 -0.44998560160308781 0.27308598865475903 0 -0.47773503581955412 0.26518330542660518 0 -0.45630544244856053 0.25892937841919889 0 -0.46326484923437738 0.2756266064169251 0 -0.46321320378472408 0.28730562278876021 0 -0.47318149445830732 0.28056061607353011 0 -0.46326484923437738 0.2756266064169251 0 -0.4538637612119138 0.28378291366510311 0 -0.46326484923437738 0.2756266064169251 0 -0.44998560160308781 0.27308598865475903 0 -0.45630544244856053 0.25892937841919889 0 -0.44998560160308781 0.27308598865475903 0 -0.43605178769515601 0.26646012370944661 0 -0.438717785400558 0.28201471197966621 0 -0.4538637612119138 0.28378291366510311 0 -0.44998560160308781 0.27308598865475903 0 -0.438717785400558 0.28201471197966621 0 -0.44998560160308781 0.27308598865475903 0 -0.43605178769515601 0.26646012370944661 0 -0.44385238052221482 0.24856057350411129 0 -0.45630544244856053 0.25892937841919889 0 -0.43605178769515601 0.26646012370944661 0 -0.42360250984710962 0.25372911735208947 0 -0.4182864907357669 0.26924938877929699 0 -0.43605178769515601 0.26646012370944661 0 -0.44385238052221482 0.24856057350411129 0 -0.42360250984710962 0.25372911735208947 0 -0.43605178769515601 0.26646012370944661 0 -0.42360250984710962 0.25372911735208947 0 -0.4182864907357669 0.26924938877929699 0 -0.40589751577158317 0.25869843288301281 0 -0.40577057457472349 0.24313069415562391 0 -0.42360250984710962 0.25372911735208947 0 -0.40589751577158317 0.25869843288301281 0 -0.4182864907357669 0.26924938877929699 0 -0.41465259698589618 0.28024457430687782 0 -0.40341273974618291 0.27419776471235657 0 -0.4182864907357669 0.26924938877929699 0 -0.40589751577158317 0.25869843288301281 0 -0.40341273974618291 0.27419776471235657 0 -0.4182864907357669 0.26924938877929699 0 -0.41465259698589618 0.28024457430687782 0 -0.42638521844974481 0.27863486028132839 0 -0.4182864907357669 0.26924938877929699 0 -0.42638521844974481 0.27863486028132839 0 -0.43605178769515601 0.26646012370944661 0 -0.438717785400558 0.28201471197966621 0 -0.42638521844974481 0.27863486028132839 0 -0.43605178769515601 0.26646012370944661 0 -0.438717785400558 0.28201471197966621 0 -0.44887314784765647 0.29563643817433388 0 -0.42468389461514772 0.29159243197858042 0 -0.438717785400558 0.28201471197966621 0 -0.42638521844974481 0.27863486028132839 0 -0.42468389461514772 0.29159243197858042 0 -0.44887314784765647 0.29563643817433388 0 -0.42468389461514772 0.29159243197858042 0 -0.41465259698589618 0.28024457430687782 0 -0.42638521844974481 0.27863486028132839 0 -0.42468389461514772 0.29159243197858042 0 -0.42468389461514772 0.29159243197858042 0 -0.43637005683862973 0.30616198295830788 0 -0.41038952848133742 0.2956683503745916 0 -0.43637005683862973 0.30616198295830788 0 -0.41038952848133742 0.2956683503745916 0 -0.44887314784765647 0.29563643817433388 0 -0.42468389461514772 0.29159243197858042 0 -0.43637005683862973 0.30616198295830788 0 -0.42347662150082849 0.31322924932934848 0 -0.43637005683862973 0.30616198295830788 0 -0.41654980875013498 0.30558652862539631 0 -0.43637005683862973 0.30616198295830788 0 -0.41654980875013498 0.30558652862539631 0 -0.41038952848133742 0.2956683503745916 0 -0.42347662150082849 0.31322924932934848 0 -0.41654980875013498 0.30558652862539631 0 -0.40792902660412528 0.31065345283635731 0 -0.41654980875013498 0.30558652862539631 0 -0.41038952848133742 0.2956683503745916 0 -0.40458381032575402 0.3022196076283763 0 -0.41654980875013498 0.30558652862539631 0 -0.40792902660412528 0.31065345283635731 0 -0.40458381032575402 0.3022196076283763 0 -0.42468389461514772 0.29159243197858042 0 -0.41038952848133742 0.2956683503745916 0 -0.40049464138263868 0.28754842578282691 0 -0.41465259698589618 0.28024457430687782 0 -0.42468389461514772 0.29159243197858042 0 -0.40049464138263868 0.28754842578282691 0 -0.42468389461514772 0.29159243197858042 0 -0.40049464138263868 0.28754842578282691 0 -0.41038952848133742 0.2956683503745916 0 -0.40049464138263868 0.28754842578282691 0 -0.3991564358204609 0.2948357191905257 0 -0.40049464138263868 0.28754842578282691 0 -0.3991564358204609 0.2948357191905257 0 -0.39039421615419623 0.29057075972819912 0 -0.3991564358204609 0.2948357191905257 0 -0.39302565637612641 0.29644110614677349 0 -0.39039421615419623 0.29057075972819912 0 -0.40049464138263868 0.28754842578282691 0 -0.39039421615419623 0.29057075972819912 0 -0.38769707246277357 0.27818331919656869 0 -0.40792902660412528 0.31065345283635731 0 -0.40458381032575402 0.3022196076283763 0 -0.39840838968348408 0.30968419609546632 0 -0.41038952848133742 0.2956683503745916 0 -0.3991564358204609 0.2948357191905257 0 -0.40458381032575402 0.3022196076283763 0 -0.40458381032575402 0.3022196076283763 0 -0.39741295422549111 0.29969810770237348 0 -0.39840838968348408 0.30968419609546632 0 -0.3991564358204609 0.2948357191905257 0 -0.40458381032575402 0.3022196076283763 0 -0.39741295422549111 0.29969810770237348 0 -0.39741295422549111 0.29969810770237348 0 -0.39283719144347812 0.30190195979079121 0 -0.38530255797231072 0.30940268968826812 0 -0.39741295422549111 0.29969810770237348 0 -0.38530255797231072 0.30940268968826812 0 -0.3991564358204609 0.2948357191905257 0 -0.39302565637612641 0.29644110614677349 0 -0.39741295422549111 0.29969810770237348 0 -0.39302565637612641 0.29644110614677349 0 -0.39741295422549111 0.29969810770237348 0 -0.39283719144347812 0.30190195979079121 0 -0.39302565637612641 0.29644110614677349 0 -0.39283719144347812 0.30190195979079121 0 -0.3871049307926841 0.2967090455989484 0 -0.39741295422549111 0.29969810770237348 0 -0.39840838968348408 0.30968419609546632 0 -0.38530255797231072 0.30940268968826812 0 -0.39283719144347812 0.30190195979079121 0 -0.3727017644312226 0.30883127592299819 0 -0.39283719144347812 0.30190195979079121 0 -0.38061872177452061 0.29992318037151022 0 -0.3727017644312226 0.30883127592299819 0 -0.39283719144347812 0.30190195979079121 0 -0.38530255797231072 0.30940268968826812 0 -0.3727017644312226 0.30883127592299819 0 -0.39283719144347812 0.30190195979079121 0 -0.38061872177452061 0.29992318037151022 0 -0.3871049307926841 0.2967090455989484 0 -0.38530255797231072 0.30940268968826812 0 -0.3727017644312226 0.30883127592299819 0 -0.37319216171912978 0.31910727167416209 0 -0.39039421615419623 0.29057075972819912 0 -0.37756671606237657 0.29024826707062401 0 -0.38769707246277357 0.27818331919656869 0 -0.39039421615419623 0.29057075972819912 0 -0.3871049307926841 0.2967090455989484 0 -0.37756671606237657 0.29024826707062401 0 -0.39302565637612641 0.29644110614677349 0 -0.39039421615419623 0.29057075972819912 0 -0.3871049307926841 0.2967090455989484 0 -0.38061872177452061 0.29992318037151022 0 -0.37756671606237657 0.29024826707062401 0 -0.37069551450652571 0.29913492970505978 0 -0.38061872177452061 0.29992318037151022 0 -0.3871049307926841 0.2967090455989484 0 -0.37756671606237657 0.29024826707062401 0 -0.37756671606237657 0.29024826707062401 0 -0.38769707246277357 0.27818331919656869 0 -0.36914674478713633 0.27298269276494208 0 -0.38769707246277357 0.27818331919656869 0 -0.38048964028512061 0.26507854931069069 0 -0.36914674478713633 0.27298269276494208 0 -0.38769707246277357 0.27818331919656869 0 -0.38048964028512061 0.26507854931069069 0 -0.39212192164065002 0.26568278977735599 0 -0.38048964028512061 0.26507854931069069 0 -0.37978334329653862 0.2500827526942922 0 -0.39212192164065002 0.26568278977735599 0 -0.40577057457472349 0.24313069415562391 0 -0.37978334329653862 0.2500827526942922 0 -0.40589751577158317 0.25869843288301281 0 -0.37978334329653862 0.2500827526942922 0 -0.40589751577158317 0.25869843288301281 0 -0.39212192164065002 0.26568278977735599 0 -0.40589751577158317 0.25869843288301281 0 -0.40341273974618291 0.27419776471235657 0 -0.39212192164065002 0.26568278977735599 0 -0.40049464138263868 0.28754842578282691 0 -0.38769707246277357 0.27818331919656869 0 -0.40341273974618291 0.27419776471235657 0 -0.38769707246277357 0.27818331919656869 0 -0.40341273974618291 0.27419776471235657 0 -0.39212192164065002 0.26568278977735599 0 -0.41465259698589618 0.28024457430687782 0 -0.40049464138263868 0.28754842578282691 0 -0.40341273974618291 0.27419776471235657 0 -0.34787547462039559 0.28017709041181232 0 -0.35379611201835381 0.25703481123296051 0 -0.36914674478713633 0.27298269276494208 0 -0.34787547462039559 0.28017709041181232 0 -0.36914674478713633 0.27298269276494208 0 -0.38048964028512061 0.26507854931069069 0 -0.35379611201835381 0.25703481123296051 0 -0.36914674478713633 0.27298269276494208 0 -0.37978334329653862 0.2500827526942922 0 -0.35379611201835381 0.25703481123296051 0 -0.38048964028512061 0.26507854931069069 0 -0.37978334329653862 0.2500827526942922 0 -0.35379611201835381 0.25703481123296051 0 -0.36428609693314717 0.24402325401059971 0 -0.37978334329653862 0.2500827526942922 0 -0.35379611201835381 0.25703481123296051 0 -0.37756671606237657 0.29024826707062401 0 -0.35941348456227029 0.29175664037236032 0 -0.37069551450652571 0.29913492970505978 0 -0.37756671606237657 0.29024826707062401 0 -0.36914674478713633 0.27298269276494208 0 -0.35941348456227029 0.29175664037236032 0 -0.3727017644312226 0.30883127592299819 0 -0.36054744261712562 0.30364935140752142 0 -0.35256633741896709 0.31576059205520551 0 -0.3727017644312226 0.30883127592299819 0 -0.35256633741896709 0.31576059205520551 0 -0.38061872177452061 0.29992318037151022 0 -0.3727017644312226 0.30883127592299819 0 -0.37069551450652571 0.29913492970505978 0 -0.3727017644312226 0.30883127592299819 0 -0.37069551450652571 0.29913492970505978 0 -0.36054744261712562 0.30364935140752142 0 -0.35941348456227029 0.29175664037236032 0 -0.37069551450652571 0.29913492970505978 0 -0.36054744261712562 0.30364935140752142 0 -0.34736011216664259 0.302763318981983 0 -0.33430684042404829 0.31279786506034829 0 -0.35256633741896709 0.31576059205520551 0 -0.36054744261712562 0.30364935140752142 0 -0.34736011216664259 0.302763318981983 0 -0.35256633741896709 0.31576059205520551 0 -0.35941348456227029 0.29175664037236032 0 -0.36054744261712562 0.30364935140752142 0 -0.34736011216664259 0.302763318981983 0 -0.34787547462039559 0.28017709041181232 0 -0.35941348456227029 0.29175664037236032 0 -0.34283750074415159 0.29238179971700612 0 -0.35941348456227029 0.29175664037236032 0 -0.34736011216664259 0.302763318981983 0 -0.34283750074415159 0.29238179971700612 0 -0.34787547462039559 0.28017709041181232 0 -0.36914674478713633 0.27298269276494208 0 -0.35941348456227029 0.29175664037236032 0 -0.34787547462039559 0.28017709041181232 0 -0.32660420445365479 0.28737148805868251 0 -0.34787547462039559 0.28017709041181232 0 -0.34283750074415159 0.29238179971700612 0 -0.32660420445365479 0.28737148805868251 0 -0.34283750074415159 0.29238179971700612 0 -0.33293422791779492 0.29984046076019227 0 -0.32660420445365479 0.28737148805868251 0 -0.34736011216664259 0.302763318981983 0 -0.33293422791779492 0.29984046076019227 0 -0.33430684042404829 0.31279786506034829 0 -0.34736011216664259 0.302763318981983 0 -0.34283750074415159 0.29238179971700612 0 -0.33293422791779492 0.29984046076019227 0 -0.32681655943728322 0.30726540755629861 0 -0.32504004410757492 0.31535118892891623 0 -0.33430684042404829 0.31279786506034829 0 -0.33293422791779492 0.29984046076019227 0 -0.32681655943728322 0.30726540755629861 0 -0.33430684042404829 0.31279786506034829 0 -0.32008327701240552 0.30802534842547652 0 -0.31605787973803928 0.31368192326879413 0 -0.32504004410757492 0.31535118892891623 0 -0.32681655943728322 0.30726540755629861 0 -0.32008327701240552 0.30802534842547652 0 -0.32504004410757492 0.31535118892891623 0 -0.32681655943728322 0.30726540755629861 0 -0.3217184077245922 0.30031217460655962 0 -0.32008327701240552 0.30802534842547652 0 -0.33293422791779492 0.29984046076019227 0 -0.32681655943728322 0.30726540755629861 0 -0.3217184077245922 0.30031217460655962 0 -0.3217184077245922 0.30031217460655962 0 -0.32008327701240552 0.30802534842547652 0 -0.31154550622188931 0.30416793111937179 0 -0.3217184077245922 0.30031217460655962 0 -0.31091172513779203 0.29502103249124861 0 -0.31154550622188931 0.30416793111937179 0 -0.32008327701240552 0.30802534842547652 0 -0.31154550622188931 0.30416793111937179 0 -0.31605787973803928 0.31368192326879413 0 -0.3217184077245922 0.30031217460655962 0 -0.32660420445365479 0.28737148805868251 0 -0.31091172513779203 0.29502103249124861 0 -0.32660420445365479 0.28737148805868251 0 -0.30533293428691433 0.29456588570555331 0 -0.32660420445365479 0.28737148805868251 0 -0.31272961347016098 0.28139224846553229 0 -0.30533293428691433 0.29456588570555331 0 -0.32660420445365479 0.28737148805868251 0 -0.30533293428691433 0.29456588570555331 0 -0.31091172513779203 0.29502103249124861 0 -0.33293422791779492 0.29984046076019227 0 -0.3217184077245922 0.30031217460655962 0 -0.32660420445365479 0.28737148805868251 0 -0.32660420445365479 0.28737148805868251 0 -0.31272961347016098 0.28139224846553229 0 -0.32780888074016901 0.26398686977162872 0 -0.32780888074016901 0.26398686977162872 0 -0.30182164946198398 0.27093892831029698 0 -0.31272961347016098 0.28139224846553229 0 -0.32780888074016901 0.26398686977162872 0 -0.30182164946198398 0.27093892831029698 0 -0.34787547462039559 0.28017709041181232 0 -0.35379611201835381 0.25703481123296051 0 -0.32780888074016901 0.26398686977162872 0 -0.34787547462039559 0.28017709041181232 0 -0.32660420445365479 0.28737148805868251 0 -0.32780888074016901 0.26398686977162872 0 -0.35379611201835381 0.25703481123296051 0 -0.32780888074016901 0.26398686977162872 0 -0.33277624872290262 0.2431759369511014 0 -0.35379611201835381 0.25703481123296051 0 -0.32780888074016901 0.26398686977162872 0 -0.33277624872290262 0.2431759369511014 0 -0.32780888074016901 0.26398686977162872 0 -0.3093470477056508 0.25302678202252799 0 -0.32780888074016901 0.26398686977162872 0 -0.3093470477056508 0.25302678202252799 0 -0.30182164946198398 0.27093892831029698 0 -0.3093470477056508 0.25302678202252799 0 -0.30182164946198398 0.27093892831029698 0 -0.28671907102410998 0.26235309269760371 0 -0.31272961347016098 0.28139224846553229 0 -0.30182164946198398 0.27093892831029698 0 -0.29860470019031721 0.28440545789038091 0 -0.30182164946198398 0.27093892831029698 0 -0.27583441818379889 0.27789098684896529 0 -0.28641941121843539 0.28357877240081808 0 -0.30182164946198398 0.27093892831029698 0 -0.28671907102410998 0.26235309269760371 0 -0.27583441818379889 0.27789098684896529 0 -0.30182164946198398 0.27093892831029698 0 -0.27583441818379889 0.27789098684896529 0 -0.30182164946198398 0.27093892831029698 0 -0.28641941121843539 0.28357877240081808 0 -0.29860470019031721 0.28440545789038091 0 -0.29050962234799671 0.24591738704289931 0 -0.3093470477056508 0.25302678202252799 0 -0.28671907102410998 0.26235309269760371 0 -0.29050962234799671 0.24591738704289931 0 -0.28671907102410998 0.26235309269760371 0 -0.26753791115911763 0.25905140516425462 0 -0.29050962234799671 0.24591738704289931 0 -0.26753791115911763 0.25905140516425462 0 -0.28671907102410998 0.26235309269760371 0 -0.26753791115911763 0.25905140516425462 0 -0.27526377728611012 0.26729306679667492 0 -0.29050962234799671 0.24591738704289931 0 -0.27243740744556921 0.247158999558652 0 -0.26753791115911763 0.25905140516425462 0 -0.27243740744556921 0.247158999558652 0 -0.26744233816693491 0.25654795535771091 0 -0.26753791115911763 0.25905140516425462 0 -0.26744233816693491 0.25654795535771091 0 -0.26753791115911763 0.25905140516425462 0 -0.26753791115911763 0.25905140516425462 0 -0.27526377728611012 0.26729306679667492 0 -0.26815889595042841 0.27531755128268431 0 -0.26753791115911763 0.25905140516425462 0 -0.26815889595042841 0.27531755128268431 0 -0.28671907102410998 0.26235309269760371 0 -0.27526377728611012 0.26729306679667492 0 -0.27583441818379889 0.27789098684896529 0 -0.27526377728611012 0.26729306679667492 0 -0.27583441818379889 0.27789098684896529 0 -0.26815889595042841 0.27531755128268431 0 -0.26815889595042841 0.27531755128268431 0 -0.25712606434457969 0.28054433784382538 0 -0.2496629079650042 0.26927139330273492 0 -0.26753791115911763 0.25905140516425462 0 -0.26815889595042841 0.27531755128268431 0 -0.2496629079650042 0.26927139330273492 0 -0.25712606434457969 0.28054433784382538 0 -0.2456847571112388 0.28149670212266792 0 -0.2496629079650042 0.26927139330273492 0 -0.26744233816693491 0.25654795535771091 0 -0.26753791115911763 0.25905140516425462 0 -0.25063676029139842 0.25291648499014979 0 -0.26753791115911763 0.25905140516425462 0 -0.25063676029139842 0.25291648499014979 0 -0.2496629079650042 0.26927139330273492 0 -0.2616708012182547 0.2440301657032401 0 -0.26744233816693491 0.25654795535771091 0 -0.25063676029139842 0.25291648499014979 0 -0.26753791115911763 0.25905140516425462 0 -0.2496629079650042 0.26927139330273492 0 -0.26024295001233572 0.30047082688456239 0 -0.25284064987234101 0.29028329201030878 0 -0.24999302981986149 0.31328302273380082 0 -0.26024295001233572 0.30047082688456239 0 -0.26935823961539301 0.30673329539302518 0 -0.24999302981986149 0.31328302273380082 0 -0.26935823961539301 0.30673329539302518 0 -0.24999302981986149 0.31328302273380082 0 -0.26024295001233572 0.30047082688456239 0 -0.25284064987234101 0.29028329201030878 0 -0.26877988074174702 0.29158369740111367 0 -0.26815889595042841 0.27531755128268431 0 -0.25712606434457969 0.28054433784382538 0 -0.26877988074174702 0.29158369740111367 0 -0.25712606434457969 0.28054433784382538 0 -0.25284064987234101 0.29028329201030878 0 -0.26877988074174702 0.29158369740111367 0 -0.25284064987234101 0.29028329201030878 0 -0.26877988074174702 0.29158369740111367 0 -0.25712606434457969 0.28054433784382538 0 -0.25284064987234101 0.29028329201030878 0 -0.2456847571112388 0.28149670212266792 0 -0.26877988074174702 0.29158369740111367 0 -0.28705640751433059 0.29307479155333382 0 -0.26877988074174702 0.29158369740111367 0 -0.28641941121843539 0.28357877240081808 0 -0.28705640751433059 0.29307479155333382 0 -0.26877988074174702 0.29158369740111367 0 -0.27774296906969159 0.29751555627962689 0 -0.28705640751433059 0.29307479155333382 0 -0.27583441818379889 0.27789098684896529 0 -0.26877988074174702 0.29158369740111367 0 -0.28641941121843539 0.28357877240081808 0 -0.26815889595042841 0.27531755128268431 0 -0.26877988074174702 0.29158369740111367 0 -0.27583441818379889 0.27789098684896529 0 -0.26815889595042841 0.27531755128268431 0 -0.26877988074174702 0.29158369740111367 0 -0.27774296906969159 0.29751555627962689 0 -0.26935823961539301 0.30673329539302518 0 -0.2873455869511537 0.30064959054928941 0 -0.26935823961539301 0.30673329539302518 0 -0.28198812175282051 0.31101696379907651 0 -0.2873455869511537 0.30064959054928941 0 -0.26935823961539301 0.30673329539302518 0 -0.2873455869511537 0.30064959054928941 0 -0.26877988074174702 0.29158369740111367 0 -0.27774296906969159 0.29751555627962689 0 -0.26935823961539301 0.30673329539302518 0 -0.26024295001233572 0.30047082688456239 0 -0.26877988074174702 0.29158369740111367 0 -0.26935823961539301 0.30673329539302518 0 -0.26877988074174702 0.29158369740111367 0 -0.26935823961539301 0.30673329539302518 0 -0.28198812175282051 0.31101696379907651 0 -0.2873455869511537 0.30064959054928941 0 -0.2982470159816456 0.30800497490463469 0 -0.2873455869511537 0.30064959054928941 0 -0.30533293428691433 0.29456588570555331 0 -0.27774296906969159 0.29751555627962689 0 -0.2873455869511537 0.30064959054928941 0 -0.28705640751433059 0.29307479155333382 0 -0.2873455869511537 0.30064959054928941 0 -0.28705640751433059 0.29307479155333382 0 -0.30533293428691433 0.29456588570555331 0 -0.28705640751433059 0.29307479155333382 0 -0.30533293428691433 0.29456588570555331 0 -0.28641941121843539 0.28357877240081808 0 -0.28705640751433059 0.29307479155333382 0 -0.29860470019031721 0.28440545789038091 0 -0.28705640751433059 0.29307479155333382 0 -0.29860470019031721 0.28440545789038091 0 -0.30533293428691433 0.29456588570555331 0 -0.30533293428691433 0.29456588570555331 0 -0.31091172513779203 0.29502103249124861 0 -0.31272961347016098 0.28139224846553229 0 -0.29860470019031721 0.28440545789038091 0 -0.30533293428691433 0.29456588570555331 0 -0.2873455869511537 0.30064959054928941 0 -0.30533293428691433 0.29456588570555331 0 -0.2982470159816456 0.30800497490463469 0 -0.30533293428691433 0.29456588570555331 0 -0.31091172513779203 0.29502103249124861 0 -0.31154550622188931 0.30416793111937179 0 -0.30533293428691433 0.29456588570555331 0 -0.2982470159816456 0.30800497490463469 0 -0.31154550622188931 0.30416793111937179 0 -0.2982470159816456 0.30800497490463469 0 -0.31154550622188931 0.30416793111937179 0 -0.30664875768426442 0.31285521501269431 0 -0.31154550622188931 0.30416793111937179 0 -0.30664875768426442 0.31285521501269431 0 -0.31605787973803928 0.31368192326879413 0 -0.30664875768426442 0.31285521501269431 0 -0.29983442808314659 0.32272174155752442 0 -0.31697181366406268 0.32800993285751168 0 -0.2982470159816456 0.30800497490463469 0 -0.30664875768426442 0.31285521501269431 0 -0.29983442808314659 0.32272174155752442 0 -0.29983442808314659 0.32272174155752442 0 -0.29806924234752907 0.33508812564789509 0 -0.31697181366406268 0.32800993285751168 0 -0.29806924234752907 0.33508812564789509 0 -0.31784872660290381 0.34843655618235869 0 -0.31697181366406268 0.32800993285751168 0 -0.29806924234752907 0.33508812564789509 0 -0.28249951168368398 0.3308093229136303 0 -0.28118535509976428 0.34310148712515143 0 -0.29806924234752907 0.33508812564789509 0 -0.28118535509976428 0.34310148712515143 0 -0.29453921815798861 0.35209567588234042 0 -0.29806924234752907 0.33508812564789509 0 -0.28249951168368398 0.3308093229136303 0 -0.28852679882645582 0.32099006826540333 0 -0.28198812175282051 0.31101696379907651 0 -0.2982470159816456 0.30800497490463469 0 -0.28852679882645582 0.32099006826540333 0 -0.2982470159816456 0.30800497490463469 0 -0.29983442808314659 0.32272174155752442 0 -0.28852679882645582 0.32099006826540333 0 -0.29983442808314659 0.32272174155752442 0 -0.29806924234752907 0.33508812564789509 0 -0.28852679882645582 0.32099006826540333 0 -0.28249951168368398 0.3308093229136303 0 -0.28852679882645582 0.32099006826540333 0 -0.27853332930851687 0.32015873917176152 0 -0.28198812175282051 0.31101696379907651 0 -0.28852679882645582 0.32099006826540333 0 -0.27853332930851687 0.32015873917176152 0 -0.26935823961539301 0.30673329539302518 0 -0.270293974664231 0.33124404548767139 0 -0.26935823961539301 0.30673329539302518 0 -0.28198812175282051 0.31101696379907651 0 -0.27853332930851687 0.32015873917176152 0 -0.26935823961539301 0.30673329539302518 0 -0.27853332930851687 0.32015873917176152 0 -0.270293974664231 0.33124404548767139 0 -0.26935823961539301 0.30673329539302518 0 -0.270293974664231 0.33124404548767139 0 -0.26202580649680629 0.31917500787134678 0 -0.28249951168368398 0.3308093229136303 0 -0.27853332930851687 0.32015873917176152 0 -0.270293974664231 0.33124404548767139 0 -0.28249951168368398 0.3308093229136303 0 -0.28118535509976428 0.34310148712515143 0 -0.270293974664231 0.33124404548767139 0 -0.270293974664231 0.33124404548767139 0 -0.27122970971307259 0.35575479558231748 0 -0.28118535509976428 0.34310148712515143 0 -0.270293974664231 0.33124404548767139 0 -0.27122970971307259 0.35575479558231748 0 -0.270293974664231 0.33124404548767139 0 -0.25846389074062409 0.32900630356289862 0 -0.26693475166138658 0.34472958439199641 0 -0.25846389074062409 0.32900630356289862 0 -0.26693475166138658 0.34472958439199641 0 -0.25846389074062409 0.32900630356289862 0 -0.25322807935694502 0.34145417571987058 0 -0.26693475166138658 0.34472958439199641 0 -0.25846389074062409 0.32900630356289862 0 -0.24525105680585091 0.32539921709460512 0 -0.24843568547779929 0.33368959027150802 0 -0.25846389074062409 0.32900630356289862 0 -0.25322807935694502 0.34145417571987058 0 -0.24843568547779929 0.33368959027150802 0 -0.26935823961539301 0.30673329539302518 0 -0.26202580649680629 0.31917500787134678 0 -0.24999302981986149 0.31328302273380082 0 -0.25846389074062409 0.32900630356289862 0 -0.24999302981986149 0.31328302273380082 0 -0.24525105680585091 0.32539921709460512 0 -0.25846389074062409 0.32900630356289862 0 -0.24999302981986149 0.31328302273380082 0 -0.25846389074062409 0.32900630356289862 0 -0.26202580649680629 0.31917500787134678 0 -0.24999302981986149 0.31328302273380082 0 -0.270293974664231 0.33124404548767139 0 -0.25846389074062409 0.32900630356289862 0 -0.26202580649680629 0.31917500787134678 0 -0.26081078885774162 0.36913593397022759 0 -0.25548558678424371 0.35822630331505512 0 -0.27122970971307259 0.35575479558231748 0 -0.26081078885774162 0.36913593397022759 0 -0.25625490738993473 0.37969005217330459 0 -0.24879224663555319 0.36844123118380262 0 -0.26081078885774162 0.36913593397022759 0 -0.25548558678424371 0.35822630331505512 0 -0.24879224663555319 0.36844123118380262 0 -0.25548558678424371 0.35822630331505512 0 -0.27122970971307259 0.35575479558231748 0 -0.25548558678424371 0.35822630331505512 0 -0.25846489586857713 0.34914914917056028 0 -0.24539265141780139 0.35030913564137889 0 -0.25548558678424371 0.35822630331505512 0 -0.25846489586857713 0.34914914917056028 0 -0.27122970971307259 0.35575479558231748 0 -0.25322807935694502 0.34145417571987058 0 -0.25846489586857713 0.34914914917056028 0 -0.24539265141780139 0.35030913564137889 0 -0.25846489586857713 0.34914914917056028 0 -0.27122970971307259 0.35575479558231748 0 -0.26693475166138658 0.34472958439199641 0 -0.25322807935694502 0.34145417571987058 0 -0.25846489586857713 0.34914914917056028 0 -0.26693475166138658 0.34472958439199641 0 -0.270293974664231 0.33124404548767139 0 -0.27122970971307259 0.35575479558231748 0 -0.26693475166138658 0.34472958439199641 0 -0.26081078885774162 0.36913593397022759 0 -0.27122970971307259 0.35575479558231748 0 -0.27229149376590361 0.38356728759665848 0 -0.27122970971307259 0.35575479558231748 0 -0.28320193204293082 0.36922425145744547 0 -0.27229149376590361 0.38356728759665848 0 -0.27122970971307259 0.35575479558231748 0 -0.27229149376590361 0.38356728759665848 0 -0.28320193204293082 0.36922425145744547 0 -0.29453921815798861 0.35209567588234042 0 -0.29821912320253569 0.37918639574286178 0 -0.27122970971307259 0.35575479558231748 0 -0.28320193204293082 0.36922425145744547 0 -0.29453921815798861 0.35209567588234042 0 -0.27122970971307259 0.35575479558231748 0 -0.29453921815798861 0.35209567588234042 0 -0.28118535509976428 0.34310148712515143 0 -0.27122970971307259 0.35575479558231748 0 -0.29453921815798861 0.35209567588234042 0 -0.29453921815798861 0.35209567588234042 0 -0.31784872660290381 0.34843655618235869 0 -0.29806924234752907 0.33508812564789509 0 -0.29453921815798861 0.35209567588234042 0 -0.31784872660290381 0.34843655618235869 0 -0.29453921815798861 0.35209567588234042 0 -0.3196886791251769 0.36198191611261821 0 -0.31784872660290381 0.34843655618235869 0 -0.3196886791251769 0.36198191611261821 0 -0.31685578826657729 0.38075088796928641 0 -0.29821912320253569 0.37918639574286178 0 -0.3196886791251769 0.36198191611261821 0 -0.29821912320253569 0.37918639574286178 0 -0.29453921815798861 0.35209567588234042 0 -0.3196886791251769 0.36198191611261821 0 -0.29821912320253569 0.37918639574286178 0 -0.3196886791251769 0.36198191611261821 0 -0.32962598459981662 0.37410739765998369 0 -0.31685578826657729 0.38075088796928641 0 -0.3196886791251769 0.36198191611261821 0 -0.32962598459981662 0.37410739765998369 0 -0.33588039036341227 0.36133706558619078 0 -0.33588039036341227 0.36133706558619078 0 -0.34243706503201971 0.36916861468428391 0 -0.34819284057116029 0.35871103953306999 0 -0.32962598459981662 0.37410739765998369 0 -0.34243706503201971 0.36916861468428391 0 -0.33912856949584408 0.38157856908050941 0 -0.32962598459981662 0.37410739765998369 0 -0.33588039036341227 0.36133706558619078 0 -0.34243706503201971 0.36916861468428391 0 -0.3196886791251769 0.36198191611261821 0 -0.34115823504781889 0.34477743648237541 0 -0.33588039036341227 0.36133706558619078 0 -0.34115823504781889 0.34477743648237541 0 -0.34819284057116029 0.35871103953306999 0 -0.3196886791251769 0.36198191611261821 0 -0.33588039036341227 0.36133706558619078 0 -0.34115823504781889 0.34477743648237541 0 -0.34115823504781889 0.34477743648237541 0 -0.31784872660290381 0.34843655618235869 0 -0.3196886791251769 0.36198191611261821 0 -0.34115823504781889 0.34477743648237541 0 -0.31784872660290381 0.34843655618235869 0 -0.31784872660290381 0.34843655618235869 0 -0.31697181366406268 0.32800993285751168 0 -0.32956250168912998 0.33567609446220742 0 -0.31697181366406268 0.32800993285751168 0 -0.33476907554151492 0.32188526245635851 0 -0.32956250168912998 0.33567609446220742 0 -0.31697181366406268 0.32800993285751168 0 -0.32504004410757492 0.31535118892891623 0 -0.33476907554151492 0.32188526245635851 0 -0.31697181366406268 0.32800993285751168 0 -0.33476907554151492 0.32188526245635851 0 -0.30664875768426442 0.31285521501269431 0 -0.31605787973803928 0.31368192326879413 0 -0.31697181366406268 0.32800993285751168 0 -0.31605787973803928 0.31368192326879413 0 -0.31697181366406268 0.32800993285751168 0 -0.32504004410757492 0.31535118892891623 0 -0.33430684042404829 0.31279786506034829 0 -0.33476907554151492 0.32188526245635851 0 -0.35256633741896709 0.31576059205520551 0 -0.33430684042404829 0.31279786506034829 0 -0.35256633741896709 0.31576059205520551 0 -0.33476907554151492 0.32188526245635851 0 -0.35256633741896709 0.31576059205520551 0 -0.32504004410757492 0.31535118892891623 0 -0.33430684042404829 0.31279786506034829 0 -0.33476907554151492 0.32188526245635851 0 -0.33476907554151492 0.32188526245635851 0 -0.33793340065678351 0.33216184675567939 0 -0.34624379034867009 0.32630859362177628 0 -0.34115823504781889 0.34477743648237541 0 -0.31784872660290381 0.34843655618235869 0 -0.32956250168912998 0.33567609446220742 0 -0.34115823504781889 0.34477743648237541 0 -0.33793340065678351 0.33216184675567939 0 -0.34624379034867009 0.32630859362177628 0 -0.33476907554151492 0.32188526245635851 0 -0.32956250168912998 0.33567609446220742 0 -0.33793340065678351 0.33216184675567939 0 -0.34115823504781889 0.34477743648237541 0 -0.32956250168912998 0.33567609446220742 0 -0.33793340065678351 0.33216184675567939 0 -0.34115823504781889 0.34477743648237541 0 -0.36466620146147338 0.34108716290951352 0 -0.34115823504781889 0.34477743648237541 0 -0.35717519838347422 0.33194235407826861 0 -0.34115823504781889 0.34477743648237541 0 -0.35717519838347422 0.33194235407826861 0 -0.36466620146147338 0.34108716290951352 0 -0.34115823504781889 0.34477743648237541 0 -0.35717519838347422 0.33194235407826861 0 -0.34624379034867009 0.32630859362177628 0 -0.35717519838347422 0.33194235407826861 0 -0.34624379034867009 0.32630859362177628 0 -0.35256633741896709 0.31576059205520551 0 -0.33476907554151492 0.32188526245635851 0 -0.34624379034867009 0.32630859362177628 0 -0.35256633741896709 0.31576059205520551 0 -0.35717519838347422 0.33194235407826861 0 -0.37319216171912978 0.31910727167416209 0 -0.3727017644312226 0.30883127592299819 0 -0.35256633741896709 0.31576059205520551 0 -0.37319216171912978 0.31910727167416209 0 -0.35717519838347422 0.33194235407826861 0 -0.35256633741896709 0.31576059205520551 0 -0.37319216171912978 0.31910727167416209 0 -0.35717519838347422 0.33194235407826861 0 -0.37319216171912978 0.31910727167416209 0 -0.36888756997622801 0.33013130359531923 0 -0.35256633741896709 0.31576059205520551 0 -0.37319216171912978 0.31910727167416209 0 -0.37892072672623811 0.33022566068961989 0 -0.37319216171912978 0.31910727167416209 0 -0.36888756997622801 0.33013130359531923 0 -0.35717519838347422 0.33194235407826861 0 -0.36466620146147338 0.34108716290951352 0 -0.36888756997622801 0.33013130359531923 0 -0.37892072672623811 0.33022566068961989 0 -0.36466620146147338 0.34108716290951352 0 -0.36888756997622801 0.33013130359531923 0 -0.3785908648924512 0.34815308868201028 0 -0.36466620146147338 0.34108716290951352 0 -0.3689187022479119 0.3525043622488932 0 -0.36466620146147338 0.34108716290951352 0 -0.3689187022479119 0.3525043622488932 0 -0.35643609263032788 0.35126674832233762 0 -0.3689187022479119 0.3525043622488932 0 -0.35643609263032788 0.35126674832233762 0 -0.35924448382327501 0.35925374043783598 0 -0.3689187022479119 0.3525043622488932 0 -0.36968375071915682 0.36508379924367751 0 -0.35924448382327501 0.35925374043783598 0 -0.38092249945398943 0.35886446663359478 0 -0.3689187022479119 0.3525043622488932 0 -0.36968375071915682 0.36508379924367751 0 -0.38473487600604839 0.37291704145495369 0 -0.36968375071915682 0.36508379924367751 0 -0.3699864109590707 0.37741506647222678 0 -0.36968375071915682 0.36508379924367751 0 -0.35497905310493949 0.37322639921838119 0 -0.3699864109590707 0.37741506647222678 0 -0.36968375071915682 0.36508379924367751 0 -0.35497905310493949 0.37322639921838119 0 -0.35924448382327501 0.35925374043783598 0 -0.35497905310493949 0.37322639921838119 0 -0.34819284057116029 0.35871103953306999 0 -0.35924448382327501 0.35925374043783598 0 -0.34243706503201971 0.36916861468428391 0 -0.35497905310493949 0.37322639921838119 0 -0.33912856949584408 0.38157856908050941 0 -0.34243706503201971 0.36916861468428391 0 -0.35497905310493949 0.37322639921838119 0 -0.34819284057116029 0.35871103953306999 0 -0.34115823504781889 0.34477743648237541 0 -0.34819284057116029 0.35871103953306999 0 -0.35643609263032788 0.35126674832233762 0 -0.34115823504781889 0.34477743648237541 0 -0.36466620146147338 0.34108716290951352 0 -0.35643609263032788 0.35126674832233762 0 -0.34819284057116029 0.35871103953306999 0 -0.35643609263032788 0.35126674832233762 0 -0.35924448382327501 0.35925374043783598 0 -0.35867815291110811 0.40098893511629929 0 -0.35025570333241318 0.40927674511195822 0 -0.34009656096812402 0.39828070959130518 0 -0.35867815291110811 0.40098893511629929 0 -0.35014979929907702 0.3880810179984166 0 -0.34009656096812402 0.39828070959130518 0 -0.35867815291110811 0.40098893511629929 0 -0.35014979929907702 0.3880810179984166 0 -0.36306968288600638 0.38821318682019118 0 -0.35497905310493949 0.37322639921838119 0 -0.35014979929907702 0.3880810179984166 0 -0.33912856949584408 0.38157856908050941 0 -0.35497905310493949 0.37322639921838119 0 -0.35014979929907702 0.3880810179984166 0 -0.36306968288600638 0.38821318682019118 0 -0.37972885165370901 0.38715201548729872 0 -0.36306968288600638 0.38821318682019118 0 -0.3699864109590707 0.37741506647222678 0 -0.35497905310493949 0.37322639921838119 0 -0.36306968288600638 0.38821318682019118 0 -0.3699864109590707 0.37741506647222678 0 -0.37972885165370901 0.38715201548729872 0 -0.36306968288600638 0.38821318682019118 0 -0.37131714700829549 0.39748888062532062 0 -0.35867815291110811 0.40098893511629929 0 -0.36306968288600638 0.38821318682019118 0 -0.37131714700829549 0.39748888062532062 0 -0.35867815291110811 0.40098893511629929 0 -0.37131714700829549 0.39748888062532062 0 -0.37262694462895762 0.40953714644184108 0 -0.35867815291110811 0.40098893511629929 0 -0.37262694462895762 0.40953714644184108 0 -0.36419141706618691 0.41889087166826611 0 -0.38224422239727329 0.41759015990180209 0 -0.37262694462895762 0.40953714644184108 0 -0.36419141706618691 0.41889087166826611 0 -0.37725777757625412 0.43344442267531541 0 -0.36419141706618691 0.41889087166826611 0 -0.35941404467654042 0.43653910209162211 0 -0.37725777757625412 0.43344442267531541 0 -0.38224422239727329 0.41759015990180209 0 -0.36419141706618691 0.41889087166826611 0 -0.35941404467654042 0.43653910209162211 0 -0.34890436281983361 0.42492690405133532 0 -0.34478760235302319 0.4418110738999646 0 -0.36419141706618691 0.41889087166826611 0 -0.35941404467654042 0.43653910209162211 0 -0.34890436281983361 0.42492690405133532 0 -0.34890436281983361 0.42492690405133532 0 -0.35025570333241318 0.40927674511195822 0 -0.33990390352636768 0.41535740287184142 0 -0.35867815291110811 0.40098893511629929 0 -0.36419141706618691 0.41889087166826611 0 -0.35025570333241318 0.40927674511195822 0 -0.36419141706618691 0.41889087166826611 0 -0.34890436281983361 0.42492690405133532 0 -0.35025570333241318 0.40927674511195822 0 -0.35025570333241318 0.40927674511195822 0 -0.33990390352636768 0.41535740287184142 0 -0.34009656096812402 0.39828070959130518 0 -0.33990390352636768 0.41535740287184142 0 -0.33130921891247261 0.40777639588981651 0 -0.34009656096812402 0.39828070959130518 0 -0.33990390352636768 0.41535740287184142 0 -0.333445920930724 0.42951033619747858 0 -0.32560061651747141 0.41804303530043968 0 -0.33990390352636768 0.41535740287184142 0 -0.33130921891247261 0.40777639588981651 0 -0.32560061651747141 0.41804303530043968 0 -0.34890436281983361 0.42492690405133532 0 -0.333445920930724 0.42951033619747858 0 -0.34478760235302319 0.4418110738999646 0 -0.34890436281983361 0.42492690405133532 0 -0.33990390352636768 0.41535740287184142 0 -0.333445920930724 0.42951033619747858 0 -0.333445920930724 0.42951033619747858 0 -0.31767959097266357 0.42639711095597632 0 -0.32566336501616833 0.44464325203482952 0 -0.31767959097266357 0.42639711095597632 0 -0.3032068423967299 0.43381803429725418 0 -0.32566336501616833 0.44464325203482952 0 -0.333445920930724 0.42951033619747858 0 -0.31767959097266357 0.42639711095597632 0 -0.32560061651747141 0.41804303530043968 0 -0.33130921891247261 0.40777639588981651 0 -0.32560061651747141 0.41804303530043968 0 -0.31504407357977959 0.41224592476014521 0 -0.33130921891247261 0.40777639588981651 0 -0.31504407357977959 0.41224592476014521 0 -0.32389121778136343 0.39928057674076978 0 -0.31767959097266357 0.42639711095597632 0 -0.32560061651747141 0.41804303530043968 0 -0.31504407357977959 0.41224592476014521 0 -0.31504407357977959 0.41224592476014521 0 -0.31259789595145571 0.39588437185759812 0 -0.32389121778136343 0.39928057674076978 0 -0.31259789595145571 0.39588437185759812 0 -0.32389121778136343 0.39928057674076978 0 -0.32778411457749279 0.38868580327777441 0 -0.32389121778136343 0.39928057674076978 0 -0.34009656096812402 0.39828070959130518 0 -0.32778411457749279 0.38868580327777441 0 -0.33130921891247261 0.40777639588981651 0 -0.32389121778136343 0.39928057674076978 0 -0.34009656096812402 0.39828070959130518 0 -0.35014979929907702 0.3880810179984166 0 -0.34009656096812402 0.39828070959130518 0 -0.33912856949584408 0.38157856908050941 0 -0.34009656096812402 0.39828070959130518 0 -0.33912856949584408 0.38157856908050941 0 -0.32778411457749279 0.38868580327777441 0 -0.32962598459981662 0.37410739765998369 0 -0.33912856949584408 0.38157856908050941 0 -0.32778411457749279 0.38868580327777441 0 -0.32962598459981662 0.37410739765998369 0 -0.32778411457749279 0.38868580327777441 0 -0.31685578826657729 0.38075088796928641 0 -0.31259789595145571 0.39588437185759812 0 -0.32778411457749279 0.38868580327777441 0 -0.31685578826657729 0.38075088796928641 0 -0.31259789595145571 0.39588437185759812 0 -0.31685578826657729 0.38075088796928641 0 -0.29821912320253569 0.37918639574286178 0 -0.31259789595145571 0.39588437185759812 0 -0.29557964629285338 0.39799531273008149 0 -0.3017531471534648 0.40934319044674661 0 -0.31259789595145571 0.39588437185759812 0 -0.29821912320253569 0.37918639574286178 0 -0.29557964629285338 0.39799531273008149 0 -0.31504407357977959 0.41224592476014521 0 -0.31259789595145571 0.39588437185759812 0 -0.3017531471534648 0.40934319044674661 0 -0.29821912320253569 0.37918639574286178 0 -0.29557964629285338 0.39799531273008149 0 -0.27674956727989458 0.39639087537310558 0 -0.29557964629285338 0.39799531273008149 0 -0.27674956727989458 0.39639087537310558 0 -0.28668751271846721 0.40841889620721911 0 -0.29557964629285338 0.39799531273008149 0 -0.28668751271846721 0.40841889620721911 0 -0.3017531471534648 0.40934319044674661 0 -0.28320193204293082 0.36922425145744547 0 -0.29821912320253569 0.37918639574286178 0 -0.27229149376590361 0.38356728759665848 0 -0.29821912320253569 0.37918639574286178 0 -0.27674956727989458 0.39639087537310558 0 -0.29821912320253569 0.37918639574286178 0 -0.27229149376590361 0.38356728759665848 0 -0.27674956727989458 0.39639087537310558 0 -0.27229149376590361 0.38356728759665848 0 -0.26425798628475949 0.39886374654896423 0 -0.27335327781873497 0.41137977961099947 0 -0.27229149376590361 0.38356728759665848 0 -0.27674956727989458 0.39639087537310558 0 -0.27335327781873497 0.41137977961099947 0 -0.27229149376590361 0.38356728759665848 0 -0.27335327781873497 0.41137977961099947 0 -0.27674956727989458 0.39639087537310558 0 -0.27335327781873497 0.41137977961099947 0 -0.28668751271846721 0.40841889620721911 0 -0.27229149376590361 0.38356728759665848 0 -0.26425798628475949 0.39886374654896423 0 -0.26089971276328833 0.38953383578087181 0 -0.26425798628475949 0.39886374654896423 0 -0.25359904242262599 0.39648249569024879 0 -0.26089971276328833 0.38953383578087181 0 -0.26425798628475949 0.39886374654896423 0 -0.25359904242262599 0.39648249569024879 0 -0.26193838839515837 0.41102331500284067 0 -0.25359904242262599 0.39648249569024879 0 -0.26089971276328833 0.38953383578087181 0 -0.24980757689420091 0.38817448546447791 0 -0.27229149376590361 0.38356728759665848 0 -0.25625490738993473 0.37969005217330459 0 -0.26089971276328833 0.38953383578087181 0 -0.25625490738993473 0.37969005217330459 0 -0.26089971276328833 0.38953383578087181 0 -0.24980757689420091 0.38817448546447791 0 -0.26081078885774162 0.36913593397022759 0 -0.27229149376590361 0.38356728759665848 0 -0.25625490738993473 0.37969005217330459 0 -0.25625490738993473 0.37969005217330459 0 -0.24637633215159119 0.37853607661088812 0 -0.24879224663555319 0.36844123118380262 0 -0.25625490738993473 0.37969005217330459 0 -0.24637633215159119 0.37853607661088812 0 -0.24980757689420091 0.38817448546447791 0 -0.25267333870802228 0.42236187176768752 0 -0.26580829674164919 0.42602868139630318 0 -0.25174763499341851 0.44824124784512631 0 -0.25267333870802228 0.42236187176768752 0 -0.25174763499341851 0.44824124784512631 0 -0.25359904242262599 0.39648249569024879 0 -0.25267333870802228 0.42236187176768752 0 -0.26193838839515837 0.41102331500284067 0 -0.25359904242262599 0.39648249569024879 0 -0.25267333870802228 0.42236187176768752 0 -0.25267333870802228 0.42236187176768752 0 -0.26193838839515837 0.41102331500284067 0 -0.26580829674164919 0.42602868139630318 0 -0.26193838839515837 0.41102331500284067 0 -0.27335327781873497 0.41137977961099947 0 -0.26580829674164919 0.42602868139630318 0 -0.26425798628475949 0.39886374654896423 0 -0.26193838839515837 0.41102331500284067 0 -0.27335327781873497 0.41137977961099947 0 -0.27335327781873497 0.41137977961099947 0 -0.28331387667111579 0.42313147323696032 0 -0.28668751271846721 0.40841889620721911 0 -0.27335327781873497 0.41137977961099947 0 -0.28331387667111579 0.42313147323696032 0 -0.2744150618715665 0.43919227162534041 0 -0.28450279098558551 0.43672729992042553 0 -0.28331387667111579 0.42313147323696032 0 -0.2744150618715665 0.43919227162534041 0 -0.27335327781873497 0.41137977961099947 0 -0.26580829674164919 0.42602868139630318 0 -0.2744150618715665 0.43919227162534041 0 -0.27335327781873497 0.41137977961099947 0 -0.2744150618715665 0.43919227162534041 0 -0.28450279098558551 0.43672729992042553 0 -0.2924818112863582 0.42676921917890481 0 -0.3032068423967299 0.43381803429725418 0 -0.28450279098558551 0.43672729992042553 0 -0.28331387667111579 0.42313147323696032 0 -0.2924818112863582 0.42676921917890481 0 -0.28331387667111579 0.42313147323696032 0 -0.2924818112863582 0.42676921917890481 0 -0.2923418658786085 0.41749763093600117 0 -0.28331387667111579 0.42313147323696032 0 -0.28668751271846721 0.40841889620721911 0 -0.2923418658786085 0.41749763093600117 0 -0.2924818112863582 0.42676921917890481 0 -0.2923418658786085 0.41749763093600117 0 -0.30375122187793402 0.42101185176250472 0 -0.28668751271846721 0.40841889620721911 0 -0.2923418658786085 0.41749763093600117 0 -0.3017531471534648 0.40934319044674661 0 -0.2923418658786085 0.41749763093600117 0 -0.3017531471534648 0.40934319044674661 0 -0.30375122187793402 0.42101185176250472 0 -0.31767959097266357 0.42639711095597632 0 -0.31504407357977959 0.41224592476014521 0 -0.30375122187793402 0.42101185176250472 0 -0.31504407357977959 0.41224592476014521 0 -0.3017531471534648 0.40934319044674661 0 -0.30375122187793402 0.42101185176250472 0 -0.2924818112863582 0.42676921917890481 0 -0.30375122187793402 0.42101185176250472 0 -0.3032068423967299 0.43381803429725418 0 -0.31767959097266357 0.42639711095597632 0 -0.30375122187793402 0.42101185176250472 0 -0.3032068423967299 0.43381803429725418 0 -0.3032068423967299 0.43381803429725418 0 -0.3072133725044639 0.45231811759849122 0 -0.32566336501616833 0.44464325203482952 0 -0.28450279098558551 0.43672729992042553 0 -0.3032068423967299 0.43381803429725418 0 -0.3072133725044639 0.45231811759849122 0 -0.3072133725044639 0.45231811759849122 0 -0.29667255525901087 0.4761006586452422 0 -0.3299239540233424 0.46790893527655691 0 -0.3072133725044639 0.45231811759849122 0 -0.28765612530900492 0.45426862228583598 0 -0.29667255525901087 0.4761006586452422 0 -0.28765612530900492 0.45426862228583598 0 -0.27547684592439792 0.46700476363968119 0 -0.29667255525901087 0.4761006586452422 0 -0.28450279098558551 0.43672729992042553 0 -0.3072133725044639 0.45231811759849122 0 -0.28450279098558551 0.43672729992042553 0 -0.28765612530900492 0.45426862228583598 0 -0.2744150618715665 0.43919227162534041 0 -0.28450279098558551 0.43672729992042553 0 -0.3072133725044639 0.45231811759849122 0 -0.28765612530900492 0.45426862228583598 0 -0.2744150618715665 0.43919227162534041 0 -0.27547684592439792 0.46700476363968119 0 -0.28765612530900492 0.45426862228583598 0 -0.2744150618715665 0.43919227162534041 0 -0.27547684592439792 0.46700476363968119 0 -0.2744150618715665 0.43919227162534041 0 -0.27547684592439792 0.46700476363968119 0 -0.26311536851704942 0.45713972675817821 0 -0.27547684592439792 0.46700476363968119 0 -0.26311536851704942 0.45713972675817821 0 -0.25082193127881469 0.47412062392256488 0 -0.25174763499341851 0.44824124784512631 0 -0.25082193127881469 0.47412062392256488 0 -0.26311536851704942 0.45713972675817821 0 -0.25174763499341851 0.44824124784512631 0 -0.25082193127881469 0.47412062392256488 0 -0.2744150618715665 0.43919227162534041 0 -0.26311536851704942 0.45713972675817821 0 -0.25174763499341851 0.44824124784512631 0 -0.26580829674164919 0.42602868139630318 0 -0.2744150618715665 0.43919227162534041 0 -0.25174763499341851 0.44824124784512631 0 -0.25082193127881469 0.47412062392256488 0 -0.26699693104293809 0.48389359499548001 0 -0.24989622756421079 0.50000000000000366 0 -0.26699693104293809 0.48389359499548001 0 -0.27688254173686011 0.5 0 -0.24989622756421079 0.50000000000000366 0 -0.25082193127881469 0.47412062392256488 0 -0.24989622756421079 0.50000000000000366 0 -0.27547684592439792 0.46700476363968119 0 -0.25082193127881469 0.47412062392256488 0 -0.26699693104293809 0.48389359499548001 0 -0.27547684592439792 0.46700476363968119 0 -0.26699693104293809 0.48389359499548001 0 -0.29667255525901087 0.4761006586452422 0 -0.26699693104293809 0.48389359499548001 0 -0.27688254173686011 0.5 0 -0.29667255525901087 0.4761006586452422 0 -0.27688254173686011 0.5 0 -0.29667255525901087 0.4761006586452422 0 -0.30386885590950952 0.5 0 -0.29667255525901087 0.4761006586452422 0 -0.30386885590950952 0.5 0 -0.3194084581205327 0.48556186647678051 0 -0.29667255525901087 0.4761006586452422 0 -0.3194084581205327 0.48556186647678051 0 -0.3299239540233424 0.46790893527655691 0 -0.30386885590950952 0.5 0 -0.3194084581205327 0.48556186647678051 0 -0.33085517008215881 0.5 0 -0.33085517008215881 0.5 0 -0.33572175532864212 0.48379973846210378 0 -0.35784148425480811 0.5 0 -0.3194084581205327 0.48556186647678051 0 -0.33085517008215881 0.5 0 -0.33572175532864212 0.48379973846210378 0 -0.33572175532864212 0.48379973846210378 0 -0.3299239540233424 0.46790893527655691 0 -0.35263453554222102 0.48349975295462261 0 -0.3299239540233424 0.46790893527655691 0 -0.35263453554222102 0.48349975295462261 0 -0.3194084581205327 0.48556186647678051 0 -0.33572175532864212 0.48379973846210378 0 -0.3299239540233424 0.46790893527655691 0 -0.3072133725044639 0.45231811759849122 0 -0.3299239540233424 0.46790893527655691 0 -0.3072133725044639 0.45231811759849122 0 -0.32566336501616833 0.44464325203482952 0 -0.3299239540233424 0.46790893527655691 0 -0.32566336501616833 0.44464325203482952 0 -0.34207775840022081 0.45608674279286082 0 -0.34478760235302319 0.4418110738999646 0 -0.333445920930724 0.42951033619747858 0 -0.32566336501616833 0.44464325203482952 0 -0.34478760235302319 0.4418110738999646 0 -0.32566336501616833 0.44464325203482952 0 -0.34207775840022081 0.45608674279286082 0 -0.3299239540233424 0.46790893527655691 0 -0.34207775840022081 0.45608674279286082 0 -0.3299239540233424 0.46790893527655691 0 -0.35225348634571452 0.47022880031607123 0 -0.34207775840022081 0.45608674279286082 0 -0.35776038426285572 0.45584165243688157 0 -0.35225348634571452 0.47022880031607123 0 -0.35776038426285572 0.45584165243688157 0 -0.3660627805748764 0.47068731492991239 0 -0.35225348634571452 0.47022880031607123 0 -0.35941404467654042 0.43653910209162211 0 -0.35776038426285572 0.45584165243688157 0 -0.34478760235302319 0.4418110738999646 0 -0.34207775840022081 0.45608674279286082 0 -0.35776038426285572 0.45584165243688157 0 -0.34478760235302319 0.4418110738999646 0 -0.37725777757625412 0.43344442267531541 0 -0.35941404467654042 0.43653910209162211 0 -0.36972833167532548 0.44672894741451702 0 -0.35941404467654042 0.43653910209162211 0 -0.35776038426285572 0.45584165243688157 0 -0.36972833167532548 0.44672894741451702 0 -0.35776038426285572 0.45584165243688157 0 -0.37233533601448809 0.46031367839212439 0 -0.3660627805748764 0.47068731492991239 0 -0.35776038426285572 0.45584165243688157 0 -0.36972833167532548 0.44672894741451702 0 -0.37233533601448809 0.46031367839212439 0 -0.37796734355910272 0.47293612834561438 0 -0.37233533601448809 0.46031367839212439 0 -0.3660627805748764 0.47068731492991239 0 -0.37796734355910272 0.47293612834561438 0 -0.3660627805748764 0.47068731492991239 0 -0.37225706123870639 0.48100674866295301 0 -0.3660627805748764 0.47068731492991239 0 -0.36375299173876041 0.48269599028036902 0 -0.35225348634571452 0.47022880031607123 0 -0.3660627805748764 0.47068731492991239 0 -0.36375299173876041 0.48269599028036902 0 -0.37225706123870639 0.48100674866295301 0 -0.38665123452756622 0.49723461666833102 0 -0.36148835645502531 0.49446923333666221 0 -0.37638951432927531 0.48840212903384927 0 -0.37225706123870639 0.48100674866295301 0 -0.369152346519662 0.48948878099050602 0 -0.38665123452756622 0.49723461666833102 0 -0.369152346519662 0.48948878099050602 0 -0.36148835645502531 0.49446923333666221 0 -0.36375299173876041 0.48269599028036902 0 -0.37225706123870639 0.48100674866295301 0 -0.369152346519662 0.48948878099050602 0 -0.38482779842745751 0.5 0 -0.36148835645502531 0.49446923333666221 0 -0.35784148425480811 0.5 0 -0.36375299173876041 0.48269599028036902 0 -0.369152346519662 0.48948878099050602 0 -0.36148835645502531 0.49446923333666221 0 -0.36375299173876041 0.48269599028036902 0 -0.36148835645502531 0.49446923333666221 0 -0.35263453554222102 0.48349975295462261 0 -0.36148835645502531 0.49446923333666221 0 -0.35784148425480811 0.5 0 -0.35263453554222102 0.48349975295462261 0 -0.33572175532864212 0.48379973846210378 0 -0.35784148425480811 0.5 0 -0.35263453554222102 0.48349975295462261 0 -0.3299239540233424 0.46790893527655691 0 -0.35225348634571452 0.47022880031607123 0 -0.35263453554222102 0.48349975295462261 0 -0.36375299173876041 0.48269599028036902 0 -0.35225348634571452 0.47022880031607123 0 -0.35263453554222102 0.48349975295462261 0 -0.14432612710773671 0.49999999999999972 0 -0.13373884339090261 0.47557617957858389 0 -0.16031113544803841 0.47716579440884582 0 -0.13373884339090261 0.47557617957858389 0 -0.15132814795883939 0.45559544022052489 0 -0.16031113544803841 0.47716579440884582 0 -0.14432612710773671 0.49999999999999972 0 -0.16031113544803841 0.47716579440884582 0 -0.14432612710773671 0.49999999999999972 0 -0.13373884339090261 0.47557617957858389 0 -0.11535377291377789 0.5 0 -0.13373884339090261 0.47557617957858389 0 -0.13088558583442089 0.45167413568938708 0 -0.15132814795883939 0.45559544022052489 0 -0.13373884339090261 0.47557617957858389 0 -0.13088558583442089 0.45167413568938708 0 -0.1109696719261383 0.45974829439590398 0 -0.13088558583442089 0.45167413568938708 0 -0.14234516046963999 0.43402508603220419 0 -0.1189282844760139 0.43536593157966708 0 -0.15132814795883939 0.45559544022052489 0 -0.14234516046963999 0.43402508603220419 0 -0.15132814795883939 0.45559544022052489 0 -0.16413923492203969 0.438685196425803 0 -0.14234516046963999 0.43402508603220419 0 -0.13088558583442089 0.45167413568938708 0 -0.15132814795883939 0.45559544022052489 0 -0.14234516046963999 0.43402508603220419 0 -0.15132814795883939 0.45559544022052489 0 -0.16031113544803841 0.47716579440884582 0 -0.15132814795883939 0.45559544022052489 0 -0.17210906081328031 0.46031273761938768 0 -0.16031113544803841 0.47716579440884582 0 -0.17210906081328031 0.46031273761938768 0 -0.16031113544803841 0.47716579440884582 0 -0.15132814795883939 0.45559544022052489 0 -0.16413923492203969 0.438685196425803 0 -0.17210906081328031 0.46031273761938768 0 -0.16413923492203969 0.438685196425803 0 -0.183906986178523 0.44345968082993009 0 -0.17210906081328031 0.46031273761938768 0 -0.183906986178523 0.44345968082993009 0 -0.17210906081328031 0.46031273761938768 0 -0.19450382052722501 0.45356588439157219 0 -0.183906986178523 0.44345968082993009 0 -0.17210906081328031 0.46031273761938768 0 -0.17210906081328031 0.46031273761938768 0 -0.19450382052722501 0.45356588439157219 0 -0.18978959321759539 0.4678720334394712 0 -0.17210906081328031 0.46031273761938768 0 -0.17767989789199201 0.47301476110769808 0 -0.18978959321759539 0.4678720334394712 0 -0.1841109986086005 0.48167500678729502 0 -0.17767989789199201 0.47301476110769808 0 -0.18978959321759539 0.4678720334394712 0 -0.1841109986086005 0.48167500678729502 0 -0.1719792169982137 0.48344157087583461 0 -0.17767989789199201 0.47301476110769808 0 -0.17210906081328031 0.46031273761938768 0 -0.17767989789199201 0.47301476110769808 0 -0.16031113544803841 0.47716579440884582 0 -0.1719792169982137 0.48344157087583461 0 -0.17767989789199201 0.47301476110769808 0 -0.16031113544803841 0.47716579440884582 0 -0.16031113544803841 0.47716579440884582 0 -0.16939819462334901 0.49898605021765541 0 -0.1719792169982137 0.48344157087583461 0 -0.16031113544803841 0.47716579440884582 0 -0.16939819462334901 0.49898605021765541 0 -0.14432612710773671 0.49999999999999972 0 -0.16031113544803841 0.47716579440884582 0 -0.16939819462334901 0.49898605021765541 0 -0.17565107754167961 0.49220976241087411 0 -0.1971111773359738 0.5 0 -0.18913838998765781 0.48955618239374421 0 -0.16939819462334901 0.49898605021765541 0 -0.17565107754167961 0.49220976241087411 0 -0.1971111773359738 0.5 0 -0.1841109986086005 0.48167500678729502 0 -0.1719792169982137 0.48344157087583461 0 -0.17565107754167961 0.49220976241087411 0 -0.1719792169982137 0.48344157087583461 0 -0.16939819462334901 0.49898605021765541 0 -0.17565107754167961 0.49220976241087411 0 -0.1841109986086005 0.48167500678729502 0 -0.17565107754167961 0.49220976241087411 0 -0.18913838998765781 0.48955618239374421 0 -0.1971111773359738 0.5 0 -0.18913838998765781 0.48955618239374421 0 -0.19968030646437751 0.48433996037680749 0 -0.1841109986086005 0.48167500678729502 0 -0.18913838998765781 0.48955618239374421 0 -0.19968030646437751 0.48433996037680749 0 -0.1841109986086005 0.48167500678729502 0 -0.19968030646437751 0.48433996037680749 0 -0.18978959321759539 0.4678720334394712 0 -0.19968030646437751 0.48433996037680749 0 -0.2089563746461808 0.4559221373664939 0 -0.18978959321759539 0.4678720334394712 0 -0.19968030646437751 0.48433996037680749 0 -0.2222347760603739 0.47597928282186619 0 -0.2089563746461808 0.4559221373664939 0 -0.19968030646437751 0.48433996037680749 0 -0.2089563746461808 0.4559221373664939 0 -0.19968030646437751 0.48433996037680749 0 -0.2235037024500923 0.5 0 -0.2222347760603739 0.47597928282186619 0 -0.1971111773359738 0.5 0 -0.19968030646437751 0.48433996037680749 0 -0.2235037024500923 0.5 0 -0.2235037024500923 0.5 0 -0.2222347760603739 0.47597928282186619 0 -0.2366141593383729 0.48752497668610778 0 -0.25082193127881469 0.47412062392256488 0 -0.2222347760603739 0.47597928282186619 0 -0.2366141593383729 0.48752497668610778 0 -0.25082193127881469 0.47412062392256488 0 -0.2222347760603739 0.47597928282186619 0 -0.2326865391035646 0.45753016393077878 0 -0.25082193127881469 0.47412062392256488 0 -0.2366141593383729 0.48752497668610778 0 -0.24989622756421079 0.50000000000000366 0 -0.2235037024500923 0.5 0 -0.2366141593383729 0.48752497668610778 0 -0.24989622756421079 0.50000000000000366 0 -0.25174763499341851 0.44824124784512631 0 -0.23534300399315899 0.44085574603673122 0 -0.2326865391035646 0.45753016393077878 0 -0.25174763499341851 0.44824124784512631 0 -0.23534300399315899 0.44085574603673122 0 -0.24101400311090229 0.42843677407949432 0 -0.25174763499341851 0.44824124784512631 0 -0.25082193127881469 0.47412062392256488 0 -0.2326865391035646 0.45753016393077878 0 -0.2222347760603739 0.47597928282186619 0 -0.2326865391035646 0.45753016393077878 0 -0.2089563746461808 0.4559221373664939 0 -0.2326865391035646 0.45753016393077878 0 -0.22247309730019399 0.44429169682479352 0 -0.2089563746461808 0.4559221373664939 0 -0.23534300399315899 0.44085574603673122 0 -0.2326865391035646 0.45753016393077878 0 -0.22247309730019399 0.44429169682479352 0 -0.23534300399315899 0.44085574603673122 0 -0.22247309730019399 0.44429169682479352 0 -0.23000320748332401 0.4310545908855633 0 -0.2089563746461808 0.4559221373664939 0 -0.20510375060036731 0.43131386872053068 0 -0.21823244282798421 0.42750431435618019 0 -0.22247309730019399 0.44429169682479352 0 -0.2089563746461808 0.4559221373664939 0 -0.21823244282798421 0.42750431435618019 0 -0.2089563746461808 0.4559221373664939 0 -0.21823244282798421 0.42750431435618019 0 -0.2089563746461808 0.4559221373664939 0 -0.19763516869921241 0.4421736390697999 0 -0.20510375060036731 0.43131386872053068 0 -0.2089563746461808 0.4559221373664939 0 -0.19450382052722501 0.45356588439157219 0 -0.18978959321759539 0.4678720334394712 0 -0.2089563746461808 0.4559221373664939 0 -0.19450382052722501 0.45356588439157219 0 -0.19763516869921241 0.4421736390697999 0 -0.183906986178523 0.44345968082993009 0 -0.19450382052722501 0.45356588439157219 0 -0.19763516869921241 0.4421736390697999 0 -0.183906986178523 0.44345968082993009 0 -0.19763516869921241 0.4421736390697999 0 -0.1957049115437656 0.42660662404047273 0 -0.183906986178523 0.44345968082993009 0 -0.1957049115437656 0.42660662404047273 0 -0.1957049115437656 0.42660662404047273 0 -0.20510375060036731 0.43131386872053068 0 -0.1957049115437656 0.42660662404047273 0 -0.1991856642614912 0.42163445127230892 0 -0.20496866879013961 0.42474756361488708 0 -0.1957049115437656 0.42660662404047273 0 -0.20510375060036731 0.43131386872053068 0 -0.20496866879013961 0.42474756361488708 0 -0.1957049115437656 0.42660662404047273 0 -0.1991856642614912 0.42163445127230892 0 -0.19763516869921241 0.4421736390697999 0 -0.1957049115437656 0.42660662404047273 0 -0.20510375060036731 0.43131386872053068 0 -0.1957049115437656 0.42660662404047273 0 -0.19286600652461569 0.41477479888712843 0 -0.1766359139965622 0.41705624907207961 0 -0.19286600652461569 0.41477479888712843 0 -0.19657015628227739 0.40421968270018682 0 -0.18539296701000221 0.40624671435894472 0 -0.19286600652461569 0.41477479888712843 0 -0.1991856642614912 0.42163445127230892 0 -0.20370642605359529 0.41288507187877821 0 -0.1957049115437656 0.42660662404047273 0 -0.19286600652461569 0.41477479888712843 0 -0.1991856642614912 0.42163445127230892 0 -0.20370642605359529 0.41288507187877821 0 -0.2076276397280456 0.40438170235193499 0 -0.19657015628227739 0.40421968270018682 0 -0.19286600652461569 0.41477479888712843 0 -0.20370642605359529 0.41288507187877821 0 -0.19657015628227739 0.40421968270018682 0 -0.20996709400075911 0.420487240241044 0 -0.21381238253947951 0.41071331612281298 0 -0.21823244282798421 0.42750431435618019 0 -0.20370642605359529 0.41288507187877821 0 -0.21381238253947951 0.41071331612281298 0 -0.2076276397280456 0.40438170235193499 0 -0.1991856642614912 0.42163445127230892 0 -0.20370642605359529 0.41288507187877821 0 -0.20996709400075911 0.420487240241044 0 -0.20370642605359529 0.41288507187877821 0 -0.20996709400075911 0.420487240241044 0 -0.21381238253947951 0.41071331612281298 0 -0.20510375060036731 0.43131386872053068 0 -0.20496866879013961 0.42474756361488708 0 -0.21823244282798421 0.42750431435618019 0 -0.1991856642614912 0.42163445127230892 0 -0.20996709400075911 0.420487240241044 0 -0.20496866879013961 0.42474756361488708 0 -0.20996709400075911 0.420487240241044 0 -0.20496866879013961 0.42474756361488708 0 -0.21823244282798421 0.42750431435618019 0 -0.22247309730019399 0.44429169682479352 0 -0.21823244282798421 0.42750431435618019 0 -0.23000320748332401 0.4310545908855633 0 -0.21823244282798421 0.42750431435618019 0 -0.23000320748332401 0.4310545908855633 0 -0.23277374080110891 0.41652614113810582 0 -0.21823244282798421 0.42750431435618019 0 -0.23277374080110891 0.41652614113810582 0 -0.2275085110097875 0.39908649134586649 0 -0.23277374080110891 0.41652614113810582 0 -0.2373185595905957 0.4072774926954103 0 -0.2275085110097875 0.39908649134586649 0 -0.21381238253947951 0.41071331612281298 0 -0.21823244282798421 0.42750431435618019 0 -0.2275085110097875 0.39908649134586649 0 -0.21823244282798421 0.42750431435618019 0 -0.2275085110097875 0.39908649134586649 0 -0.23277374080110891 0.41652614113810582 0 -0.24354309268638119 0.41158104680375168 0 -0.24101400311090229 0.42843677407949432 0 -0.25359904242262599 0.39648249569024879 0 -0.25267333870802228 0.42236187176768752 0 -0.24354309268638119 0.41158104680375168 0 -0.25267333870802228 0.42236187176768752 0 -0.24354309268638119 0.41158104680375168 0 -0.24101400311090229 0.42843677407949432 0 -0.23277374080110891 0.41652614113810582 0 -0.2373185595905957 0.4072774926954103 0 -0.24354309268638119 0.41158104680375168 0 -0.2373185595905957 0.4072774926954103 0 -0.24354309268638119 0.41158104680375168 0 -0.2437001221017607 0.40074322345905222 0 -0.25267333870802228 0.42236187176768752 0 -0.25174763499341851 0.44824124784512631 0 -0.24101400311090229 0.42843677407949432 0 -0.23534300399315899 0.44085574603673122 0 -0.23000320748332401 0.4310545908855633 0 -0.24101400311090229 0.42843677407949432 0 -0.23000320748332401 0.4310545908855633 0 -0.23277374080110891 0.41652614113810582 0 -0.24101400311090229 0.42843677407949432 0 -0.2402423506466759 0.38570594589730262 0 -0.2275085110097875 0.39908649134586649 0 -0.23678457919159099 0.3706686683355529 0 -0.2402423506466759 0.38570594589730262 0 -0.24637633215159119 0.37853607661088812 0 -0.23678457919159099 0.3706686683355529 0 -0.2402423506466759 0.38570594589730262 0 -0.23678457919159099 0.3706686683355529 0 -0.2402423506466759 0.38570594589730262 0 -0.24637633215159119 0.37853607661088812 0 -0.24980757689420091 0.38817448546447791 0 -0.2373185595905957 0.4072774926954103 0 -0.2437001221017607 0.40074322345905222 0 -0.2275085110097875 0.39908649134586649 0 -0.2402423506466759 0.38570594589730262 0 -0.24980757689420091 0.38817448546447791 0 -0.2437001221017607 0.40074322345905222 0 -0.2402423506466759 0.38570594589730262 0 -0.2437001221017607 0.40074322345905222 0 -0.2275085110097875 0.39908649134586649 0 -0.25359904242262599 0.39648249569024879 0 -0.24980757689420091 0.38817448546447791 0 -0.2437001221017607 0.40074322345905222 0 -0.25359904242262599 0.39648249569024879 0 -0.24354309268638119 0.41158104680375168 0 -0.2437001221017607 0.40074322345905222 0 -0.2402423506466759 0.38570594589730262 0 -0.2437001221017607 0.40074322345905222 0 -0.2275085110097875 0.39908649134586649 0 -0.21998852378880171 0.38090899172599202 0 -0.21620772075668679 0.3991673082120461 0 -0.21381238253947951 0.41071331612281298 0 -0.2275085110097875 0.39908649134586649 0 -0.21620772075668679 0.3991673082120461 0 -0.2275085110097875 0.39908649134586649 0 -0.23678457919159099 0.3706686683355529 0 -0.2275085110097875 0.39908649134586649 0 -0.21998852378880171 0.38090899172599202 0 -0.23678457919159099 0.3706686683355529 0 -0.21998852378880171 0.38090899172599202 0 -0.20572833204759139 0.38042645340413628 0 -0.2128541241823538 0.36647859491925461 0 -0.21998852378880171 0.38090899172599202 0 -0.20572833204759139 0.38042645340413628 0 -0.20672045150578641 0.39339078898591079 0 -0.21998852378880171 0.38090899172599202 0 -0.21620772075668679 0.3991673082120461 0 -0.20672045150578641 0.39339078898591079 0 -0.21381238253947951 0.41071331612281298 0 -0.21620772075668679 0.3991673082120461 0 -0.2076276397280456 0.40438170235193499 0 -0.21620772075668679 0.3991673082120461 0 -0.20672045150578641 0.39339078898591079 0 -0.2076276397280456 0.40438170235193499 0 -0.20672045150578641 0.39339078898591079 0 -0.2076276397280456 0.40438170235193499 0 -0.19657015628227739 0.40421968270018682 0 -0.19657015628227739 0.40421968270018682 0 -0.19365639785219441 0.39002405158135028 0 -0.18539296701000221 0.40624671435894472 0 -0.20672045150578641 0.39339078898591079 0 -0.19657015628227739 0.40421968270018682 0 -0.19365639785219441 0.39002405158135028 0 -0.19365639785219441 0.39002405158135028 0 -0.17972258223470361 0.38007782732375511 0 -0.195422162908821 0.37132983980817402 0 -0.20572833204759139 0.38042645340413628 0 -0.19365639785219441 0.39002405158135028 0 -0.195422162908821 0.37132983980817402 0 -0.20572833204759139 0.38042645340413628 0 -0.20672045150578641 0.39339078898591079 0 -0.19365639785219441 0.39002405158135028 0 -0.19365639785219441 0.39002405158135028 0 -0.17972258223470361 0.38007782732375511 0 -0.17668541232953561 0.39762630263892912 0 -0.17972258223470361 0.38007782732375511 0 -0.16356498037513709 0.38933139449970389 0 -0.17668541232953561 0.39762630263892912 0 -0.17972258223470361 0.38007782732375511 0 -0.16356498037513709 0.38933139449970389 0 -0.1661047557574799 0.37175484221579658 0 -0.16356498037513709 0.38933139449970389 0 -0.14990491497372041 0.3830273858424641 0 -0.1661047557574799 0.37175484221579658 0 -0.16356498037513709 0.38933139449970389 0 -0.17668541232953561 0.39762630263892912 0 -0.15756691644935869 0.40750587410368672 0 -0.16356498037513709 0.38933139449970389 0 -0.15756691644935869 0.40750587410368672 0 -0.15210414491250199 0.39489535167480272 0 -0.19365639785219441 0.39002405158135028 0 -0.17668541232953561 0.39762630263892912 0 -0.18539296701000221 0.40624671435894472 0 -0.17668541232953561 0.39762630263892912 0 -0.18539296701000221 0.40624671435894472 0 -0.1766359139965622 0.41705624907207961 0 -0.1957049115437656 0.42660662404047273 0 -0.1766359139965622 0.41705624907207961 0 -0.19286600652461569 0.41477479888712843 0 -0.18539296701000221 0.40624671435894472 0 -0.1766359139965622 0.41705624907207961 0 -0.16413923492203969 0.438685196425803 0 -0.183906986178523 0.44345968082993009 0 -0.1766359139965622 0.41705624907207961 0 -0.183906986178523 0.44345968082993009 0 -0.1957049115437656 0.42660662404047273 0 -0.1766359139965622 0.41705624907207961 0 -0.16413923492203969 0.438685196425803 0 -0.1766359139965622 0.41705624907207961 0 -0.15740865177825419 0.42278428307105459 0 -0.17668541232953561 0.39762630263892912 0 -0.1766359139965622 0.41705624907207961 0 -0.15756691644935869 0.40750587410368672 0 -0.1766359139965622 0.41705624907207961 0 -0.15740865177825419 0.42278428307105459 0 -0.15756691644935869 0.40750587410368672 0 -0.1766359139965622 0.41705624907207961 0 -0.15756691644935869 0.40750587410368672 0 -0.15756691644935869 0.40750587410368672 0 -0.1463560330536704 0.41664900972149937 0 -0.13999577525351961 0.40759737184703121 0 -0.1463560330536704 0.41664900972149937 0 -0.14234516046963999 0.43402508603220419 0 -0.13336217298044059 0.41245473184388359 0 -0.15740865177825419 0.42278428307105459 0 -0.15756691644935869 0.40750587410368672 0 -0.1463560330536704 0.41664900972149937 0 -0.15740865177825419 0.42278428307105459 0 -0.1463560330536704 0.41664900972149937 0 -0.14234516046963999 0.43402508603220419 0 -0.16413923492203969 0.438685196425803 0 -0.15740865177825419 0.42278428307105459 0 -0.14234516046963999 0.43402508603220419 0 -0.14234516046963999 0.43402508603220419 0 -0.13336217298044059 0.41245473184388359 0 -0.14234516046963999 0.43402508603220419 0 -0.13336217298044059 0.41245473184388359 0 -0.1189282844760139 0.43536593157966708 0 -0.1463560330536704 0.41664900972149937 0 -0.13999577525351961 0.40759737184703121 0 -0.13336217298044059 0.41245473184388359 0 -0.13336217298044059 0.41245473184388359 0 -0.1243791854912419 0.39088437765556261 0 -0.13336217298044059 0.41245473184388359 0 -0.1384979189021549 0.39795549913529449 0 -0.1243791854912419 0.39088437765556261 0 -0.13999577525351961 0.40759737184703121 0 -0.1384979189021549 0.39795549913529449 0 -0.13999577525351961 0.40759737184703121 0 -0.13336217298044059 0.41245473184388359 0 -0.1384979189021549 0.39795549913529449 0 -0.1384979189021549 0.39795549913529449 0 -0.1243791854912419 0.39088437765556261 0 -0.1384979189021549 0.39795549913529449 0 -0.13450668056010309 0.37226344126793498 0 -0.1243791854912419 0.39088437765556261 0 -0.1384979189021549 0.39795549913529449 0 -0.13450668056010309 0.37226344126793498 0 -0.1384979189021549 0.39795549913529449 0 -0.14990491497372041 0.3830273858424641 0 -0.13450668056010309 0.37226344126793498 0 -0.16356498037513709 0.38933139449970389 0 -0.14990491497372041 0.3830273858424641 0 -0.15210414491250199 0.39489535167480272 0 -0.15756691644935869 0.40750587410368672 0 -0.13999577525351961 0.40759737184703121 0 -0.1384979189021549 0.39795549913529449 0 -0.15756691644935869 0.40750587410368672 0 -0.1384979189021549 0.39795549913529449 0 -0.15210414491250199 0.39489535167480272 0 -0.15756691644935869 0.40750587410368672 0 -0.1384979189021549 0.39795549913529449 0 -0.1384979189021549 0.39795549913529449 0 -0.14990491497372041 0.3830273858424641 0 -0.15210414491250199 0.39489535167480272 0 -0.14720129895131639 0.34804938040221561 0 -0.15223762552373121 0.36578219674643891 0 -0.16375924531499739 0.357022770710826 0 -0.14990491497372041 0.3830273858424641 0 -0.15223762552373121 0.36578219674643891 0 -0.13450668056010309 0.37226344126793498 0 -0.14990491497372041 0.3830273858424641 0 -0.15223762552373121 0.36578219674643891 0 -0.1661047557574799 0.37175484221579658 0 -0.14720129895131639 0.34804938040221561 0 -0.15223762552373121 0.36578219674643891 0 -0.13450668056010309 0.37226344126793498 0 -0.13450668056010309 0.37226344126793498 0 -0.1305154422180517 0.34657138340057547 0 -0.13450668056010309 0.37226344126793498 0 -0.1305154422180517 0.34657138340057547 0 -0.1227721358207568 0.35956873080849511 0 -0.14720129895131639 0.34804938040221561 0 -0.1305154422180517 0.34657138340057547 0 -0.14065096733102231 0.33767319647246002 0 -0.14720129895131639 0.34804938040221561 0 -0.13450668056010309 0.37226344126793498 0 -0.1305154422180517 0.34657138340057547 0 -0.1305154422180517 0.34657138340057547 0 -0.12927225891541369 0.33179771917639372 0 -0.1265242038760003 0.32087932553321602 0 -0.1305154422180517 0.34657138340057547 0 -0.1265242038760003 0.32087932553321602 0 -0.1305154422180517 0.34657138340057547 0 -0.1265242038760003 0.32087932553321602 0 -0.11861688076262671 0.33526376774420791 0 -0.12927225891541369 0.33179771917639372 0 -0.14324917117821209 0.32609420879196022 0 -0.14065096733102231 0.33767319647246002 0 -0.1305154422180517 0.34657138340057547 0 -0.12927225891541369 0.33179771917639372 0 -0.14065096733102231 0.33767319647246002 0 -0.12927225891541369 0.33179771917639372 0 -0.1265242038760003 0.32087932553321602 0 -0.14324917117821209 0.32609420879196022 0 -0.1265242038760003 0.32087932553321602 0 -0.1370276733795493 0.31304026082259961 0 -0.14324917117821209 0.32609420879196022 0 -0.12927225891541369 0.33179771917639372 0 -0.1265242038760003 0.32087932553321602 0 -0.14324917117821209 0.32609420879196022 0 -0.15631830242716219 0.33419333110217497 0 -0.16291498418743661 0.31886930063827801 0 -0.1370276733795493 0.31304026082259961 0 -0.14324917117821209 0.32609420879196022 0 -0.14758727142504999 0.30849570499112039 0 -0.14324917117821209 0.32609420879196022 0 -0.16389156516561959 0.3069468136185422 0 -0.14324917117821209 0.32609420879196022 0 -0.16389156516561959 0.3069468136185422 0 -0.14758727142504999 0.30849570499112039 0 -0.14720129895131639 0.34804938040221561 0 -0.14065096733102231 0.33767319647246002 0 -0.15631830242716219 0.33419333110217497 0 -0.14324917117821209 0.32609420879196022 0 -0.14065096733102231 0.33767319647246002 0 -0.15631830242716219 0.33419333110217497 0 -0.14720129895131639 0.34804938040221561 0 -0.15631830242716219 0.33419333110217497 0 -0.17289923166845261 0.33935779098511198 0 -0.14720129895131639 0.34804938040221561 0 -0.17289923166845261 0.33935779098511198 0 -0.15631830242716219 0.33419333110217497 0 -0.16291498418743661 0.31886930063827801 0 -0.17289923166845261 0.33935779098511198 0 -0.14324917117821209 0.32609420879196022 0 -0.16291498418743661 0.31886930063827801 0 -0.16389156516561959 0.3069468136185422 0 -0.16291498418743661 0.31886930063827801 0 -0.18049584438088709 0.32297892788271287 0 -0.17289923166845261 0.33935779098511198 0 -0.16291498418743661 0.31886930063827801 0 -0.18049584438088709 0.32297892788271287 0 -0.1858726243819207 0.30574332757258937 0 -0.17289923166845261 0.33935779098511198 0 -0.19859716438558889 0.33066620156800852 0 -0.18049584438088709 0.32297892788271287 0 -0.17289923166845261 0.33935779098511198 0 -0.19859716438558889 0.33066620156800852 0 -0.17289923166845261 0.33935779098511198 0 -0.16375924531499739 0.357022770710826 0 -0.180353314674007 0.3601696432045669 0 -0.17289923166845261 0.33935779098511198 0 -0.180353314674007 0.3601696432045669 0 -0.19929874874297321 0.35035369282719048 0 -0.14720129895131639 0.34804938040221561 0 -0.17289923166845261 0.33935779098511198 0 -0.16375924531499739 0.357022770710826 0 -0.16375924531499739 0.357022770710826 0 -0.1661047557574799 0.37175484221579658 0 -0.180353314674007 0.3601696432045669 0 -0.15223762552373121 0.36578219674643891 0 -0.16375924531499739 0.357022770710826 0 -0.1661047557574799 0.37175484221579658 0 -0.17972258223470361 0.38007782732375511 0 -0.180353314674007 0.3601696432045669 0 -0.195422162908821 0.37132983980817402 0 -0.17972258223470361 0.38007782732375511 0 -0.1661047557574799 0.37175484221579658 0 -0.180353314674007 0.3601696432045669 0 -0.180353314674007 0.3601696432045669 0 -0.195422162908821 0.37132983980817402 0 -0.19929874874297321 0.35035369282719048 0 -0.195422162908821 0.37132983980817402 0 -0.19929874874297321 0.35035369282719048 0 -0.2128541241823538 0.36647859491925461 0 -0.19929874874297321 0.35035369282719048 0 -0.21615098869349089 0.35205341118941769 0 -0.2128541241823538 0.36647859491925461 0 -0.19929874874297321 0.35035369282719048 0 -0.21615098869349089 0.35205341118941769 0 -0.21526650975860279 0.33761590623888932 0 -0.20572833204759139 0.38042645340413628 0 -0.195422162908821 0.37132983980817402 0 -0.2128541241823538 0.36647859491925461 0 -0.21615098869349089 0.35205341118941769 0 -0.2128541241823538 0.36647859491925461 0 -0.22432801940273811 0.36121864280920041 0 -0.21998852378880171 0.38090899172599202 0 -0.22348881164137119 0.36981872444750002 0 -0.23678457919159099 0.3706686683355529 0 -0.21998852378880171 0.38090899172599202 0 -0.2128541241823538 0.36647859491925461 0 -0.22348881164137119 0.36981872444750002 0 -0.22348881164137119 0.36981872444750002 0 -0.22432801940273811 0.36121864280920041 0 -0.23678457919159099 0.3706686683355529 0 -0.2128541241823538 0.36647859491925461 0 -0.22348881164137119 0.36981872444750002 0 -0.22432801940273811 0.36121864280920041 0 -0.21615098869349089 0.35205341118941769 0 -0.23115749399153959 0.34619740321120301 0 -0.21526650975860279 0.33761590623888932 0 -0.21615098869349089 0.35205341118941769 0 -0.22432801940273811 0.36121864280920041 0 -0.23115749399153959 0.34619740321120301 0 -0.22432801940273811 0.36121864280920041 0 -0.23115749399153959 0.34619740321120301 0 -0.23678457919159099 0.3706686683355529 0 -0.23115749399153959 0.34619740321120301 0 -0.23678457919159099 0.3706686683355529 0 -0.23115749399153959 0.34619740321120301 0 -0.24539265141780139 0.35030913564137889 0 -0.2404111173704549 0.35955853868932319 0 -0.23115749399153959 0.34619740321120301 0 -0.23678457919159099 0.3706686683355529 0 -0.2404111173704549 0.35955853868932319 0 -0.23115749399153959 0.34619740321120301 0 -0.24539265141780139 0.35030913564137889 0 -0.2433301115497512 0.34106232941676179 0 -0.25322807935694502 0.34145417571987058 0 -0.24539265141780139 0.35030913564137889 0 -0.2433301115497512 0.34106232941676179 0 -0.25548558678424371 0.35822630331505512 0 -0.24539265141780139 0.35030913564137889 0 -0.2404111173704549 0.35955853868932319 0 -0.25548558678424371 0.35822630331505512 0 -0.24879224663555319 0.36844123118380262 0 -0.2404111173704549 0.35955853868932319 0 -0.24637633215159119 0.37853607661088812 0 -0.24879224663555319 0.36844123118380262 0 -0.23678457919159099 0.3706686683355529 0 -0.24879224663555319 0.36844123118380262 0 -0.23678457919159099 0.3706686683355529 0 -0.2404111173704549 0.35955853868932319 0 -0.23678457919159099 0.3706686683355529 0 -0.2404111173704549 0.35955853868932319 0 -0.24525105680585091 0.32539921709460512 0 -0.23900682958605099 0.33329729180315221 0 -0.22553040879148811 0.32172613808685302 0 -0.24999302981986149 0.31328302273380082 0 -0.22553040879148811 0.32172613808685302 0 -0.23389575896535619 0.30963340628770081 0 -0.24999302981986149 0.31328302273380082 0 -0.24525105680585091 0.32539921709460512 0 -0.22553040879148811 0.32172613808685302 0 -0.24999302981986149 0.31328302273380082 0 -0.22553040879148811 0.32172613808685302 0 -0.24525105680585091 0.32539921709460512 0 -0.24843568547779929 0.33368959027150802 0 -0.23900682958605099 0.33329729180315221 0 -0.24843568547779929 0.33368959027150802 0 -0.2433301115497512 0.34106232941676179 0 -0.23900682958605099 0.33329729180315221 0 -0.25322807935694502 0.34145417571987058 0 -0.24843568547779929 0.33368959027150802 0 -0.2433301115497512 0.34106232941676179 0 -0.23115749399153959 0.34619740321120301 0 -0.2433301115497512 0.34106232941676179 0 -0.23900682958605099 0.33329729180315221 0 -0.23115749399153959 0.34619740321120301 0 -0.22553040879148811 0.32172613808685302 0 -0.21526650975860279 0.33761590623888932 0 -0.23115749399153959 0.34619740321120301 0 -0.22553040879148811 0.32172613808685302 0 -0.23115749399153959 0.34619740321120301 0 -0.23900682958605099 0.33329729180315221 0 -0.22553040879148811 0.32172613808685302 0 -0.22553040879148811 0.32172613808685302 0 -0.22746194514933821 0.30992121083891028 0 -0.23389575896535619 0.30963340628770081 0 -0.22553040879148811 0.32172613808685302 0 -0.2127736722202295 0.31641956939465532 0 -0.22269181345045941 0.31143846239417461 0 -0.22553040879148811 0.32172613808685302 0 -0.22269181345045941 0.31143846239417461 0 -0.22746194514933821 0.30992121083891028 0 -0.2127736722202295 0.31641956939465532 0 -0.19859716438558889 0.33066620156800852 0 -0.20075964141379171 0.31232975945500718 0 -0.22553040879148811 0.32172613808685302 0 -0.19859716438558889 0.33066620156800852 0 -0.22553040879148811 0.32172613808685302 0 -0.2127736722202295 0.31641956939465532 0 -0.19859716438558889 0.33066620156800852 0 -0.22553040879148811 0.32172613808685302 0 -0.21526650975860279 0.33761590623888932 0 -0.19859716438558889 0.33066620156800852 0 -0.19929874874297321 0.35035369282719048 0 -0.21526650975860279 0.33761590623888932 0 -0.19859716438558889 0.33066620156800852 0 -0.17289923166845261 0.33935779098511198 0 -0.19929874874297321 0.35035369282719048 0 -0.19859716438558889 0.33066620156800852 0 -0.18049584438088709 0.32297892788271287 0 -0.19859716438558889 0.33066620156800852 0 -0.20075964141379171 0.31232975945500718 0 -0.18049584438088709 0.32297892788271287 0 -0.20075964141379171 0.31232975945500718 0 -0.1858726243819207 0.30574332757258937 0 -0.20883026457640491 0.29261735450690068 0 -0.1858726243819207 0.30574332757258937 0 -0.20075964141379171 0.31232975945500718 0 -0.20883026457640491 0.29261735450690068 0 -0.1858726243819207 0.30574332757258937 0 -0.20883026457640491 0.29261735450690068 0 -0.2051763531404345 0.26865202327170629 0 -0.18453395915302709 0.28779941844512419 0 -0.20883026457640491 0.29261735450690068 0 -0.18453395915302709 0.28779941844512419 0 -0.1858726243819207 0.30574332757258937 0 -0.2127736722202295 0.31641956939465532 0 -0.20075964141379171 0.31232975945500718 0 -0.21719347775634151 0.30578569397661309 0 -0.20075964141379171 0.31232975945500718 0 -0.20883026457640491 0.29261735450690068 0 -0.21719347775634151 0.30578569397661309 0 -0.20883026457640491 0.29261735450690068 0 -0.21719347775634151 0.30578569397661309 0 -0.22392504903862601 0.29820992642319222 0 -0.2127736722202295 0.31641956939465532 0 -0.21719347775634151 0.30578569397661309 0 -0.22269181345045941 0.31143846239417461 0 -0.21719347775634151 0.30578569397661309 0 -0.22269181345045941 0.31143846239417461 0 -0.22560719735665921 0.30411114891456942 0 -0.22269181345045941 0.31143846239417461 0 -0.22746194514933821 0.30992121083891028 0 -0.22560719735665921 0.30411114891456942 0 -0.22746194514933821 0.30992121083891028 0 -0.23081985887149101 0.30244842444720182 0 -0.22560719735665921 0.30411114891456942 0 -0.22746194514933821 0.30992121083891028 0 -0.23389575896535619 0.30963340628770081 0 -0.23081985887149101 0.30244842444720182 0 -0.23389575896535619 0.30963340628770081 0 -0.23081985887149101 0.30244842444720182 0 -0.236101132378946 0.30138216514301258 0 -0.2324616814461429 0.29825439783926883 0 -0.23081985887149101 0.30244842444720182 0 -0.2284765813608691 0.2998030771894783 0 -0.2324616814461429 0.29825439783926883 0 -0.23081985887149101 0.30244842444720182 0 -0.236101132378946 0.30138216514301258 0 -0.2324616814461429 0.29825439783926883 0 -0.2336392436144962 0.29368413807314592 0 -0.236101132378946 0.30138216514301258 0 -0.23081985887149101 0.30244842444720182 0 -0.2284765813608691 0.2998030771894783 0 -0.22560719735665921 0.30411114891456942 0 -0.2284765813608691 0.2998030771894783 0 -0.22392504903862601 0.29820992642319222 0 -0.22956912009142669 0.29599148832315908 0 -0.2324616814461429 0.29825439783926883 0 -0.2284765813608691 0.2998030771894783 0 -0.22956912009142669 0.29599148832315908 0 -0.21719347775634151 0.30578569397661309 0 -0.22392504903862601 0.29820992642319222 0 -0.22560719735665921 0.30411114891456942 0 -0.2284765813608691 0.2998030771894783 0 -0.22392504903862601 0.29820992642319222 0 -0.22560719735665921 0.30411114891456942 0 -0.20883026457640491 0.29261735450690068 0 -0.23178790477088901 0.27949138144121211 0 -0.23007657369586931 0.27631487561307738 0 -0.20883026457640491 0.29261735450690068 0 -0.22753640025800709 0.29126726880693188 0 -0.23178790477088901 0.27949138144121211 0 -0.20883026457640491 0.29261735450690068 0 -0.22392504903862601 0.29820992642319222 0 -0.22753640025800709 0.29126726880693188 0 -0.20883026457640491 0.29261735450690068 0 -0.23178790477088901 0.27949138144121211 0 -0.2369014190029349 0.28898288661950478 0 -0.23178790477088901 0.27949138144121211 0 -0.22753640025800709 0.29126726880693188 0 -0.23500501929711851 0.28882816846398129 0 -0.23178790477088901 0.27949138144121211 0 -0.22956912009142669 0.29599148832315908 0 -0.22753640025800709 0.29126726880693188 0 -0.2336392436144962 0.29368413807314592 0 -0.22392504903862601 0.29820992642319222 0 -0.22956912009142669 0.29599148832315908 0 -0.22753640025800709 0.29126726880693188 0 -0.22753640025800709 0.29126726880693188 0 -0.2336392436144962 0.29368413807314592 0 -0.23500501929711851 0.28882816846398129 0 -0.2324616814461429 0.29825439783926883 0 -0.22956912009142669 0.29599148832315908 0 -0.2336392436144962 0.29368413807314592 0 -0.2336392436144962 0.29368413807314592 0 -0.2369014190029349 0.28898288661950478 0 -0.236101132378946 0.30138216514301258 0 -0.25284064987234101 0.29028329201030878 0 -0.2369014190029349 0.28898288661950478 0 -0.25284064987234101 0.29028329201030878 0 -0.2369014190029349 0.28898288661950478 0 -0.2456847571112388 0.28149670212266792 0 -0.2336392436144962 0.29368413807314592 0 -0.23500501929711851 0.28882816846398129 0 -0.2369014190029349 0.28898288661950478 0 -0.2369014190029349 0.28898288661950478 0 -0.2456847571112388 0.28149670212266792 0 -0.23178790477088901 0.27949138144121211 0 -0.23500501929711851 0.28882816846398129 0 -0.2369014190029349 0.28898288661950478 0 -0.23178790477088901 0.27949138144121211 0 -0.23500501929711851 0.28882816846398129 0 -0.2369014190029349 0.28898288661950478 0 -0.25284064987234101 0.29028329201030878 0 -0.24999302981986149 0.31328302273380082 0 -0.2369014190029349 0.28898288661950478 0 -0.24999302981986149 0.31328302273380082 0 -0.23389575896535619 0.30963340628770081 0 -0.236101132378946 0.30138216514301258 0 -0.24999302981986149 0.31328302273380082 0 -0.2369014190029349 0.28898288661950478 0 -0.236101132378946 0.30138216514301258 0 -0.24999302981986149 0.31328302273380082 0 -0.2369014190029349 0.28898288661950478 0 -0.25063676029139842 0.25291648499014979 0 -0.2381386695607017 0.26190206518074372 0 -0.22581874712784181 0.24950462809828861 0 -0.25063676029139842 0.25291648499014979 0 -0.2381386695607017 0.26190206518074372 0 -0.2496629079650042 0.26927139330273492 0 -0.2496629079650042 0.26927139330273492 0 -0.23178790477088901 0.27949138144121211 0 -0.23007657369586931 0.27631487561307738 0 -0.2381386695607017 0.26190206518074372 0 -0.2496629079650042 0.26927139330273492 0 -0.23007657369586931 0.27631487561307738 0 -0.2456847571112388 0.28149670212266792 0 -0.2496629079650042 0.26927139330273492 0 -0.23178790477088901 0.27949138144121211 0 -0.2496629079650042 0.26927139330273492 0 -0.23178790477088901 0.27949138144121211 0 -0.23178790477088901 0.27949138144121211 0 -0.23007657369586931 0.27631487561307738 0 -0.23007657369586931 0.27631487561307738 0 -0.2051763531404345 0.26865202327170629 0 -0.22581874712784181 0.24950462809828861 0 -0.2381386695607017 0.26190206518074372 0 -0.23007657369586931 0.27631487561307738 0 -0.22581874712784181 0.24950462809828861 0 -0.2051763531404345 0.26865202327170629 0 -0.1941330333909061 0.25332751519580893 0 -0.22581874712784181 0.24950462809828861 0 -0.2051763531404345 0.26865202327170629 0 -0.22581874712784181 0.24950462809828861 0 -0.20883026457640491 0.29261735450690068 0 -0.23007657369586931 0.27631487561307738 0 -0.2051763531404345 0.26865202327170629 0 -0.2051763531404345 0.26865202327170629 0 -0.1860609461977539 0.26926039892135861 0 -0.18453395915302709 0.28779941844512419 0 -0.2051763531404345 0.26865202327170629 0 -0.18453395915302709 0.28779941844512419 0 -0.2051763531404345 0.26865202327170629 0 -0.1941330333909061 0.25332751519580893 0 -0.1860609461977539 0.26926039892135861 0 -0.1941330333909061 0.25332751519580893 0 -0.17233362975044281 0.25981348251711189 0 -0.1782134140010995 0.24383171336387921 0 -0.1941330333909061 0.25332751519580893 0 -0.17233362975044281 0.25981348251711189 0 -0.1860609461977539 0.26926039892135861 0 -0.17233362975044281 0.25981348251711189 0 -0.15285664451627359 0.25967865366604093 0 -0.16028035532114809 0.24095137339685299 0 -0.17233362975044281 0.25981348251711189 0 -0.15690951355708119 0.27650455190217621 0 -0.15285664451627359 0.25967865366604093 0 -0.15690951355708119 0.27650455190217621 0 -0.17412775555395901 0.27670955517704149 0 -0.16573606161228691 0.28823456789928531 0 -0.17233362975044281 0.25981348251711189 0 -0.15690951355708119 0.27650455190217621 0 -0.17412775555395901 0.27670955517704149 0 -0.17412775555395901 0.27670955517704149 0 -0.1860609461977539 0.26926039892135861 0 -0.18453395915302709 0.28779941844512419 0 -0.17233362975044281 0.25981348251711189 0 -0.17412775555395901 0.27670955517704149 0 -0.1860609461977539 0.26926039892135861 0 -0.17412775555395901 0.27670955517704149 0 -0.18453395915302709 0.28779941844512419 0 -0.16573606161228691 0.28823456789928531 0 -0.16291498418743661 0.31886930063827801 0 -0.1858726243819207 0.30574332757258937 0 -0.18453395915302709 0.28779941844512419 0 -0.16389156516561959 0.3069468136185422 0 -0.18453395915302709 0.28779941844512419 0 -0.1858726243819207 0.30574332757258937 0 -0.16389156516561959 0.3069468136185422 0 -0.16291498418743661 0.31886930063827801 0 -0.1858726243819207 0.30574332757258937 0 -0.16389156516561959 0.3069468136185422 0 -0.16389156516561959 0.3069468136185422 0 -0.16573606161228691 0.28823456789928531 0 -0.15365978338301511 0.29576459416077422 0 -0.18453395915302709 0.28779941844512419 0 -0.16389156516561959 0.3069468136185422 0 -0.16573606161228691 0.28823456789928531 0 -0.15690951355708119 0.27650455190217621 0 -0.16573606161228691 0.28823456789928531 0 -0.15365978338301511 0.29576459416077422 0 -0.15365978338301511 0.29576459416077422 0 -0.14010816401885401 0.30063264756172609 0 -0.13756852219581611 0.28650291976267223 0 -0.15690951355708119 0.27650455190217621 0 -0.15365978338301511 0.29576459416077422 0 -0.13756852219581611 0.28650291976267223 0 -0.16389156516561959 0.3069468136185422 0 -0.15365978338301511 0.29576459416077422 0 -0.14758727142504999 0.30849570499112039 0 -0.15365978338301511 0.29576459416077422 0 -0.14758727142504999 0.30849570499112039 0 -0.14010816401885401 0.30063264756172609 0 -0.1370276733795493 0.31304026082259961 0 -0.14758727142504999 0.30849570499112039 0 -0.14010816401885401 0.30063264756172609 0 -0.1370276733795493 0.31304026082259961 0 -0.14010816401885401 0.30063264756172609 0 -0.1207125247140959 0.29867808525817707 0 -0.1265242038760003 0.32087932553321602 0 -0.1370276733795493 0.31304026082259961 0 -0.1207125247140959 0.29867808525817707 0 -0.14010816401885401 0.30063264756172609 0 -0.13756852219581611 0.28650291976267223 0 -0.1207125247140959 0.29867808525817707 0 -0.13969918266580009 0.2700128959856482 0 -0.1361912156991702 0.2509193869946269 0 -0.11497001736065959 0.27645896760272481 0 -0.13756852219581611 0.28650291976267223 0 -0.13969918266580009 0.2700128959856482 0 -0.11497001736065959 0.27645896760272481 0 -0.13969918266580009 0.2700128959856482 0 -0.1361912156991702 0.2509193869946269 0 -0.15285664451627359 0.25967865366604093 0 -0.1361912156991702 0.2509193869946269 0 -0.15285664451627359 0.25967865366604093 0 -0.16028035532114809 0.24095137339685299 0 -0.15690951355708119 0.27650455190217621 0 -0.13969918266580009 0.2700128959856482 0 -0.15285664451627359 0.25967865366604093 0 -0.15690951355708119 0.27650455190217621 0 -0.13756852219581611 0.28650291976267223 0 -0.13969918266580009 0.2700128959856482 0 -0.095559379743942879 0.27466260194801928 0 -0.11497001736065959 0.27645896760272481 0 -0.1055403298128576 0.28995040896693453 0 -0.095559379743942879 0.27466260194801928 0 -0.10922751000722319 0.25423984994727239 0 -0.11497001736065959 0.27645896760272481 0 -0.095559379743942879 0.27466260194801928 0 -0.10922751000722319 0.25423984994727239 0 -0.086782026885810326 0.25706796878206128 0 -0.10922751000722319 0.25423984994727239 0 -0.11497001736065959 0.27645896760272481 0 -0.1361912156991702 0.2509193869946269 0 -0.10922751000722319 0.25423984994727239 0 -0.11497001736065959 0.27645896760272481 0 -0.11497001736065959 0.27645896760272481 0 -0.1207125247140959 0.29867808525817707 0 -0.13756852219581611 0.28650291976267223 0 -0.11497001736065959 0.27645896760272481 0 -0.1207125247140959 0.29867808525817707 0 -0.11497001736065959 0.27645896760272481 0 -0.1207125247140959 0.29867808525817707 0 -0.1055403298128576 0.28995040896693453 0 -0.1207125247140959 0.29867808525817707 0 -0.1055403298128576 0.28995040896693453 0 -0.1098712515562172 0.31337732455619632 0 -0.1265242038760003 0.32087932553321602 0 -0.1207125247140959 0.29867808525817707 0 -0.1098712515562172 0.31337732455619632 0 -0.1265242038760003 0.32087932553321602 0 -0.1207125247140959 0.29867808525817707 0 -0.095081128900726744 0.30266037016328601 0 -0.1055403298128576 0.28995040896693453 0 -0.1098712515562172 0.31337732455619632 0 -0.095081128900726744 0.30266037016328601 0 -0.086439924170271229 0.3170374645159747 0 -0.1098712515562172 0.31337732455619632 0 -0.095559379743942879 0.27466260194801928 0 -0.1055403298128576 0.28995040896693453 0 -0.085595761288529429 0.2879245028153431 0 -0.095081128900726744 0.30266037016328601 0 -0.1055403298128576 0.28995040896693453 0 -0.085595761288529429 0.2879245028153431 0 -0.095081128900726744 0.30266037016328601 0 -0.085595761288529429 0.2879245028153431 0 -0.084270533380524884 0.29803683277277049 0 -0.085595761288529429 0.2879245028153431 0 -0.084270533380524884 0.29803683277277049 0 -0.078214129641501623 0.29934216866029911 0 -0.085595761288529429 0.2879245028153431 0 -0.078214129641501623 0.29934216866029911 0 -0.073120001489244649 0.28892768634426241 0 -0.085595761288529429 0.2879245028153431 0 -0.073120001489244649 0.28892768634426241 0 -0.077510052729852771 0.27467344618743789 0 -0.095081128900726744 0.30266037016328601 0 -0.073730686050849176 0.30556659584434742 0 -0.086439924170271229 0.3170374645159747 0 -0.095081128900726744 0.30266037016328601 0 -0.073730686050849176 0.30556659584434742 0 -0.095081128900726744 0.30266037016328601 0 -0.084270533380524884 0.29803683277277049 0 -0.073730686050849176 0.30556659584434742 0 -0.084270533380524884 0.29803683277277049 0 -0.078214129641501623 0.29934216866029911 0 -0.073730686050849176 0.30556659584434742 0 -0.073730686050849176 0.30556659584434742 0 -0.074145712832038205 0.30401463189651567 0 -0.073730686050849176 0.30556659584434742 0 -0.071201690671577 0.30262177243746502 0 -0.066454008281722099 0.30278918866260651 0 -0.071201690671577 0.30262177243746502 0 -0.073040499542914902 0.30046526570898913 0 -0.069336020006202564 0.29958970904012949 0 -0.071201690671577 0.30262177243746502 0 -0.074145712832038205 0.30401463189651567 0 -0.073040499542914902 0.30046526570898913 0 -0.073730686050849176 0.30556659584434742 0 -0.071201690671577 0.30262177243746502 0 -0.074145712832038205 0.30401463189651567 0 -0.078214129641501623 0.29934216866029911 0 -0.074145712832038205 0.30401463189651567 0 -0.073040499542914902 0.30046526570898913 0 -0.078214129641501623 0.29934216866029911 0 -0.073730686050849176 0.30556659584434742 0 -0.074145712832038205 0.30401463189651567 0 -0.078214129641501623 0.29934216866029911 0 -0.073040499542914902 0.30046526570898913 0 -0.072304944563255119 0.29675804651053622 0 -0.073040499542914902 0.30046526570898913 0 -0.069336020006202564 0.29958970904012949 0 -0.072304944563255119 0.29675804651053622 0 -0.069336020006202564 0.29958970904012949 0 -0.066454008281722099 0.30278918866260651 0 -0.064573117377325323 0.29474825152748441 0 -0.069336020006202564 0.29958970904012949 0 -0.072304944563255119 0.29675804651053622 0 -0.064573117377325323 0.29474825152748441 0 -0.071201690671577 0.30262177243746502 0 -0.069336020006202564 0.29958970904012949 0 -0.066454008281722099 0.30278918866260651 0 -0.073120001489244649 0.28892768634426241 0 -0.077510052729852771 0.27467344618743789 0 -0.061751465187922433 0.28201941449154022 0 -0.078214129641501623 0.29934216866029911 0 -0.073120001489244649 0.28892768634426241 0 -0.072304944563255119 0.29675804651053622 0 -0.073120001489244649 0.28892768634426241 0 -0.072304944563255119 0.29675804651053622 0 -0.064573117377325323 0.29474825152748441 0 -0.073120001489244649 0.28892768634426241 0 -0.064573117377325323 0.29474825152748441 0 -0.061751465187922433 0.28201941449154022 0 -0.077510052729852771 0.27467344618743789 0 -0.064865955853641535 0.26008420970769919 0 -0.061751465187922433 0.28201941449154022 0 -0.095559379743942879 0.27466260194801928 0 -0.077510052729852771 0.27467344618743789 0 -0.086782026885810326 0.25706796878206128 0 -0.095559379743942879 0.27466260194801928 0 -0.085595761288529429 0.2879245028153431 0 -0.077510052729852771 0.27467344618743789 0 -0.077510052729852771 0.27467344618743789 0 -0.086782026885810326 0.25706796878206128 0 -0.064865955853641535 0.26008420970769919 0 -0.086782026885810326 0.25706796878206128 0 -0.064865955853641535 0.26008420970769919 0 -0.07009427780289168 0.23322075334515899 0 -0.064865955853641535 0.26008420970769919 0 -0.043034387561298473 0.27650610512222462 0 -0.046527529249147832 0.24935375446300129 0 -0.064865955853641535 0.26008420970769919 0 -0.043034387561298473 0.27650610512222462 0 -0.061751465187922433 0.28201941449154022 0 -0.043034387561298473 0.27650610512222462 0 -0.027654839422797509 0.25479998940689619 0 -0.046527529249147832 0.24935375446300129 0 -0.027654839422797509 0.25479998940689619 0 -0.017819401635662729 0.27140505849965751 0 -0.0094860428890609812 0.25201589383169298 0 -0.043034387561298473 0.27650610512222462 0 -0.017819401635662729 0.27140505849965751 0 -0.019614503291226031 0.29497966883518523 0 -0.043034387561298473 0.27650610512222462 0 -0.027654839422797509 0.25479998940689619 0 -0.017819401635662729 0.27140505849965751 0 -0.017819401635662729 0.27140505849965751 0 -0.00681572830648643 0.28311170123395701 0 5.2964489892887497e-05 0.2684529483346153 0 -0.0094860428890609812 0.25201589383169298 0 0.0093766357309573133 0.25077498028374479 0 5.2964489892887497e-05 0.2684529483346153 0 -0.017819401635662729 0.27140505849965751 0 -0.0094860428890609812 0.25201589383169298 0 5.2964489892887497e-05 0.2684529483346153 0 -0.00050940936906082146 0.29530896721452587 0 -0.019614503291226031 0.29497966883518523 0 0.0038053809788464871 0.31345323254814578 0 -0.019614503291226031 0.29497966883518523 0 -0.01816412791170972 0.3131303245879471 0 0.0038053809788464871 0.31345323254814578 0 -0.019614503291226031 0.29497966883518523 0 0.0038053809788464871 0.31345323254814578 0 -0.00050940936906082146 0.29530896721452587 0 -0.00681572830648643 0.28311170123395701 0 -0.019614503291226031 0.29497966883518523 0 -0.017819401635662729 0.27140505849965751 0 -0.00681572830648643 0.28311170123395701 0 -0.019614503291226031 0.29497966883518523 0 -0.019614503291226031 0.29497966883518523 0 -0.032038962297823312 0.30259778861969899 0 -0.01816412791170972 0.3131303245879471 0 -0.045947406981279498 0.30934846021614748 0 -0.01816412791170972 0.3131303245879471 0 -0.019614503291226031 0.29497966883518523 0 -0.032038962297823312 0.30259778861969899 0 -0.045583101982504558 0.29391488790554737 0 -0.032038962297823312 0.30259778861969899 0 -0.045947406981279498 0.30934846021614748 0 -0.01816412791170972 0.3131303245879471 0 -0.032038962297823312 0.30259778861969899 0 -0.045947406981279498 0.30934846021614748 0 -0.045583101982504558 0.29391488790554737 0 -0.043034387561298473 0.27650610512222462 0 -0.019614503291226031 0.29497966883518523 0 -0.045583101982504558 0.29391488790554737 0 -0.043034387561298473 0.27650610512222462 0 -0.019614503291226031 0.29497966883518523 0 -0.043034387561298473 0.27650610512222462 0 -0.045583101982504558 0.29391488790554737 0 -0.061751465187922433 0.28201941449154022 0 -0.064573117377325323 0.29474825152748441 0 -0.045583101982504558 0.29391488790554737 0 -0.061751465187922433 0.28201941449154022 0 -0.064573117377325323 0.29474825152748441 0 -0.045583101982504558 0.29391488790554737 0 -0.055351085911851228 0.29995465031143859 0 -0.073730686050849176 0.30556659584434742 0 -0.066454008281722099 0.30278918866260651 0 -0.045947406981279498 0.30934846021614748 0 -0.073730686050849176 0.30556659584434742 0 -0.045947406981279498 0.30934846021614748 0 -0.066454008281722099 0.30278918866260651 0 -0.045947406981279498 0.30934846021614748 0 -0.055351085911851228 0.29995465031143859 0 -0.073730686050849176 0.30556659584434742 0 -0.045947406981279498 0.30934846021614748 0 -0.061025285944941728 0.31617217717038731 0 -0.045947406981279498 0.30934846021614748 0 -0.045583101982504558 0.29391488790554737 0 -0.055351085911851228 0.29995465031143859 0 -0.066454008281722099 0.30278918866260651 0 -0.064573117377325323 0.29474825152748441 0 -0.055351085911851228 0.29995465031143859 0 -0.061025285944941728 0.31617217717038731 0 -0.04837601225766465 0.32481363843900868 0 -0.066741025884613364 0.33170394667860731 0 -0.045947406981279498 0.30934846021614748 0 -0.061025285944941728 0.31617217717038731 0 -0.04837601225766465 0.32481363843900868 0 -0.04837601225766465 0.32481363843900868 0 -0.046569396686288428 0.34190497641893852 0 -0.066741025884613364 0.33170394667860731 0 -0.046569396686288428 0.34190497641893852 0 -0.035844911959721559 0.33227031673614849 0 -0.030063742214787699 0.34420855255936789 0 -0.04837601225766465 0.32481363843900868 0 -0.046569396686288428 0.34190497641893852 0 -0.035844911959721559 0.33227031673614849 0 -0.045947406981279498 0.30934846021614748 0 -0.033743870795339137 0.31690051813742909 0 -0.01816412791170972 0.3131303245879471 0 -0.045947406981279498 0.30934846021614748 0 -0.04837601225766465 0.32481363843900868 0 -0.033743870795339137 0.31690051813742909 0 -0.04837601225766465 0.32481363843900868 0 -0.035844911959721559 0.33227031673614849 0 -0.033743870795339137 0.31690051813742909 0 -0.033743870795339137 0.31690051813742909 0 -0.023511011545619229 0.33429909784502471 0 -0.0066262084867721206 0.3297187594929602 0 -0.033743870795339137 0.31690051813742909 0 -0.01816412791170972 0.3131303245879471 0 -0.0066262084867721206 0.3297187594929602 0 -0.035844911959721559 0.33227031673614849 0 -0.033743870795339137 0.31690051813742909 0 -0.023511011545619229 0.33429909784502471 0 -0.033743870795339137 0.31690051813742909 0 -0.0066262084867721206 0.3297187594929602 0 -0.023511011545619229 0.33429909784502471 0 -0.011276324271475629 0.34839734229921748 0 -0.030063742214787699 0.34420855255936789 0 -0.035844911959721559 0.33227031673614849 0 -0.023511011545619229 0.33429909784502471 0 -0.030063742214787699 0.34420855255936789 0 -0.023511011545619229 0.33429909784502471 0 -0.0066262084867721206 0.3297187594929602 0 -0.011276324271475629 0.34839734229921748 0 -0.0066262084867721206 0.3297187594929602 0 -0.011276324271475629 0.34839734229921748 0 0.0036444436723072518 0.34668746978030668 0 -0.01816412791170972 0.3131303245879471 0 -0.0066262084867721206 0.3297187594929602 0 0.0038053809788464871 0.31345323254814578 0 -0.0069122974087097167 0.37020223940993852 0 -0.020229078436823561 0.37088736387382881 0 -0.0088503900507043293 0.38236264802890257 0 -0.011808441714499711 0.36139026384214201 0 -0.0069122974087097167 0.37020223940993852 0 -0.020229078436823561 0.37088736387382881 0 -0.0069122974087097167 0.37020223940993852 0 0.001197760358732865 0.37500202874546518 0 0.0022877633247238771 0.36110461381561082 0 -0.011808441714499711 0.36139026384214201 0 -0.0069122974087097167 0.37020223940993852 0 0.0022877633247238771 0.36110461381561082 0 -0.011276324271475629 0.34839734229921748 0 0.0036444436723072518 0.34668746978030668 0 0.0022877633247238771 0.36110461381561082 0 -0.011808441714499711 0.36139026384214201 0 -0.011276324271475629 0.34839734229921748 0 0.0022877633247238771 0.36110461381561082 0 -0.011808441714499711 0.36139026384214201 0 -0.011276324271475629 0.34839734229921748 0 -0.022912271780213541 0.35635975981211432 0 -0.022912271780213541 0.35635975981211432 0 -0.030063742214787699 0.34420855255936789 0 -0.03989267547647974 0.36194567687577073 0 -0.011276324271475629 0.34839734229921748 0 -0.022912271780213541 0.35635975981211432 0 -0.030063742214787699 0.34420855255936789 0 -0.022912271780213541 0.35635975981211432 0 -0.020229078436823561 0.37088736387382881 0 -0.03989267547647974 0.36194567687577073 0 -0.020229078436823561 0.37088736387382881 0 -0.03989267547647974 0.36194567687577073 0 -0.032166048970949768 0.38262875266943058 0 -0.011808441714499711 0.36139026384214201 0 -0.022912271780213541 0.35635975981211432 0 -0.020229078436823561 0.37088736387382881 0 -0.046569396686288428 0.34190497641893852 0 -0.030063742214787699 0.34420855255936789 0 -0.03989267547647974 0.36194567687577073 0 -0.046569396686288428 0.34190497641893852 0 -0.03989267547647974 0.36194567687577073 0 -0.059751365718378961 0.35784129751286758 0 -0.046569396686288428 0.34190497641893852 0 -0.059751365718378961 0.35784129751286758 0 -0.066741025884613364 0.33170394667860731 0 -0.03989267547647974 0.36194567687577073 0 -0.059751365718378961 0.35784129751286758 0 -0.052761705552144517 0.38397864834712803 0 -0.059751365718378961 0.35784129751286758 0 -0.052761705552144517 0.38397864834712803 0 -0.059751365718378961 0.35784129751286758 0 -0.076004855597825702 0.36870433775896438 0 -0.052761705552144517 0.38397864834712803 0 -0.091389777508730702 0.35664259018885919 0 -0.096924186967709297 0.37713402030157128 0 -0.085667764163913224 0.38569874197602988 0 -0.091389777508730702 0.35664259018885919 0 -0.085667764163913224 0.38569874197602988 0 -0.076004855597825702 0.36870433775896438 0 -0.091389777508730702 0.35664259018885919 0 -0.085667764163913224 0.38569874197602988 0 -0.076004855597825702 0.36870433775896438 0 -0.091389777508730702 0.35664259018885919 0 -0.081957847837041325 0.34116183187751148 0 -0.059751365718378961 0.35784129751286758 0 -0.076004855597825702 0.36870433775896438 0 -0.081957847837041325 0.34116183187751148 0 -0.059751365718378961 0.35784129751286758 0 -0.066741025884613364 0.33170394667860731 0 -0.059751365718378961 0.35784129751286758 0 -0.066741025884613364 0.33170394667860731 0 -0.081957847837041325 0.34116183187751148 0 -0.073730686050849176 0.30556659584434742 0 -0.066741025884613364 0.33170394667860731 0 -0.073730686050849176 0.30556659584434742 0 -0.066741025884613364 0.33170394667860731 0 -0.086439924170271229 0.3170374645159747 0 -0.073730686050849176 0.30556659584434742 0 -0.061025285944941728 0.31617217717038731 0 -0.066741025884613364 0.33170394667860731 0 -0.086439924170271229 0.3170374645159747 0 -0.081957847837041325 0.34116183187751148 0 -0.09711179085354818 0.3275864384016885 0 -0.091389777508730702 0.35664259018885919 0 -0.081957847837041325 0.34116183187751148 0 -0.09711179085354818 0.3275864384016885 0 -0.066741025884613364 0.33170394667860731 0 -0.086439924170271229 0.3170374645159747 0 -0.081957847837041325 0.34116183187751148 0 -0.091389777508730702 0.35664259018885919 0 -0.09711179085354818 0.3275864384016885 0 -0.09711179085354818 0.3275864384016885 0 -0.11861688076262671 0.33526376774420791 0 -0.1107232674827391 0.350253449093339 0 -0.09711179085354818 0.3275864384016885 0 -0.1098712515562172 0.31337732455619632 0 -0.1130310317620981 0.32427671405882719 0 -0.086439924170271229 0.3170374645159747 0 -0.09711179085354818 0.3275864384016885 0 -0.1098712515562172 0.31337732455619632 0 -0.1265242038760003 0.32087932553321602 0 -0.1098712515562172 0.31337732455619632 0 -0.1130310317620981 0.32427671405882719 0 -0.1265242038760003 0.32087932553321602 0 -0.1130310317620981 0.32427671405882719 0 -0.11861688076262671 0.33526376774420791 0 -0.09711179085354818 0.3275864384016885 0 -0.1130310317620981 0.32427671405882719 0 -0.11861688076262671 0.33526376774420791 0 -0.1305154422180517 0.34657138340057547 0 -0.1107232674827391 0.350253449093339 0 -0.1227721358207568 0.35956873080849511 0 -0.1305154422180517 0.34657138340057547 0 -0.11861688076262671 0.33526376774420791 0 -0.1107232674827391 0.350253449093339 0 -0.1107232674827391 0.350253449093339 0 -0.1153431530221333 0.3691866494721307 0 -0.1227721358207568 0.35956873080849511 0 -0.1107232674827391 0.350253449093339 0 -0.1153431530221333 0.3691866494721307 0 -0.1035950962453281 0.36330417726397501 0 -0.13450668056010309 0.37226344126793498 0 -0.1153431530221333 0.3691866494721307 0 -0.1227721358207568 0.35956873080849511 0 -0.1153431530221333 0.3691866494721307 0 -0.1035950962453281 0.36330417726397501 0 -0.096924186967709297 0.37713402030157128 0 -0.091389777508730702 0.35664259018885919 0 -0.1035950962453281 0.36330417726397501 0 -0.096924186967709297 0.37713402030157128 0 -0.091389777508730702 0.35664259018885919 0 -0.1107232674827391 0.350253449093339 0 -0.1035950962453281 0.36330417726397501 0 -0.091389777508730702 0.35664259018885919 0 -0.09711179085354818 0.3275864384016885 0 -0.1107232674827391 0.350253449093339 0 -0.098610720755638384 0.39557033429152122 0 -0.1146281169493216 0.3993919161521573 0 -0.1061368192898107 0.41404093799125341 0 -0.098610720755638384 0.39557033429152122 0 -0.1106516862294759 0.3840091989785665 0 -0.1146281169493216 0.3993919161521573 0 -0.098610720755638384 0.39557033429152122 0 -0.096924186967709297 0.37713402030157128 0 -0.1106516862294759 0.3840091989785665 0 -0.1153431530221333 0.3691866494721307 0 -0.096924186967709297 0.37713402030157128 0 -0.1106516862294759 0.3840091989785665 0 -0.096924186967709297 0.37713402030157128 0 -0.1106516862294759 0.3840091989785665 0 -0.1153431530221333 0.3691866494721307 0 -0.1106516862294759 0.3840091989785665 0 -0.1243791854912419 0.39088437765556261 0 -0.1153431530221333 0.3691866494721307 0 -0.1243791854912419 0.39088437765556261 0 -0.13450668056010309 0.37226344126793498 0 -0.1153431530221333 0.3691866494721307 0 -0.1243791854912419 0.39088437765556261 0 -0.1106516862294759 0.3840091989785665 0 -0.1243791854912419 0.39088437765556261 0 -0.13336217298044059 0.41245473184388359 0 -0.1243791854912419 0.39088437765556261 0 -0.1146281169493216 0.3993919161521573 0 -0.1106516862294759 0.3840091989785665 0 -0.1243791854912419 0.39088437765556261 0 -0.1146281169493216 0.3993919161521573 0 -0.13336217298044059 0.41245473184388359 0 -0.1189282844760139 0.43536593157966708 0 -0.1061368192898107 0.41404093799125341 0 -0.13336217298044059 0.41245473184388359 0 -0.1146281169493216 0.3993919161521573 0 -0.1061368192898107 0.41404093799125341 0 -0.1189282844760139 0.43536593157966708 0 -0.1061368192898107 0.41404093799125341 0 -0.09596182558140795 0.43789019878106361 0 -0.1061368192898107 0.41404093799125341 0 -0.079945750819095718 0.41475489376320079 0 -0.09596182558140795 0.43789019878106361 0 -0.098610720755638384 0.39557033429152122 0 -0.1061368192898107 0.41404093799125341 0 -0.079945750819095718 0.41475489376320079 0 -0.079945750819095718 0.41475489376320079 0 -0.074223737474278212 0.44381104555037182 0 -0.09596182558140795 0.43789019878106361 0 -0.079945750819095718 0.41475489376320079 0 -0.054353202937776589 0.42965008727840359 0 -0.074223737474278212 0.44381104555037182 0 -0.079945750819095718 0.41475489376320079 0 -0.074223737474278212 0.44381104555037182 0 -0.079945750819095718 0.41475489376320079 0 -0.058204587144322653 0.4073911492592886 0 -0.054353202937776589 0.42965008727840359 0 -0.079945750819095718 0.41475489376320079 0 -0.068809720919392109 0.39258676897537492 0 -0.058204587144322653 0.4073911492592886 0 -0.079945750819095718 0.41475489376320079 0 -0.085667764163913224 0.38569874197602988 0 -0.098610720755638384 0.39557033429152122 0 -0.079945750819095718 0.41475489376320079 0 -0.085667764163913224 0.38569874197602988 0 -0.079945750819095718 0.41475489376320079 0 -0.068809720919392109 0.39258676897537492 0 -0.085667764163913224 0.38569874197602988 0 -0.098610720755638384 0.39557033429152122 0 -0.096924186967709297 0.37713402030157128 0 -0.085667764163913224 0.38569874197602988 0 -0.076004855597825702 0.36870433775896438 0 -0.068809720919392109 0.39258676897537492 0 -0.052761705552144517 0.38397864834712803 0 -0.076004855597825702 0.36870433775896438 0 -0.068809720919392109 0.39258676897537492 0 -0.085667764163913224 0.38569874197602988 0 -0.052761705552144517 0.38397864834712803 0 -0.039740731062658248 0.39766097023093039 0 -0.058204587144322653 0.4073911492592886 0 -0.068809720919392109 0.39258676897537492 0 -0.052761705552144517 0.38397864834712803 0 -0.058204587144322653 0.4073911492592886 0 -0.039740731062658248 0.39766097023093039 0 -0.030395034556352271 0.40507811633295321 0 -0.035969056143799152 0.41442950858280148 0 -0.052761705552144517 0.38397864834712803 0 -0.039740731062658248 0.39766097023093039 0 -0.032166048970949768 0.38262875266943058 0 -0.03989267547647974 0.36194567687577073 0 -0.052761705552144517 0.38397864834712803 0 -0.032166048970949768 0.38262875266943058 0 -0.020229078436823561 0.37088736387382881 0 -0.032166048970949768 0.38262875266943058 0 -0.019249460740937939 0.38387785321857948 0 -0.020229078436823561 0.37088736387382881 0 -0.019249460740937939 0.38387785321857948 0 -0.0088503900507043293 0.38236264802890257 0 -0.032166048970949768 0.38262875266943058 0 -0.019249460740937939 0.38387785321857948 0 -0.021122642556654619 0.3974220034703469 0 -0.021122642556654619 0.3974220034703469 0 -0.01332381822228732 0.40703366030976817 0 -0.023091233804221269 0.41319061103594013 0 -0.030395034556352271 0.40507811633295321 0 -0.021122642556654619 0.3974220034703469 0 -0.023091233804221269 0.41319061103594013 0 -0.039740731062658248 0.39766097023093039 0 -0.030395034556352271 0.40507811633295321 0 -0.021122642556654619 0.3974220034703469 0 -0.039740731062658248 0.39766097023093039 0 -0.032166048970949768 0.38262875266943058 0 -0.021122642556654619 0.3974220034703469 0 -0.021122642556654619 0.3974220034703469 0 -0.012839790757586249 0.39946146410559191 0 -0.01332381822228732 0.40703366030976817 0 -0.019249460740937939 0.38387785321857948 0 -0.021122642556654619 0.3974220034703469 0 -0.011277671795755661 0.39270228813238112 0 -0.021122642556654619 0.3974220034703469 0 -0.011277671795755661 0.39270228813238112 0 -0.012839790757586249 0.39946146410559191 0 -0.011277671795755661 0.39270228813238112 0 -0.012839790757586249 0.39946146410559191 0 -0.0056350304556473853 0.40068790450987107 0 -0.0056350304556473853 0.40068790450987107 0 -0.0077492403355966018 0.40932245388245908 0 -0.01332381822228732 0.40703366030976817 0 -0.012839790757586249 0.39946146410559191 0 -0.0056350304556473853 0.40068790450987107 0 -0.01332381822228732 0.40703366030976817 0 -0.0056350304556473853 0.40068790450987107 0 -0.0077492403355966018 0.40932245388245908 0 0.0026143882621884069 0.40727375446200598 0 -0.0056350304556473853 0.40068790450987107 0 0.0026143882621884069 0.40727375446200598 0 0.001240191978069999 0.39807366433780061 0 -0.0056350304556473853 0.40068790450987107 0 -0.0029102898792297718 0.39200733442648922 0 0.001240191978069999 0.39807366433780061 0 -0.011277671795755661 0.39270228813238112 0 -0.0056350304556473853 0.40068790450987107 0 -0.0029102898792297718 0.39200733442648922 0 -0.0029102898792297718 0.39200733442648922 0 -0.0088503900507043293 0.38236264802890257 0 0.00133922831620685 0.38493328910147551 0 -0.011277671795755661 0.39270228813238112 0 -0.0029102898792297718 0.39200733442648922 0 -0.0088503900507043293 0.38236264802890257 0 -0.0069122974087097167 0.37020223940993852 0 -0.0088503900507043293 0.38236264802890257 0 0.001197760358732865 0.37500202874546518 0 -0.0088503900507043293 0.38236264802890257 0 0.001197760358732865 0.37500202874546518 0 0.00133922831620685 0.38493328910147551 0 -0.019249460740937939 0.38387785321857948 0 -0.011277671795755661 0.39270228813238112 0 -0.0088503900507043293 0.38236264802890257 0 -0.010506126185941531 0.43031051981728241 0 -0.0080108279614322531 0.41906629829442488 0 -0.02615499401391504 0.43449189222614759 0 -0.010506126185941531 0.43031051981728241 0 -0.017852508102859269 0.43947328490805171 0 -0.0059786262913216247 0.43795886887328661 0 -0.010506126185941531 0.43031051981728241 0 -0.00098420035874578326 0.4296376637812146 0 -0.0059786262913216247 0.43795886887328661 0 -0.00098420035874578326 0.4296376637812146 0 -0.0048860837777573163 0.42557086169158131 0 -4.3180604909707702e-05 0.4232689648734036 0 -0.010506126185941531 0.43031051981728241 0 -0.00098420035874578326 0.4296376637812146 0 -0.0048860837777573163 0.42557086169158131 0 -0.010506126185941531 0.43031051981728241 0 -0.0048860837777573163 0.42557086169158131 0 -0.0080108279614322531 0.41906629829442488 0 -0.0048860837777573163 0.42557086169158131 0 -4.3180604909707702e-05 0.4232689648734036 0 -0.0080108279614322531 0.41906629829442488 0 -0.014652500926640111 0.42229449624819121 0 0.0026143882621884069 0.40727375446200598 0 -4.3180604909707702e-05 0.4232689648734036 0 -0.0080108279614322531 0.41906629829442488 0 0.0062770988424424388 0.41748857372992892 0 -0.014652500926640111 0.42229449624819121 0 -0.0080108279614322531 0.41906629829442488 0 0.0026143882621884069 0.40727375446200598 0 -0.014652500926640111 0.42229449624819121 0 -0.0077492403355966018 0.40932245388245908 0 0.0026143882621884069 0.40727375446200598 0 -0.014652500926640111 0.42229449624819121 0 -0.0077492403355966018 0.40932245388245908 0 -0.01332381822228732 0.40703366030976817 0 -0.014652500926640111 0.42229449624819121 0 -0.023091233804221269 0.41319061103594013 0 -0.029249535666225429 0.42292887686598318 0 -0.014652500926640111 0.42229449624819121 0 -0.01332381822228732 0.40703366030976817 0 -0.023091233804221269 0.41319061103594013 0 -0.030395034556352271 0.40507811633295321 0 -0.023091233804221269 0.41319061103594013 0 -0.035969056143799152 0.41442950858280148 0 -0.023091233804221269 0.41319061103594013 0 -0.029249535666225429 0.42292887686598318 0 -0.035969056143799152 0.41442950858280148 0 -0.014652500926640111 0.42229449624819121 0 -0.0080108279614322531 0.41906629829442488 0 -0.02615499401391504 0.43449189222614759 0 -0.014652500926640111 0.42229449624819121 0 -0.031919390115468592 0.43731523803437639 0 -0.0080108279614322531 0.41906629829442488 0 -0.02615499401391504 0.43449189222614759 0 -0.010506126185941531 0.43031051981728241 0 -0.02615499401391504 0.43449189222614759 0 -0.017852508102859269 0.43947328490805171 0 -0.014652500926640111 0.42229449624819121 0 -0.02615499401391504 0.43449189222614759 0 -0.031919390115468592 0.43731523803437639 0 -0.014652500926640111 0.42229449624819121 0 -0.029249535666225429 0.42292887686598318 0 -0.031919390115468592 0.43731523803437639 0 -0.031919390115468592 0.43731523803437639 0 -0.040921016067960683 0.42696168173004623 0 -0.044308249003753443 0.43751716184810541 0 -0.029249535666225429 0.42292887686598318 0 -0.031919390115468592 0.43731523803437639 0 -0.040921016067960683 0.42696168173004623 0 -0.040921016067960683 0.42696168173004623 0 -0.054353202937776589 0.42965008727840359 0 -0.044308249003753443 0.43751716184810541 0 -0.039740731062658248 0.39766097023093039 0 -0.035969056143799152 0.41442950858280148 0 -0.047970528742634397 0.41670082552171511 0 -0.029249535666225429 0.42292887686598318 0 -0.040921016067960683 0.42696168173004623 0 -0.035969056143799152 0.41442950858280148 0 -0.040921016067960683 0.42696168173004623 0 -0.035969056143799152 0.41442950858280148 0 -0.047970528742634397 0.41670082552171511 0 -0.039740731062658248 0.39766097023093039 0 -0.058204587144322653 0.4073911492592886 0 -0.047970528742634397 0.41670082552171511 0 -0.058204587144322653 0.4073911492592886 0 -0.047970528742634397 0.41670082552171511 0 -0.054353202937776589 0.42965008727840359 0 -0.040921016067960683 0.42696168173004623 0 -0.047970528742634397 0.41670082552171511 0 -0.054353202937776589 0.42965008727840359 0 -0.054353202937776589 0.42965008727840359 0 -0.049186279304297087 0.45233597982056151 0 -0.074223737474278212 0.44381104555037182 0 -0.054353202937776589 0.42965008727840359 0 -0.049186279304297087 0.45233597982056151 0 -0.044308249003753443 0.43751716184810541 0 -0.049186279304297087 0.45233597982056151 0 -0.043120470515969803 0.47639427788858563 0 -0.069195525465020322 0.47261460932804128 0 -0.049186279304297087 0.45233597982056151 0 -0.033619035154952313 0.45878121621491869 0 -0.043120470515969803 0.47639427788858563 0 -0.031919390115468592 0.43731523803437639 0 -0.049186279304297087 0.45233597982056151 0 -0.033045433981081507 0.44737446475112219 0 -0.031919390115468592 0.43731523803437639 0 -0.049186279304297087 0.45233597982056151 0 -0.044308249003753443 0.43751716184810541 0 -0.031919390115468592 0.43731523803437639 0 -0.049186279304297087 0.45233597982056151 0 -0.049186279304297087 0.45233597982056151 0 -0.033619035154952313 0.45878121621491869 0 -0.033045433981081507 0.44737446475112219 0 -0.031919390115468592 0.43731523803437639 0 -0.033045433981081507 0.44737446475112219 0 -0.026571902000830028 0.44124928293268428 0 -0.02615499401391504 0.43449189222614759 0 -0.031919390115468592 0.43731523803437639 0 -0.026571902000830028 0.44124928293268428 0 -0.02615499401391504 0.43449189222614759 0 -0.026571902000830028 0.44124928293268428 0 -0.017852508102859269 0.43947328490805171 0 -0.017852508102859269 0.43947328490805171 0 -0.023887183790825751 0.44759153474372371 0 -0.013761996974452359 0.44606192331623967 0 -0.026571902000830028 0.44124928293268428 0 -0.017852508102859269 0.43947328490805171 0 -0.023887183790825751 0.44759153474372371 0 -0.023887183790825751 0.44759153474372371 0 -0.017272011611414669 0.45656072486886012 0 -0.013761996974452359 0.44606192331623967 0 -0.033619035154952313 0.45878121621491869 0 -0.033045433981081507 0.44737446475112219 0 -0.023887183790825751 0.44759153474372371 0 -0.033045433981081507 0.44737446475112219 0 -0.026571902000830028 0.44124928293268428 0 -0.023887183790825751 0.44759153474372371 0 -0.033619035154952313 0.45878121621491869 0 -0.023887183790825751 0.44759153474372371 0 -0.017272011611414669 0.45656072486886012 0 -0.033619035154952313 0.45878121621491869 0 -0.017272011611414669 0.45656072486886012 0 -0.020077694831220589 0.47479788772600362 0 -0.017272011611414669 0.45656072486886012 0 -0.00469897694132939 0.46326950737036948 0 -0.020077694831220589 0.47479788772600362 0 -0.017272011611414669 0.45656072486886012 0 -0.00469897694132939 0.46326950737036948 0 -0.0046805405167990952 0.44910465089531287 0 -0.00469897694132939 0.46326950737036948 0 -0.0046805405167990952 0.44910465089531287 0 0.0056488567216386636 0.45351705879088522 0 -0.0046805405167990952 0.44910465089531287 0 -0.0059786262913216247 0.43795886887328661 0 0.0081070481641373152 0.43806399088304138 0 -0.0046805405167990952 0.44910465089531287 0 -0.0059786262913216247 0.43795886887328661 0 -0.013761996974452359 0.44606192331623967 0 -0.017852508102859269 0.43947328490805171 0 -0.0059786262913216247 0.43795886887328661 0 -0.013761996974452359 0.44606192331623967 0 -0.017272011611414669 0.45656072486886012 0 -0.0046805405167990952 0.44910465089531287 0 -0.013761996974452359 0.44606192331623967 0 -0.00035200391082259452 0.47812999780262511 0 -0.020077694831220589 0.47479788772600362 0 0.00053564386205745551 0.5 0 -0.00469897694132939 0.46326950737036948 0 -0.00035200391082259452 0.47812999780262511 0 -0.020077694831220589 0.47479788772600362 0 -0.020077694831220589 0.47479788772600362 0 -0.028436710331901319 0.5 0 -0.043120470515969803 0.47639427788858563 0 -0.020077694831220589 0.47479788772600362 0 -0.028436710331901319 0.5 0 0.00053564386205745551 0.5 0 -0.028436710331901319 0.5 0 -0.043120470515969803 0.47639427788858563 0 -0.057409064525860247 0.5 0 -0.033619035154952313 0.45878121621491869 0 -0.020077694831220589 0.47479788772600362 0 -0.043120470515969803 0.47639427788858563 0 -0.043120470515969803 0.47639427788858563 0 -0.057409064525860247 0.5 0 -0.069195525465020322 0.47261460932804128 0 -0.057409064525860247 0.5 0 -0.086381418719819081 0.5 0 -0.069195525465020322 0.47261460932804128 0 -0.069195525465020322 0.47261460932804128 0 -0.088926494312717042 0.45821613952733442 0 -0.09428171111674051 0.47701654958129153 0 -0.086381418719819081 0.5 0 -0.069195525465020322 0.47261460932804128 0 -0.09428171111674051 0.47701654958129153 0 -0.069195525465020322 0.47261460932804128 0 -0.074223737474278212 0.44381104555037182 0 -0.088926494312717042 0.45821613952733442 0 -0.049186279304297087 0.45233597982056151 0 -0.069195525465020322 0.47261460932804128 0 -0.074223737474278212 0.44381104555037182 0 -0.074223737474278212 0.44381104555037182 0 -0.088926494312717042 0.45821613952733442 0 -0.09596182558140795 0.43789019878106361 0 -0.088926494312717042 0.45821613952733442 0 -0.1109696719261383 0.45974829439590398 0 -0.09428171111674051 0.47701654958129153 0 -0.1189282844760139 0.43536593157966708 0 -0.09596182558140795 0.43789019878106361 0 -0.1109696719261383 0.45974829439590398 0 -0.088926494312717042 0.45821613952733442 0 -0.09596182558140795 0.43789019878106361 0 -0.1109696719261383 0.45974829439590398 0 -0.13088558583442089 0.45167413568938708 0 -0.1189282844760139 0.43536593157966708 0 -0.1109696719261383 0.45974829439590398 0 -0.13373884339090261 0.47557617957858389 0 -0.1109696719261383 0.45974829439590398 0 -0.1141237746416347 0.47940548337254069 0 -0.13373884339090261 0.47557617957858389 0 -0.1141237746416347 0.47940548337254069 0 -0.11535377291377789 0.5 0 -0.086381418719819081 0.5 0 -0.11535377291377789 0.5 0 -0.09428171111674051 0.47701654958129153 0 -0.1141237746416347 0.47940548337254069 0 -0.11535377291377789 0.5 0 -0.09428171111674051 0.47701654958129153 0 -0.1109696719261383 0.45974829439590398 0 -0.1141237746416347 0.47940548337254069 0 -0.09428171111674051 0.47701654958129153 0 -0.17348976586334849 0.079887779897340916 0 -0.1696164118372612 0.1016174745002046 0 -0.15399340220072069 0.081459774572564064 0 -0.16088497586709849 0.063638991902549513 0 -0.17348976586334849 0.079887779897340916 0 -0.15399340220072069 0.081459774572564064 0 -0.16088497586709849 0.063638991902549513 0 -0.17348976586334849 0.079887779897340916 0 -0.17615770434854441 0.05745533482241548 0 -0.17348976586334849 0.079887779897340916 0 -0.17615770434854441 0.05745533482241548 0 -0.19677893922949691 0.068275250036547594 0 -0.17348976586334849 0.079887779897340916 0 -0.1696164118372612 0.1016174745002046 0 -0.19041624211781921 0.086580034520248567 0 -0.17348976586334849 0.079887779897340916 0 -0.19041624211781921 0.086580034520248567 0 -0.19677893922949691 0.068275250036547594 0 -0.1696164118372612 0.1016174745002046 0 -0.19041624211781921 0.086580034520248567 0 -0.18877317656792111 0.10794581800089011 0 -0.1696164118372612 0.1016174745002046 0 -0.19041624211781921 0.086580034520248567 0 -0.17404513054266879 0.1206179902112888 0 -0.19927367952863489 0.12458106594242011 0 -0.18877317656792111 0.10794581800089011 0 -0.17404513054266879 0.1206179902112888 0 -0.19927367952863489 0.12458106594242011 0 -0.17404513054266879 0.1206179902112888 0 -0.1696164118372612 0.1016174745002046 0 -0.18877317656792111 0.10794581800089011 0 -0.17404513054266879 0.1206179902112888 0 -0.14881658155670241 0.11665491448015949 0 -0.17404513054266879 0.1206179902112888 0 -0.1696164118372612 0.1016174745002046 0 -0.14881658155670241 0.11665491448015949 0 -0.1696164118372612 0.1016174745002046 0 -0.15217637582304341 0.099398279025334421 0 -0.15399340220072069 0.081459774572564064 0 -0.1696164118372612 0.1016174745002046 0 -0.15217637582304341 0.099398279025334421 0 -0.14881658155670241 0.11665491448015949 0 -0.1696164118372612 0.1016174745002046 0 -0.14881658155670241 0.11665491448015949 0 -0.15217637582304341 0.099398279025334421 0 -0.14881658155670241 0.11665491448015949 0 -0.1353254054621674 0.094385846219822211 0 -0.14881658155670241 0.11665491448015949 0 -0.12721589412208939 0.1218882594083532 0 -0.12345988444543771 0.1126717083512925 0 -0.14881658155670241 0.11665491448015949 0 -0.12345988444543771 0.1126717083512925 0 -0.14881658155670241 0.11665491448015949 0 -0.12721589412208939 0.1218882594083532 0 -0.12726689902970731 0.1322344674484224 0 -0.14881658155670241 0.11665491448015949 0 -0.12726689902970731 0.1322344674484224 0 -0.14881658155670241 0.11665491448015949 0 -0.1353254054621674 0.094385846219822211 0 -0.12345988444543771 0.1126717083512925 0 -0.1353254054621674 0.094385846219822211 0 -0.1279733391106079 0.071515946478439521 0 -0.1137519520098519 0.091263435447627689 0 -0.1353254054621674 0.094385846219822211 0 -0.15399340220072069 0.081459774572564064 0 -0.1279733391106079 0.071515946478439521 0 -0.15217637582304341 0.099398279025334421 0 -0.1353254054621674 0.094385846219822211 0 -0.15399340220072069 0.081459774572564064 0 -0.16088497586709849 0.063638991902549513 0 -0.15399340220072069 0.081459774572564064 0 -0.1446255277475057 0.053216831723664947 0 -0.15399340220072069 0.081459774572564064 0 -0.1446255277475057 0.053216831723664947 0 -0.15399340220072069 0.081459774572564064 0 -0.1279733391106079 0.071515946478439521 0 -0.1446255277475057 0.053216831723664947 0 -0.1279733391106079 0.071515946478439521 0 -0.1282659440503772 0.05062747076680825 0 -0.1446255277475057 0.053216831723664947 0 -0.1282659440503772 0.05062747076680825 0 -0.13525765329429071 0.02497388887476577 0 -0.1211464216853696 0.034366647401566537 0 -0.1282659440503772 0.05062747076680825 0 -0.13525765329429071 0.02497388887476577 0 -0.1282659440503772 0.05062747076680825 0 -0.1446255277475057 0.053216831723664947 0 -0.13525765329429071 0.02497388887476577 0 -0.1446255277475057 0.053216831723664947 0 -0.13525765329429071 0.02497388887476577 0 -0.1446255277475057 0.053216831723664947 0 -0.13525765329429071 0.02497388887476577 0 -0.15047957583104421 0.029588002999855499 0 -0.1446255277475057 0.053216831723664947 0 -0.15047957583104421 0.029588002999855499 0 -0.16252664716862039 0.041216889162184758 0 -0.16088497586709849 0.063638991902549513 0 -0.1446255277475057 0.053216831723664947 0 -0.16252664716862039 0.041216889162184758 0 -0.12854145031494629 0.0047253962359545196 0 -0.13525765329429071 0.02497388887476577 0 -0.14227034481614481 -0.00075667999809755221 0 -0.12854145031494629 0.0047253962359545196 0 -0.13525765329429071 0.02497388887476577 0 -0.14227034481614481 -0.00075667999809755221 0 -0.13525765329429071 0.02497388887476577 0 -0.12854145031494629 0.0047253962359545196 0 -0.13525765329429071 0.02497388887476577 0 -0.1208102929131879 0.019110855516149189 0 -0.13525765329429071 0.02497388887476577 0 -0.1208102929131879 0.019110855516149189 0 -0.1211464216853696 0.034366647401566537 0 -0.15047957583104421 0.029588002999855499 0 -0.14706113464461801 0.01436993230445968 0 -0.1629269163001858 0.014162472934202339 0 -0.13525765329429071 0.02497388887476577 0 -0.15047957583104421 0.029588002999855499 0 -0.14706113464461801 0.01436993230445968 0 -0.14227034481614481 -0.00075667999809755221 0 -0.1629269163001858 0.014162472934202339 0 -0.14227034481614481 -0.00075667999809755221 0 -0.13525765329429071 0.02497388887476577 0 -0.14706113464461801 0.01436993230445968 0 -0.14227034481614481 -0.00075667999809755221 0 -0.14706113464461801 0.01436993230445968 0 -0.1629269163001858 0.014162472934202339 0 -0.14227034481614481 -0.00075667999809755221 0 -0.1645487358015624 -0.0051850797321069536 0 -0.1629269163001858 0.014162472934202339 0 -0.1645487358015624 -0.0051850797321069536 0 -0.1629269163001858 0.014162472934202339 0 -0.17677062004640959 0.0057961302073779933 0 -0.1629269163001858 0.014162472934202339 0 -0.18358348778422709 0.029081625866501929 0 -0.16252664716862039 0.041216889162184758 0 -0.15047957583104421 0.029588002999855499 0 -0.1629269163001858 0.014162472934202339 0 -0.16252664716862039 0.041216889162184758 0 -0.1629269163001858 0.014162472934202339 0 -0.18358348778422709 0.029081625866501929 0 -0.17677062004640959 0.0057961302073779933 0 -0.1629269163001858 0.014162472934202339 0 -0.18358348778422709 0.029081625866501929 0 -0.18358348778422709 0.029081625866501929 0 -0.17677062004640959 0.0057961302073779933 0 -0.1934257132969133 0.0045407741827038824 0 -0.16088497586709849 0.063638991902549513 0 -0.16252664716862039 0.041216889162184758 0 -0.17615770434854441 0.05745533482241548 0 -0.18358348778422709 0.029081625866501929 0 -0.16252664716862039 0.041216889162184758 0 -0.17615770434854441 0.05745533482241548 0 -0.17615770434854441 0.05745533482241548 0 -0.20424005926826841 0.044000778798801529 0 -0.19677893922949691 0.068275250036547594 0 -0.18358348778422709 0.029081625866501929 0 -0.17615770434854441 0.05745533482241548 0 -0.20424005926826841 0.044000778798801529 0 -0.18358348778422709 0.029081625866501929 0 -0.20424005926826841 0.044000778798801529 0 -0.20424005926826841 0.044000778798801529 0 -0.21598828344653609 0.017597038748402231 0 -0.224113516331827 0.036890149338559573 0 -0.20424005926826841 0.044000778798801529 0 -0.2248966307523097 0.058919931731101133 0 -0.224113516331827 0.036890149338559573 0 -0.20424005926826841 0.044000778798801529 0 -0.2248966307523097 0.058919931731101133 0 -0.20424005926826841 0.044000778798801529 0 -0.2248966307523097 0.058919931731101133 0 -0.19677893922949691 0.068275250036547594 0 -0.18358348778422709 0.029081625866501929 0 -0.1934257132969133 0.0045407741827038824 0 -0.21598828344653609 0.017597038748402231 0 -0.2099765986836159 -0.015482271656309349 0 -0.1934257132969133 0.0045407741827038824 0 -0.21598828344653609 0.017597038748402231 0 -0.18358348778422709 0.029081625866501929 0 -0.20424005926826841 0.044000778798801529 0 -0.21598828344653609 0.017597038748402231 0 -0.2099765986836159 -0.015482271656309349 0 -0.21598828344653609 0.017597038748402231 0 -0.2337160865262925 0.0017344760905013 0 -0.21598828344653609 0.017597038748402231 0 -0.2337160865262925 0.0017344760905013 0 -0.24480270143120561 0.02233487227316935 0 -0.21598828344653609 0.017597038748402231 0 -0.24480270143120561 0.02233487227316935 0 -0.224113516331827 0.036890149338559573 0 -0.2524730899657871 0.002620317666743947 0 -0.2337160865262925 0.0017344760905013 0 -0.24480270143120561 0.02233487227316935 0 -0.2248966307523097 0.058919931731101133 0 -0.224113516331827 0.036890149338559573 0 -0.24024320109540551 0.04521008630310229 0 -0.26271753236154932 0.044364767317522487 0 -0.24480270143120561 0.02233487227316935 0 -0.24024320109540551 0.04521008630310229 0 -0.24480270143120561 0.02233487227316935 0 -0.224113516331827 0.036890149338559573 0 -0.24024320109540551 0.04521008630310229 0 -0.26271753236154932 0.044364767317522487 0 -0.24024320109540551 0.04521008630310229 0 -0.24668631091984261 0.064293202763862828 0 -0.2248966307523097 0.058919931731101133 0 -0.24024320109540551 0.04521008630310229 0 -0.24668631091984261 0.064293202763862828 0 -0.2248966307523097 0.058919931731101133 0 -0.24668631091984261 0.064293202763862828 0 -0.23243709748815139 0.076531488539811732 0 -0.24668631091984261 0.064293202763862828 0 -0.2495686801242398 0.087265410611016947 0 -0.23243709748815139 0.076531488539811732 0 -0.2495686801242398 0.087265410611016947 0 -0.23243709748815139 0.076531488539811732 0 -0.22866823982239901 0.094294722123053731 0 -0.23243709748815139 0.076531488539811732 0 -0.21267272615531099 0.079283366312309339 0 -0.22866823982239901 0.094294722123053731 0 -0.2248966307523097 0.058919931731101133 0 -0.23243709748815139 0.076531488539811732 0 -0.21267272615531099 0.079283366312309339 0 -0.2248966307523097 0.058919931731101133 0 -0.21267272615531099 0.079283366312309339 0 -0.19677893922949691 0.068275250036547594 0 -0.21267272615531099 0.079283366312309339 0 -0.21051441881322139 0.1063325248302885 0 -0.22866823982239901 0.094294722123053731 0 -0.21267272615531099 0.079283366312309339 0 -0.19041624211781921 0.086580034520248567 0 -0.21051441881322139 0.1063325248302885 0 -0.21267272615531099 0.079283366312309339 0 -0.19041624211781921 0.086580034520248567 0 -0.19677893922949691 0.068275250036547594 0 -0.19927367952863489 0.12458106594242011 0 -0.18877317656792111 0.10794581800089011 0 -0.21051441881322139 0.1063325248302885 0 -0.19041624211781921 0.086580034520248567 0 -0.18877317656792111 0.10794581800089011 0 -0.21051441881322139 0.1063325248302885 0 -0.19927367952863489 0.12458106594242011 0 -0.21051441881322139 0.1063325248302885 0 -0.224502228514601 0.12854414167355149 0 -0.21051441881322139 0.1063325248302885 0 -0.22687499499750299 0.11063878907536689 0 -0.224502228514601 0.12854414167355149 0 -0.22687499499750299 0.11063878907536689 0 -0.24412649612905951 0.1109158123134662 0 -0.224502228514601 0.12854414167355149 0 -0.21051441881322139 0.1063325248302885 0 -0.22687499499750299 0.11063878907536689 0 -0.22866823982239901 0.094294722123053731 0 -0.22687499499750299 0.11063878907536689 0 -0.22866823982239901 0.094294722123053731 0 -0.24412649612905951 0.1109158123134662 0 -0.2495686801242398 0.087265410611016947 0 -0.22866823982239901 0.094294722123053731 0 -0.24412649612905951 0.1109158123134662 0 -0.24412649612905951 0.1109158123134662 0 -0.24973077750056691 0.1325072174046828 0 -0.224502228514601 0.12854414167355149 0 -0.24973077750056691 0.1325072174046828 0 -0.224502228514601 0.12854414167355149 0 -0.24973077750056691 0.1325072174046828 0 -0.224502228514601 0.12854414167355149 0 -0.23770474379765569 0.14572798188505259 0 -0.224502228514601 0.12854414167355149 0 -0.22336859145923479 0.1477660237334307 0 -0.20943410751635569 0.14218354848884249 0 -0.224502228514601 0.12854414167355149 0 -0.22336859145923479 0.1477660237334307 0 -0.23770474379765569 0.14572798188505259 0 -0.22336859145923479 0.1477660237334307 0 -0.23770474379765569 0.14572798188505259 0 -0.23342627763902901 0.16274660850939349 0 -0.23770474379765569 0.14572798188505259 0 -0.2427454588960159 0.15600237108861231 0 -0.23342627763902901 0.16274660850939349 0 -0.24973077750056691 0.1325072174046828 0 -0.23770474379765569 0.14572798188505259 0 -0.24924630865098449 0.14877550299698519 0 -0.2427454588960159 0.15600237108861231 0 -0.24924630865098449 0.14877550299698519 0 -0.24978662902869239 0.1607216890103832 0 -0.23770474379765569 0.14572798188505259 0 -0.2427454588960159 0.15600237108861231 0 -0.24924630865098449 0.14877550299698519 0 -0.2427454588960159 0.15600237108861231 0 -0.24978662902869239 0.1607216890103832 0 -0.24301335523323081 0.16406317629058911 0 -0.24301335523323081 0.16406317629058911 0 -0.24862860930106331 0.16890331838918241 0 -0.240942347428349 0.17264993376214019 0 -0.24978662902869239 0.1607216890103832 0 -0.24301335523323081 0.16406317629058911 0 -0.24862860930106331 0.16890331838918241 0 -0.24301335523323081 0.16406317629058911 0 -0.240942347428349 0.17264993376214019 0 -0.23342627763902901 0.16274660850939349 0 -0.2427454588960159 0.15600237108861231 0 -0.24301335523323081 0.16406317629058911 0 -0.23342627763902901 0.16274660850939349 0 -0.25111163591805252 0.1841976838221375 0 -0.23496317464669361 0.18069225438726541 0 -0.240942347428349 0.17264993376214019 0 -0.23496317464669361 0.18069225438726541 0 -0.240942347428349 0.17264993376214019 0 -0.23342627763902901 0.16274660850939349 0 -0.25111163591805252 0.1841976838221375 0 -0.24862860930106331 0.16890331838918241 0 -0.240942347428349 0.17264993376214019 0 -0.23496317464669361 0.18069225438726541 0 -0.23342627763902901 0.16274660850939349 0 -0.21647907694494439 0.1789195528632305 0 -0.23496317464669361 0.18069225438726541 0 -0.21647907694494439 0.1789195528632305 0 -0.2387365590242915 0.20049379810163989 0 -0.23342627763902901 0.16274660850939349 0 -0.211775599828533 0.15962783811031361 0 -0.21647907694494439 0.1789195528632305 0 -0.22336859145923479 0.1477660237334307 0 -0.23342627763902901 0.16274660850939349 0 -0.211775599828533 0.15962783811031361 0 -0.199470824461848 0.17507955454859611 0 -0.1879280205716112 0.15255574775594721 0 -0.17977473624208171 0.1853360913231806 0 -0.211775599828533 0.15962783811031361 0 -0.21647907694494439 0.1789195528632305 0 -0.199470824461848 0.17507955454859611 0 -0.21647907694494439 0.1789195528632305 0 -0.199470824461848 0.17507955454859611 0 -0.2081757220394867 0.1982417329150345 0 -0.199470824461848 0.17507955454859611 0 -0.2081757220394867 0.1982417329150345 0 -0.17977473624208171 0.1853360913231806 0 -0.211775599828533 0.15962783811031361 0 -0.199470824461848 0.17507955454859611 0 -0.1879280205716112 0.15255574775594721 0 -0.211775599828533 0.15962783811031361 0 -0.1879280205716112 0.15255574775594721 0 -0.20943410751635569 0.14218354848884249 0 -0.19927367952863489 0.12458106594242011 0 -0.1879280205716112 0.15255574775594721 0 -0.20943410751635569 0.14218354848884249 0 -0.19927367952863489 0.12458106594242011 0 -0.1879280205716112 0.15255574775594721 0 -0.1757150071063692 0.13887834498908769 0 -0.19927367952863489 0.12458106594242011 0 -0.224502228514601 0.12854414167355149 0 -0.19927367952863489 0.12458106594242011 0 -0.224502228514601 0.12854414167355149 0 -0.20943410751635569 0.14218354848884249 0 -0.22336859145923479 0.1477660237334307 0 -0.211775599828533 0.15962783811031361 0 -0.20943410751635569 0.14218354848884249 0 -0.25063676029139842 0.25291648499014979 0 -0.22581874712784181 0.24950462809828861 0 -0.24646114111524919 0.23035723292487079 0 -0.22581874712784181 0.24950462809828861 0 -0.24646114111524919 0.23035723292487079 0 -0.22581874712784181 0.24950462809828861 0 -0.24646114111524919 0.23035723292487079 0 -0.2176305339160132 0.22045305475365759 0 -0.2387365590242915 0.20049379810163989 0 -0.2081757220394867 0.1982417329150345 0 -0.2176305339160132 0.22045305475365759 0 -0.24646114111524919 0.23035723292487079 0 -0.2387365590242915 0.20049379810163989 0 -0.2176305339160132 0.22045305475365759 0 -0.25111163591805252 0.1841976838221375 0 -0.23496317464669361 0.18069225438726541 0 -0.2387365590242915 0.20049379810163989 0 -0.21647907694494439 0.1789195528632305 0 -0.2387365590242915 0.20049379810163989 0 -0.2081757220394867 0.1982417329150345 0 -0.2081757220394867 0.1982417329150345 0 -0.19002279763753049 0.21209062673740631 0 -0.17977473624208171 0.1853360913231806 0 -0.2081757220394867 0.1982417329150345 0 -0.19002279763753049 0.21209062673740631 0 -0.2176305339160132 0.22045305475365759 0 -0.1941330333909061 0.25332751519580893 0 -0.22581874712784181 0.24950462809828861 0 -0.19470996406475399 0.23250526641025479 0 -0.22581874712784181 0.24950462809828861 0 -0.2176305339160132 0.22045305475365759 0 -0.19470996406475399 0.23250526641025479 0 -0.19002279763753049 0.21209062673740631 0 -0.2176305339160132 0.22045305475365759 0 -0.19470996406475399 0.23250526641025479 0 -0.1941330333909061 0.25332751519580893 0 -0.19470996406475399 0.23250526641025479 0 -0.1782134140010995 0.24383171336387921 0 -0.16028035532114809 0.24095137339685299 0 -0.1782134140010995 0.24383171336387921 0 -0.17324033540093581 0.22758961415680959 0 -0.17233362975044281 0.25981348251711189 0 -0.16028035532114809 0.24095137339685299 0 -0.1782134140010995 0.24383171336387921 0 -0.19470996406475399 0.23250526641025479 0 -0.1782134140010995 0.24383171336387921 0 -0.17324033540093581 0.22758961415680959 0 -0.19002279763753049 0.21209062673740631 0 -0.19470996406475399 0.23250526641025479 0 -0.17324033540093581 0.22758961415680959 0 -0.17324033540093581 0.22758961415680959 0 -0.1666054941619117 0.208418000865501 0 -0.1480072220466232 0.22786576534106021 0 -0.16028035532114809 0.24095137339685299 0 -0.17324033540093581 0.22758961415680959 0 -0.1480072220466232 0.22786576534106021 0 -0.19002279763753049 0.21209062673740631 0 -0.17324033540093581 0.22758961415680959 0 -0.1666054941619117 0.208418000865501 0 -0.19002279763753049 0.21209062673740631 0 -0.1666054941619117 0.208418000865501 0 -0.17977473624208171 0.1853360913231806 0 -0.1666054941619117 0.208418000865501 0 -0.15976741859491131 0.18992808813747719 0 -0.17977473624208171 0.1853360913231806 0 -0.1666054941619117 0.208418000865501 0 -0.15976741859491131 0.18992808813747719 0 -0.14534279361802749 0.20890229283806661 0 -0.15976741859491131 0.18992808813747719 0 -0.14534279361802749 0.20890229283806661 0 -0.1407945234641233 0.18482174999163201 0 -0.14534279361802749 0.20890229283806661 0 -0.1407945234641233 0.18482174999163201 0 -0.1172277749103794 0.20095475110947431 0 -0.1407945234641233 0.18482174999163201 0 -0.1172277749103794 0.20095475110947431 0 -0.14534279361802749 0.20890229283806661 0 -0.129593653586069 0.22987375058400089 0 -0.1172277749103794 0.20095475110947431 0 -0.1666054941619117 0.208418000865501 0 -0.14534279361802749 0.20890229283806661 0 -0.1480072220466232 0.22786576534106021 0 -0.14534279361802749 0.20890229283806661 0 -0.1480072220466232 0.22786576534106021 0 -0.129593653586069 0.22987375058400089 0 -0.1361912156991702 0.2509193869946269 0 -0.1480072220466232 0.22786576534106021 0 -0.129593653586069 0.22987375058400089 0 -0.1361912156991702 0.2509193869946269 0 -0.10922751000722319 0.25423984994727239 0 -0.129593653586069 0.22987375058400089 0 -0.1361912156991702 0.2509193869946269 0 -0.16028035532114809 0.24095137339685299 0 -0.1480072220466232 0.22786576534106021 0 -0.1757150071063692 0.13887834498908769 0 -0.16436127201786729 0.1686887488737896 0 -0.15527460173017479 0.13959394704839051 0 -0.17404513054266879 0.1206179902112888 0 -0.14881658155670241 0.11665491448015949 0 -0.15527460173017479 0.13959394704839051 0 -0.17404513054266879 0.1206179902112888 0 -0.1757150071063692 0.13887834498908769 0 -0.15527460173017479 0.13959394704839051 0 -0.17404513054266879 0.1206179902112888 0 -0.19927367952863489 0.12458106594242011 0 -0.1757150071063692 0.13887834498908769 0 -0.1879280205716112 0.15255574775594721 0 -0.1757150071063692 0.13887834498908769 0 -0.16436127201786729 0.1686887488737896 0 -0.1879280205716112 0.15255574775594721 0 -0.16436127201786729 0.1686887488737896 0 -0.1879280205716112 0.15255574775594721 0 -0.17977473624208171 0.1853360913231806 0 -0.16436127201786729 0.1686887488737896 0 -0.15976741859491131 0.18992808813747719 0 -0.17977473624208171 0.1853360913231806 0 -0.16436127201786729 0.1686887488737896 0 -0.16436127201786729 0.1686887488737896 0 -0.1414427201277329 0.16048921628759369 0 -0.1407945234641233 0.18482174999163201 0 -0.16436127201786729 0.1686887488737896 0 -0.1414427201277329 0.16048921628759369 0 -0.15527460173017479 0.13959394704839051 0 -0.15976741859491131 0.18992808813747719 0 -0.16436127201786729 0.1686887488737896 0 -0.1407945234641233 0.18482174999163201 0 -0.16436127201786729 0.1686887488737896 0 -0.1407945234641233 0.18482174999163201 0 -0.1414427201277329 0.16048921628759369 0 -0.1407945234641233 0.18482174999163201 0 -0.11956230798128489 0.17115410820802321 0 -0.1407945234641233 0.18482174999163201 0 -0.11956230798128489 0.17115410820802321 0 -0.1172277749103794 0.20095475110947431 0 -0.1414427201277329 0.16048921628759369 0 -0.12349728591035911 0.15292295309018089 0 -0.11956230798128489 0.17115410820802321 0 -0.1414427201277329 0.16048921628759369 0 -0.12726689902970731 0.1322344674484224 0 -0.12349728591035911 0.15292295309018089 0 -0.1414427201277329 0.16048921628759369 0 -0.15527460173017479 0.13959394704839051 0 -0.12726689902970731 0.1322344674484224 0 -0.14881658155670241 0.11665491448015949 0 -0.15527460173017479 0.13959394704839051 0 -0.12726689902970731 0.1322344674484224 0 -0.12726689902970731 0.1322344674484224 0 -0.1104230650096248 0.13171968845455501 0 -0.11722390332147729 0.12410673834242721 0 -0.12726689902970731 0.1322344674484224 0 -0.10571721650271131 0.14781402041668409 0 -0.12721589412208939 0.1218882594083532 0 -0.12726689902970731 0.1322344674484224 0 -0.11722390332147729 0.12410673834242721 0 -0.12726689902970731 0.1322344674484224 0 -0.1104230650096248 0.13171968845455501 0 -0.10571721650271131 0.14781402041668409 0 -0.1104230650096248 0.13171968845455501 0 -0.11722390332147729 0.12410673834242721 0 -0.1039749755523806 0.1197529745502216 0 -0.1104230650096248 0.13171968845455501 0 -0.09793233064184742 0.13469024151501979 0 -0.10571721650271131 0.14781402041668409 0 -0.1104230650096248 0.13171968845455501 0 -0.09793233064184742 0.13469024151501979 0 -0.1039749755523806 0.1197529745502216 0 -0.09793233064184742 0.13469024151501979 0 -0.090147444780984159 0.1215664626133551 0 -0.1039749755523806 0.1197529745502216 0 -0.09793233064184742 0.13469024151501979 0 -0.090147444780984159 0.1215664626133551 0 -0.10022319018901429 0.15178598027530579 0 -0.10571721650271131 0.14781402041668409 0 -0.100592491601928 0.1641348710231644 0 -0.09793233064184742 0.13469024151501979 0 -0.10022319018901429 0.15178598027530579 0 -0.088570217575017665 0.14909953178787161 0 -0.09793233064184742 0.13469024151501979 0 -0.10022319018901429 0.15178598027530579 0 -0.10571721650271131 0.14781402041668409 0 -0.10022319018901429 0.15178598027530579 0 -0.100592491601928 0.1641348710231644 0 -0.088570217575017665 0.14909953178787161 0 -0.09793233064184742 0.13469024151501979 0 -0.10571721650271131 0.14781402041668409 0 -0.10022319018901429 0.15178598027530579 0 -0.10571721650271131 0.14781402041668409 0 -0.12726689902970731 0.1322344674484224 0 -0.10571721650271131 0.14781402041668409 0 -0.12349728591035911 0.15292295309018089 0 -0.10571721650271131 0.14781402041668409 0 -0.11956230798128489 0.17115410820802321 0 -0.10571721650271131 0.14781402041668409 0 -0.12349728591035911 0.15292295309018089 0 -0.11956230798128489 0.17115410820802321 0 -0.11956230798128489 0.17115410820802321 0 -0.1172277749103794 0.20095475110947431 0 -0.099945077419318185 0.1880428515803251 0 -0.100592491601928 0.1641348710231644 0 -0.086992990369050283 0.17663260096238809 0 -0.099945077419318185 0.1880428515803251 0 -0.11956230798128489 0.17115410820802321 0 -0.100592491601928 0.1641348710231644 0 -0.099945077419318185 0.1880428515803251 0 -0.10571721650271131 0.14781402041668409 0 -0.11956230798128489 0.17115410820802321 0 -0.100592491601928 0.1641348710231644 0 -0.086992990369050283 0.17663260096238809 0 -0.088570217575017665 0.14909953178787161 0 -0.100592491601928 0.1641348710231644 0 -0.086992990369050283 0.17663260096238809 0 -0.088570217575017665 0.14909953178787161 0 -0.086992990369050283 0.17663260096238809 0 -0.072589899597420543 0.14887428562548169 0 -0.088570217575017665 0.14909953178787161 0 -0.086992990369050283 0.17663260096238809 0 -0.063894129047148862 0.1650376703087133 0 -0.05625069453368306 0.18905923167239511 0 -0.086992990369050283 0.17663260096238809 0 -0.063894129047148862 0.1650376703087133 0 -0.072589899597420543 0.14887428562548169 0 -0.072589899597420543 0.14887428562548169 0 -0.06590759652169037 0.13295191886843549 0 -0.054209437220826093 0.14404286126910709 0 -0.063894129047148862 0.1650376703087133 0 -0.072589899597420543 0.14887428562548169 0 -0.054209437220826093 0.14404286126910709 0 -0.072589899597420543 0.14887428562548169 0 -0.077649500547541633 0.1337144130427613 0 -0.081466929396170229 0.14067965887600961 0 -0.077649500547541633 0.1337144130427613 0 -0.0646612294316979 0.11746634593915781 0 -0.06590759652169037 0.13295191886843549 0 -0.077649500547541633 0.1337144130427613 0 -0.0646612294316979 0.11746634593915781 0 -0.072589899597420543 0.14887428562548169 0 -0.06590759652169037 0.13295191886843549 0 -0.077649500547541633 0.1337144130427613 0 -0.09793233064184742 0.13469024151501979 0 -0.088570217575017665 0.14909953178787161 0 -0.090147444780984159 0.1215664626133551 0 -0.077649500547541633 0.1337144130427613 0 -0.081466929396170229 0.14067965887600961 0 -0.090147444780984159 0.1215664626133551 0 -0.088570217575017665 0.14909953178787161 0 -0.090147444780984159 0.1215664626133551 0 -0.088570217575017665 0.14909953178787161 0 -0.081466929396170229 0.14067965887600961 0 -0.090147444780984159 0.1215664626133551 0 -0.072589899597420543 0.14887428562548169 0 -0.088570217575017665 0.14909953178787161 0 -0.081466929396170229 0.14067965887600961 0 -0.10922751000722319 0.25423984994727239 0 -0.094964645419233662 0.23776362328900039 0 -0.1095596925946687 0.22738819136088401 0 -0.10922751000722319 0.25423984994727239 0 -0.086782026885810326 0.25706796878206128 0 -0.094964645419233662 0.23776362328900039 0 -0.10922751000722319 0.25423984994727239 0 -0.129593653586069 0.22987375058400089 0 -0.1095596925946687 0.22738819136088401 0 -0.129593653586069 0.22987375058400089 0 -0.1095596925946687 0.22738819136088401 0 -0.1172277749103794 0.20095475110947431 0 -0.094964645419233662 0.23776362328900039 0 -0.1095596925946687 0.22738819136088401 0 -0.093661026356635549 0.2170877522273166 0 -0.1095596925946687 0.22738819136088401 0 -0.1172277749103794 0.20095475110947431 0 -0.093661026356635549 0.2170877522273166 0 -0.1172277749103794 0.20095475110947431 0 -0.093661026356635549 0.2170877522273166 0 -0.1172277749103794 0.20095475110947431 0 -0.099945077419318185 0.1880428515803251 0 -0.093661026356635549 0.2170877522273166 0 -0.086992990369050283 0.17663260096238809 0 -0.099945077419318185 0.1880428515803251 0 -0.081633873296630952 0.19829302595158421 0 -0.099945077419318185 0.1880428515803251 0 -0.081633873296630952 0.19829302595158421 0 -0.093661026356635549 0.2170877522273166 0 -0.086992990369050283 0.17663260096238809 0 -0.081633873296630952 0.19829302595158421 0 -0.05625069453368306 0.18905923167239511 0 -0.081633873296630952 0.19829302595158421 0 -0.06799562246031074 0.21240704661297341 0 -0.05625069453368306 0.18905923167239511 0 -0.081633873296630952 0.19829302595158421 0 -0.06799562246031074 0.21240704661297341 0 -0.093661026356635549 0.2170877522273166 0 -0.093661026356635549 0.2170877522273166 0 -0.07009427780289168 0.23322075334515899 0 -0.094964645419233662 0.23776362328900039 0 -0.093661026356635549 0.2170877522273166 0 -0.07009427780289168 0.23322075334515899 0 -0.06799562246031074 0.21240704661297341 0 -0.093661026356635549 0.2170877522273166 0 -0.07009427780289168 0.23322075334515899 0 -0.086782026885810326 0.25706796878206128 0 -0.094964645419233662 0.23776362328900039 0 -0.07009427780289168 0.23322075334515899 0 -0.027654839422797509 0.25479998940689619 0 -0.046527529249147832 0.24935375446300129 0 -0.02270416718690367 0.23320904479819149 0 -0.046527529249147832 0.24935375446300129 0 -0.046000864338903782 0.22330500769394071 0 -0.02270416718690367 0.23320904479819149 0 -0.064865955853641535 0.26008420970769919 0 -0.07009427780289168 0.23322075334515899 0 -0.046527529249147832 0.24935375446300129 0 -0.07009427780289168 0.23322075334515899 0 -0.046527529249147832 0.24935375446300129 0 -0.046000864338903782 0.22330500769394071 0 -0.07009427780289168 0.23322075334515899 0 -0.046527529249147832 0.24935375446300129 0 -0.06799562246031074 0.21240704661297341 0 -0.07009427780289168 0.23322075334515899 0 -0.046000864338903782 0.22330500769394071 0 -0.046000864338903782 0.22330500769394071 0 -0.030234205272074242 0.20256309249700941 0 -0.02270416718690367 0.23320904479819149 0 -0.046000864338903782 0.22330500769394071 0 -0.05625069453368306 0.18905923167239511 0 -0.030234205272074242 0.20256309249700941 0 -0.06799562246031074 0.21240704661297341 0 -0.046000864338903782 0.22330500769394071 0 -0.05625069453368306 0.18905923167239511 0 -0.05625069453368306 0.18905923167239511 0 -0.030234205272074242 0.20256309249700941 0 -0.03061326786726383 0.17324629624753771 0 -0.030234205272074242 0.20256309249700941 0 -0.03061326786726383 0.17324629624753771 0 -0.030234205272074242 0.20256309249700941 0 -0.0081117985611391628 0.20020632315256379 0 -0.008277806428889329 0.1819306387007438 0 -0.0081117985611391628 0.20020632315256379 0 -0.008277806428889329 0.1819306387007438 0 0.0093175891669755994 0.19835633455436341 0 -0.030234205272074242 0.20256309249700941 0 -0.0081117985611391628 0.20020632315256379 0 -0.0032527717105686848 0.21797522685813861 0 -0.0081117985611391628 0.20020632315256379 0 -0.0032527717105686848 0.21797522685813861 0 0.0093175891669755994 0.19835633455436341 0 -0.030234205272074242 0.20256309249700941 0 -0.0032527717105686848 0.21797522685813861 0 -0.02270416718690367 0.23320904479819149 0 -0.0032527717105686848 0.21797522685813861 0 -0.02270416718690367 0.23320904479819149 0 -0.00048021596502030199 0.2357461893728382 0 -0.0094860428890609812 0.25201589383169298 0 -0.00048021596502030199 0.2357461893728382 0 0.0093766357309573133 0.25077498028374479 0 -0.0094860428890609812 0.25201589383169298 0 -0.02270416718690367 0.23320904479819149 0 -0.00048021596502030199 0.2357461893728382 0 -0.027654839422797509 0.25479998940689619 0 -0.0094860428890609812 0.25201589383169298 0 -0.02270416718690367 0.23320904479819149 0 -0.054209437220826093 0.14404286126910709 0 -0.04634768948269552 0.1624068823523549 0 -0.030992330462453411 0.14392949999806631 0 -0.045454154559358563 0.12904929269066689 0 -0.030992330462453411 0.14392949999806631 0 -0.031371393057642999 0.1146127037485947 0 -0.045454154559358563 0.12904929269066689 0 -0.054209437220826093 0.14404286126910709 0 -0.030992330462453411 0.14392949999806631 0 -0.06590759652169037 0.13295191886843549 0 -0.05879027741877238 0.11708509885199481 0 -0.045454154559358563 0.12904929269066689 0 -0.056390966733964237 0.12769105290705379 0 -0.054209437220826093 0.14404286126910709 0 -0.06590759652169037 0.13295191886843549 0 -0.056390966733964237 0.12769105290705379 0 -0.054209437220826093 0.14404286126910709 0 -0.06590759652169037 0.13295191886843549 0 -0.056390966733964237 0.12769105290705379 0 -0.05879027741877238 0.11708509885199481 0 -0.045454154559358563 0.12904929269066689 0 -0.056390966733964237 0.12769105290705379 0 -0.051479425587896109 0.1218600148332348 0 -0.063894129047148862 0.1650376703087133 0 -0.054209437220826093 0.14404286126910709 0 -0.04634768948269552 0.1624068823523549 0 -0.063894129047148862 0.1650376703087133 0 -0.05625069453368306 0.18905923167239511 0 -0.04634768948269552 0.1624068823523549 0 -0.05625069453368306 0.18905923167239511 0 -0.04634768948269552 0.1624068823523549 0 -0.03061326786726383 0.17324629624753771 0 -0.04634768948269552 0.1624068823523549 0 -0.03061326786726383 0.17324629624753771 0 -0.030992330462453411 0.14392949999806631 0 -0.03061326786726383 0.17324629624753771 0 -0.030992330462453411 0.14392949999806631 0 -0.03061326786726383 0.17324629624753771 0 -0.0051377206325900274 0.16075989213823061 0 -0.015220901238395109 0.14805579041894559 0 -0.030234205272074242 0.20256309249700941 0 -0.03061326786726383 0.17324629624753771 0 -0.008277806428889329 0.1819306387007438 0 -0.008277806428889329 0.1819306387007438 0 -0.0051377206325900274 0.16075989213823061 0 0.010984318894288241 0.17357290817306409 0 -0.03061326786726383 0.17324629624753771 0 -0.008277806428889329 0.1819306387007438 0 -0.0051377206325900274 0.16075989213823061 0 -0.0051377206325900274 0.16075989213823061 0 -0.015220901238395109 0.14805579041894559 0 -0.00094612486944474711 0.13739524991114199 0 -0.015220901238395109 0.14805579041894559 0 -0.030992330462453411 0.14392949999806631 0 -0.018153437610692939 0.1319608073280002 0 -0.03061326786726383 0.17324629624753771 0 -0.015220901238395109 0.14805579041894559 0 -0.030992330462453411 0.14392949999806631 0 -0.030992330462453411 0.14392949999806631 0 -0.031371393057642999 0.1146127037485947 0 -0.030992330462453411 0.14392949999806631 0 -0.018153437610692939 0.1319608073280002 0 -0.031371393057642999 0.1146127037485947 0 -0.018153437610692939 0.1319608073280002 0 -0.00094612486944474711 0.13739524991114199 0 -0.012921853350251779 0.1163043731888329 0 -0.015220901238395109 0.14805579041894559 0 -0.018153437610692939 0.1319608073280002 0 -0.00094612486944474711 0.13739524991114199 0 -0.00094612486944474711 0.13739524991114199 0 -0.012921853350251779 0.1163043731888329 0 0.012511556787723111 0.11653562190985491 0 -0.012921853350251779 0.1163043731888329 0 -0.01356323801996244 0.095919082315836804 0 -0.012921853350251779 0.1163043731888329 0 -0.01356323801996244 0.095919082315836804 0 0.003395107760267988 0.098820241130360406 0 -0.012921853350251779 0.1163043731888329 0 -0.01356323801996244 0.095919082315836804 0 -0.023549313639099921 0.1042351462617262 0 -0.01356323801996244 0.095919082315836804 0 -0.023549313639099921 0.1042351462617262 0 -0.02499486458352651 0.08949636628360412 0 -0.023549313639099921 0.1042351462617262 0 -0.02499486458352651 0.08949636628360412 0 -0.034595661280334873 0.1000365731109655 0 -0.023549313639099921 0.1042351462617262 0 -0.031371393057642999 0.1146127037485947 0 -0.034595661280334873 0.1000365731109655 0 -0.018153437610692939 0.1319608073280002 0 -0.012921853350251779 0.1163043731888329 0 -0.031371393057642999 0.1146127037485947 0 -0.012921853350251779 0.1163043731888329 0 -0.023549313639099921 0.1042351462617262 0 -0.031371393057642999 0.1146127037485947 0 -0.01420462268967311 0.07553379144284067 0 -0.01484600735938396 0.055148500569844612 0 -0.01420462268967311 0.07553379144284067 0 -0.0073480863309807248 0.06511532806321231 0 0.0041641368684680307 0.079593073860037625 0 -0.01420462268967311 0.07553379144284067 0 -0.0073480863309807248 0.06511532806321231 0 -0.01484600735938396 0.055148500569844612 0 -0.01356323801996244 0.095919082315836804 0 -0.01420462268967311 0.07553379144284067 0 -0.01356323801996244 0.095919082315836804 0 0.0041641368684680307 0.079593073860037625 0 0.003395107760267988 0.098820241130360406 0 -0.01356323801996244 0.095919082315836804 0 -0.01420462268967311 0.07553379144284067 0 0.0041641368684680307 0.079593073860037625 0 -0.01420462268967311 0.07553379144284067 0 -0.02499486458352651 0.08949636628360412 0 -0.033259482837619127 0.078183389702699266 0 -0.01356323801996244 0.095919082315836804 0 -0.01420462268967311 0.07553379144284067 0 -0.02499486458352651 0.08949636628360412 0 -0.01420462268967311 0.07553379144284067 0 -0.033259482837619127 0.078183389702699266 0 -0.01484600735938396 0.055148500569844612 0 -0.033259482837619127 0.078183389702699266 0 -0.01484600735938396 0.055148500569844612 0 -0.033259482837619127 0.078183389702699266 0 -0.032809657758508692 0.059165844410249108 0 -0.01484600735938396 0.055148500569844612 0 -0.042241308037181513 0.080192061622901559 0 -0.047585925872300691 0.061630732305623298 0 -0.032809657758508692 0.059165844410249108 0 -0.042241308037181513 0.080192061622901559 0 -0.033259482837619127 0.078183389702699266 0 -0.032809657758508692 0.059165844410249108 0 -0.042241308037181513 0.080192061622901559 0 -0.032809657758508692 0.059165844410249108 0 -0.033259482837619127 0.078183389702699266 0 -0.051672958315854292 0.10121827883555411 0 -0.042241308037181513 0.080192061622901559 0 -0.033259482837619127 0.078183389702699266 0 -0.051672958315854292 0.10121827883555411 0 -0.033259482837619127 0.078183389702699266 0 -0.036130741754333701 0.092233651983205739 0 -0.051672958315854292 0.10121827883555411 0 -0.02499486458352651 0.08949636628360412 0 -0.033259482837619127 0.078183389702699266 0 -0.036130741754333701 0.092233651983205739 0 -0.042241308037181513 0.080192061622901559 0 -0.058522641354164427 0.084868902593020851 0 -0.051672958315854292 0.10121827883555411 0 -0.042241308037181513 0.080192061622901559 0 -0.058522641354164427 0.084868902593020851 0 -0.052782379898891341 0.073052188486330272 0 -0.042241308037181513 0.080192061622901559 0 -0.051672958315854292 0.10121827883555411 0 -0.058522641354164427 0.084868902593020851 0 -0.052782379898891341 0.073052188486330272 0 -0.062779644331918738 0.065517057423775393 0 -0.042241308037181513 0.080192061622901559 0 -0.052782379898891341 0.073052188486330272 0 -0.047585925872300691 0.061630732305623298 0 -0.052782379898891341 0.073052188486330272 0 -0.062779644331918738 0.065517057423775393 0 -0.047585925872300691 0.061630732305623298 0 -0.045454154559358563 0.12904929269066689 0 -0.045282303639489249 0.11361461488322371 0 -0.031371393057642999 0.1146127037485947 0 -0.045282303639489249 0.11361461488322371 0 -0.031371393057642999 0.1146127037485947 0 -0.034595661280334873 0.1000365731109655 0 -0.045282303639489249 0.11361461488322371 0 -0.034595661280334873 0.1000365731109655 0 -0.051672958315854292 0.10121827883555411 0 -0.036130741754333701 0.092233651983205739 0 -0.034595661280334873 0.1000365731109655 0 -0.051672958315854292 0.10121827883555411 0 -0.02499486458352651 0.08949636628360412 0 -0.036130741754333701 0.092233651983205739 0 -0.034595661280334873 0.1000365731109655 0 -0.051672958315854292 0.10121827883555411 0 -0.05879027741877238 0.11708509885199481 0 -0.051672958315854292 0.10121827883555411 0 -0.0646612294316979 0.11746634593915781 0 -0.067227529136232464 0.104139845395124 0 -0.058522641354164427 0.084868902593020851 0 -0.051672958315854292 0.10121827883555411 0 -0.062407480998421097 0.095387275034714641 0 -0.051672958315854292 0.10121827883555411 0 -0.0646612294316979 0.11746634593915781 0 -0.051672958315854292 0.10121827883555411 0 -0.062407480998421097 0.095387275034714641 0 -0.067227529136232464 0.104139845395124 0 -0.045282303639489249 0.11361461488322371 0 -0.051672958315854292 0.10121827883555411 0 -0.05879027741877238 0.11708509885199481 0 -0.051672958315854292 0.10121827883555411 0 -0.05879027741877238 0.11708509885199481 0 -0.0646612294316979 0.11746634593915781 0 -0.045282303639489249 0.11361461488322371 0 -0.05879027741877238 0.11708509885199481 0 -0.051479425587896109 0.1218600148332348 0 -0.045454154559358563 0.12904929269066689 0 -0.045282303639489249 0.11361461488322371 0 -0.051479425587896109 0.1218600148332348 0 -0.056390966733964237 0.12769105290705379 0 -0.05879027741877238 0.11708509885199481 0 -0.051479425587896109 0.1218600148332348 0 -0.06590759652169037 0.13295191886843549 0 -0.05879027741877238 0.11708509885199481 0 -0.0646612294316979 0.11746634593915781 0 -0.077649500547541633 0.1337144130427613 0 -0.0646612294316979 0.11746634593915781 0 -0.077250524547315055 0.1190056300655471 0 -0.0646612294316979 0.11746634593915781 0 -0.072579100774863431 0.1117640223410216 0 -0.067227529136232464 0.104139845395124 0 -0.0646612294316979 0.11746634593915781 0 -0.072579100774863431 0.1117640223410216 0 -0.077250524547315055 0.1190056300655471 0 -0.072579100774863431 0.1117640223410216 0 -0.077250524547315055 0.1190056300655471 0 -0.081177119984208346 0.1064442679642575 0 -0.090147444780984159 0.1215664626133551 0 -0.091543658900217872 0.097193271622335806 0 -0.077649500547541633 0.1337144130427613 0 -0.077250524547315055 0.1190056300655471 0 -0.090147444780984159 0.1215664626133551 0 -0.090147444780984159 0.1215664626133551 0 -0.081177119984208346 0.1064442679642575 0 -0.077250524547315055 0.1190056300655471 0 -0.090147444780984159 0.1215664626133551 0 -0.081177119984208346 0.1064442679642575 0 -0.081177119984208346 0.1064442679642575 0 -0.072206795187433184 0.091322073315159472 0 -0.084285244340110616 0.086320250912613777 0 -0.090147444780984159 0.1215664626133551 0 -0.091543658900217872 0.097193271622335806 0 -0.081177119984208346 0.1064442679642575 0 -0.091543658900217872 0.097193271622335806 0 -0.081177119984208346 0.1064442679642575 0 -0.084285244340110616 0.086320250912613777 0 -0.081177119984208346 0.1064442679642575 0 -0.072206795187433184 0.091322073315159472 0 -0.081177119984208346 0.1064442679642575 0 -0.067227529136232464 0.104139845395124 0 -0.072206795187433184 0.091322073315159472 0 -0.072579100774863431 0.1117640223410216 0 -0.081177119984208346 0.1064442679642575 0 -0.067227529136232464 0.104139845395124 0 -0.062407480998421097 0.095387275034714641 0 -0.067227529136232464 0.104139845395124 0 -0.072206795187433184 0.091322073315159472 0 -0.058522641354164427 0.084868902593020851 0 -0.072206795187433184 0.091322073315159472 0 -0.076800310080739509 0.075601905871829023 0 -0.058522641354164427 0.084868902593020851 0 -0.062407480998421097 0.095387275034714641 0 -0.072206795187433184 0.091322073315159472 0 -0.072206795187433184 0.091322073315159472 0 -0.076800310080739509 0.075601905871829023 0 -0.084285244340110616 0.086320250912613777 0 -0.058522641354164427 0.084868902593020851 0 -0.076800310080739509 0.075601905871829023 0 -0.062779644331918738 0.065517057423775393 0 -0.076800310080739509 0.075601905871829023 0 -0.062779644331918738 0.065517057423775393 0 -0.079997976438854396 0.060367567436758772 0 -0.076800310080739509 0.075601905871829023 0 -0.092939873019450725 0.072820080631316536 0 -0.079997976438854396 0.060367567436758772 0 -0.091543658900217872 0.097193271622335806 0 -0.092939873019450725 0.072820080631316536 0 -0.091543658900217872 0.097193271622335806 0 -0.092939873019450725 0.072820080631316536 0 -0.084285244340110616 0.086320250912613777 0 -0.076800310080739509 0.075601905871829023 0 -0.092939873019450725 0.072820080631316536 0 -0.084285244340110616 0.086320250912613777 0 -0.091543658900217872 0.097193271622335806 0 -0.092939873019450725 0.072820080631316536 0 -0.101174121091891 0.086377094572215457 0 -0.101174121091891 0.086377094572215457 0 -0.1040440195742668 0.069855162543962623 0 -0.1137519520098519 0.091263435447627689 0 -0.1040440195742668 0.069855162543962623 0 -0.1137519520098519 0.091263435447627689 0 -0.092939873019450725 0.072820080631316536 0 -0.1040440195742668 0.069855162543962623 0 -0.094336087138682481 0.0484468896402971 0 -0.092939873019450725 0.072820080631316536 0 -0.101174121091891 0.086377094572215457 0 -0.1040440195742668 0.069855162543962623 0 -0.1279733391106079 0.071515946478439521 0 -0.1040440195742668 0.069855162543962623 0 -0.1137519520098519 0.091263435447627689 0 -0.1279733391106079 0.071515946478439521 0 -0.1040440195742668 0.069855162543962623 0 -0.11580712272936559 0.059803104074626863 0 -0.1137519520098519 0.091263435447627689 0 -0.12345988444543771 0.1126717083512925 0 -0.1137519520098519 0.091263435447627689 0 -0.12345988444543771 0.1126717083512925 0 -0.1151130251402205 0.111360525708085 0 -0.1137519520098519 0.091263435447627689 0 -0.1151130251402205 0.111360525708085 0 -0.10231499109429081 0.105962760933106 0 -0.1353254054621674 0.094385846219822211 0 -0.1137519520098519 0.091263435447627689 0 -0.12345988444543771 0.1126717083512925 0 -0.12345988444543771 0.1126717083512925 0 -0.1213090409757021 0.1165718139569934 0 -0.1151130251402205 0.111360525708085 0 -0.12345988444543771 0.1126717083512925 0 -0.1151130251402205 0.111360525708085 0 -0.12721589412208939 0.1218882594083532 0 -0.12345988444543771 0.1126717083512925 0 -0.1213090409757021 0.1165718139569934 0 -0.1213090409757021 0.1165718139569934 0 -0.11722390332147729 0.12410673834242721 0 -0.1151130251402205 0.111360525708085 0 -0.12721589412208939 0.1218882594083532 0 -0.1213090409757021 0.1165718139569934 0 -0.11722390332147729 0.12410673834242721 0 -0.11722390332147729 0.12410673834242721 0 -0.1151130251402205 0.111360525708085 0 -0.1039749755523806 0.1197529745502216 0 -0.1151130251402205 0.111360525708085 0 -0.1039749755523806 0.1197529745502216 0 -0.10231499109429081 0.105962760933106 0 -0.090147444780984159 0.1215664626133551 0 -0.1039749755523806 0.1197529745502216 0 -0.10231499109429081 0.105962760933106 0 -0.101174121091891 0.086377094572215457 0 -0.1137519520098519 0.091263435447627689 0 -0.10231499109429081 0.105962760933106 0 -0.090147444780984159 0.1215664626133551 0 -0.091543658900217872 0.097193271622335806 0 -0.10231499109429081 0.105962760933106 0 -0.091543658900217872 0.097193271622335806 0 -0.101174121091891 0.086377094572215457 0 -0.10231499109429081 0.105962760933106 0 -0.1073132388810286 0.018089109947672641 0 -0.098119734365623962 0.02414088096917336 0 -0.1066230036403176 0.031793070199818543 0 -0.1073132388810286 0.018089109947672641 0 -0.098119734365623962 0.02414088096917336 0 -0.097977441946633964 0.0094916619937897833 0 -0.1073132388810286 0.018089109947672641 0 -0.097977441946633964 0.0094916619937897833 0 -0.1140720588942809 0.0050049600080688426 0 -0.1036825067246547 -0.0045004818770412319 0 -0.097977441946633964 0.0094916619937897833 0 -0.1140720588942809 0.0050049600080688426 0 -0.1073132388810286 0.018089109947672641 0 -0.1140720588942809 0.0050049600080688426 0 -0.1208102929131879 0.019110855516149189 0 -0.12854145031494629 0.0047253962359545196 0 -0.1140720588942809 0.0050049600080688426 0 -0.1208102929131879 0.019110855516149189 0 -0.1073132388810286 0.018089109947672641 0 -0.1208102929131879 0.019110855516149189 0 -0.1066230036403176 0.031793070199818543 0 -0.1208102929131879 0.019110855516149189 0 -0.1211464216853696 0.034366647401566537 0 -0.1066230036403176 0.031793070199818543 0 -0.1282659440503772 0.05062747076680825 0 -0.1211464216853696 0.034366647401566537 0 -0.113637224202901 0.045737731808065459 0 -0.1211464216853696 0.034366647401566537 0 -0.113637224202901 0.045737731808065459 0 -0.1066230036403176 0.031793070199818543 0 -0.1279733391106079 0.071515946478439521 0 -0.1282659440503772 0.05062747076680825 0 -0.11580712272936559 0.059803104074626863 0 -0.1282659440503772 0.05062747076680825 0 -0.113637224202901 0.045737731808065459 0 -0.11580712272936559 0.059803104074626863 0 -0.113637224202901 0.045737731808065459 0 -0.11580712272936559 0.059803104074626863 0 -0.1064902946575948 0.054397096674777087 0 -0.1040440195742668 0.069855162543962623 0 -0.094336087138682481 0.0484468896402971 0 -0.1040440195742668 0.069855162543962623 0 -0.1064902946575948 0.054397096674777087 0 -0.094336087138682481 0.0484468896402971 0 -0.1040440195742668 0.069855162543962623 0 -0.11580712272936559 0.059803104074626863 0 -0.1064902946575948 0.054397096674777087 0 -0.113637224202901 0.045737731808065459 0 -0.1064902946575948 0.054397096674777087 0 -0.1031878219457707 0.043961369800563768 0 -0.1064902946575948 0.054397096674777087 0 -0.094336087138682481 0.0484468896402971 0 -0.1031878219457707 0.043961369800563768 0 -0.113637224202901 0.045737731808065459 0 -0.1066230036403176 0.031793070199818543 0 -0.1031878219457707 0.043961369800563768 0 -0.094336087138682481 0.0484468896402971 0 -0.094852500089358305 0.03943206067986027 0 -0.094336087138682481 0.0484468896402971 0 -0.1031878219457707 0.043961369800563768 0 -0.094852500089358305 0.03943206067986027 0 -0.098119734365623962 0.02414088096917336 0 -0.1066230036403176 0.031793070199818543 0 -0.094852500089358305 0.03943206067986027 0 -0.1066230036403176 0.031793070199818543 0 -0.1031878219457707 0.043961369800563768 0 -0.094852500089358305 0.03943206067986027 0 -0.094336087138682481 0.0484468896402971 0 -0.082911399898925958 0.023252768864263591 0 -0.094336087138682481 0.0484468896402971 0 -0.094852500089358305 0.03943206067986027 0 -0.082911399898925958 0.023252768864263591 0 -0.094336087138682481 0.0484468896402971 0 -0.073438101562964625 0.043486265427885883 0 -0.082911399898925958 0.023252768864263591 0 -0.092939873019450725 0.072820080631316536 0 -0.094336087138682481 0.0484468896402971 0 -0.094336087138682481 0.0484468896402971 0 -0.079997976438854396 0.060367567436758772 0 -0.073438101562964625 0.043486265427885883 0 -0.092939873019450725 0.072820080631316536 0 -0.094336087138682481 0.0484468896402971 0 -0.079997976438854396 0.060367567436758772 0 -0.062779644331918738 0.065517057423775393 0 -0.079997976438854396 0.060367567436758772 0 -0.073438101562964625 0.043486265427885883 0 -0.062779644331918738 0.065517057423775393 0 -0.073438101562964625 0.043486265427885883 0 -0.054503868893867748 0.041851647607949807 0 -0.073438101562964625 0.043486265427885883 0 -0.062578360643045852 0.02574828308206829 0 -0.054503868893867748 0.041851647607949807 0 -0.062578360643045852 0.02574828308206829 0 -0.082911399898925958 0.023252768864263591 0 -0.067886445085581046 0.01462192264763457 0 -0.073438101562964625 0.043486265427885883 0 -0.062578360643045852 0.02574828308206829 0 -0.082911399898925958 0.023252768864263591 0 -0.062578360643045852 0.02574828308206829 0 -0.067886445085581046 0.01462192264763457 0 -0.05888757556048424 0.01666972161550118 0 -0.098119734365623962 0.02414088096917336 0 -0.094852500089358305 0.03943206067986027 0 -0.082911399898925958 0.023252768864263591 0 -0.098119734365623962 0.02414088096917336 0 -0.097977441946633964 0.0094916619937897833 0 -0.082911399898925958 0.023252768864263591 0 -0.097977441946633964 0.0094916619937897833 0 -0.082911399898925958 0.023252768864263591 0 -0.086234308810735433 0.0065585250410969426 0 -0.071486712659171142 -0.0019413519117704699 0 -0.082911399898925958 0.023252768864263591 0 -0.086234308810735433 0.0065585250410969426 0 -0.093508846051188102 -0.0061041289967056463 0 -0.097977441946633964 0.0094916619937897833 0 -0.086234308810735433 0.0065585250410969426 0 -0.071486712659171142 -0.0019413519117704699 0 -0.082911399898925958 0.023252768864263591 0 -0.071486712659171142 -0.0019413519117704699 0 -0.082911399898925958 0.023252768864263591 0 -0.067886445085581046 0.01462192264763457 0 -0.071486712659171142 -0.0019413519117704699 0 -0.067886445085581046 0.01462192264763457 0 -0.058857403057493998 0.0081224429401774746 0 -0.071486712659171142 -0.0019413519117704699 0 -0.058857403057493998 0.0081224429401774746 0 -0.071486712659171142 -0.0019413519117704699 0 -0.058512249514306398 -0.002368351541725492 0 -0.058857403057493998 0.0081224429401774746 0 -0.058512249514306398 -0.002368351541725492 0 -0.049233894485270643 0.011503911400245049 0 -0.058857403057493998 0.0081224429401774746 0 -0.048711118495682479 -0.0061251760765778174 0 -0.058512249514306398 -0.002368351541725492 0 -0.049233894485270643 0.011503911400245049 0 -0.048711118495682479 -0.0061251760765778174 0 -0.049233894485270643 0.011503911400245049 0 -0.049233894485270643 0.011503911400245049 0 -0.058857403057493998 0.0081224429401774746 0 -0.046228093455816077 0.018186237792124409 0 -0.058857403057493998 0.0081224429401774746 0 -0.05888757556048424 0.01666972161550118 0 -0.046228093455816077 0.018186237792124409 0 -0.058857403057493998 0.0081224429401774746 0 -0.046228093455816077 0.018186237792124409 0 -0.067886445085581046 0.01462192264763457 0 -0.058857403057493998 0.0081224429401774746 0 -0.05888757556048424 0.01666972161550118 0 -0.046228093455816077 0.018186237792124409 0 -0.054503868893867748 0.041851647607949807 0 -0.062578360643045852 0.02574828308206829 0 -0.05888757556048424 0.01666972161550118 0 -0.046228093455816077 0.018186237792124409 0 -0.062578360643045852 0.02574828308206829 0 -0.046228093455816077 0.018186237792124409 0 -0.054503868893867748 0.041851647607949807 0 -0.046228093455816077 0.018186237792124409 0 -0.040241798969962647 0.042729936019786897 0 -0.030729959695294792 0.0305360845908061 0 -0.046228093455816077 0.018186237792124409 0 -0.030729959695294792 0.0305360845908061 0 -0.046228093455816077 0.018186237792124409 0 -0.033825795338856927 0.018216443597219301 0 -0.030729959695294792 0.0305360845908061 0 -0.046228093455816077 0.018186237792124409 0 -0.033825795338856927 0.018216443597219301 0 -0.036717465160420883 0.008262852504746121 0 -0.036717465160420883 0.008262852504746121 0 -0.02910033452725326 0.0029567245890428999 0 -0.029920305692151161 0.012308941953208729 0 -0.033825795338856927 0.018216443597219301 0 -0.036717465160420883 0.008262852504746121 0 -0.029920305692151161 0.012308941953208729 0 -0.039385604979905842 -0.001380544215753877 0 -0.046228093455816077 0.018186237792124409 0 -0.048711118495682479 -0.0061251760765778174 0 -0.039385604979905842 -0.001380544215753877 0 -0.049233894485270643 0.011503911400245049 0 -0.039385604979905842 -0.001380544215753877 0 -0.046228093455816077 0.018186237792124409 0 -0.036717465160420883 0.008262852504746121 0 -0.039385604979905842 -0.001380544215753877 0 -0.049233894485270643 0.011503911400245049 0 -0.046228093455816077 0.018186237792124409 0 -0.039385604979905842 -0.001380544215753877 0 -0.036717465160420883 0.008262852504746121 0 -0.02910033452725326 0.0029567245890428999 0 -0.062779644331918738 0.065517057423775393 0 -0.047585925872300691 0.061630732305623298 0 -0.054503868893867748 0.041851647607949807 0 -0.047585925872300691 0.061630732305623298 0 -0.054503868893867748 0.041851647607949807 0 -0.040241798969962647 0.042729936019786897 0 -0.062779644331918738 0.065517057423775393 0 -0.054503868893867748 0.041851647607949807 0 -0.046228093455816077 0.018186237792124409 0 -0.054503868893867748 0.041851647607949807 0 -0.040241798969962647 0.042729936019786897 0 -0.040241798969962647 0.042729936019786897 0 -0.029593288143987921 0.045009069411968639 0 -0.030729959695294792 0.0305360845908061 0 -0.040241798969962647 0.042729936019786897 0 -0.032809657758508692 0.059165844410249108 0 -0.029593288143987921 0.045009069411968639 0 -0.047585925872300691 0.061630732305623298 0 -0.040241798969962647 0.042729936019786897 0 -0.032809657758508692 0.059165844410249108 0 -0.032809657758508692 0.059165844410249108 0 -0.02163240289465683 0.049224667569418117 0 -0.01484600735938396 0.055148500569844612 0 -0.032809657758508692 0.059165844410249108 0 -0.02163240289465683 0.049224667569418117 0 -0.029593288143987921 0.045009069411968639 0 -0.02163240289465683 0.049224667569418117 0 -0.01523182593477472 0.042885931389489262 0 -0.01484600735938396 0.055148500569844612 0 -0.01523182593477472 0.042885931389489262 0 -0.030729959695294792 0.0305360845908061 0 -0.015771306604266819 0.025739481080785401 0 -0.02163240289465683 0.049224667569418117 0 -0.029593288143987921 0.045009069411968639 0 -0.01523182593477472 0.042885931389489262 0 -0.029593288143987921 0.045009069411968639 0 -0.01523182593477472 0.042885931389489262 0 -0.030729959695294792 0.0305360845908061 0 -0.01523182593477472 0.042885931389489262 0 -0.030729959695294792 0.0305360845908061 0 -0.01523182593477472 0.042885931389489262 0 -0.015771306604266819 0.025739481080785401 0 0.0073509797018692508 0.027380514203351261 0 -0.01523182593477472 0.042885931389489262 0 -0.0090080882126249741 0.047845380609081098 0 0.0073509797018692508 0.027380514203351261 0 -0.0090080882126249741 0.047845380609081098 0 0.0073509797018692508 0.027380514203351261 0 -0.0090080882126249741 0.047845380609081098 0 0.0073509797018692508 0.027380514203351261 0 0.001355437152207279 0.045048782796608337 0 -0.01523182593477472 0.042885931389489262 0 -0.015771306604266819 0.025739481080785401 0 -0.01523182593477472 0.042885931389489262 0 -0.0090080882126249741 0.047845380609081098 0 -0.01523182593477472 0.042885931389489262 0 -0.0090080882126249741 0.047845380609081098 0 -0.01484600735938396 0.055148500569844612 0 -0.01523182593477472 0.042885931389489262 0 -0.01484600735938396 0.055148500569844612 0 -0.0090080882126249741 0.047845380609081098 0 -0.01484600735938396 0.055148500569844612 0 -0.0090080882126249741 0.047845380609081098 0 -0.0071669451097028103 0.055302039602462841 0 -0.01484600735938396 0.055148500569844612 0 -0.0090080882126249741 0.047845380609081098 0 -0.0071669451097028103 0.055302039602462841 0 0.00051255236017491712 0.055432000670325367 0 -0.0090080882126249741 0.047845380609081098 0 0.00051255236017491712 0.055432000670325367 0 0.001355437152207279 0.045048782796608337 0 -0.0090080882126249741 0.047845380609081098 0 0.00051255236017491712 0.055432000670325367 0 -0.0073480863309807248 0.06511532806321231 0 -0.0071669451097028103 0.055302039602462841 0 0.00051255236017491712 0.055432000670325367 0 -0.0073480863309807248 0.06511532806321231 0 0.00051255236017491712 0.055432000670325367 0 0.0037573804827743191 0.066098236800881907 0 -0.0073480863309807248 0.06511532806321231 0 -0.0071669451097028103 0.055302039602462841 0 -0.01484600735938396 0.055148500569844612 0 -0.020722876589424861 0.013103775220220571 0 -0.016748537139514911 0.002749501917021599 0 -0.02910033452725326 0.0029567245890428999 0 -0.0264311011064059 -0.0053787064823712667 0 -0.016748537139514911 0.002749501917021599 0 -0.02910033452725326 0.0029567245890428999 0 -0.020722876589424861 0.013103775220220571 0 -0.029920305692151161 0.012308941953208729 0 -0.025774004036591969 0.0211295166493062 0 -0.020722876589424861 0.013103775220220571 0 -0.02910033452725326 0.0029567245890428999 0 -0.029920305692151161 0.012308941953208729 0 -0.033825795338856927 0.018216443597219301 0 -0.029920305692151161 0.012308941953208729 0 -0.025774004036591969 0.0211295166493062 0 -0.033825795338856927 0.018216443597219301 0 -0.025774004036591969 0.0211295166493062 0 -0.030729959695294792 0.0305360845908061 0 -0.025774004036591969 0.0211295166493062 0 -0.030729959695294792 0.0305360845908061 0 -0.015771306604266819 0.025739481080785401 0 -0.020722876589424861 0.013103775220220571 0 -0.025774004036591969 0.0211295166493062 0 -0.015771306604266819 0.025739481080785401 0 -0.020722876589424861 0.013103775220220571 0 -0.015771306604266819 0.025739481080785401 0 -0.007263622882761298 0.01307990063605366 0 -0.015771306604266819 0.025739481080785401 0 -0.007263622882761298 0.01307990063605366 0 0.0073509797018692508 0.027380514203351261 0 -0.020722876589424861 0.013103775220220571 0 -0.016748537139514911 0.002749501917021599 0 -0.007263622882761298 0.01307990063605366 0 -0.0056325041382708106 -0.001671571725724148 0 -0.016748537139514911 0.002749501917021599 0 -0.007263622882761298 0.01307990063605366 0 -0.0056325041382708106 -0.001671571725724148 0 -0.007263622882761298 0.01307990063605366 0 0.005475147787082555 0.0053164928731475134 0 0.005475147787082555 0.0053164928731475134 0 0.0073509797018692508 0.027380514203351261 0 0.023710047616364659 0.0069156477976223402 0 0.005475147787082555 0.0053164928731475134 0 0.023710047616364659 0.0069156477976223402 0 0.01514139729703496 -0.0013759143423081031 0 -0.007263622882761298 0.01307990063605366 0 0.005475147787082555 0.0053164928731475134 0 0.0073509797018692508 0.027380514203351261 0 0.0073509797018692508 0.027380514203351261 0 0.023710047616364659 0.0069156477976223402 0 0.0073509797018692508 0.027380514203351261 0 0.02733374950784179 0.023412717288487529 0 0.02261058245129063 0.037447683157972651 0 0.0073509797018692508 0.027380514203351261 0 0.02733374950784179 0.023412717288487529 0 0.023710047616364659 0.0069156477976223402 0 0.02733374950784179 0.023412717288487529 0 0.02261058245129063 0.037447683157972651 0 0.04136501669684562 0.030132625938608212 0 0.02733374950784179 0.023412717288487529 0 0.023710047616364659 0.0069156477976223402 0 0.041142349573717651 0.014828253033845331 0 0.00051255236017491712 0.055432000670325367 0 0.0093714938661025871 0.048777303560609067 0 0.01488006872589609 0.065334490125391553 0 0.00051255236017491712 0.055432000670325367 0 0.0037573804827743191 0.066098236800881907 0 0.01488006872589609 0.065334490125391553 0 0.00051255236017491712 0.055432000670325367 0 0.0093714938661025871 0.048777303560609067 0 0.001355437152207279 0.045048782796608337 0 0.0073509797018692508 0.027380514203351261 0 0.01017212329286744 0.039663570929635329 0 0.001355437152207279 0.045048782796608337 0 0.0093714938661025871 0.048777303560609067 0 0.01017212329286744 0.039663570929635329 0 0.02261058245129063 0.037447683157972651 0 0.0093714938661025871 0.048777303560609067 0 0.01017212329286744 0.039663570929635329 0 0.001355437152207279 0.045048782796608337 0 0.0073509797018692508 0.027380514203351261 0 0.01017212329286744 0.039663570929635329 0 0.02261058245129063 0.037447683157972651 0 0.02261058245129063 0.037447683157972651 0 0.028794849824871991 0.054805307303607803 0 0.036435361368149219 0.042645621903522522 0 0.0093714938661025871 0.048777303560609067 0 0.028794849824871991 0.054805307303607803 0 0.0093714938661025871 0.048777303560609067 0 0.02261058245129063 0.037447683157972651 0 0.028794849824871991 0.054805307303607803 0 0.0093714938661025871 0.048777303560609067 0 0.028794849824871991 0.054805307303607803 0 0.01488006872589609 0.065334490125391553 0 0.028794849824871991 0.054805307303607803 0 0.036262839133043123 0.065048893889989884 0 0.01488006872589609 0.065334490125391553 0 0.028794849824871991 0.054805307303607803 0 0.048218205783641388 0.060833311046606553 0 0.028794849824871991 0.054805307303607803 0 0.048218205783641388 0.060833311046606553 0 0.036262839133043123 0.065048893889989884 0 0.028794849824871991 0.054805307303607803 0 0.042731825311289877 0.050550362504436099 0 0.048218205783641388 0.060833311046606553 0 0.028794849824871991 0.054805307303607803 0 0.042731825311289877 0.050550362504436099 0 0.036435361368149219 0.042645621903522522 0 0.02261058245129063 0.037447683157972651 0 0.036435361368149219 0.042645621903522522 0 0.04136501669684562 0.030132625938608212 0 0.042731825311289877 0.050550362504436099 0 0.036435361368149219 0.042645621903522522 0 0.048679804797522958 0.043387463735032918 0 0.036435361368149219 0.042645621903522522 0 0.048679804797522958 0.043387463735032918 0 0.04136501669684562 0.030132625938608212 0 0.058789220714268599 0.035293048251648737 0 0.048679804797522958 0.043387463735032918 0 0.04136501669684562 0.030132625938608212 0 0.058789220714268599 0.035293048251648737 0 0.048679804797522958 0.043387463735032918 0 0.062593630588101606 0.048399439101038867 0 0.059830647832711498 0.057385227103138918 0 0.048218205783641388 0.060833311046606553 0 0.067641561742410122 0.06686131478960744 0 0.042731825311289877 0.050550362504436099 0 0.048679804797522958 0.043387463735032918 0 0.052533540902801351 0.05262777509443322 0 0.042731825311289877 0.050550362504436099 0 0.052533540902801351 0.05262777509443322 0 0.048218205783641388 0.060833311046606553 0 0.048679804797522958 0.043387463735032918 0 0.052533540902801351 0.05262777509443322 0 0.062593630588101606 0.048399439101038867 0 0.052533540902801351 0.05262777509443322 0 0.059830647832711498 0.057385227103138918 0 0.062593630588101606 0.048399439101038867 0 0.052533540902801351 0.05262777509443322 0 0.059830647832711498 0.057385227103138918 0 0.048218205783641388 0.060833311046606553 0 0.023710047616364659 0.0069156477976223402 0 0.041142349573717651 0.014828253033845331 0 0.038337861133160352 0.00060673527080243631 0 0.041142349573717651 0.014828253033845331 0 0.038337861133160352 0.00060673527080243631 0 0.052195158055270842 0.001392625036369546 0 0.02733374950784179 0.023412717288487529 0 0.041142349573717651 0.014828253033845331 0 0.04136501669684562 0.030132625938608212 0 0.041142349573717651 0.014828253033845331 0 0.04136501669684562 0.030132625938608212 0 0.055561856281406953 0.020390708012910579 0 0.058789220714268599 0.035293048251648737 0 0.04136501669684562 0.030132625938608212 0 0.055561856281406953 0.020390708012910579 0 0.058789220714268599 0.035293048251648737 0 0.055561856281406953 0.020390708012910579 0 0.069101728619922254 0.02772418671942415 0 0.055561856281406953 0.020390708012910579 0 0.052195158055270842 0.001392625036369546 0 0.069471851171940491 0.012709774079378511 0 0.041142349573717651 0.014828253033845331 0 0.055561856281406953 0.020390708012910579 0 0.052195158055270842 0.001392625036369546 0 0.069471851171940491 0.012709774079378511 0 0.083713321977171906 0.0049096628315781782 0 0.067305906500593371 -0.0035502476455594621 0 0.052195158055270842 0.001392625036369546 0 0.069471851171940491 0.012709774079378511 0 0.067305906500593371 -0.0035502476455594621 0 0.083713321977171906 0.0049096628315781782 0 0.084252737378912146 0.025939642728357429 0 0.1051912895843372 0.01461872904413861 0 0.069471851171940491 0.012709774079378511 0 0.083713321977171906 0.0049096628315781782 0 0.084252737378912146 0.025939642728357429 0 0.069471851171940491 0.012709774079378511 0 0.084252737378912146 0.025939642728357429 0 0.069101728619922254 0.02772418671942415 0 0.055561856281406953 0.020390708012910579 0 0.069471851171940491 0.012709774079378511 0 0.069101728619922254 0.02772418671942415 0 0.058789220714268599 0.035293048251648737 0 0.069101728619922254 0.02772418671942415 0 0.07351969335439365 0.040178647166139128 0 0.058789220714268599 0.035293048251648737 0 0.07351969335439365 0.040178647166139128 0 0.062593630588101606 0.048399439101038867 0 0.084252737378912146 0.025939642728357429 0 0.069101728619922254 0.02772418671942415 0 0.07351969335439365 0.040178647166139128 0 0.059830647832711498 0.057385227103138918 0 0.067220230867089364 0.057267038159213378 0 0.067641561742410122 0.06686131478960744 0 0.059830647832711498 0.057385227103138918 0 0.067220230867089364 0.057267038159213378 0 0.062593630588101606 0.048399439101038867 0 0.067220230867089364 0.057267038159213378 0 0.062593630588101606 0.048399439101038867 0 0.077155592871813339 0.054890228159410553 0 0.07351969335439365 0.040178647166139128 0 0.062593630588101606 0.048399439101038867 0 0.077155592871813339 0.054890228159410553 0 0.067220230867089364 0.057267038159213378 0 0.077155592871813339 0.054890228159410553 0 0.067641561742410122 0.06686131478960744 0 0.077155592871813339 0.054890228159410553 0 0.086897300227746971 0.044263488603864587 0 0.095012931512713131 0.051281924307579267 0 0.077155592871813339 0.054890228159410553 0 0.095012931512713131 0.051281924307579267 0 0.087707435048790625 0.06829797288927511 0 0.084252737378912146 0.025939642728357429 0 0.07351969335439365 0.040178647166139128 0 0.086897300227746971 0.044263488603864587 0 0.084252737378912146 0.025939642728357429 0 0.086897300227746971 0.044263488603864587 0 0.1000879563071853 0.035367367349706642 0 0.07351969335439365 0.040178647166139128 0 0.077155592871813339 0.054890228159410553 0 0.086897300227746971 0.044263488603864587 0 0.086897300227746971 0.044263488603864587 0 0.1000879563071853 0.035367367349706642 0 0.095012931512713131 0.051281924307579267 0 0.1000879563071853 0.035367367349706642 0 0.095012931512713131 0.051281924307579267 0 0.1146582432576219 0.041758073050694788 0 0.1000879563071853 0.035367367349706642 0 0.1146582432576219 0.041758073050694788 0 0.1127403364677841 0.027206252356182799 0 0.095012931512713131 0.051281924307579267 0 0.1146582432576219 0.041758073050694788 0 0.10357106136312021 0.063114415792523262 0 0.1146582432576219 0.041758073050694788 0 0.10357106136312021 0.063114415792523262 0 0.095012931512713131 0.051281924307579267 0 0.10357106136312021 0.063114415792523262 0 0.087707435048790625 0.06829797288927511 0 0.1146582432576219 0.041758073050694788 0 0.10357106136312021 0.063114415792523262 0 0.13037822215607939 0.054354977955372967 0 0.10357106136312021 0.063114415792523262 0 0.13037822215607939 0.054354977955372967 0 0.1146582432576219 0.041758073050694788 0 0.1257454251521086 0.02040173030885872 0 0.12601828966856041 0.034779331412806522 0 0.1146582432576219 0.041758073050694788 0 0.12601828966856041 0.034779331412806522 0 0.13112590113666539 0.047018493875372019 0 0.1146582432576219 0.041758073050694788 0 0.1127403364677841 0.027206252356182799 0 0.1257454251521086 0.02040173030885872 0 0.1146582432576219 0.041758073050694788 0 0.1257454251521086 0.02040173030885872 0 0.1127403364677841 0.027206252356182799 0 0.1051912895843372 0.01461872904413861 0 0.1257454251521086 0.02040173030885872 0 0.1051912895843372 0.01461872904413861 0 0.1257454251521086 0.02040173030885872 0 0.1223363701530287 0.0096311158811146491 0 0.11501839911308701 0.003750665338283013 0 0.1051912895843372 0.01461872904413861 0 0.1223363701530287 0.0096311158811146491 0 0.1051912895843372 0.01461872904413861 0 0.1257454251521086 0.02040173030885872 0 0.1223363701530287 0.0096311158811146491 0 0.11501839911308701 0.003750665338283013 0 0.1254970565252467 -0.00055485016598096602 0 0.11501839911308701 0.003750665338283013 0 0.1070481035368254 0.00038461206621701738 0 0.1167036944564606 -0.0033909693209686429 0 0.083713321977171906 0.0049096628315781782 0 0.1051912895843372 0.01461872904413861 0 0.096288827351058495 -0.00076293681715209455 0 0.1051912895843372 0.01461872904413861 0 0.1070481035368254 0.00038461206621701738 0 0.096288827351058495 -0.00076293681715209455 0 0.11501839911308701 0.003750665338283013 0 0.1051912895843372 0.01461872904413861 0 0.1070481035368254 0.00038461206621701738 0 0.1000879563071853 0.035367367349706642 0 0.1127403364677841 0.027206252356182799 0 0.1051912895843372 0.01461872904413861 0 0.084252737378912146 0.025939642728357429 0 0.1000879563071853 0.035367367349706642 0 0.1051912895843372 0.01461872904413861 0 0.099892081851148895 0.1057249858405324 0 0.1020084042314941 0.092194493812721004 0 0.084254571308508608 0.1003222099913363 0 0.10829254285367999 0.09951402195448332 0 0.099892081851148895 0.1057249858405324 0 0.1111803490947679 0.11170049208988379 0 0.10829254285367999 0.09951402195448332 0 0.099892081851148895 0.1057249858405324 0 0.1020084042314941 0.092194493812721004 0 0.10829254285367999 0.09951402195448332 0 0.1137626826355071 0.090796769076676581 0 0.1020084042314941 0.092194493812721004 0 0.099892081851148895 0.1057249858405324 0 0.094045065294074304 0.1192150351408886 0 0.1111803490947679 0.11170049208988379 0 0.094045065294074304 0.1192150351408886 0 0.1111803490947679 0.11170049208988379 0 0.1132105913856591 0.12466981112322741 0 0.1111803490947679 0.11170049208988379 0 0.1132105913856591 0.12466981112322741 0 0.12457549596567841 0.11129332906836201 0 0.1132105913856591 0.12466981112322741 0 0.12457549596567841 0.11129332906836201 0 0.1132105913856591 0.12466981112322741 0 0.12335421623778491 0.1232769470562404 0 0.12457549596567841 0.11129332906836201 0 0.12335421623778491 0.1232769470562404 0 0.12457549596567841 0.11129332906836201 0 0.1111803490947679 0.11170049208988379 0 0.12457549596567841 0.11129332906836201 0 0.1168856090028805 0.1009132499975417 0 0.12457549596567841 0.11129332906836201 0 0.1168856090028805 0.1009132499975417 0 0.1266169744647683 0.091261637798302819 0 0.10829254285367999 0.09951402195448332 0 0.1111803490947679 0.11170049208988379 0 0.1168856090028805 0.1009132499975417 0 0.10829254285367999 0.09951402195448332 0 0.1168856090028805 0.1009132499975417 0 0.1137626826355071 0.090796769076676581 0 0.1168856090028805 0.1009132499975417 0 0.1137626826355071 0.090796769076676581 0 0.1266169744647683 0.091261637798302819 0 0.11866948178513551 0.079243525340791279 0 0.1137626826355071 0.090796769076676581 0 0.1266169744647683 0.091261637798302819 0 0.11866948178513551 0.079243525340791279 0 0.1286584529638552 0.07122994652824341 0 0.1266169744647683 0.091261637798302819 0 0.11866948178513551 0.079243525340791279 0 0.1137626826355071 0.090796769076676581 0 0.1081015461596279 0.079417998507206641 0 0.11866948178513551 0.079243525340791279 0 0.1004079344247906 0.069207291662484155 0 0.1286584529638552 0.07122994652824341 0 0.10357106136312021 0.063114415792523262 0 0.13037822215607939 0.054354977955372967 0 0.1286584529638552 0.07122994652824341 0 0.10357106136312021 0.063114415792523262 0 0.1004079344247906 0.069207291662484155 0 0.1286584529638552 0.07122994652824341 0 0.1004079344247906 0.069207291662484155 0 0.1286584529638552 0.07122994652824341 0 0.11866948178513551 0.079243525340791279 0 0.1004079344247906 0.069207291662484155 0 0.1081015461596279 0.079417998507206641 0 0.10357106136312021 0.063114415792523262 0 0.087707435048790625 0.06829797288927511 0 0.10357106136312021 0.063114415792523262 0 0.1004079344247906 0.069207291662484155 0 0.087707435048790625 0.06829797288927511 0 0.10357106136312021 0.063114415792523262 0 0.1004079344247906 0.069207291662484155 0 0.09691016004369124 0.075944771865042088 0 0.1004079344247906 0.069207291662484155 0 0.1081015461596279 0.079417998507206641 0 0.09691016004369124 0.075944771865042088 0 0.1081015461596279 0.079417998507206641 0 0.09691016004369124 0.075944771865042088 0 0.1004079344247906 0.069207291662484155 0 0.087707435048790625 0.06829797288927511 0 0.09691016004369124 0.075944771865042088 0 0.1004079344247906 0.069207291662484155 0 0.1004079344247906 0.069207291662484155 0 0.087707435048790625 0.06829797288927511 0 0.09691016004369124 0.075944771865042088 0 0.1020084042314941 0.092194493812721004 0 0.084254571308508608 0.1003222099913363 0 0.09691016004369124 0.075944771865042088 0 0.1020084042314941 0.092194493812721004 0 0.1081015461596279 0.079417998507206641 0 0.1137626826355071 0.090796769076676581 0 0.1020084042314941 0.092194493812721004 0 0.1081015461596279 0.079417998507206641 0 0.09691016004369124 0.075944771865042088 0 0.082952972993842009 0.085437981328002219 0 0.084254571308508608 0.1003222099913363 0 0.09691016004369124 0.075944771865042088 0 0.084254571308508608 0.1003222099913363 0 0.082952972993842009 0.085437981328002219 0 0.080187881348579321 0.070755042614366936 0 0.07520031815392364 0.080861472333226242 0 0.082952972993842009 0.085437981328002219 0 0.070550094782122888 0.094930612436625525 0 0.084254571308508608 0.1003222099913363 0 0.09691016004369124 0.075944771865042088 0 0.087707435048790625 0.06829797288927511 0 0.080187881348579321 0.070755042614366936 0 0.09691016004369124 0.075944771865042088 0 0.082952972993842009 0.085437981328002219 0 0.080187881348579321 0.070755042614366936 0 0.09691016004369124 0.075944771865042088 0 0.080187881348579321 0.070755042614366936 0 0.087707435048790625 0.06829797288927511 0 0.080187881348579321 0.070755042614366936 0 0.067641561742410122 0.06686131478960744 0 0.080187881348579321 0.070755042614366936 0 0.076514730941601425 0.071955271646639188 0 0.087707435048790625 0.06829797288927511 0 0.080187881348579321 0.070755042614366936 0 0.077155592871813339 0.054890228159410553 0 0.087707435048790625 0.06829797288927511 0 0.067641561742410122 0.06686131478960744 0 0.087707435048790625 0.06829797288927511 0 0.067641561742410122 0.06686131478960744 0 0.080187881348579321 0.070755042614366936 0 0.076514730941601425 0.071955271646639188 0 0.067641561742410122 0.06686131478960744 0 0.080187881348579321 0.070755042614366936 0 0.067641561742410122 0.06686131478960744 0 0.076514730941601425 0.071955271646639188 0 0.069151392349810145 0.075276805573343708 0 0.067641561742410122 0.06686131478960744 0 0.080187881348579321 0.070755042614366936 0 0.076514730941601425 0.071955271646639188 0 0.07520031815392364 0.080861472333226242 0 0.076514730941601425 0.071955271646639188 0 0.069151392349810145 0.075276805573343708 0 0.07520031815392364 0.080861472333226242 0 0.069151392349810145 0.075276805573343708 0 0.065617741488414968 0.082232577814534608 0 0.060782609422700758 0.074473391282708884 0 0.069151392349810145 0.075276805573343708 0 0.067641561742410122 0.06686131478960744 0 0.060782609422700758 0.074473391282708884 0 0.065617741488414968 0.082232577814534608 0 0.070550094782122888 0.094930612436625525 0 0.05443049277500088 0.087234330401653959 0 0.082952972993842009 0.085437981328002219 0 0.07520031815392364 0.080861472333226242 0 0.070550094782122888 0.094930612436625525 0 0.07520031815392364 0.080861472333226242 0 0.065617741488414968 0.082232577814534608 0 0.070550094782122888 0.094930612436625525 0 0.069151392349810145 0.075276805573343708 0 0.07520031815392364 0.080861472333226242 0 0.065617741488414968 0.082232577814534608 0 0.070550094782122888 0.094930612436625525 0 0.074825670479102213 0.12028669145737179 0 0.05656889627606787 0.10813902373025359 0 0.070550094782122888 0.094930612436625525 0 0.084254571308508608 0.1003222099913363 0 0.074825670479102213 0.12028669145737179 0 0.099892081851148895 0.1057249858405324 0 0.094045065294074304 0.1192150351408886 0 0.084254571308508608 0.1003222099913363 0 0.094045065294074304 0.1192150351408886 0 0.084254571308508608 0.1003222099913363 0 0.074825670479102213 0.12028669145737179 0 0.094045065294074304 0.1192150351408886 0 0.074825670479102213 0.12028669145737179 0 0.090772391799904331 0.13290508063944451 0 0.074825670479102213 0.12028669145737179 0 0.05656889627606787 0.10813902373025359 0 0.058707299777134868 0.12904371705885331 0 0.05656889627606787 0.10813902373025359 0 0.058707299777134868 0.12904371705885331 0 0.05656889627606787 0.10813902373025359 0 0.047335946029896062 0.13084237403506371 0 0.058707299777134868 0.12904371705885331 0 0.070550094782122888 0.094930612436625525 0 0.05656889627606787 0.10813902373025359 0 0.05443049277500088 0.087234330401653959 0 0.05656889627606787 0.10813902373025359 0 0.05443049277500088 0.087234330401653959 0 0.05656889627606787 0.10813902373025359 0 0.05443049277500088 0.087234330401653959 0 0.037873177525873998 0.093091584331327318 0 0.05656889627606787 0.10813902373025359 0 0.033826188781586178 0.1117363376826761 0 0.037873177525873998 0.093091584331327318 0 0.033826188781586178 0.1117363376826761 0 0.047335946029896062 0.13084237403506371 0 0.05656889627606787 0.10813902373025359 0 0.033826188781586178 0.1117363376826761 0 0.047335946029896062 0.13084237403506371 0 0.033826188781586178 0.1117363376826761 0 0.028477447121909291 0.12589193827908651 0 0.047335946029896062 0.13084237403506371 0 0.048218205783641388 0.060833311046606553 0 0.067641561742410122 0.06686131478960744 0 0.055245130568615443 0.065973766414273952 0 0.048218205783641388 0.060833311046606553 0 0.067641561742410122 0.06686131478960744 0 0.048218205783641388 0.060833311046606553 0 0.055245130568615443 0.065973766414273952 0 0.046783658437846209 0.068842288695174753 0 0.055245130568615443 0.065973766414273952 0 0.05175974627892644 0.074745300920896748 0 0.046783658437846209 0.068842288695174753 0 0.067641561742410122 0.06686131478960744 0 0.055245130568615443 0.065973766414273952 0 0.060782609422700758 0.074473391282708884 0 0.067641561742410122 0.06686131478960744 0 0.055245130568615443 0.065973766414273952 0 0.055245130568615443 0.065973766414273952 0 0.060782609422700758 0.074473391282708884 0 0.05175974627892644 0.074745300920896748 0 0.05175974627892644 0.074745300920896748 0 0.042432370425004647 0.077610171204106654 0 0.046783658437846209 0.068842288695174753 0 0.05175974627892644 0.074745300920896748 0 0.05443049277500088 0.087234330401653959 0 0.042432370425004647 0.077610171204106654 0 0.065617741488414968 0.082232577814534608 0 0.060782609422700758 0.074473391282708884 0 0.05443049277500088 0.087234330401653959 0 0.060782609422700758 0.074473391282708884 0 0.05175974627892644 0.074745300920896748 0 0.05443049277500088 0.087234330401653959 0 0.037873177525873998 0.093091584331327318 0 0.042432370425004647 0.077610171204106654 0 0.02608005348614582 0.077293119671488872 0 0.05443049277500088 0.087234330401653959 0 0.037873177525873998 0.093091584331327318 0 0.042432370425004647 0.077610171204106654 0 0.042432370425004647 0.077610171204106654 0 0.036262839133043123 0.065048893889989884 0 0.02608005348614582 0.077293119671488872 0 0.042432370425004647 0.077610171204106654 0 0.036262839133043123 0.065048893889989884 0 0.046783658437846209 0.068842288695174753 0 0.048218205783641388 0.060833311046606553 0 0.036262839133043123 0.065048893889989884 0 0.046783658437846209 0.068842288695174753 0 0.036262839133043123 0.065048893889989884 0 0.02608005348614582 0.077293119671488872 0 0.01488006872589609 0.065334490125391553 0 0.02608005348614582 0.077293119671488872 0 0.020316431533276301 0.092630301330288461 0 0.0041641368684680307 0.079593073860037625 0 0.037873177525873998 0.093091584331327318 0 0.02608005348614582 0.077293119671488872 0 0.020316431533276301 0.092630301330288461 0 0.020316431533276301 0.092630301330288461 0 0.0041641368684680307 0.079593073860037625 0 0.003395107760267988 0.098820241130360406 0 0.02608005348614582 0.077293119671488872 0 0.0041641368684680307 0.079593073860037625 0 0.01488006872589609 0.065334490125391553 0 0.0041641368684680307 0.079593073860037625 0 0.0037573804827743191 0.066098236800881907 0 0.01488006872589609 0.065334490125391553 0 -0.0073480863309807248 0.06511532806321231 0 0.0041641368684680307 0.079593073860037625 0 0.0037573804827743191 0.066098236800881907 0 0.033826188781586178 0.1117363376826761 0 0.012511556787723111 0.11653562190985491 0 0.028477447121909291 0.12589193827908651 0 0.033826188781586178 0.1117363376826761 0 0.037873177525873998 0.093091584331327318 0 0.020316431533276301 0.092630301330288461 0 0.033826188781586178 0.1117363376826761 0 0.020316431533276301 0.092630301330288461 0 0.033826188781586178 0.1117363376826761 0 0.020316431533276301 0.092630301330288461 0 0.012511556787723111 0.11653562190985491 0 0.020316431533276301 0.092630301330288461 0 0.003395107760267988 0.098820241130360406 0 0.012511556787723111 0.11653562190985491 0 -0.012921853350251779 0.1163043731888329 0 0.003395107760267988 0.098820241130360406 0 0.012511556787723111 0.11653562190985491 0 -0.00094612486944474711 0.13739524991114199 0 0.012511556787723111 0.11653562190985491 0 0.018504875407372869 0.13566728143477111 0 0.012511556787723111 0.11653562190985491 0 0.018504875407372869 0.13566728143477111 0 0.028477447121909291 0.12589193827908651 0 0.018504875407372869 0.13566728143477111 0 0.028477447121909291 0.12589193827908651 0 0.032565211978331843 0.13782386037265709 0 0.018504875407372869 0.13566728143477111 0 0.02792772768526924 0.14917498286437841 0 0.01388635526450629 0.1530452428402774 0 0.02792772768526924 0.14917498286437841 0 0.01388635526450629 0.1530452428402774 0 0.028621745491911529 0.16298829425288081 0 0.018504875407372869 0.13566728143477111 0 0.02792772768526924 0.14917498286437841 0 0.032565211978331843 0.13782386037265709 0 -0.00094612486944474711 0.13739524991114199 0 0.018504875407372869 0.13566728143477111 0 0.01388635526450629 0.1530452428402774 0 -0.0051377206325900274 0.16075989213823061 0 -0.00094612486944474711 0.13739524991114199 0 0.01388635526450629 0.1530452428402774 0 -0.0051377206325900274 0.16075989213823061 0 0.01388635526450629 0.1530452428402774 0 0.010984318894288241 0.17357290817306409 0 -0.008277806428889329 0.1819306387007438 0 0.010984318894288241 0.17357290817306409 0 0.0093175891669755994 0.19835633455436341 0 0.010984318894288241 0.17357290817306409 0 0.027298484315152301 0.18443254109327409 0 0.0093175891669755994 0.19835633455436341 0 0.010984318894288241 0.17357290817306409 0 0.027298484315152301 0.18443254109327409 0 0.028621745491911529 0.16298829425288081 0 0.01388635526450629 0.1530452428402774 0 0.010984318894288241 0.17357290817306409 0 0.028621745491911529 0.16298829425288081 0 0.028621745491911529 0.16298829425288081 0 0.046097598119321917 0.1698013655421847 0 0.028621745491911529 0.16298829425288081 0 0.046097598119321917 0.1698013655421847 0 0.041758335334893502 0.1491156172697812 0 0.027298484315152301 0.18443254109327409 0 0.028621745491911529 0.16298829425288081 0 0.046097598119321917 0.1698013655421847 0 0.027298484315152301 0.18443254109327409 0 0.046097598119321917 0.1698013655421847 0 0.047262258534408373 0.19179842040302339 0 0.046097598119321917 0.1698013655421847 0 0.047262258534408373 0.19179842040302339 0 0.063573450746731874 0.17661443683148961 0 0.046097598119321917 0.1698013655421847 0 0.063573450746731874 0.17661443683148961 0 0.060845703278203968 0.14994841038745271 0 0.063573450746731874 0.17661443683148961 0 0.046097598119321917 0.1698013655421847 0 0.053068771869787812 0.16136995750772709 0 0.041758335334893502 0.1491156172697812 0 0.046097598119321917 0.1698013655421847 0 0.053068771869787812 0.16136995750772709 0 0.063573450746731874 0.17661443683148961 0 0.053068771869787812 0.16136995750772709 0 0.060845703278203968 0.14994841038745271 0 0.063573450746731874 0.17661443683148961 0 0.060845703278203968 0.14994841038745271 0 0.047335946029896062 0.13084237403506371 0 0.041758335334893502 0.1491156172697812 0 0.053068771869787812 0.16136995750772709 0 0.060845703278203968 0.14994841038745271 0 0.041758335334893502 0.1491156172697812 0 0.060845703278203968 0.14994841038745271 0 0.047335946029896062 0.13084237403506371 0 0.058707299777134868 0.12904371705885331 0 0.060845703278203968 0.14994841038745271 0 0.058707299777134868 0.12904371705885331 0 0.067740172142951055 0.13850381093565661 0 0.060845703278203968 0.14994841038745271 0 0.047335946029896062 0.13084237403506371 0 0.060845703278203968 0.14994841038745271 0 0.058707299777134868 0.12904371705885331 0 0.028477447121909291 0.12589193827908651 0 0.047335946029896062 0.13084237403506371 0 0.032565211978331843 0.13782386037265709 0 0.047335946029896062 0.13084237403506371 0 0.032565211978331843 0.13782386037265709 0 0.041758335334893502 0.1491156172697812 0 0.02792772768526924 0.14917498286437841 0 0.032565211978331843 0.13782386037265709 0 0.041758335334893502 0.1491156172697812 0 0.02792772768526924 0.14917498286437841 0 0.028621745491911529 0.16298829425288081 0 0.041758335334893502 0.1491156172697812 0 0.015353354689590679 0.2272527304250567 0 0.0093766357309573133 0.25077498028374479 0 0.025619747750374639 0.25369771249902812 0 0.015353354689590679 0.2272527304250567 0 0.035049849981621632 0.23211604986021819 0 0.025619747750374639 0.25369771249902812 0 -0.00048021596502030199 0.2357461893728382 0 0.015353354689590679 0.2272527304250567 0 0.0093766357309573133 0.25077498028374479 0 -0.0032527717105686848 0.21797522685813861 0 -0.00048021596502030199 0.2357461893728382 0 0.015353354689590679 0.2272527304250567 0 0.015353354689590679 0.2272527304250567 0 0.029521524447512479 0.20699669360019959 0 0.035049849981621632 0.23211604986021819 0 0.015353354689590679 0.2272527304250567 0 0.029521524447512479 0.20699669360019959 0 0.0093175891669755994 0.19835633455436341 0 -0.0032527717105686848 0.21797522685813861 0 0.015353354689590679 0.2272527304250567 0 0.0093175891669755994 0.19835633455436341 0 0.027298484315152301 0.18443254109327409 0 0.029521524447512479 0.20699669360019959 0 0.0093175891669755994 0.19835633455436341 0 0.027298484315152301 0.18443254109327409 0 0.029521524447512479 0.20699669360019959 0 0.047262258534408373 0.19179842040302339 0 0.047262258534408373 0.19179842040302339 0 0.066269913672915362 0.20297463055343651 0 0.063573450746731874 0.17661443683148961 0 0.045224845780118123 0.21584816286474509 0 0.068247802816341893 0.2282745213774906 0 0.066269913672915362 0.20297463055343651 0 0.047262258534408373 0.19179842040302339 0 0.045224845780118123 0.21584816286474509 0 0.066269913672915362 0.20297463055343651 0 0.029521524447512479 0.20699669360019959 0 0.047262258534408373 0.19179842040302339 0 0.045224845780118123 0.21584816286474509 0 0.029521524447512479 0.20699669360019959 0 0.045224845780118123 0.21584816286474509 0 0.035049849981621632 0.23211604986021819 0 0.045224845780118123 0.21584816286474509 0 0.035049849981621632 0.23211604986021819 0 0.054941410009535653 0.24195913327848501 0 0.045224845780118123 0.21584816286474509 0 0.068247802816341893 0.2282745213774906 0 0.045224845780118123 0.21584816286474509 0 0.054941410009535653 0.24195913327848501 0 0.068247802816341893 0.2282745213774906 0 0.035049849981621632 0.23211604986021819 0 0.039638217212598192 0.2469418664937949 0 0.025619747750374639 0.25369771249902812 0 0.035049849981621632 0.23211604986021819 0 0.054941410009535653 0.24195913327848501 0 0.039638217212598192 0.2469418664937949 0 0.091270759852565567 0.24070087989023611 0 0.068247802816341893 0.2282745213774906 0 0.091270759852565567 0.24070087989023611 0 0.068247802816341893 0.2282745213774906 0 0.073110705878909776 0.25296269123706461 0 0.054941410009535653 0.24195913327848501 0 0.068247802816341893 0.2282745213774906 0 0.073110705878909776 0.25296269123706461 0 0.091270759852565567 0.24070087989023611 0 0.068247802816341893 0.2282745213774906 0 0.090586844752056514 0.21380084591176809 0 0.068247802816341893 0.2282745213774906 0 0.090586844752056514 0.21380084591176809 0 0.066269913672915362 0.20297463055343651 0 0.066269913672915362 0.20297463055343651 0 0.063573450746731874 0.17661443683148961 0 0.066269913672915362 0.20297463055343651 0 0.063573450746731874 0.17661443683148961 0 0.086053061182728791 0.18537825463892441 0 0.090586844752056514 0.21380084591176809 0 0.066269913672915362 0.20297463055343651 0 0.086053061182728791 0.18537825463892441 0 0.10853267161872519 0.1941420724463602 0 0.086053061182728791 0.18537825463892441 0 0.090586844752056514 0.21380084591176809 0 0.10853267161872519 0.1941420724463602 0 0.086053061182728791 0.18537825463892441 0 0.10853267161872519 0.1941420724463602 0 0.13101228205472171 0.20290589025379599 0 0.1273244747005258 0.18883760333827521 0 0.10853267161872519 0.1941420724463602 0 0.13101228205472171 0.20290589025379599 0 0.10853267161872519 0.1941420724463602 0 0.11589182582438889 0.21314815286310709 0 0.13101228205472171 0.20290589025379599 0 0.090586844752056514 0.21380084591176809 0 0.11589182582438889 0.21314815286310709 0 0.1032399384109433 0.22674985365639341 0 0.090586844752056514 0.21380084591176809 0 0.10853267161872519 0.1941420724463602 0 0.11589182582438889 0.21314815286310709 0 0.091270759852565567 0.24070087989023611 0 0.090586844752056514 0.21380084591176809 0 0.1032399384109433 0.22674985365639341 0 0.11589182582438889 0.21314815286310709 0 0.1032399384109433 0.22674985365639341 0 0.1209553554335063 0.2304836962384548 0 0.1209553554335063 0.2304836962384548 0 0.12420690320853529 0.24949505869540881 0 0.11429371688878941 0.25312723840298168 0 0.1032399384109433 0.22674985365639341 0 0.1209553554335063 0.2304836962384548 0 0.11429371688878941 0.25312723840298168 0 0.091270759852565567 0.24070087989023611 0 0.1032399384109433 0.22674985365639341 0 0.11429371688878941 0.25312723840298168 0 0.091270759852565567 0.24070087989023611 0 0.11429371688878941 0.25312723840298168 0 0.090469921999165495 0.14508977093978229 0 0.079454644091415144 0.1374831277622468 0 0.077662718086396715 0.15192455335140251 0 0.090469921999165495 0.14508977093978229 0 0.077662718086396715 0.15192455335140251 0 0.092167053724692319 0.15830079842411249 0 0.074825670479102213 0.12028669145737179 0 0.090772391799904331 0.13290508063944451 0 0.079454644091415144 0.1374831277622468 0 0.090469921999165495 0.14508977093978229 0 0.090772391799904331 0.13290508063944451 0 0.079454644091415144 0.1374831277622468 0 0.074825670479102213 0.12028669145737179 0 0.079454644091415144 0.1374831277622468 0 0.067740172142951055 0.13850381093565661 0 0.074825670479102213 0.12028669145737179 0 0.058707299777134868 0.12904371705885331 0 0.067740172142951055 0.13850381093565661 0 0.060845703278203968 0.14994841038745271 0 0.067740172142951055 0.13850381093565661 0 0.077662718086396715 0.15192455335140251 0 0.060845703278203968 0.14994841038745271 0 0.077662718086396715 0.15192455335140251 0 0.070280741750999118 0.16329181728470801 0 0.079454644091415144 0.1374831277622468 0 0.067740172142951055 0.13850381093565661 0 0.077662718086396715 0.15192455335140251 0 0.060845703278203968 0.14994841038745271 0 0.070280741750999118 0.16329181728470801 0 0.077662718086396715 0.15192455335140251 0 0.070280741750999118 0.16329181728470801 0 0.082667828616071415 0.16944226359778161 0 0.060845703278203968 0.14994841038745271 0 0.070280741750999118 0.16329181728470801 0 0.063573450746731874 0.17661443683148961 0 0.070280741750999118 0.16329181728470801 0 0.063573450746731874 0.17661443683148961 0 0.082667828616071415 0.16944226359778161 0 0.063573450746731874 0.17661443683148961 0 0.086053061182728791 0.18537825463892441 0 0.063573450746731874 0.17661443683148961 0 0.086053061182728791 0.18537825463892441 0 0.082667828616071415 0.16944226359778161 0 0.086053061182728791 0.18537825463892441 0 0.082667828616071415 0.16944226359778161 0 0.1017598891683017 0.17469581318365221 0 0.082667828616071415 0.16944226359778161 0 0.092167053724692319 0.15830079842411249 0 0.1017598891683017 0.17469581318365221 0 0.077662718086396715 0.15192455335140251 0 0.082667828616071415 0.16944226359778161 0 0.092167053724692319 0.15830079842411249 0 0.092167053724692319 0.15830079842411249 0 0.1034826409152502 0.15993216369042659 0 0.098691616430821624 0.1514917560447821 0 0.092167053724692319 0.15830079842411249 0 0.1034826409152502 0.15993216369042659 0 0.1017598891683017 0.17469581318365221 0 0.10829539566094409 0.16780069858793731 0 0.1034826409152502 0.15993216369042659 0 0.1017598891683017 0.17469581318365221 0 0.1034826409152502 0.15993216369042659 0 0.1144968081302938 0.16060362044549609 0 0.1085200363059669 0.15037039685648021 0 0.10829539566094409 0.16780069858793731 0 0.1034826409152502 0.15993216369042659 0 0.1144968081302938 0.16060362044549609 0 0.10853267161872519 0.1941420724463602 0 0.086053061182728791 0.18537825463892441 0 0.1017598891683017 0.17469581318365221 0 0.10853267161872519 0.1941420724463602 0 0.1017598891683017 0.17469581318365221 0 0.117256688328662 0.17700963639010839 0 0.10829539566094409 0.16780069858793731 0 0.1017598891683017 0.17469581318365221 0 0.117256688328662 0.17700963639010839 0 0.10853267161872519 0.1941420724463602 0 0.117256688328662 0.17700963639010839 0 0.1273244747005258 0.18883760333827521 0 0.1144968081302938 0.16060362044549609 0 0.1203118653964417 0.15312954301362119 0 0.13779458902477451 0.17586652077539161 0 0.117256688328662 0.17700963639010839 0 0.1144968081302938 0.16060362044549609 0 0.13779458902477451 0.17586652077539161 0 0.10829539566094409 0.16780069858793731 0 0.117256688328662 0.17700963639010839 0 0.1144968081302938 0.16060362044549609 0 0.1203118653964417 0.15312954301362119 0 0.1124696074965011 0.1392342650306268 0 0.1190760380372283 0.1308507562870187 0 0.1203118653964417 0.15312954301362119 0 0.1085200363059669 0.15037039685648021 0 0.1124696074965011 0.1392342650306268 0 0.1144968081302938 0.16060362044549609 0 0.1203118653964417 0.15312954301362119 0 0.1085200363059669 0.15037039685648021 0 0.1034826409152502 0.15993216369042659 0 0.1085200363059669 0.15037039685648021 0 0.098691616430821624 0.1514917560447821 0 0.1085200363059669 0.15037039685648021 0 0.1018456868056401 0.13804629317809311 0 0.1124696074965011 0.1392342650306268 0 0.1085200363059669 0.15037039685648021 0 0.098691616430821624 0.1514917560447821 0 0.1018456868056401 0.13804629317809311 0 0.090469921999165495 0.14508977093978229 0 0.098691616430821624 0.1514917560447821 0 0.1018456868056401 0.13804629317809311 0 0.090469921999165495 0.14508977093978229 0 0.092167053724692319 0.15830079842411249 0 0.098691616430821624 0.1514917560447821 0 0.094045065294074304 0.1192150351408886 0 0.090772391799904331 0.13290508063944451 0 0.1018456868056401 0.13804629317809311 0 0.094045065294074304 0.1192150351408886 0 0.1132105913856591 0.12466981112322741 0 0.1018456868056401 0.13804629317809311 0 0.090469921999165495 0.14508977093978229 0 0.090772391799904331 0.13290508063944451 0 0.1018456868056401 0.13804629317809311 0 0.1132105913856591 0.12466981112322741 0 0.1018456868056401 0.13804629317809311 0 0.1124696074965011 0.1392342650306268 0 0.1132105913856591 0.12466981112322741 0 0.1018456868056401 0.13804629317809311 0 0.12335421623778491 0.1232769470562404 0 0.1203118653964417 0.15312954301362119 0 0.12335421623778491 0.1232769470562404 0 0.1203118653964417 0.15312954301362119 0 0.12972639219712551 0.13445420541320091 0 0.1132105913856591 0.12466981112322741 0 0.1124696074965011 0.1392342650306268 0 0.1190760380372283 0.1308507562870187 0 0.12335421623778491 0.1232769470562404 0 0.1203118653964417 0.15312954301362119 0 0.1190760380372283 0.1308507562870187 0 0.1132105913856591 0.12466981112322741 0 0.12335421623778491 0.1232769470562404 0 0.1190760380372283 0.1308507562870187 0 0.12335421623778491 0.1232769470562404 0 0.12972639219712551 0.13445420541320091 0 0.1368103244389082 0.1183469061142584 0 0.12972639219712551 0.13445420541320091 0 0.13741113762914989 0.13463511772246001 0 0.1368103244389082 0.1183469061142584 0 0.13741113762914989 0.13463511772246001 0 0.1368103244389082 0.1183469061142584 0 0.12972639219712551 0.13445420541320091 0 0.13741113762914989 0.13463511772246001 0 0.13074441728334271 0.14288251315942499 0 0.13741113762914989 0.13463511772246001 0 0.15393489224620491 0.1293710264470965 0 0.15344633335945829 0.14518167887306141 0 0.13741113762914989 0.13463511772246001 0 0.15393489224620491 0.1293710264470965 0 0.1368103244389082 0.1183469061142584 0 0.13741113762914989 0.13463511772246001 0 0.15344633335945829 0.14518167887306141 0 0.13801195081939091 0.15092332933066149 0 0.15344633335945829 0.14518167887306141 0 0.13801195081939091 0.15092332933066149 0 0.1538974850810732 0.1612819574853562 0 0.13741113762914989 0.13463511772246001 0 0.13801195081939091 0.15092332933066149 0 0.1203118653964417 0.15312954301362119 0 0.12972639219712551 0.13445420541320091 0 0.13074441728334271 0.14288251315942499 0 0.1203118653964417 0.15312954301362119 0 0.13801195081939091 0.15092332933066149 0 0.13074441728334271 0.14288251315942499 0 0.13741113762914989 0.13463511772246001 0 0.13801195081939091 0.15092332933066149 0 0.13074441728334271 0.14288251315942499 0 0.1203118653964417 0.15312954301362119 0 0.13801195081939091 0.15092332933066149 0 0.13779458902477451 0.17586652077539161 0 0.1144968081302938 0.16060362044549609 0 0.13779458902477451 0.17586652077539161 0 0.13779458902477451 0.17586652077539161 0 0.1273244747005258 0.18883760333827521 0 0.14202614247574569 0.19426389682572001 0 0.117256688328662 0.17700963639010839 0 0.13779458902477451 0.17586652077539161 0 0.1273244747005258 0.18883760333827521 0 0.13779458902477451 0.17586652077539161 0 0.14202614247574569 0.19426389682572001 0 0.16109236991925549 0.1911294211052868 0 0.13779458902477451 0.17586652077539161 0 0.16109236991925549 0.1911294211052868 0 0.13779458902477451 0.17586652077539161 0 0.16181888877694581 0.17388875412423649 0 0.16109236991925549 0.1911294211052868 0 0.13779458902477451 0.17586652077539161 0 0.1538974850810732 0.1612819574853562 0 0.16181888877694581 0.17388875412423649 0 0.13801195081939091 0.15092332933066149 0 0.13779458902477451 0.17586652077539161 0 0.1538974850810732 0.1612819574853562 0 0.1538974850810732 0.1612819574853562 0 0.16650777425474819 0.157512012631565 0 0.16181888877694581 0.17388875412423649 0 0.16650777425474819 0.157512012631565 0 0.16181888877694581 0.17388875412423649 0 0.17847892549200889 0.17408193263622421 0 0.17847892549200889 0.17408193263622421 0 0.16109236991925549 0.1911294211052868 0 0.16181888877694581 0.17388875412423649 0 0.17847892549200889 0.17408193263622421 0 0.16109236991925549 0.1911294211052868 0 0.17847892549200889 0.17408193263622421 0 0.16109236991925549 0.1911294211052868 0 0.17776105213316151 0.18941026844512401 0 0.17847892549200889 0.17408193263622421 0 0.18607077233572181 0.1837637404532072 0 0.17776105213316151 0.18941026844512401 0 0.17847892549200889 0.17408193263622421 0 0.19586548106476431 0.15703444416716339 0 0.16650777425474819 0.157512012631565 0 0.17847892549200889 0.17408193263622421 0 0.1824476517290915 0.15045066366549761 0 0.17847892549200889 0.17408193263622421 0 0.18607077233572181 0.1837637404532072 0 0.19586548106476431 0.15703444416716339 0 0.17847892549200889 0.17408193263622421 0 0.1824476517290915 0.15045066366549761 0 0.19586548106476431 0.15703444416716339 0 0.16650777425474819 0.157512012631565 0 0.1824476517290915 0.15045066366549761 0 0.16895736108991161 0.14018708900501431 0 0.1824476517290915 0.15045066366549761 0 0.18468246321415149 0.133685096469566 0 0.16895736108991161 0.14018708900501431 0 0.18468246321415149 0.133685096469566 0 0.16895736108991161 0.14018708900501431 0 0.17123158341977199 0.1236141345143271 0 0.15393489224620491 0.1293710264470965 0 0.15344633335945829 0.14518167887306141 0 0.16895736108991161 0.14018708900501431 0 0.15393489224620491 0.1293710264470965 0 0.16895736108991161 0.14018708900501431 0 0.17123158341977199 0.1236141345143271 0 0.15344633335945829 0.14518167887306141 0 0.1538974850810732 0.1612819574853562 0 0.16650777425474819 0.157512012631565 0 0.15344633335945829 0.14518167887306141 0 0.16650777425474819 0.157512012631565 0 0.16895736108991161 0.14018708900501431 0 0.1442092989804529 0.23775790791442661 0 0.14608089257451429 0.24992769762422701 0 0.1514377498938263 0.23315707621043499 0 0.14608089257451429 0.24992769762422701 0 0.1514377498938263 0.23315707621043499 0 0.16695965491323631 0.22928952798461419 0 0.1442092989804529 0.23775790791442661 0 0.13454712077130621 0.24583915084270511 0 0.14477143268216491 0.2221077069803393 0 0.14608089257451429 0.24992769762422701 0 0.1613651790313706 0.24030896687090961 0 0.15691297891071249 0.25204874182608528 0 0.1442092989804529 0.23775790791442661 0 0.14608089257451429 0.24992769762422701 0 0.13454712077130621 0.24583915084270511 0 0.1209553554335063 0.2304836962384548 0 0.12420690320853529 0.24949505869540881 0 0.13454712077130621 0.24583915084270511 0 0.1209553554335063 0.2304836962384548 0 0.13454712077130621 0.24583915084270511 0 0.13483220224408951 0.23189376130201 0 0.1209553554335063 0.2304836962384548 0 0.14102386267638031 0.21080655867187009 0 0.1209553554335063 0.2304836962384548 0 0.13483220224408951 0.23189376130201 0 0.14102386267638031 0.21080655867187009 0 0.13454712077130621 0.24583915084270511 0 0.13483220224408951 0.23189376130201 0 0.14477143268216491 0.2221077069803393 0 0.13483220224408951 0.23189376130201 0 0.14477143268216491 0.2221077069803393 0 0.14102386267638031 0.21080655867187009 0 0.13454712077130621 0.24583915084270511 0 0.14477143268216491 0.2221077069803393 0 0.1442092989804529 0.23775790791442661 0 0.14477143268216491 0.2221077069803393 0 0.1514377498938263 0.23315707621043499 0 0.14477143268216491 0.2221077069803393 0 0.1514377498938263 0.23315707621043499 0 0.15698156193468249 0.22144519879365709 0 0.15347804509114341 0.21123091433173599 0 0.14102386267638031 0.21080655867187009 0 0.16109236991925549 0.1911294211052868 0 0.14477143268216491 0.2221077069803393 0 0.15347804509114341 0.21123091433173599 0 0.15698156193468249 0.22144519879365709 0 0.14477143268216491 0.2221077069803393 0 0.15347804509114341 0.21123091433173599 0 0.14102386267638031 0.21080655867187009 0 0.11589182582438889 0.21314815286310709 0 0.1209553554335063 0.2304836962384548 0 0.14102386267638031 0.21080655867187009 0 0.11589182582438889 0.21314815286310709 0 0.14102386267638031 0.21080655867187009 0 0.13101228205472171 0.20290589025379599 0 0.14102386267638031 0.21080655867187009 0 0.13101228205472171 0.20290589025379599 0 0.14202614247574569 0.19426389682572001 0 0.13101228205472171 0.20290589025379599 0 0.1273244747005258 0.18883760333827521 0 0.14202614247574569 0.19426389682572001 0 0.14102386267638031 0.21080655867187009 0 0.16109236991925549 0.1911294211052868 0 0.14102386267638031 0.21080655867187009 0 0.14202614247574569 0.19426389682572001 0 0.16109236991925549 0.1911294211052868 0 0.16109236991925549 0.1911294211052868 0 0.17446539358560681 0.19989038972514439 0 0.16352099824323399 0.21066568610752609 0 0.16109236991925549 0.1911294211052868 0 0.17776105213316151 0.18941026844512401 0 0.17446539358560681 0.19989038972514439 0 0.16109236991925549 0.1911294211052868 0 0.17446539358560681 0.19989038972514439 0 0.18607077233572181 0.1837637404532072 0 0.17776105213316151 0.18941026844512401 0 0.187336054755781 0.1942652328645835 0 0.17776105213316151 0.18941026844512401 0 0.187336054755781 0.1942652328645835 0 0.17446539358560681 0.19989038972514439 0 0.187336054755781 0.1942652328645835 0 0.17446539358560681 0.19989038972514439 0 0.18783841725195841 0.2086513583450017 0 0.17446539358560681 0.19989038972514439 0 0.17154193969394871 0.21358743889701071 0 0.18783841725195841 0.2086513583450017 0 0.17154193969394871 0.21358743889701071 0 0.16695965491323631 0.22928952798461419 0 0.18783841725195841 0.2086513583450017 0 0.18309474650688271 0.2255311690402288 0 0.19086102637526561 0.22096795256629551 0 0.18783841725195841 0.2086513583450017 0 0.17446539358560681 0.19989038972514439 0 0.18783841725195841 0.2086513583450017 0 0.15347804509114341 0.21123091433173599 0 0.16109236991925549 0.1911294211052868 0 0.16352099824323399 0.21066568610752609 0 0.17154193969394871 0.21358743889701071 0 0.16475103869627539 0.21874696294570201 0 0.16352099824323399 0.21066568610752609 0 0.17446539358560681 0.19989038972514439 0 0.17154193969394871 0.21358743889701071 0 0.16352099824323399 0.21066568610752609 0 0.15347804509114341 0.21123091433173599 0 0.16352099824323399 0.21066568610752609 0 0.15698156193468249 0.22144519879365709 0 0.16475103869627539 0.21874696294570201 0 0.16352099824323399 0.21066568610752609 0 0.15698156193468249 0.22144519879365709 0 0.17154193969394871 0.21358743889701071 0 0.16475103869627539 0.21874696294570201 0 0.16695965491323631 0.22928952798461419 0 0.16475103869627539 0.21874696294570201 0 0.15698156193468249 0.22144519879365709 0 0.16695965491323631 0.22928952798461419 0 0.1514377498938263 0.23315707621043499 0 0.15698156193468249 0.22144519879365709 0 0.16695965491323631 0.22928952798461419 0 0.16695965491323631 0.22928952798461419 0 0.18309474650688271 0.2255311690402288 0 0.1792945085904486 0.23420826177186049 0 0.16695965491323631 0.22928952798461419 0 0.18783841725195841 0.2086513583450017 0 0.16695965491323631 0.22928952798461419 0 0.18309474650688271 0.2255311690402288 0 0.18783841725195841 0.2086513583450017 0 0.18309474650688271 0.2255311690402288 0 0.1792945085904486 0.23420826177186049 0 0.18994291828913851 0.23039491240614579 0 0.16695965491323631 0.22928952798461419 0 0.1792945085904486 0.23420826177186049 0 0.17187594878845641 0.23699203648185879 0 0.1792945085904486 0.23420826177186049 0 0.17187594878845641 0.23699203648185879 0 0.17988445261877001 0.2441613893000508 0 0.18578460157279211 0.2482688543205844 0 0.1613651790313706 0.24030896687090961 0 0.18578460157279211 0.2482688543205844 0 0.1613651790313706 0.24030896687090961 0 0.17265565700519639 0.25152565263121213 0 0.18578460157279211 0.2482688543205844 0 0.17988445261877001 0.2441613893000508 0 0.1613651790313706 0.24030896687090961 0 0.1792945085904486 0.23420826177186049 0 0.18567269612893619 0.23864260566995019 0 0.18994291828913851 0.23039491240614579 0 0.1792945085904486 0.23420826177186049 0 0.18567269612893619 0.23864260566995019 0 0.17988445261877001 0.2441613893000508 0 0.18567269612893619 0.23864260566995019 0 0.18578460157279211 0.2482688543205844 0 0.17988445261877001 0.2441613893000508 0 0.18578460157279211 0.2482688543205844 0 0.17988445261877001 0.2441613893000508 0 0.14608089257451429 0.24992769762422701 0 0.16695965491323631 0.22928952798461419 0 0.1613651790313706 0.24030896687090961 0 0.1613651790313706 0.24030896687090961 0 0.1651050667405432 0.25249092321613159 0 0.17265565700519639 0.25152565263121213 0 0.14608089257451429 0.24992769762422701 0 0.16695965491323631 0.22928952798461419 0 0.17187594878845641 0.23699203648185879 0 0.17988445261877001 0.2441613893000508 0 0.1613651790313706 0.24030896687090961 0 0.16695965491323631 0.22928952798461419 0 0.17187594878845641 0.23699203648185879 0 0.1613651790313706 0.24030896687090961 0 0.1613651790313706 0.24030896687090961 0 0.15691297891071249 0.25204874182608528 0 0.1651050667405432 0.25249092321613159 0 0.20349414574552019 0.2397296304513051 0 0.20548970453276241 0.223395908533632 0 0.21948614212466469 0.24360632728838769 0 0.20349414574552019 0.2397296304513051 0 0.21948614212466469 0.24360632728838769 0 0.20963359064467821 0.25604280018186582 0 0.18578460157279211 0.2482688543205844 0 0.20349414574552019 0.2397296304513051 0 0.20963359064467821 0.25604280018186582 0 0.18578460157279211 0.2482688543205844 0 0.20349414574552019 0.2397296304513051 0 0.1928460655780784 0.23750582580249549 0 0.18567269612893619 0.23864260566995019 0 0.1928460655780784 0.23750582580249549 0 0.18994291828913851 0.23039491240614579 0 0.18567269612893619 0.23864260566995019 0 0.18578460157279211 0.2482688543205844 0 0.1928460655780784 0.23750582580249549 0 0.20349414574552019 0.2397296304513051 0 0.1928460655780784 0.23750582580249549 0 0.19729548302116309 0.23104810088591579 0 0.20349414574552019 0.2397296304513051 0 0.19729548302116309 0.23104810088591579 0 0.20548970453276241 0.223395908533632 0 0.1928460655780784 0.23750582580249549 0 0.19729548302116309 0.23104810088591579 0 0.18994291828913851 0.23039491240614579 0 0.19729548302116309 0.23104810088591579 0 0.18994291828913851 0.23039491240614579 0 0.19595459107232349 0.22428453854525629 0 0.18309474650688271 0.2255311690402288 0 0.18994291828913851 0.23039491240614579 0 0.19086102637526561 0.22096795256629551 0 0.18994291828913851 0.23039491240614579 0 0.19086102637526561 0.22096795256629551 0 0.19595459107232349 0.22428453854525629 0 0.19086102637526561 0.22096795256629551 0 0.19595459107232349 0.22428453854525629 0 0.19868384336730299 0.2157564409528035 0 0.19595459107232349 0.22428453854525629 0 0.20548970453276241 0.223395908533632 0 0.19868384336730299 0.2157564409528035 0 0.19729548302116309 0.23104810088591579 0 0.19595459107232349 0.22428453854525629 0 0.20548970453276241 0.223395908533632 0 0.20548970453276241 0.223395908533632 0 0.22232818105190419 0.22474666308419619 0 0.21948614212466469 0.24360632728838769 0 0.20548970453276241 0.223395908533632 0 0.21478709852807579 0.21824385474796781 0 0.22232818105190419 0.22474666308419619 0 0.20548970453276241 0.223395908533632 0 0.21948614212466469 0.24360632728838769 0 0.20548970453276241 0.223395908533632 0 0.21478709852807579 0.21824385474796781 0 0.20686563759789151 0.2153187730104571 0 0.21244750834462939 0.2094342395159571 0 0.20229092154266759 0.19436539491336119 0 0.22801505765326441 0.20623551661066741 0 0.21478709852807579 0.21824385474796781 0 0.21244750834462939 0.2094342395159571 0 0.22801505765326441 0.20623551661066741 0 0.21478709852807579 0.21824385474796781 0 0.21244750834462939 0.2094342395159571 0 0.20686563759789151 0.2153187730104571 0 0.21244750834462939 0.2094342395159571 0 0.20196166899728371 0.2077755540941445 0 0.20229092154266759 0.19436539491336119 0 0.21244750834462939 0.2094342395159571 0 0.20686563759789151 0.2153187730104571 0 0.20196166899728371 0.2077755540941445 0 0.20548970453276241 0.223395908533632 0 0.20686563759789151 0.2153187730104571 0 0.19868384336730299 0.2157564409528035 0 0.20686563759789151 0.2153187730104571 0 0.19868384336730299 0.2157564409528035 0 0.20196166899728371 0.2077755540941445 0 0.19086102637526561 0.22096795256629551 0 0.19868384336730299 0.2157564409528035 0 0.18783841725195841 0.2086513583450017 0 0.19868384336730299 0.2157564409528035 0 0.18783841725195841 0.2086513583450017 0 0.18783841725195841 0.2086513583450017 0 0.20196166899728371 0.2077755540941445 0 0.20229092154266759 0.19436539491336119 0 0.19868384336730299 0.2157564409528035 0 0.18783841725195841 0.2086513583450017 0 0.20196166899728371 0.2077755540941445 0 0.18783841725195841 0.2086513583450017 0 0.20229092154266759 0.19436539491336119 0 0.187336054755781 0.1942652328645835 0 0.18783841725195841 0.2086513583450017 0 0.20229092154266759 0.19436539491336119 0 0.187336054755781 0.1942652328645835 0 0.20229092154266759 0.19436539491336119 0 0.19753104615154149 0.18393888364014771 0 0.20229092154266759 0.19436539491336119 0 0.22801505765326441 0.20623551661066741 0 0.21674342583337691 0.1800794314817207 0 0.22801505765326441 0.20623551661066741 0 0.21674342583337691 0.1800794314817207 0 0.23023659787377601 0.19123731248323891 0 0.22801505765326441 0.20623551661066741 0 0.21674342583337691 0.1800794314817207 0 0.23023659787377601 0.19123731248323891 0 0.24278683002938581 0.19728741683585771 0 0.22801505765326441 0.20623551661066741 0 0.23023659787377601 0.19123731248323891 0 0.24278683002938581 0.19728741683585771 0 0.24631191293372251 0.18708186623926701 0 0.24278683002938581 0.19728741683585771 0 0.24631191293372251 0.18708186623926701 0 0.25583476687377482 0.1922858934871631 0 0.22801505765326441 0.20623551661066741 0 0.23928668947315221 0.2323916017396139 0 0.25353581481239162 0.20959649535895189 0 0.24278683002938581 0.19728741683585771 0 0.22801505765326441 0.20623551661066741 0 0.25353581481239162 0.20959649535895189 0 0.21478709852807579 0.21824385474796781 0 0.22801505765326441 0.20623551661066741 0 0.22232818105190419 0.22474666308419619 0 0.22232818105190419 0.22474666308419619 0 0.23928668947315221 0.2323916017396139 0 0.21948614212466469 0.24360632728838769 0 0.22801505765326441 0.20623551661066741 0 0.23928668947315221 0.2323916017396139 0 0.22801505765326441 0.20623551661066741 0 0.22232818105190419 0.22474666308419619 0 0.23928668947315221 0.2323916017396139 0 0.23928668947315221 0.2323916017396139 0 0.25594514465354418 0.2278537828045504 0 0.25353581481239162 0.20959649535895189 0 0.23928668947315221 0.2323916017396139 0 0.23618340067457189 0.2480357533165394 0 0.25916419269841368 0.24538229102785139 0 0.23928668947315221 0.2323916017396139 0 0.23618340067457189 0.2480357533165394 0 0.21948614212466469 0.24360632728838769 0 0.20356090809802649 0.14948909091619469 0 0.2101521669657026 0.16478426119895731 0 0.22014420538132101 0.15220340616902031 0 0.20356090809802649 0.14948909091619469 0 0.22072315291004729 0.13266153877040851 0 0.20356090809802649 0.14948909091619469 0 0.2209838849812617 0.14170655023269921 0 0.22014420538132101 0.15220340616902031 0 0.20356090809802649 0.14948909091619469 0 0.2209838849812617 0.14170655023269921 0 0.22072315291004729 0.13266153877040851 0 0.20356090809802649 0.14948909091619469 0 0.20211417175506319 0.14613190541276219 0 0.22072315291004729 0.13266153877040851 0 0.2016481504484037 0.1412538132617038 0 0.20211417175506319 0.14613190541276219 0 0.22072315291004729 0.13266153877040851 0 0.2074308198320419 0.1254731823562438 0 0.2016481504484037 0.1412538132617038 0 0.22072315291004729 0.13266153877040851 0 0.2074308198320419 0.1254731823562438 0 0.2016481504484037 0.1412538132617038 0 0.2074308198320419 0.1254731823562438 0 0.22072315291004729 0.13266153877040851 0 0.21868555336337081 0.1231418643565345 0 0.2074308198320419 0.1254731823562438 0 0.22072315291004729 0.13266153877040851 0 0.18468246321415149 0.133685096469566 0 0.1959892763674233 0.1302303511819253 0 0.18924227465768631 0.11563700501995559 0 0.18468246321415149 0.133685096469566 0 0.1959892763674233 0.1302303511819253 0 0.2016481504484037 0.1412538132617038 0 0.2074308198320419 0.1254731823562438 0 0.1959892763674233 0.1302303511819253 0 0.2016481504484037 0.1412538132617038 0 0.1824476517290915 0.15045066366549761 0 0.18468246321415149 0.133685096469566 0 0.2016481504484037 0.1412538132617038 0 0.2016481504484037 0.1412538132617038 0 0.19586548106476431 0.15703444416716339 0 0.1824476517290915 0.15045066366549761 0 0.2016481504484037 0.1412538132617038 0 0.19586548106476431 0.15703444416716339 0 0.2016481504484037 0.1412538132617038 0 0.20211417175506319 0.14613190541276219 0 0.19586548106476431 0.15703444416716339 0 0.20356090809802649 0.14948909091619469 0 0.20211417175506319 0.14613190541276219 0 0.20356090809802649 0.14948909091619469 0 0.20211417175506319 0.14613190541276219 0 0.19586548106476431 0.15703444416716339 0 0.20356090809802649 0.14948909091619469 0 0.19586548106476431 0.15703444416716339 0 0.18607077233572181 0.1837637404532072 0 0.19586548106476431 0.15703444416716339 0 0.20127257847022131 0.1739201521882392 0 0.18607077233572181 0.1837637404532072 0 0.19586548106476431 0.15703444416716339 0 0.19586548106476431 0.15703444416716339 0 0.20127257847022131 0.1739201521882392 0 0.2101521669657026 0.16478426119895731 0 0.18607077233572181 0.1837637404532072 0 0.20127257847022131 0.1739201521882392 0 0.19753104615154149 0.18393888364014771 0 0.18607077233572181 0.1837637404532072 0 0.187336054755781 0.1942652328645835 0 0.19753104615154149 0.18393888364014771 0 0.20229092154266759 0.19436539491336119 0 0.19753104615154149 0.18393888364014771 0 0.21674342583337691 0.1800794314817207 0 0.20127257847022131 0.1739201521882392 0 0.19753104615154149 0.18393888364014771 0 0.21674342583337691 0.1800794314817207 0 0.20229092154266759 0.19436539491336119 0 0.21674342583337691 0.1800794314817207 0 0.20127257847022131 0.1739201521882392 0 0.21674342583337691 0.1800794314817207 0 0.2101521669657026 0.16478426119895731 0 0.21674342583337691 0.1800794314817207 0 0.2101521669657026 0.16478426119895731 0 0.20356090809802649 0.14948909091619469 0 0.2101521669657026 0.16478426119895731 0 0.20356090809802649 0.14948909091619469 0 0.19586548106476431 0.15703444416716339 0 0.2101521669657026 0.16478426119895731 0 0.2101521669657026 0.16478426119895731 0 0.2357291799966886 0.1613124562749714 0 0.22014420538132101 0.15220340616902031 0 0.21674342583337691 0.1800794314817207 0 0.2357291799966886 0.1613124562749714 0 0.21674342583337691 0.1800794314817207 0 0.2101521669657026 0.16478426119895731 0 0.2357291799966886 0.1613124562749714 0 0.21674342583337691 0.1800794314817207 0 0.2311196731035495 0.17643185918476809 0 0.2357291799966886 0.1613124562749714 0 0.23023659787377601 0.19123731248323891 0 0.21674342583337691 0.1800794314817207 0 0.2311196731035495 0.17643185918476809 0 0.23023659787377601 0.19123731248323891 0 0.24247576601688781 0.16689139677573009 0 0.23023659787377601 0.19123731248323891 0 0.2449165897512576 0.1786649505904794 0 0.24247576601688781 0.16689139677573009 0 0.23023659787377601 0.19123731248323891 0 0.2311196731035495 0.17643185918476809 0 0.24247576601688781 0.16689139677573009 0 0.23023659787377601 0.19123731248323891 0 0.2449165897512576 0.1786649505904794 0 0.24631191293372251 0.18708186623926701 0 0.2449165897512576 0.1786649505904794 0 0.24247576601688781 0.16689139677573009 0 0.25316802083769918 0.17045115467188021 0 0.2449165897512576 0.1786649505904794 0 0.24631191293372251 0.18708186623926701 0 0.25397011602997399 0.1810567586058261 0 0.2357291799966886 0.1613124562749714 0 0.24247576601688781 0.16689139677573009 0 0.25471493415999991 0.1425454810682216 0 0.2311196731035495 0.17643185918476809 0 0.2357291799966886 0.1613124562749714 0 0.24247576601688781 0.16689139677573009 0 0.24247576601688781 0.16689139677573009 0 0.25471493415999991 0.1425454810682216 0 0.2357291799966886 0.1613124562749714 0 0.25471493415999991 0.1425454810682216 0 0.2357291799966886 0.1613124562749714 0 0.23269425393605289 0.1437844830436156 0 0.25471493415999991 0.1425454810682216 0 0.2357291799966886 0.1613124562749714 0 0.23269425393605289 0.1437844830436156 0 0.22014420538132101 0.15220340616902031 0 0.23269425393605289 0.1437844830436156 0 0.2209838849812617 0.14170655023269921 0 0.22683495167522419 0.13830327029964559 0 0.23269425393605289 0.1437844830436156 0 0.2209838849812617 0.14170655023269921 0 0.22014420538132101 0.15220340616902031 0 0.22072315291004729 0.13266153877040851 0 0.22256750796717151 0.13365894693247379 0 0.23416358592868081 0.11948321682242 0 0.2209838849812617 0.14170655023269921 0 0.22256750796717151 0.13365894693247379 0 0.22683495167522419 0.13830327029964559 0 0.2209838849812617 0.14170655023269921 0 0.22072315291004729 0.13266153877040851 0 0.22256750796717151 0.13365894693247379 0 0.22072315291004729 0.13266153877040851 0 0.22256750796717151 0.13365894693247379 0 0.22256750796717151 0.13365894693247379 0 0.2310941598164109 0.1340631009897936 0 0.22683495167522419 0.13830327029964559 0 0.23269425393605289 0.1437844830436156 0 0.2310941598164109 0.1340631009897936 0 0.22683495167522419 0.13830327029964559 0 0.22256750796717151 0.13365894693247379 0 0.2310941598164109 0.1340631009897936 0 0.23416358592868081 0.11948321682242 0 0.22072315291004729 0.13266153877040851 0 0.23416358592868081 0.11948321682242 0 0.23269425393605289 0.1437844830436156 0 0.2398321696551973 0.1349470225859751 0 0.25471493415999991 0.1425454810682216 0 0.2310941598164109 0.1340631009897936 0 0.2398321696551973 0.1349470225859751 0 0.23416358592868081 0.11948321682242 0 0.2398321696551973 0.1349470225859751 0 0.24841421863416779 0.12487025200301539 0 0.23416358592868081 0.11948321682242 0 0.23269425393605289 0.1437844830436156 0 0.2310941598164109 0.1340631009897936 0 0.2398321696551973 0.1349470225859751 0 0.2398321696551973 0.1349470225859751 0 0.25063503352337868 0.13313637413336671 0 0.25471493415999991 0.1425454810682216 0 0.2398321696551973 0.1349470225859751 0 0.24841421863416779 0.12487025200301539 0 0.25063503352337868 0.13313637413336671 0 0.24841421863416779 0.12487025200301539 0 0.24728074087785509 0.1165698880688527 0 0.23416358592868081 0.11948321682242 0 0.24728074087785509 0.1165698880688527 0 0.24760401894731479 0.10630489487443209 0 0.23416358592868081 0.11948321682242 0 0.24760401894731479 0.10630489487443209 0 0.23416358592868081 0.11948321682242 0 0.24760401894731479 0.10630489487443209 0 0.2405671401691338 0.1005223307539007 0 0.23416358592868081 0.11948321682242 0 0.2485246850727259 0.098667562616148161 0 0.24760401894731479 0.10630489487443209 0 0.2405671401691338 0.1005223307539007 0 0.24760401894731479 0.10630489487443209 0 0.2405671401691338 0.1005223307539007 0 0.2405671401691338 0.1005223307539007 0 0.2252755870082471 0.1078744181617976 0 0.22680376583785081 0.11884050096384401 0 0.2405671401691338 0.1005223307539007 0 0.2248077875587832 0.098002701404513046 0 0.2235742407124765 0.08655839392916094 0 0.2248077875587832 0.098002701404513046 0 0.2144147666019216 0.1064143223510941 0 0.2213987133718 0.087355462345943768 0 0.2405671401691338 0.1005223307539007 0 0.2252755870082471 0.1078744181617976 0 0.2248077875587832 0.098002701404513046 0 0.2252755870082471 0.1078744181617976 0 0.2248077875587832 0.098002701404513046 0 0.2144147666019216 0.1064143223510941 0 0.2405671401691338 0.1005223307539007 0 0.22680376583785081 0.11884050096384401 0 0.23416358592868081 0.11948321682242 0 0.2405671401691338 0.1005223307539007 0 0.22680376583785081 0.11884050096384401 0 0.22072315291004729 0.13266153877040851 0 0.22680376583785081 0.11884050096384401 0 0.23416358592868081 0.11948321682242 0 0.2252755870082471 0.1078744181617976 0 0.21852209852868601 0.1163488576379036 0 0.2144147666019216 0.1064143223510941 0 0.2252755870082471 0.1078744181617976 0 0.22680376583785081 0.11884050096384401 0 0.21852209852868601 0.1163488576379036 0 0.22072315291004729 0.13266153877040851 0 0.22680376583785081 0.11884050096384401 0 0.21868555336337081 0.1231418643565345 0 0.22680376583785081 0.11884050096384401 0 0.21868555336337081 0.1231418643565345 0 0.21852209852868601 0.1163488576379036 0 0.2074308198320419 0.1254731823562438 0 0.2144147666019216 0.1064143223510941 0 0.18924227465768631 0.11563700501995559 0 0.2074308198320419 0.1254731823562438 0 0.21868555336337081 0.1231418643565345 0 0.21852209852868601 0.1163488576379036 0 0.2074308198320419 0.1254731823562438 0 0.21852209852868601 0.1163488576379036 0 0.2144147666019216 0.1064143223510941 0 0.2074308198320419 0.1254731823562438 0 0.2144147666019216 0.1064143223510941 0 0.2144147666019216 0.1064143223510941 0 0.19622622142756649 0.096578145014802108 0 0.2213987133718 0.087355462345943768 0 0.2144147666019216 0.1064143223510941 0 0.2213987133718 0.087355462345943768 0 0.2144147666019216 0.1064143223510941 0 0.19622622142756649 0.096578145014802108 0 0.18924227465768631 0.11563700501995559 0 0.2074308198320419 0.1254731823562438 0 0.18924227465768631 0.11563700501995559 0 0.2074308198320419 0.1254731823562438 0 0.1959892763674233 0.1302303511819253 0 0.18924227465768631 0.11563700501995559 0 0.21219957466510919 0.077211247581763523 0 0.19060983722085889 0.059469853271562671 0 0.18649616109928549 0.075370958015263653 0 0.21219957466510919 0.077211247581763523 0 0.19060983722085889 0.059469853271562671 0 0.21219957466510919 0.077211247581763523 0 0.18649616109928549 0.075370958015263653 0 0.19622622142756649 0.096578145014802108 0 0.21219957466510919 0.077211247581763523 0 0.18649616109928549 0.075370958015263653 0 0.19622622142756649 0.096578145014802108 0 0.21219957466510919 0.077211247581763523 0 0.2213987133718 0.087355462345943768 0 0.19622622142756649 0.096578145014802108 0 0.2213987133718 0.087355462345943768 0 0.21219957466510919 0.077211247581763523 0 0.2213987133718 0.087355462345943768 0 0.22212668473864219 0.08536886295945062 0 0.21219957466510919 0.077211247581763523 0 0.22212668473864219 0.08536886295945062 0 0.21219957466510919 0.077211247581763523 0 0.22478575667606129 0.078112381564504479 0 0.21219957466510919 0.077211247581763523 0 0.21969264311253911 0.06090167148366489 0 0.19060983722085889 0.059469853271562671 0 0.22478575667606129 0.078112381564504479 0 0.2408919867780375 0.066576956293413661 0 0.2347000917929985 0.051056630530929667 0 0.22478575667606129 0.078112381564504479 0 0.2347000917929985 0.051056630530929667 0 0.21969264311253911 0.06090167148366489 0 0.22478575667606129 0.078112381564504479 0 0.2347000917929985 0.051056630530929667 0 0.21219957466510919 0.077211247581763523 0 0.22478575667606129 0.078112381564504479 0 0.21969264311253911 0.06090167148366489 0 0.2405671401691338 0.1005223307539007 0 0.2235742407124765 0.08655839392916094 0 0.2405671401691338 0.1005223307539007 0 0.2235742407124765 0.08655839392916094 0 0.2331251293295889 0.083059145022202754 0 0.2248077875587832 0.098002701404513046 0 0.2213987133718 0.087355462345943768 0 0.2235742407124765 0.08655839392916094 0 0.2213987133718 0.087355462345943768 0 0.2235742407124765 0.08655839392916094 0 0.22212668473864219 0.08536886295945062 0 0.2213987133718 0.087355462345943768 0 0.2235742407124765 0.08655839392916094 0 0.2213987133718 0.087355462345943768 0 0.22212668473864219 0.08536886295945062 0 0.2235742407124765 0.08655839392916094 0 0.22212668473864219 0.08536886295945062 0 0.21219957466510919 0.077211247581763523 0 0.22478575667606129 0.078112381564504479 0 0.22212668473864219 0.08536886295945062 0 0.22478575667606129 0.078112381564504479 0 0.2235742407124765 0.08655839392916094 0 0.22212668473864219 0.08536886295945062 0 0.22478575667606129 0.078112381564504479 0 0.22212668473864219 0.08536886295945062 0 0.22478575667606129 0.078112381564504479 0 0.24026273941667151 0.07922048846188387 0 0.22478575667606129 0.078112381564504479 0 0.2331251293295889 0.083059145022202754 0 0.24026273941667151 0.07922048846188387 0 0.2235742407124765 0.08655839392916094 0 0.2331251293295889 0.083059145022202754 0 0.22478575667606129 0.078112381564504479 0 0.2235742407124765 0.08655839392916094 0 0.2331251293295889 0.083059145022202754 0 0.2405671401691338 0.1005223307539007 0 0.2557397221572818 0.080328595359260457 0 0.2405671401691338 0.1005223307539007 0 0.24026273941667151 0.07922048846188387 0 0.2557397221572818 0.080328595359260457 0 0.2405671401691338 0.1005223307539007 0 0.2331251293295889 0.083059145022202754 0 0.24026273941667151 0.07922048846188387 0 0.2485246850727259 0.098667562616148161 0 0.2405671401691338 0.1005223307539007 0 0.2557397221572818 0.080328595359260457 0 0.24026273941667151 0.07922048846188387 0 0.2557397221572818 0.080328595359260457 0 0.22478575667606129 0.078112381564504479 0 0.24026273941667151 0.07922048846188387 0 0.2408919867780375 0.066576956293413661 0 0.24026273941667151 0.07922048846188387 0 0.25224945453329622 0.068441285752912751 0 0.2557397221572818 0.080328595359260457 0 0.24026273941667151 0.07922048846188387 0 0.2408919867780375 0.066576956293413661 0 0.25224945453329622 0.068441285752912751 0 0.2408919867780375 0.066576956293413661 0 0.25246189147116121 0.056053995156836831 0 0.25224945453329622 0.068441285752912751 0 0.2347000917929985 0.051056630530929667 0 0.25177520400336678 0.042524613143754143 0 0.25246189147116121 0.056053995156836831 0 0.2347000917929985 0.051056630530929667 0 0.25246189147116121 0.056053995156836831 0 0.2408919867780375 0.066576956293413661 0 0.2347000917929985 0.051056630530929667 0 0.25246189147116121 0.056053995156836831 0 0.2347000917929985 0.051056630530929667 0 0.24488562426254959 0.023260794764740599 0 0.25177520400336678 0.042524613143754143 0 0.2347000917929985 0.051056630530929667 0 0.22389997361827099 0.03834279921009659 0 0.24488562426254959 0.023260794764740599 0 0.2347000917929985 0.051056630530929667 0 0.24488562426254959 0.023260794764740599 0 0.2347000917929985 0.051056630530929667 0 0.22389997361827099 0.03834279921009659 0 0.20938436611179101 0.043933933828414262 0 0.2347000917929985 0.051056630530929667 0 0.21969264311253911 0.06090167148366489 0 0.20938436611179101 0.043933933828414262 0 0.2347000917929985 0.051056630530929667 0 0.20938436611179101 0.043933933828414262 0 0.24488562426254959 0.023260794764740599 0 0.25507115673211361 -0.0045350410014435294 0 0.24488562426254959 0.023260794764740599 0 0.2307010633220338 0.0065947605314399501 0 0.25507115673211361 -0.0045350410014435294 0 0.24488562426254959 0.023260794764740599 0 0.2223591630395336 0.02429952597767835 0 0.2307010633220338 0.0065947605314399501 0 0.22389997361827099 0.03834279921009659 0 0.24488562426254959 0.023260794764740599 0 0.2223591630395336 0.02429952597767835 0 0.2223591630395336 0.02429952597767835 0 0.2307010633220338 0.0065947605314399501 0 0.21492435258349399 0.0075954742012446612 0 0.2307010633220338 0.0065947605314399501 0 0.21492435258349399 0.0075954742012446612 0 0.21703109114326871 -0.0031006257221327408 0 0.21492435258349399 0.0075954742012446612 0 0.19860552893954281 0.0060187453151524144 0 0.2049739318777517 -0.0019828991504563451 0 0.21492435258349399 0.0075954742012446612 0 0.19236136077934671 0.020195852171098011 0 0.21492435258349399 0.0075954742012446612 0 0.21703109114326871 -0.0031006257221327408 0 0.2049739318777517 -0.0019828991504563451 0 0.21492435258349399 0.0075954742012446612 0 0.20821469453435809 0.020661558475450821 0 0.19236136077934671 0.020195852171098011 0 0.22389997361827099 0.03834279921009659 0 0.2223591630395336 0.02429952597767835 0 0.20321390173505841 0.030555381551782269 0 0.2223591630395336 0.02429952597767835 0 0.20321390173505841 0.030555381551782269 0 0.20821469453435809 0.020661558475450821 0 0.2223591630395336 0.02429952597767835 0 0.20321390173505841 0.030555381551782269 0 0.2223591630395336 0.02429952597767835 0 0.21492435258349399 0.0075954742012446612 0 0.20821469453435809 0.020661558475450821 0 0.20321390173505841 0.030555381551782269 0 0.19236136077934671 0.020195852171098011 0 0.18406864043058521 0.036811237125892522 0 0.20321390173505841 0.030555381551782269 0 0.20821469453435809 0.020661558475450821 0 0.19236136077934671 0.020195852171098011 0 0.21492435258349399 0.0075954742012446612 0 0.19236136077934671 0.020195852171098011 0 0.19860552893954281 0.0060187453151524144 0 0.19236136077934671 0.020195852171098011 0 0.19860552893954281 0.0060187453151524144 0 0.18521698577699611 0.0080719676923715084 0 0.19860552893954281 0.0060187453151524144 0 0.18521698577699611 0.0080719676923715084 0 0.19333238575284159 -0.001624579554046546 0 0.19860552893954281 0.0060187453151524144 0 0.2049739318777517 -0.0019828991504563451 0 0.19333238575284159 -0.001624579554046546 0 0.21969264311253911 0.06090167148366489 0 0.20938436611179101 0.043933933828414262 0 0.19060983722085889 0.059469853271562671 0 0.22389997361827099 0.03834279921009659 0 0.20321390173505841 0.030555381551782269 0 0.20938436611179101 0.043933933828414262 0 0.20938436611179101 0.043933933828414262 0 0.19060983722085889 0.059469853271562671 0 0.18406864043058521 0.036811237125892522 0 0.20321390173505841 0.030555381551782269 0 0.18406864043058521 0.036811237125892522 0 0.20321390173505841 0.030555381551782269 0 0.20938436611179101 0.043933933828414262 0 0.18406864043058521 0.036811237125892522 0 0.20938436611179101 0.043933933828414262 0 0.18406864043058521 0.036811237125892522 0 0.19060983722085889 0.059469853271562671 0 0.16902009977660931 0.041728458961360917 0 0.19060983722085889 0.059469853271562671 0 0.16902009977660931 0.041728458961360917 0 0.16996144821857581 0.059742321319858807 0 0.19060983722085889 0.059469853271562671 0 0.18406864043058521 0.036811237125892522 0 0.16902009977660931 0.041728458961360917 0 0.18406864043058521 0.036811237125892522 0 0.16979836897519601 0.032796230140945633 0 0.18406864043058521 0.036811237125892522 0 0.16902009977660931 0.041728458961360917 0 0.16979836897519601 0.032796230140945633 0 0.18406864043058521 0.036811237125892522 0 0.16902009977660931 0.041728458961360917 0 0.16902009977660931 0.041728458961360917 0 0.151710751272328 0.047384416464503511 0 0.16902009977660931 0.041728458961360917 0 0.16286333016869631 0.0366691256752016 0 0.151710751272328 0.047384416464503511 0 0.16979836897519601 0.032796230140945633 0 0.16286333016869631 0.0366691256752016 0 0.15208587458017561 0.0278127377848696 0 0.16902009977660931 0.041728458961360917 0 0.16286333016869631 0.0366691256752016 0 0.16902009977660931 0.041728458961360917 0 0.16979836897519601 0.032796230140945633 0 0.16286333016869631 0.0366691256752016 0 0.16979836897519601 0.032796230140945633 0 0.16286333016869631 0.0366691256752016 0 0.16286333016869631 0.0366691256752016 0 0.15208587458017561 0.0278127377848696 0 0.16902009977660931 0.041728458961360917 0 0.16996144821857581 0.059742321319858807 0 0.151710751272328 0.047384416464503511 0 0.16996144821857581 0.059742321319858807 0 0.14816013143745951 0.061611578835263907 0 0.151710751272328 0.047384416464503511 0 0.18521698577699611 0.0080719676923715084 0 0.1698631208042346 0.01071675655587848 0 0.1771068603599856 -0.0101407500985923 0 0.19236136077934671 0.020195852171098011 0 0.18521698577699611 0.0080719676923715084 0 0.17930995908394359 0.01794520164007227 0 0.18521698577699611 0.0080719676923715084 0 0.17930995908394359 0.01794520164007227 0 0.1698631208042346 0.01071675655587848 0 0.19236136077934671 0.020195852171098011 0 0.18406864043058521 0.036811237125892522 0 0.16979836897519601 0.032796230140945633 0 0.16979836897519601 0.032796230140945633 0 0.17930995908394359 0.01794520164007227 0 0.1698631208042346 0.01071675655587848 0 0.19236136077934671 0.020195852171098011 0 0.16979836897519601 0.032796230140945633 0 0.19236136077934671 0.020195852171098011 0 0.16979836897519601 0.032796230140945633 0 0.17930995908394359 0.01794520164007227 0 0.16979836897519601 0.032796230140945633 0 0.1573630341696948 0.015509368908725471 0 0.15208587458017561 0.0278127377848696 0 0.16979836897519601 0.032796230140945633 0 0.1698631208042346 0.01071675655587848 0 0.1573630341696948 0.015509368908725471 0 0.16979836897519601 0.032796230140945633 0 0.15208587458017561 0.0278127377848696 0 0.1698631208042346 0.01071675655587848 0 0.16086610818027189 0.00088494390851339051 0 0.1771068603599856 -0.0101407500985923 0 0.1698631208042346 0.01071675655587848 0 0.1573630341696948 0.015509368908725471 0 0.16086610818027189 0.00088494390851339051 0 0.1419667591125528 0.002147773280953317 0 0.14890787086280591 0.0064886139583709684 0 0.14833042641046409 -0.002631935689413961 0 0.1419667591125528 0.002147773280953317 0 0.14890787086280591 0.0064886139583709684 0 0.14133542555979101 0.0090412214129289552 0 0.1573630341696948 0.015509368908725471 0 0.16086610818027189 0.00088494390851339051 0 0.14890787086280591 0.0064886139583709684 0 0.16086610818027189 0.00088494390851339051 0 0.14890787086280591 0.0064886139583709684 0 0.14833042641046409 -0.002631935689413961 0 0.1573630341696948 0.015509368908725471 0 0.14890787086280591 0.0064886139583709684 0 0.14708209162972349 0.014642913179754059 0 0.14890787086280591 0.0064886139583709684 0 0.14708209162972349 0.014642913179754059 0 0.14133542555979101 0.0090412214129289552 0 0.14708209162972349 0.014642913179754059 0 0.14133542555979101 0.0090412214129289552 0 0.13571825297614989 0.014362623833877569 0 0.14708209162972349 0.014642913179754059 0 0.15208587458017561 0.0278127377848696 0 0.13571825297614989 0.014362623833877569 0 0.15208587458017561 0.0278127377848696 0 0.13345456775081521 0.02737141501462825 0 0.14260373822474409 0.034620480461739878 0 0.15208587458017561 0.0278127377848696 0 0.13571825297614989 0.014362623833877569 0 0.1573630341696948 0.015509368908725471 0 0.14708209162972349 0.014642913179754059 0 0.15208587458017561 0.0278127377848696 0 0.15208587458017561 0.0278127377848696 0 0.1257454251521086 0.02040173030885872 0 0.13571825297614989 0.014362623833877569 0 0.15208587458017561 0.0278127377848696 0 0.1257454251521086 0.02040173030885872 0 0.15208587458017561 0.0278127377848696 0 0.13345456775081521 0.02737141501462825 0 0.1257454251521086 0.02040173030885872 0 0.13345456775081521 0.02737141501462825 0 0.1257454251521086 0.02040173030885872 0 0.12601828966856041 0.034779331412806522 0 0.14133542555979101 0.0090412214129289552 0 0.13571825297614989 0.014362623833877569 0 0.13299307729309279 0.006441163532843899 0 0.1257454251521086 0.02040173030885872 0 0.13571825297614989 0.014362623833877569 0 0.13299307729309279 0.006441163532843899 0 0.1223363701530287 0.0096311158811146491 0 0.1257454251521086 0.02040173030885872 0 0.13299307729309279 0.006441163532843899 0 0.1257454251521086 0.02040173030885872 0 0.13299307729309279 0.006441163532843899 0 0.1223363701530287 0.0096311158811146491 0 0.13299307729309279 0.006441163532843899 0 0.1254970565252467 -0.00055485016598096602 0 0.1419667591125528 0.002147773280953317 0 0.14133542555979101 0.0090412214129289552 0 0.13299307729309279 0.006441163532843899 0 0.1419667591125528 0.002147773280953317 0 0.13299307729309279 0.006441163532843899 0 0.14024072943406241 -0.0075194032431784574 0 0.151710751272328 0.047384416464503511 0 0.13440140276804591 0.053040373967643668 0 0.151710751272328 0.047384416464503511 0 0.1486237540368493 0.044621264422986168 0 0.13440140276804591 0.053040373967643668 0 0.14816013143745951 0.061611578835263907 0 0.151710751272328 0.047384416464503511 0 0.13440140276804591 0.053040373967643668 0 0.1486237540368493 0.044621264422986168 0 0.13440140276804591 0.053040373967643668 0 0.16286333016869631 0.0366691256752016 0 0.151710751272328 0.047384416464503511 0 0.1486237540368493 0.044621264422986168 0 0.16286333016869631 0.0366691256752016 0 0.15208587458017561 0.0278127377848696 0 0.1486237540368493 0.044621264422986168 0 0.15208587458017561 0.0278127377848696 0 0.1486237540368493 0.044621264422986168 0 0.14260373822474409 0.034620480461739878 0 0.16286333016869631 0.0366691256752016 0 0.1486237540368493 0.044621264422986168 0 0.1486237540368493 0.044621264422986168 0 0.13976655947935229 0.039796640767531179 0 0.13440140276804591 0.053040373967643668 0 0.1486237540368493 0.044621264422986168 0 0.14260373822474409 0.034620480461739878 0 0.13976655947935229 0.039796640767531179 0 0.13345456775081521 0.02737141501462825 0 0.12601828966856041 0.034779331412806522 0 0.13112590113666539 0.047018493875372019 0 0.13345456775081521 0.02737141501462825 0 0.13976655947935229 0.039796640767531179 0 0.13440140276804591 0.053040373967643668 0 0.13345456775081521 0.02737141501462825 0 0.13112590113666539 0.047018493875372019 0 0.13440140276804591 0.053040373967643668 0 0.13345456775081521 0.02737141501462825 0 0.13440140276804591 0.053040373967643668 0 0.13345456775081521 0.02737141501462825 0 0.14260373822474409 0.034620480461739878 0 0.13976655947935229 0.039796640767531179 0 0.14816013143745951 0.061611578835263907 0 0.13440140276804591 0.053040373967643668 0 0.1350893339676377 0.071690378882270686 0 0.13037822215607939 0.054354977955372967 0 0.13440140276804591 0.053040373967643668 0 0.1350893339676377 0.071690378882270686 0 0.1146582432576219 0.041758073050694788 0 0.13037822215607939 0.054354977955372967 0 0.13112590113666539 0.047018493875372019 0 0.13440140276804591 0.053040373967643668 0 0.1350893339676377 0.071690378882270686 0 0.13037822215607939 0.054354977955372967 0 0.13440140276804591 0.053040373967643668 0 0.13037822215607939 0.054354977955372967 0 0.13112590113666539 0.047018493875372019 0 0.13440140276804591 0.053040373967643668 0 0.13037822215607939 0.054354977955372967 0 0.13112590113666539 0.047018493875372019 0 0.1286584529638552 0.07122994652824341 0 0.1350893339676377 0.071690378882270686 0 0.1266169744647683 0.091261637798302819 0 0.13037822215607939 0.054354977955372967 0 0.1286584529638552 0.07122994652824341 0 0.13037822215607939 0.054354977955372967 0 0.1286584529638552 0.07122994652824341 0 0.1350893339676377 0.071690378882270686 0 0.1286584529638552 0.07122994652824341 0 0.1350893339676377 0.071690378882270686 0 0.1350893339676377 0.071690378882270686 0 0.15666642900398681 0.073235236057330511 0 0.14816013143745951 0.061611578835263907 0 0.1350893339676377 0.071690378882270686 0 0.15666642900398681 0.073235236057330511 0 0.1350893339676377 0.071690378882270686 0 0.14634793763894349 0.085667185594611575 0 0.15666642900398681 0.073235236057330511 0 0.14816013143745951 0.061611578835263907 0 0.16079274753346159 0.073530668448767017 0 0.15666642900398681 0.073235236057330511 0 0.14634793763894349 0.085667185594611575 0 0.1546093363117042 0.096907869732747648 0 0.15877050278237179 0.085502147960700645 0 0.14634793763894349 0.085667185594611575 0 0.15666642900398681 0.073235236057330511 0 0.15877050278237179 0.085502147960700645 0 0.14634793763894349 0.085667185594611575 0 0.15666642900398681 0.073235236057330511 0 0.14634793763894349 0.085667185594611575 0 0.13605189300949519 0.097785620487945563 0 0.1350893339676377 0.071690378882270686 0 0.1266169744647683 0.091261637798302819 0 0.13605189300949519 0.097785620487945563 0 0.1286584529638552 0.07122994652824341 0 0.1266169744647683 0.091261637798302819 0 0.1350893339676377 0.071690378882270686 0 0.13605189300949519 0.097785620487945563 0 0.1350893339676377 0.071690378882270686 0 0.14634793763894349 0.085667185594611575 0 0.13605189300949519 0.097785620487945563 0 0.12457549596567841 0.11129332906836201 0 0.1266169744647683 0.091261637798302819 0 0.13605189300949519 0.097785620487945563 0 0.1368103244389082 0.1183469061142584 0 0.1456503160408891 0.1041058851090583 0 0.12457549596567841 0.11129332906836201 0 0.1266169744647683 0.091261637798302819 0 0.13605189300949519 0.097785620487945563 0 0.12457549596567841 0.11129332906836201 0 0.13605189300949519 0.097785620487945563 0 0.1368103244389082 0.1183469061142584 0 0.13605189300949519 0.097785620487945563 0 0.1368103244389082 0.1183469061142584 0 0.12457549596567841 0.11129332906836201 0 0.13605189300949519 0.097785620487945563 0 0.12335421623778491 0.1232769470562404 0 0.12457549596567841 0.11129332906836201 0 0.1368103244389082 0.1183469061142584 0 0.12335421623778491 0.1232769470562404 0 0.1368103244389082 0.1183469061142584 0 0.1368103244389082 0.1183469061142584 0 0.15393202696112071 0.1120738668989595 0 0.1456503160408891 0.1041058851090583 0 0.15393489224620491 0.1293710264470965 0 0.1368103244389082 0.1183469061142584 0 0.15393202696112071 0.1120738668989595 0 0.1368103244389082 0.1183469061142584 0 0.15393202696112071 0.1120738668989595 0 0.14634793763894349 0.085667185594611575 0 0.1456503160408891 0.1041058851090583 0 0.1546093363117042 0.096907869732747648 0 0.14634793763894349 0.085667185594611575 0 0.13605189300949519 0.097785620487945563 0 0.1456503160408891 0.1041058851090583 0 0.15393202696112071 0.1120738668989595 0 0.1456503160408891 0.1041058851090583 0 0.1546093363117042 0.096907869732747648 0 0.15393202696112071 0.1120738668989595 0 0.1546093363117042 0.096907869732747648 0 0.1710537294833335 0.10580082768366179 0 0.15393202696112071 0.1120738668989595 0 0.1710537294833335 0.10580082768366179 0 0.1710537294833335 0.10580082768366179 0 0.16576359563373649 0.094515371614839652 0 0.17445939959390719 0.088804608003954955 0 0.1546093363117042 0.096907869732747648 0 0.1710537294833335 0.10580082768366179 0 0.1546093363117042 0.096907869732747648 0 0.1710537294833335 0.10580082768366179 0 0.16576359563373649 0.094515371614839652 0 0.15393489224620491 0.1293710264470965 0 0.15393202696112071 0.1120738668989595 0 0.17123158341977199 0.1236141345143271 0 0.15393202696112071 0.1120738668989595 0 0.1710537294833335 0.10580082768366179 0 0.17123158341977199 0.1236141345143271 0 0.18924227465768631 0.11563700501995559 0 0.1710537294833335 0.10580082768366179 0 0.18924227465768631 0.11563700501995559 0 0.1710537294833335 0.10580082768366179 0 0.17123158341977199 0.1236141345143271 0 0.18468246321415149 0.133685096469566 0 0.18924227465768631 0.11563700501995559 0 0.17123158341977199 0.1236141345143271 0 0.19622622142756649 0.096578145014802108 0 0.1710537294833335 0.10580082768366179 0 0.19622622142756649 0.096578145014802108 0 0.1710537294833335 0.10580082768366179 0 0.17445939959390719 0.088804608003954955 0 0.19622622142756649 0.096578145014802108 0 0.18924227465768631 0.11563700501995559 0 0.1710537294833335 0.10580082768366179 0 0.17445939959390719 0.088804608003954955 0 0.18649616109928549 0.075370958015263653 0 0.16079274753346159 0.073530668448767017 0 0.19622622142756649 0.096578145014802108 0 0.17445939959390719 0.088804608003954955 0 0.18649616109928549 0.075370958015263653 0 0.18649616109928549 0.075370958015263653 0 0.16079274753346159 0.073530668448767017 0 0.16996144821857581 0.059742321319858807 0 0.18649616109928549 0.075370958015263653 0 0.16079274753346159 0.073530668448767017 0 0.19060983722085889 0.059469853271562671 0 0.16996144821857581 0.059742321319858807 0 0.18649616109928549 0.075370958015263653 0 0.16996144821857581 0.059742321319858807 0 0.14816013143745951 0.061611578835263907 0 0.16079274753346159 0.073530668448767017 0 0.16079274753346159 0.073530668448767017 0 0.15666642900398681 0.073235236057330511 0 0.15877050278237179 0.085502147960700645 0 0.16079274753346159 0.073530668448767017 0 0.15666642900398681 0.073235236057330511 0 0.16576359563373649 0.094515371614839652 0 0.17445939959390719 0.088804608003954955 0 0.15877050278237179 0.085502147960700645 0 0.17445939959390719 0.088804608003954955 0 0.16079274753346159 0.073530668448767017 0 0.15877050278237179 0.085502147960700645 0 0.1546093363117042 0.096907869732747648 0 0.16576359563373649 0.094515371614839652 0 0.15877050278237179 0.085502147960700645 0 0.098203928779598798 0.4749009609504522 0 0.099636078648620785 0.48991990418480191 0 0.12198042715027541 0.48126814430390719 0 0.099636078648620785 0.48991990418480191 0 0.11342950499742439 0.5 0 0.085954928623699856 0.5 0 0.099636078648620785 0.48991990418480191 0 0.11342950499742439 0.5 0 0.12198042715027541 0.48126814430390719 0 0.12198042715027541 0.48126814430390719 0 0.1180657170444107 0.46235144142567919 0 0.1325274624765877 0.46670780663835049 0 0.098203928779598798 0.4749009609504522 0 0.12198042715027541 0.48126814430390719 0 0.1180657170444107 0.46235144142567919 0 0.1180657170444107 0.46235144142567919 0 0.1142280614004636 0.44188273683014229 0 0.1006418577651744 0.45719296123441772 0 0.1180657170444107 0.46235144142567919 0 0.1142280614004636 0.44188273683014229 0 0.1379275053092226 0.44980192190090618 0 0.1142280614004636 0.44188273683014229 0 0.1006418577651744 0.45719296123441772 0 0.08945811265455185 0.44187222457424408 0 0.098203928779598798 0.4749009609504522 0 0.1006418577651744 0.45719296123441772 0 0.083253468946846917 0.46495744239157039 0 0.098203928779598798 0.4749009609504522 0 0.1180657170444107 0.46235144142567919 0 0.098203928779598798 0.4749009609504522 0 0.1180657170444107 0.46235144142567919 0 0.1006418577651744 0.45719296123441772 0 0.1006418577651744 0.45719296123441772 0 0.083253468946846917 0.46495744239157039 0 0.08945811265455185 0.44187222457424408 0 0.083253468946846917 0.46495744239157039 0 0.08945811265455185 0.44187222457424408 0 0.071223988791703829 0.45126805297906519 0 0.08945811265455185 0.44187222457424408 0 0.071223988791703829 0.45126805297906519 0 0.072845752407117936 0.43633753013195098 0 0.071223988791703829 0.45126805297906519 0 0.058797824826679383 0.44217556405412961 0 0.072845752407117936 0.43633753013195098 0 0.083253468946846917 0.46495744239157039 0 0.071223988791703829 0.45126805297906519 0 0.065486142551985621 0.46951013531691449 0 0.071223988791703829 0.45126805297906519 0 0.065486142551985621 0.46951013531691449 0 0.054893706237382947 0.45624686353390442 0 0.083253468946846917 0.46495744239157039 0 0.065486142551985621 0.46951013531691449 0 0.078342140514786843 0.48745048047522532 0 0.065486142551985621 0.46951013531691449 0 0.078342140514786843 0.48745048047522532 0 0.051775817542262931 0.48492877196559703 0 0.098203928779598798 0.4749009609504522 0 0.078342140514786843 0.48745048047522532 0 0.098203928779598798 0.4749009609504522 0 0.099636078648620785 0.48991990418480191 0 0.078342140514786843 0.48745048047522532 0 0.098203928779598798 0.4749009609504522 0 0.083253468946846917 0.46495744239157039 0 0.078342140514786843 0.48745048047522532 0 0.099636078648620785 0.48991990418480191 0 0.085954928623699856 0.5 0 0.078342140514786843 0.48745048047522532 0 0.078342140514786843 0.48745048047522532 0 0.05848035224997522 0.49999999999999911 0 0.078342140514786843 0.48745048047522532 0 0.05848035224997522 0.49999999999999911 0 0.051775817542262931 0.48492877196559703 0 0.085954928623699856 0.5 0 0.078342140514786843 0.48745048047522532 0 0.05848035224997522 0.49999999999999911 0 0.065486142551985621 0.46951013531691449 0 0.051775817542262931 0.48492877196559703 0 0.045543180858451868 0.46991103840382442 0 0.051775817542262931 0.48492877196559703 0 0.045543180858451868 0.46991103840382442 0 0.033539422154943807 0.48186836052528559 0 0.045543180858451868 0.46991103840382442 0 0.033539422154943807 0.48186836052528559 0 0.026004418162171299 0.46967100194812922 0 0.051775817542262931 0.48492877196559703 0 0.033539422154943807 0.48186836052528559 0 0.029507998056016341 0.5 0 0.05848035224997522 0.49999999999999911 0 0.051775817542262931 0.48492877196559703 0 0.029507998056016341 0.5 0 0.033539422154943807 0.48186836052528559 0 0.029507998056016341 0.5 0 0.014865696155816691 0.48483099030887772 0 0.033539422154943807 0.48186836052528559 0 0.026004418162171299 0.46967100194812922 0 0.014865696155816691 0.48483099030887772 0 0.026004418162171299 0.46967100194812922 0 0.014865696155816691 0.48483099030887772 0 0.0098392767044130913 0.46775716758630398 0 -0.00035200391082259452 0.47812999780262511 0 0.014865696155816691 0.48483099030887772 0 0.0098392767044130913 0.46775716758630398 0 -0.00469897694132939 0.46326950737036948 0 -0.00035200391082259452 0.47812999780262511 0 0.0098392767044130913 0.46775716758630398 0 0.029507998056016341 0.5 0 0.014865696155816691 0.48483099030887772 0 0.00053564386205745551 0.5 0 -0.00035200391082259452 0.47812999780262511 0 0.014865696155816691 0.48483099030887772 0 0.00053564386205745551 0.5 0 0.0081070481641373152 0.43806399088304138 0 0.0056488567216386636 0.45351705879088522 0 0.022430877084856599 0.44566056712785951 0 -0.0046805405167990952 0.44910465089531287 0 0.0081070481641373152 0.43806399088304138 0 0.0056488567216386636 0.45351705879088522 0 -0.00469897694132939 0.46326950737036948 0 0.0056488567216386636 0.45351705879088522 0 0.0098392767044130913 0.46775716758630398 0 0.0056488567216386636 0.45351705879088522 0 0.0098392767044130913 0.46775716758630398 0 0.019988469307264351 0.4583044992525751 0 0.026004418162171299 0.46967100194812922 0 0.019988469307264351 0.4583044992525751 0 0.0360189178632421 0.45491670080969709 0 0.026004418162171299 0.46967100194812922 0 0.0098392767044130913 0.46775716758630398 0 0.019988469307264351 0.4583044992525751 0 0.0081070481641373152 0.43806399088304138 0 0.022430877084856599 0.44566056712785951 0 0.023741158708340131 0.43445249594329438 0 0.019988469307264351 0.4583044992525751 0 0.022430877084856599 0.44566056712785951 0 0.0360189178632421 0.45491670080969709 0 0.0056488567216386636 0.45351705879088522 0 0.019988469307264351 0.4583044992525751 0 0.022430877084856599 0.44566056712785951 0 0.022430877084856599 0.44566056712785951 0 0.03686034117982831 0.43744721183462332 0 0.023741158708340131 0.43445249594329438 0 0.0360189178632421 0.45491670080969709 0 0.047329461275634921 0.44467364492524242 0 0.03686034117982831 0.43744721183462332 0 0.022430877084856599 0.44566056712785951 0 0.0360189178632421 0.45491670080969709 0 0.03686034117982831 0.43744721183462332 0 0.0360189178632421 0.45491670080969709 0 0.054893706237382947 0.45624686353390442 0 0.047329461275634921 0.44467364492524242 0 0.047329461275634921 0.44467364492524242 0 0.050076516271041843 0.4325818843938577 0 0.03686034117982831 0.43744721183462332 0 0.045543180858451868 0.46991103840382442 0 0.0360189178632421 0.45491670080969709 0 0.054893706237382947 0.45624686353390442 0 0.045543180858451868 0.46991103840382442 0 0.026004418162171299 0.46967100194812922 0 0.0360189178632421 0.45491670080969709 0 0.065486142551985621 0.46951013531691449 0 0.045543180858451868 0.46991103840382442 0 0.054893706237382947 0.45624686353390442 0 0.071223988791703829 0.45126805297906519 0 0.054893706237382947 0.45624686353390442 0 0.058797824826679383 0.44217556405412961 0 0.047329461275634921 0.44467364492524242 0 0.058797824826679383 0.44217556405412961 0 0.050076516271041843 0.4325818843938577 0 0.054893706237382947 0.45624686353390442 0 0.047329461275634921 0.44467364492524242 0 0.058797824826679383 0.44217556405412961 0 0.058797824826679383 0.44217556405412961 0 0.061983655983073351 0.43101105797747841 0 0.050076516271041843 0.4325818843938577 0 0.061983655983073351 0.43101105797747841 0 0.050076516271041843 0.4325818843938577 0 0.057870939365693347 0.41990492892177339 0 0.050076516271041843 0.4325818843938577 0 0.057870939365693347 0.41990492892177339 0 0.042672009640380551 0.41990454949214789 0 0.06100663466783416 0.4085900571820264 0 0.057870939365693347 0.41990492892177339 0 0.051753945866508277 0.40693339821267971 0 0.06100663466783416 0.4085900571820264 0 0.057870939365693347 0.41990492892177339 0 0.067611513876549068 0.41432347952730197 0 0.057870939365693347 0.41990492892177339 0 0.051753945866508277 0.40693339821267971 0 0.042672009640380551 0.41990454949214789 0 0.051753945866508277 0.40693339821267971 0 0.042672009640380551 0.41990454949214789 0 0.040715590595156892 0.40544617830085111 0 0.042672009640380551 0.41990454949214789 0 0.031485865569270223 0.42547981917751349 0 0.030717263025017129 0.41246882492550141 0 0.042672009640380551 0.41990454949214789 0 0.030717263025017129 0.41246882492550141 0 0.040715590595156892 0.40544617830085111 0 0.042672009640380551 0.41990454949214789 0 0.031485865569270223 0.42547981917751349 0 0.03686034117982831 0.43744721183462332 0 0.050076516271041843 0.4325818843938577 0 0.042672009640380551 0.41990454949214789 0 0.03686034117982831 0.43744721183462332 0 0.0081070481641373152 0.43806399088304138 0 0.023741158708340131 0.43445249594329438 0 0.01558796686584794 0.42844036827717158 0 0.031485865569270223 0.42547981917751349 0 0.03686034117982831 0.43744721183462332 0 0.023741158708340131 0.43445249594329438 0 0.023741158708340131 0.43445249594329438 0 0.02270547891041581 0.42148064254862427 0 0.01558796686584794 0.42844036827717158 0 0.02270547891041581 0.42148064254862427 0 0.01396084567425326 0.42132534962312362 0 0.01558796686584794 0.42844036827717158 0 0.031485865569270223 0.42547981917751349 0 0.023741158708340131 0.43445249594329438 0 0.02270547891041581 0.42148064254862427 0 0.030717263025017129 0.41246882492550141 0 0.018072624356630981 0.41305212753927711 0 0.02270547891041581 0.42148064254862427 0 0.031485865569270223 0.42547981917751349 0 0.030717263025017129 0.41246882492550141 0 0.02270547891041581 0.42148064254862427 0 0.030717263025017129 0.41246882492550141 0 0.018072624356630981 0.41305212753927711 0 0.024580943804057322 0.40314336508996917 0 0.018072624356630981 0.41305212753927711 0 0.010133338091050581 0.40364070436270222 0 0.024580943804057322 0.40314336508996917 0 0.018072624356630981 0.41305212753927711 0 0.02270547891041581 0.42148064254862427 0 0.01396084567425326 0.42132534962312362 0 0.018072624356630981 0.41305212753927711 0 0.01396084567425326 0.42132534962312362 0 0.0062770988424424388 0.41748857372992892 0 -0.0080108279614322531 0.41906629829442488 0 0.0026143882621884069 0.40727375446200598 0 0.010133338091050581 0.40364070436270222 0 -0.0080108279614322531 0.41906629829442488 0 0.0062770988424424388 0.41748857372992892 0 0.010133338091050581 0.40364070436270222 0 0.01396084567425326 0.42132534962312362 0 0.0062770988424424388 0.41748857372992892 0 0.0071610593959291358 0.42616503602061612 0 -0.0080108279614322531 0.41906629829442488 0 0.010133338091050581 0.40364070436270222 0 0.018072624356630981 0.41305212753927711 0 0.0062770988424424388 0.41748857372992892 0 0.010133338091050581 0.40364070436270222 0 -0.00098420035874578326 0.4296376637812146 0 -4.3180604909707702e-05 0.4232689648734036 0 0.0071610593959291358 0.42616503602061612 0 -4.3180604909707702e-05 0.4232689648734036 0 0.0062770988424424388 0.41748857372992892 0 0.0071610593959291358 0.42616503602061612 0 -0.00098420035874578326 0.4296376637812146 0 -0.0059786262913216247 0.43795886887328661 0 0.0081070481641373152 0.43806399088304138 0 -0.00098420035874578326 0.4296376637812146 0 0.0081070481641373152 0.43806399088304138 0 0.0071610593959291358 0.42616503602061612 0 0.0081070481641373152 0.43806399088304138 0 0.0071610593959291358 0.42616503602061612 0 0.01558796686584794 0.42844036827717158 0 0.01396084567425326 0.42132534962312362 0 0.0071610593959291358 0.42616503602061612 0 0.01558796686584794 0.42844036827717158 0 0.0109255826322065 0.38733252175668009 0 0.012997981448710181 0.38635364521301607 0 0.00133922831620685 0.38493328910147551 0 0.0109255826322065 0.38733252175668009 0 0.012997981448710181 0.38635364521301607 0 0.012997981448710181 0.38635364521301607 0 0.01343807821723361 0.3921569246163577 0 0.01988127745101698 0.3922530126758208 0 0.0109255826322065 0.38733252175668009 0 0.012997981448710181 0.38635364521301607 0 0.01343807821723361 0.3921569246163577 0 0.0086894435353581326 0.37946230484837462 0 0.01793543768698494 0.37747446163999682 0 0.010632814435522379 0.37194707726848952 0 0.012997981448710181 0.38635364521301607 0 0.0086894435353581326 0.37946230484837462 0 0.01793543768698494 0.37747446163999682 0 0.0086894435353581326 0.37946230484837462 0 0.001197760358732865 0.37500202874546518 0 0.00133922831620685 0.38493328910147551 0 0.0086894435353581326 0.37946230484837462 0 0.001197760358732865 0.37500202874546518 0 0.010632814435522379 0.37194707726848952 0 0.012997981448710181 0.38635364521301607 0 0.00133922831620685 0.38493328910147551 0 0.0109255826322065 0.38733252175668009 0 0.00133922831620685 0.38493328910147551 0 0.0057219327324518898 0.39328421244850481 0 0.012997981448710181 0.38635364521301607 0 0.0086894435353581326 0.37946230484837462 0 0.00133922831620685 0.38493328910147551 0 -0.0029102898792297718 0.39200733442648922 0 0.00133922831620685 0.38493328910147551 0 0.0057219327324518898 0.39328421244850481 0 0.0026143882621884069 0.40727375446200598 0 0.01988127745101698 0.3922530126758208 0 0.0026143882621884069 0.40727375446200598 0 0.0057219327324518898 0.39328421244850481 0 0.01343807821723361 0.3921569246163577 0 0.0026143882621884069 0.40727375446200598 0 0.010133338091050581 0.40364070436270222 0 0.01988127745101698 0.3922530126758208 0 0.0026143882621884069 0.40727375446200598 0 0.01343807821723361 0.3921569246163577 0 0.01988127745101698 0.3922530126758208 0 -0.0029102898792297718 0.39200733442648922 0 0.001240191978069999 0.39807366433780061 0 0.0057219327324518898 0.39328421244850481 0 0.0026143882621884069 0.40727375446200598 0 0.001240191978069999 0.39807366433780061 0 0.0057219327324518898 0.39328421244850481 0 0.0109255826322065 0.38733252175668009 0 0.0057219327324518898 0.39328421244850481 0 0.01343807821723361 0.3921569246163577 0 0.010133338091050581 0.40364070436270222 0 0.01988127745101698 0.3922530126758208 0 0.02827750414353453 0.38821511043098073 0 0.010133338091050581 0.40364070436270222 0 0.02827750414353453 0.38821511043098073 0 0.010133338091050581 0.40364070436270222 0 0.024580943804057322 0.40314336508996917 0 0.02827750414353453 0.38821511043098073 0 0.030717263025017129 0.41246882492550141 0 0.024580943804057322 0.40314336508996917 0 0.034864209267269783 0.39784589875691101 0 0.024580943804057322 0.40314336508996917 0 0.02827750414353453 0.38821511043098073 0 0.034864209267269783 0.39784589875691101 0 0.012997981448710181 0.38635364521301607 0 0.02827750414353453 0.38821511043098073 0 0.027929567807377358 0.37930086196985457 0 0.012997981448710181 0.38635364521301607 0 0.01988127745101698 0.3922530126758208 0 0.02827750414353453 0.38821511043098073 0 0.012997981448710181 0.38635364521301607 0 0.02827750414353453 0.38821511043098073 0 0.012997981448710181 0.38635364521301607 0 0.027929567807377358 0.37930086196985457 0 0.01793543768698494 0.37747446163999682 0 0.027929567807377358 0.37930086196985457 0 0.021158674940967369 0.37106670977657652 0 0.012997981448710181 0.38635364521301607 0 0.01793543768698494 0.37747446163999682 0 0.027929567807377358 0.37930086196985457 0 0.02827750414353453 0.38821511043098073 0 0.043570525176608713 0.39007822011701521 0 0.044576097502232043 0.37435856380975002 0 0.027929567807377358 0.37930086196985457 0 0.042861154166044663 0.37224807872669352 0 0.027929567807377358 0.37930086196985457 0 0.042861154166044663 0.37224807872669352 0 0.044576097502232043 0.37435856380975002 0 0.02827750414353453 0.38821511043098073 0 0.044576097502232043 0.37435856380975002 0 0.02827750414353453 0.38821511043098073 0 0.027929567807377358 0.37930086196985457 0 0.044576097502232043 0.37435856380975002 0 0.02827750414353453 0.38821511043098073 0 0.043570525176608713 0.39007822011701521 0 0.051753945866508277 0.40693339821267971 0 0.043570525176608713 0.39007822011701521 0 0.040715590595156892 0.40544617830085111 0 0.030717263025017129 0.41246882492550141 0 0.034864209267269783 0.39784589875691101 0 0.040715590595156892 0.40544617830085111 0 0.02827750414353453 0.38821511043098073 0 0.043570525176608713 0.39007822011701521 0 0.034864209267269783 0.39784589875691101 0 0.043570525176608713 0.39007822011701521 0 0.034864209267269783 0.39784589875691101 0 0.040715590595156892 0.40544617830085111 0 0.06100663466783416 0.4085900571820264 0 0.051753945866508277 0.40693339821267971 0 0.058863546209682732 0.3919413298030513 0 0.051753945866508277 0.40693339821267971 0 0.043570525176608713 0.39007822011701521 0 0.058863546209682732 0.3919413298030513 0 0.043570525176608713 0.39007822011701521 0 0.058863546209682732 0.3919413298030513 0 0.058863546209682732 0.3919413298030513 0 0.044576097502232043 0.37435856380975002 0 0.043570525176608713 0.39007822011701521 0 0.058863546209682732 0.3919413298030513 0 0.044576097502232043 0.37435856380975002 0 0.058863546209682732 0.3919413298030513 0 0.054269256374633881 0.37897820218126038 0 0.044576097502232043 0.37435856380975002 0 0.058863546209682732 0.3919413298030513 0 0.054269256374633881 0.37897820218126038 0 0.062196876961561537 0.38109025247522199 0 0.054269256374633881 0.37897820218126038 0 0.062196876961561537 0.38109025247522199 0 0.052305852959259463 0.36778697112663988 0 0.062196876961561537 0.38109025247522199 0 0.077870414299151369 0.38215030148675522 0 0.071067641496818421 0.37464353941489181 0 0.062196876961561537 0.38109025247522199 0 0.077870414299151369 0.38215030148675522 0 0.072953249098064055 0.39365784231342299 0 0.062196876961561537 0.38109025247522199 0 0.072953249098064055 0.39365784231342299 0 0.058863546209682732 0.3919413298030513 0 0.062196876961561537 0.38109025247522199 0 0.072953249098064055 0.39365784231342299 0 0.077870414299151369 0.38215030148675522 0 0.079083868047293823 0.36990792026461472 0 0.071067641496818421 0.37464353941489181 0 0.077870414299151369 0.38215030148675522 0 0.089318488342665495 0.3741457566562113 0 0.079083868047293823 0.36990792026461472 0 0.077870414299151369 0.38215030148675522 0 0.088322213028552032 0.38577265361853291 0 0.089318488342665495 0.3741457566562113 0 0.077870414299151369 0.38215030148675522 0 0.088322213028552032 0.38577265361853291 0 0.072953249098064055 0.39365784231342299 0 0.072953249098064055 0.39365784231342299 0 0.086711519865529843 0.40973280715233018 0 0.099667691753355034 0.39691239461936678 0 0.076654989741760479 0.40581067451577441 0 0.072953249098064055 0.39365784231342299 0 0.086711519865529843 0.40973280715233018 0 0.088322213028552032 0.38577265361853291 0 0.072953249098064055 0.39365784231342299 0 0.099667691753355034 0.39691239461936678 0 0.072953249098064055 0.39365784231342299 0 0.086711519865529843 0.40973280715233018 0 0.072953249098064055 0.39365784231342299 0 0.099667691753355034 0.39691239461936678 0 0.06100663466783416 0.4085900571820264 0 0.058863546209682732 0.3919413298030513 0 0.068606245404375862 0.40393112613346638 0 0.076654989741760479 0.40581067451577441 0 0.072953249098064055 0.39365784231342299 0 0.068606245404375862 0.40393112613346638 0 0.058863546209682732 0.3919413298030513 0 0.072953249098064055 0.39365784231342299 0 0.068606245404375862 0.40393112613346638 0 0.058863546209682732 0.3919413298030513 0 0.068606245404375862 0.40393112613346638 0 0.058863546209682732 0.3919413298030513 0 0.072953249098064055 0.39365784231342299 0 0.06100663466783416 0.4085900571820264 0 0.068606245404375862 0.40393112613346638 0 0.067611513876549068 0.41432347952730197 0 0.057870939365693347 0.41990492892177339 0 0.067611513876549068 0.41432347952730197 0 0.070327247044834312 0.42405538238568041 0 0.067611513876549068 0.41432347952730197 0 0.070327247044834312 0.42405538238568041 0 0.078348944599072032 0.41592092246387907 0 0.070327247044834312 0.42405538238568041 0 0.083343154250839727 0.42549026987483418 0 0.078348944599072032 0.41592092246387907 0 0.076654989741760479 0.40581067451577441 0 0.068606245404375862 0.40393112613346638 0 0.078348944599072032 0.41592092246387907 0 0.068606245404375862 0.40393112613346638 0 0.078348944599072032 0.41592092246387907 0 0.068606245404375862 0.40393112613346638 0 0.067611513876549068 0.41432347952730197 0 0.078348944599072032 0.41592092246387907 0 0.058797824826679383 0.44217556405412961 0 0.061983655983073351 0.43101105797747841 0 0.072845752407117936 0.43633753013195098 0 0.061983655983073351 0.43101105797747841 0 0.070327247044834312 0.42405538238568041 0 0.072845752407117936 0.43633753013195098 0 0.061983655983073351 0.43101105797747841 0 0.057870939365693347 0.41990492892177339 0 0.070327247044834312 0.42405538238568041 0 0.070327247044834312 0.42405538238568041 0 0.072845752407117936 0.43633753013195098 0 0.083343154250839727 0.42549026987483418 0 0.08945811265455185 0.44187222457424408 0 0.083343154250839727 0.42549026987483418 0 0.1004697906329967 0.42580777199123632 0 0.08945811265455185 0.44187222457424408 0 0.072845752407117936 0.43633753013195098 0 0.083343154250839727 0.42549026987483418 0 0.083343154250839727 0.42549026987483418 0 0.086711519865529843 0.40973280715233018 0 0.1004697906329967 0.42580777199123632 0 0.083343154250839727 0.42549026987483418 0 0.078348944599072032 0.41592092246387907 0 0.086711519865529843 0.40973280715233018 0 0.086711519865529843 0.40973280715233018 0 0.1004697906329967 0.42580777199123632 0 0.076654989741760479 0.40581067451577441 0 0.078348944599072032 0.41592092246387907 0 0.086711519865529843 0.40973280715233018 0 0.086711519865529843 0.40973280715233018 0 0.10333191303229521 0.41083363454743083 0 0.1004697906329967 0.42580777199123632 0 0.10333191303229521 0.41083363454743083 0 0.1004697906329967 0.42580777199123632 0 0.1145213144975494 0.42032829983149311 0 0.1142280614004636 0.44188273683014229 0 0.1004697906329967 0.42580777199123632 0 0.1142280614004636 0.44188273683014229 0 0.08945811265455185 0.44187222457424408 0 0.1004697906329967 0.42580777199123632 0 0.1142280614004636 0.44188273683014229 0 0.1004697906329967 0.42580777199123632 0 0.1145213144975494 0.42032829983149311 0 0.1142280614004636 0.44188273683014229 0 0.1145213144975494 0.42032829983149311 0 0.12819467301334569 0.42295040886334478 0 0.1145213144975494 0.42032829983149311 0 0.12638213440864571 0.40016694692531168 0 0.12819467301334569 0.42295040886334478 0 0.10333191303229521 0.41083363454743083 0 0.1145213144975494 0.42032829983149311 0 0.12638213440864571 0.40016694692531168 0 0.099667691753355034 0.39691239461936678 0 0.12638213440864571 0.40016694692531168 0 0.1047993275352218 0.38255048016428028 0 0.099667691753355034 0.39691239461936678 0 0.12638213440864571 0.40016694692531168 0 0.10333191303229521 0.41083363454743083 0 0.099667691753355034 0.39691239461936678 0 0.12638213440864571 0.40016694692531168 0 0.1204359294245167 0.37540768903004512 0 0.1047993275352218 0.38255048016428028 0 0.12638213440864571 0.40016694692531168 0 0.088322213028552032 0.38577265361853291 0 0.1047993275352218 0.38255048016428028 0 0.099667691753355034 0.39691239461936678 0 0.088322213028552032 0.38577265361853291 0 0.1047993275352218 0.38255048016428028 0 0.089318488342665495 0.3741457566562113 0 0.086711519865529843 0.40973280715233018 0 0.10333191303229521 0.41083363454743083 0 0.099667691753355034 0.39691239461936678 0 0.104669508253596 0.36289744013621422 0 0.11142250153455339 0.34683721705813692 0 0.093574654458364714 0.34829407166593901 0 0.11142250153455339 0.34683721705813692 0 0.10269876148739999 0.33644090466007698 0 0.093574654458364714 0.34829407166593901 0 0.104669508253596 0.36289744013621422 0 0.086172740779867835 0.35933930743304782 0 0.093574654458364714 0.34829407166593901 0 0.1047993275352218 0.38255048016428028 0 0.104669508253596 0.36289744013621422 0 0.089318488342665495 0.3741457566562113 0 0.1204359294245167 0.37540768903004512 0 0.104669508253596 0.36289744013621422 0 0.12996102158567971 0.3542610660932104 0 0.1204359294245167 0.37540768903004512 0 0.1047993275352218 0.38255048016428028 0 0.104669508253596 0.36289744013621422 0 0.104669508253596 0.36289744013621422 0 0.11142250153455339 0.34683721705813692 0 0.12996102158567971 0.3542610660932104 0 0.11142250153455339 0.34683721705813692 0 0.11907224257712271 0.33064618458380363 0 0.12996102158567971 0.3542610660932104 0 0.11142250153455339 0.34683721705813692 0 0.11907224257712271 0.33064618458380363 0 0.10269876148739999 0.33644090466007698 0 0.11907224257712271 0.33064618458380363 0 0.12996102158567971 0.3542610660932104 0 0.11907224257712271 0.33064618458380363 0 0.1081834635685644 0.30703130307439719 0 0.1183379224466953 0.31175409948093541 0 0.11907224257712271 0.33064618458380363 0 0.1013300828232622 0.32293854669553268 0 0.1081834635685644 0.30703130307439719 0 0.11907224257712271 0.33064618458380363 0 0.1183379224466953 0.31175409948093541 0 0.12597518363583121 0.31900508238158909 0 0.11907224257712271 0.33064618458380363 0 0.1081834635685644 0.30703130307439719 0 0.1183379224466953 0.31175409948093541 0 0.13043956581236379 0.31033170467451499 0 0.12597518363583121 0.31900508238158909 0 0.1013300828232622 0.32293854669553268 0 0.1081834635685644 0.30703130307439719 0 0.1013300828232622 0.32293854669553268 0 0.10180294175864681 0.30842278876719109 0 0.1081834635685644 0.30703130307439719 0 0.1013300828232622 0.32293854669553268 0 0.086265450171863739 0.31848140993652979 0 0.094638021884004789 0.30897529007660268 0 0.1013300828232622 0.32293854669553268 0 0.094638021884004789 0.30897529007660268 0 0.10180294175864681 0.30842278876719109 0 0.11907224257712271 0.33064618458380363 0 0.1013300828232622 0.32293854669553268 0 0.10269876148739999 0.33644090466007698 0 0.1013300828232622 0.32293854669553268 0 0.10269876148739999 0.33644090466007698 0 0.087368599908608929 0.33342815106619622 0 0.10269876148739999 0.33644090466007698 0 0.087368599908608929 0.33342815106619622 0 0.093574654458364714 0.34829407166593901 0 0.087368599908608929 0.33342815106619622 0 0.077882364453050482 0.34604263306491528 0 0.093574654458364714 0.34829407166593901 0 0.087368599908608929 0.33342815106619622 0 0.077088617920808733 0.32537627805682268 0 0.072345886820984848 0.33588196610918097 0 0.087368599908608929 0.33342815106619622 0 0.072345886820984848 0.33588196610918097 0 0.077882364453050482 0.34604263306491528 0 0.1013300828232622 0.32293854669553268 0 0.087368599908608929 0.33342815106619622 0 0.086265450171863739 0.31848140993652979 0 0.087368599908608929 0.33342815106619622 0 0.086265450171863739 0.31848140993652979 0 0.077088617920808733 0.32537627805682268 0 0.086265450171863739 0.31848140993652979 0 0.073163807812237427 0.31438511763794702 0 0.077088617920808733 0.32537627805682268 0 0.086265450171863739 0.31848140993652979 0 0.073163807812237427 0.31438511763794702 0 0.083391069067221074 0.30586035920219362 0 0.068658319864983094 0.3234869046366029 0 0.059263156683519232 0.32909955513903161 0 0.061430130087365177 0.31269160624003212 0 0.073163807812237427 0.31438511763794702 0 0.077088617920808733 0.32537627805682268 0 0.068658319864983094 0.3234869046366029 0 0.073163807812237427 0.31438511763794702 0 0.068658319864983094 0.3234869046366029 0 0.061430130087365177 0.31269160624003212 0 0.072345886820984848 0.33588196610918097 0 0.068192550206132505 0.34598918877585638 0 0.077882364453050482 0.34604263306491528 0 0.077088617920808733 0.32537627805682268 0 0.068658319864983094 0.3234869046366029 0 0.072345886820984848 0.33588196610918097 0 0.068658319864983094 0.3234869046366029 0 0.072345886820984848 0.33588196610918097 0 0.059263156683519232 0.32909955513903161 0 0.072345886820984848 0.33588196610918097 0 0.062919275266296246 0.34163520615386439 0 0.059263156683519232 0.32909955513903161 0 0.072345886820984848 0.33588196610918097 0 0.062919275266296246 0.34163520615386439 0 0.068192550206132505 0.34598918877585638 0 0.068192550206132505 0.34598918877585638 0 0.062721115784175968 0.34947133645554368 0 0.065094108706155049 0.35691480209577781 0 0.062919275266296246 0.34163520615386439 0 0.068192550206132505 0.34598918877585638 0 0.062721115784175968 0.34947133645554368 0 0.065094108706155049 0.35691480209577781 0 0.072940253708812089 0.35804052139628928 0 0.077882364453050482 0.34604263306491528 0 0.065094108706155049 0.35691480209577781 0 0.077882364453050482 0.34604263306491528 0 0.068192550206132505 0.34598918877585638 0 0.065094108706155049 0.35691480209577781 0 0.077882364453050482 0.34604263306491528 0 0.072940253708812089 0.35804052139628928 0 0.093574654458364714 0.34829407166593901 0 0.072940253708812089 0.35804052139628928 0 0.086172740779867835 0.35933930743304782 0 0.093574654458364714 0.34829407166593901 0 0.072940253708812089 0.35804052139628928 0 0.077882364453050482 0.34604263306491528 0 0.093574654458364714 0.34829407166593901 0 0.104669508253596 0.36289744013621422 0 0.086172740779867835 0.35933930743304782 0 0.089318488342665495 0.3741457566562113 0 0.086172740779867835 0.35933930743304782 0 0.079083868047293823 0.36990792026461472 0 0.078036907781005166 0.36323621359594283 0 0.072940253708812089 0.35804052139628928 0 0.086172740779867835 0.35933930743304782 0 0.078036907781005166 0.36323621359594283 0 0.086172740779867835 0.35933930743304782 0 0.089318488342665495 0.3741457566562113 0 0.079083868047293823 0.36990792026461472 0 0.079083868047293823 0.36990792026461472 0 0.071067641496818421 0.37464353941489181 0 0.073351750966430512 0.3667291120310161 0 0.072940253708812089 0.35804052139628928 0 0.052305852959259463 0.36778697112663988 0 0.072940253708812089 0.35804052139628928 0 0.065255697784712713 0.36848736969658941 0 0.052305852959259463 0.36778697112663988 0 0.065094108706155049 0.35691480209577781 0 0.072940253708812089 0.35804052139628928 0 0.052305852959259463 0.36778697112663988 0 0.072940253708812089 0.35804052139628928 0 0.073351750966430512 0.3667291120310161 0 0.065255697784712713 0.36848736969658941 0 0.072940253708812089 0.35804052139628928 0 0.078036907781005166 0.36323621359594283 0 0.073351750966430512 0.3667291120310161 0 0.079083868047293823 0.36990792026461472 0 0.078036907781005166 0.36323621359594283 0 0.073351750966430512 0.3667291120310161 0 0.062196876961561537 0.38109025247522199 0 0.071067641496818421 0.37464353941489181 0 0.065255697784712713 0.36848736969658941 0 0.071067641496818421 0.37464353941489181 0 0.073351750966430512 0.3667291120310161 0 0.065255697784712713 0.36848736969658941 0 0.062196876961561537 0.38109025247522199 0 0.052305852959259463 0.36778697112663988 0 0.062196876961561537 0.38109025247522199 0 0.065255697784712713 0.36848736969658941 0 0.052305852959259463 0.36778697112663988 0 0.065094108706155049 0.35691480209577781 0 0.052305852959259463 0.36778697112663988 0 0.065094108706155049 0.35691480209577781 0 0.055142329785785787 0.35960010945056647 0 0.052305852959259463 0.36778697112663988 0 0.055142329785785787 0.35960010945056647 0 0.051939234451670119 0.36420316662076507 0 0.052305852959259463 0.36778697112663988 0 0.050369554599703617 0.36509274271116682 0 0.050608919596797412 0.36755105046781572 0 0.052305852959259463 0.36778697112663988 0 0.051939234451670119 0.36420316662076507 0 0.050369554599703617 0.36509274271116682 0 0.052305852959259463 0.36778697112663988 0 0.055142329785785787 0.35960010945056647 0 0.051939234451670119 0.36420316662076507 0 0.051935029264510352 0.35972270397674888 0 0.051939234451670119 0.36420316662076507 0 0.051935029264510352 0.35972270397674888 0 0.049786803641503681 0.36208534060043379 0 0.049786803641503681 0.36208534060043379 0 0.048205334781730592 0.36465771337483932 0 0.046023787046171952 0.36059304366449491 0 0.051935029264510352 0.35972270397674888 0 0.049786803641503681 0.36208534060043379 0 0.049519800613927578 0.35845436478658421 0 0.049786803641503681 0.36208534060043379 0 0.049519800613927578 0.35845436478658421 0 0.046023787046171952 0.36059304366449491 0 0.048205334781730592 0.36465771337483932 0 0.050608919596797412 0.36755105046781572 0 0.044784898210084911 0.36544712811085789 0 0.050369554599703617 0.36509274271116682 0 0.048205334781730592 0.36465771337483932 0 0.050608919596797412 0.36755105046781572 0 0.049786803641503681 0.36208534060043379 0 0.050369554599703617 0.36509274271116682 0 0.048205334781730592 0.36465771337483932 0 0.051939234451670119 0.36420316662076507 0 0.049786803641503681 0.36208534060043379 0 0.050369554599703617 0.36509274271116682 0 0.052305852959259463 0.36778697112663988 0 0.044576097502232043 0.37435856380975002 0 0.054269256374633881 0.37897820218126038 0 0.052305852959259463 0.36778697112663988 0 0.044576097502232043 0.37435856380975002 0 0.050608919596797412 0.36755105046781572 0 0.052305852959259463 0.36778697112663988 0 0.042861154166044663 0.37224807872669352 0 0.052305852959259463 0.36778697112663988 0 0.042861154166044663 0.37224807872669352 0 0.050608919596797412 0.36755105046781572 0 0.052305852959259463 0.36778697112663988 0 0.057901649290293511 0.34709503685700638 0 0.050645149518991531 0.35040035997406699 0 0.055580797329460703 0.33976371120237309 0 0.062919275266296246 0.34163520615386439 0 0.062721115784175968 0.34947133645554368 0 0.057901649290293511 0.34709503685700638 0 0.062721115784175968 0.34947133645554368 0 0.057901649290293511 0.34709503685700638 0 0.057422590322323858 0.35309386451785069 0 0.057901649290293511 0.34709503685700638 0 0.057422590322323858 0.35309386451785069 0 0.050645149518991531 0.35040035997406699 0 0.065094108706155049 0.35691480209577781 0 0.055142329785785787 0.35960010945056647 0 0.057422590322323858 0.35309386451785069 0 0.062721115784175968 0.34947133645554368 0 0.065094108706155049 0.35691480209577781 0 0.057422590322323858 0.35309386451785069 0 0.055142329785785787 0.35960010945056647 0 0.057422590322323858 0.35309386451785069 0 0.052157163010795683 0.35587914836561663 0 0.055142329785785787 0.35960010945056647 0 0.051935029264510352 0.35972270397674888 0 0.052157163010795683 0.35587914836561663 0 0.051935029264510352 0.35972270397674888 0 0.052157163010795683 0.35587914836561663 0 0.049519800613927578 0.35845436478658421 0 0.052157163010795683 0.35587914836561663 0 0.049519800613927578 0.35845436478658421 0 0.047609116130362117 0.35535524220402248 0 0.049519800613927578 0.35845436478658421 0 0.047609116130362117 0.35535524220402248 0 0.046023787046171952 0.36059304366449491 0 0.052157163010795683 0.35587914836561663 0 0.047609116130362117 0.35535524220402248 0 0.050645149518991531 0.35040035997406699 0 0.057422590322323858 0.35309386451785069 0 0.052157163010795683 0.35587914836561663 0 0.050645149518991531 0.35040035997406699 0 0.047609116130362117 0.35535524220402248 0 0.036026776743675902 0.34485074482030009 0 0.020491453821794871 0.34253700084849131 0 0.047609116130362117 0.35535524220402248 0 0.020491453821794871 0.34253700084849131 0 0.047609116130362117 0.35535524220402248 0 0.037987724378890857 0.35846888185310788 0 0.020491453821794871 0.34253700084849131 0 0.047609116130362117 0.35535524220402248 0 0.050645149518991531 0.35040035997406699 0 0.036026776743675902 0.34485074482030009 0 0.047609116130362117 0.35535524220402248 0 0.037987724378890857 0.35846888185310788 0 0.046023787046171952 0.36059304366449491 0 0.037987724378890857 0.35846888185310788 0 0.042861154166044663 0.37224807872669352 0 0.02703715135849229 0.35277436133041862 0 0.042861154166044663 0.37224807872669352 0 0.028535261899012631 0.36688748892225997 0 0.02703715135849229 0.35277436133041862 0 0.042861154166044663 0.37224807872669352 0 0.02703715135849229 0.35277436133041862 0 0.052305852959259463 0.36778697112663988 0 0.042861154166044663 0.37224807872669352 0 0.044576097502232043 0.37435856380975002 0 0.042861154166044663 0.37224807872669352 0 0.044576097502232043 0.37435856380975002 0 0.050608919596797412 0.36755105046781572 0 0.042861154166044663 0.37224807872669352 0 0.044784898210084911 0.36544712811085789 0 0.037987724378890857 0.35846888185310788 0 0.042861154166044663 0.37224807872669352 0 0.044784898210084911 0.36544712811085789 0 0.048205334781730592 0.36465771337483932 0 0.044784898210084911 0.36544712811085789 0 0.046023787046171952 0.36059304366449491 0 0.037987724378890857 0.35846888185310788 0 0.044784898210084911 0.36544712811085789 0 0.046023787046171952 0.36059304366449491 0 0.027929567807377358 0.37930086196985457 0 0.042861154166044663 0.37224807872669352 0 0.028535261899012631 0.36688748892225997 0 0.027929567807377358 0.37930086196985457 0 0.021158674940967369 0.37106670977657652 0 0.028535261899012631 0.36688748892225997 0 0.01793543768698494 0.37747446163999682 0 0.021158674940967369 0.37106670977657652 0 0.010632814435522379 0.37194707726848952 0 0.021158674940967369 0.37106670977657652 0 0.017782541298082901 0.36220955773823083 0 0.010632814435522379 0.37194707726848952 0 0.021158674940967369 0.37106670977657652 0 0.017782541298082901 0.36220955773823083 0 0.028535261899012631 0.36688748892225997 0 0.017782541298082901 0.36220955773823083 0 0.028535261899012631 0.36688748892225997 0 0.02703715135849229 0.35277436133041862 0 0.037987724378890857 0.35846888185310788 0 0.02703715135849229 0.35277436133041862 0 0.020491453821794871 0.34253700084849131 0 0.02703715135849229 0.35277436133041862 0 0.013806318015007601 0.35238522849492621 0 0.020491453821794871 0.34253700084849131 0 0.017782541298082901 0.36220955773823083 0 0.02703715135849229 0.35277436133041862 0 0.013806318015007601 0.35238522849492621 0 0.013806318015007601 0.35238522849492621 0 0.0036444436723072518 0.34668746978030668 0 0.020491453821794871 0.34253700084849131 0 0.017782541298082901 0.36220955773823083 0 0.013806318015007601 0.35238522849492621 0 0.0022877633247238771 0.36110461381561082 0 0.013806318015007601 0.35238522849492621 0 0.0036444436723072518 0.34668746978030668 0 0.0022877633247238771 0.36110461381561082 0 0.001197760358732865 0.37500202874546518 0 0.0022877633247238771 0.36110461381561082 0 0.010632814435522379 0.37194707726848952 0 0.017782541298082901 0.36220955773823083 0 0.0022877633247238771 0.36110461381561082 0 0.010632814435522379 0.37194707726848952 0 0.0038053809788464871 0.31345323254814578 0 0.01065466620799253 0.32885211847838458 0 0.027225265248919009 0.33192679626110638 0 -0.0066262084867721206 0.3297187594929602 0 0.0038053809788464871 0.31345323254814578 0 0.01065466620799253 0.32885211847838458 0 0.0038053809788464871 0.31345323254814578 0 0.027225265248919009 0.33192679626110638 0 -0.0066262084867721206 0.3297187594929602 0 0.020491453821794871 0.34253700084849131 0 -0.0066262084867721206 0.3297187594929602 0 0.0036444436723072518 0.34668746978030668 0 0.020491453821794871 0.34253700084849131 0 -0.0066262084867721206 0.3297187594929602 0 0.01065466620799253 0.32885211847838458 0 0.020491453821794871 0.34253700084849131 0 0.01065466620799253 0.32885211847838458 0 0.020491453821794871 0.34253700084849131 0 0.027225265248919009 0.33192679626110638 0 0.036026776743675902 0.34485074482030009 0 0.020491453821794871 0.34253700084849131 0 0.027225265248919009 0.33192679626110638 0 0.0038053809788464871 0.31345323254814578 0 0.027225265248919009 0.33192679626110638 0 0.02251955873995283 0.31350821133664858 0 0.027225265248919009 0.33192679626110638 0 0.02251955873995283 0.31350821133664858 0 0.035044894106255907 0.31778021534845619 0 0.027225265248919009 0.33192679626110638 0 0.035044894106255907 0.31778021534845619 0 0.036914922726896893 0.32831348929229892 0 0.035044894106255907 0.31778021534845619 0 0.036914922726896893 0.32831348929229892 0 0.047869488898663923 0.32021143325928941 0 0.036914922726896893 0.32831348929229892 0 0.046874174886637893 0.3310989418067139 0 0.047869488898663923 0.32021143325928941 0 0.035044894106255907 0.31778021534845619 0 0.047869488898663923 0.32021143325928941 0 0.046694939647250591 0.30640467746308347 0 0.050645149518991531 0.35040035997406699 0 0.036026776743675902 0.34485074482030009 0 0.027225265248919009 0.33192679626110638 0 0.050645149518991531 0.35040035997406699 0 0.036914922726896893 0.32831348929229892 0 0.046874174886637893 0.3310989418067139 0 0.050645149518991531 0.35040035997406699 0 0.027225265248919009 0.33192679626110638 0 0.036914922726896893 0.32831348929229892 0 0.050645149518991531 0.35040035997406699 0 0.027225265248919009 0.33192679626110638 0 0.050645149518991531 0.35040035997406699 0 0.046874174886637893 0.3310989418067139 0 0.055580797329460703 0.33976371120237309 0 0.046874174886637893 0.3310989418067139 0 0.059263156683519232 0.32909955513903161 0 0.055580797329460703 0.33976371120237309 0 0.062919275266296246 0.34163520615386439 0 0.059263156683519232 0.32909955513903161 0 0.055580797329460703 0.33976371120237309 0 0.062919275266296246 0.34163520615386439 0 0.057901649290293511 0.34709503685700638 0 0.055580797329460703 0.33976371120237309 0 0.059263156683519232 0.32909955513903161 0 0.047869488898663923 0.32021143325928941 0 0.061430130087365177 0.31269160624003212 0 0.047869488898663923 0.32021143325928941 0 0.061430130087365177 0.31269160624003212 0 0.046694939647250591 0.30640467746308347 0 0.046874174886637893 0.3310989418067139 0 0.059263156683519232 0.32909955513903161 0 0.047869488898663923 0.32021143325928941 0 0.061430130087365177 0.31269160624003212 0 0.046694939647250591 0.30640467746308347 0 0.062833369092125224 0.29287044571717868 0 0.045193229509256867 0.28953861222808752 0 0.056908910806083741 0.27063951466711422 0 0.062833369092125224 0.29287044571717868 0 0.045193229509256867 0.28953861222808752 0 0.046694939647250591 0.30640467746308347 0 0.062833369092125224 0.29287044571717868 0 0.045193229509256867 0.28953861222808752 0 0.02422007193424849 0.2891054562852361 0 0.032310504440292993 0.27657205131120621 0 0.045193229509256867 0.28953861222808752 0 0.031435615793574907 0.30348036937589429 0 0.02422007193424849 0.2891054562852361 0 0.045193229509256867 0.28953861222808752 0 0.046694939647250591 0.30640467746308347 0 0.031435615793574907 0.30348036937589429 0 0.035044894106255907 0.31778021534845619 0 0.046694939647250591 0.30640467746308347 0 0.031435615793574907 0.30348036937589429 0 0.02251955873995283 0.31350821133664858 0 0.035044894106255907 0.31778021534845619 0 0.031435615793574907 0.30348036937589429 0 0.02251955873995283 0.31350821133664858 0 0.031435615793574907 0.30348036937589429 0 0.01486905351163839 0.30067746687814628 0 0.031435615793574907 0.30348036937589429 0 0.02422007193424849 0.2891054562852361 0 0.01486905351163839 0.30067746687814628 0 0.02422007193424849 0.2891054562852361 0 0.0075249839945088944 0.28473317555532918 0 0.01486905351163839 0.30067746687814628 0 -0.00050940936906082146 0.29530896721452587 0 0.0075249839945088944 0.28473317555532918 0 0.01486905351163839 0.30067746687814628 0 -0.00050940936906082146 0.29530896721452587 0 -0.00681572830648643 0.28311170123395701 0 0.0075249839945088944 0.28473317555532918 0 0.0038053809788464871 0.31345323254814578 0 0.02251955873995283 0.31350821133664858 0 0.01486905351163839 0.30067746687814628 0 -0.00050940936906082146 0.29530896721452587 0 0.0038053809788464871 0.31345323254814578 0 0.01486905351163839 0.30067746687814628 0 0.0093766357309573133 0.25077498028374479 0 5.2964489892887497e-05 0.2684529483346153 0 0.016573687272114539 0.26963223381405449 0 0.0075249839945088944 0.28473317555532918 0 5.2964489892887497e-05 0.2684529483346153 0 0.016573687272114539 0.26963223381405449 0 -0.00681572830648643 0.28311170123395701 0 0.0075249839945088944 0.28473317555532918 0 5.2964489892887497e-05 0.2684529483346153 0 0.02422007193424849 0.2891054562852361 0 0.0075249839945088944 0.28473317555532918 0 0.016573687272114539 0.26963223381405449 0 0.016573687272114539 0.26963223381405449 0 0.025619747750374639 0.25369771249902812 0 0.032310504440292993 0.27657205131120621 0 0.02422007193424849 0.2891054562852361 0 0.016573687272114539 0.26963223381405449 0 0.032310504440292993 0.27657205131120621 0 0.0093766357309573133 0.25077498028374479 0 0.016573687272114539 0.26963223381405449 0 0.025619747750374639 0.25369771249902812 0 0.025619747750374639 0.25369771249902812 0 0.041964028151291383 0.26137236922374518 0 0.032310504440292993 0.27657205131120621 0 0.039638217212598192 0.2469418664937949 0 0.025619747750374639 0.25369771249902812 0 0.041964028151291383 0.26137236922374518 0 0.054941410009535653 0.24195913327848501 0 0.039638217212598192 0.2469418664937949 0 0.041964028151291383 0.26137236922374518 0 0.041964028151291383 0.26137236922374518 0 0.032310504440292993 0.27657205131120621 0 0.056908910806083741 0.27063951466711422 0 0.045193229509256867 0.28953861222808752 0 0.032310504440292993 0.27657205131120621 0 0.056908910806083741 0.27063951466711422 0 0.054941410009535653 0.24195913327848501 0 0.056908910806083741 0.27063951466711422 0 0.073110705878909776 0.25296269123706461 0 0.054941410009535653 0.24195913327848501 0 0.041964028151291383 0.26137236922374518 0 0.056908910806083741 0.27063951466711422 0 0.073110705878909776 0.25296269123706461 0 0.076731372971609813 0.27643137050329408 0 0.095242938757805345 0.26332173925879238 0 0.091270759852565567 0.24070087989023611 0 0.073110705878909776 0.25296269123706461 0 0.095242938757805345 0.26332173925879238 0 0.076731372971609813 0.27643137050329408 0 0.096553835137135821 0.28222322633947411 0 0.095242938757805345 0.26332173925879238 0 0.076731372971609813 0.27643137050329408 0 0.096553835137135821 0.28222322633947411 0 0.056908910806083741 0.27063951466711422 0 0.076731372971609813 0.27643137050329408 0 0.062833369092125224 0.29287044571717868 0 0.056908910806083741 0.27063951466711422 0 0.073110705878909776 0.25296269123706461 0 0.076731372971609813 0.27643137050329408 0 0.056908910806083741 0.27063951466711422 0 0.076731372971609813 0.27643137050329408 0 0.062833369092125224 0.29287044571717868 0 0.072300109598025686 0.3036608545703951 0 0.080682171931179575 0.292496744054624 0 0.076731372971609813 0.27643137050329408 0 0.062833369092125224 0.29287044571717868 0 0.080682171931179575 0.292496744054624 0 0.061430130087365177 0.31269160624003212 0 0.062833369092125224 0.29287044571717868 0 0.072300109598025686 0.3036608545703951 0 0.073163807812237427 0.31438511763794702 0 0.061430130087365177 0.31269160624003212 0 0.072300109598025686 0.3036608545703951 0 0.073163807812237427 0.31438511763794702 0 0.072300109598025686 0.3036608545703951 0 0.083391069067221074 0.30586035920219362 0 0.072300109598025686 0.3036608545703951 0 0.083391069067221074 0.30586035920219362 0 0.080682171931179575 0.292496744054624 0 0.083391069067221074 0.30586035920219362 0 0.094276921991693061 0.29682868590857708 0 0.094638021884004789 0.30897529007660268 0 0.083391069067221074 0.30586035920219362 0 0.080682171931179575 0.292496744054624 0 0.094276921991693061 0.29682868590857708 0 0.086265450171863739 0.31848140993652979 0 0.083391069067221074 0.30586035920219362 0 0.094638021884004789 0.30897529007660268 0 0.076731372971609813 0.27643137050329408 0 0.080682171931179575 0.292496744054624 0 0.096553835137135821 0.28222322633947411 0 0.080682171931179575 0.292496744054624 0 0.096553835137135821 0.28222322633947411 0 0.094276921991693061 0.29682868590857708 0 0.096553835137135821 0.28222322633947411 0 0.1163762973026618 0.28801508217565419 0 0.096553835137135821 0.28222322633947411 0 0.1163762973026618 0.28801508217565419 0 0.10685522163906271 0.27398828378951612 0 0.096553835137135821 0.28222322633947411 0 0.10503294426377539 0.29331217048508129 0 0.1163762973026618 0.28801508217565419 0 0.096553835137135821 0.28222322633947411 0 0.094276921991693061 0.29682868590857708 0 0.10503294426377539 0.29331217048508129 0 0.094638021884004789 0.30897529007660268 0 0.10047234770126751 0.30153803195665319 0 0.10180294175864681 0.30842278876719109 0 0.094276921991693061 0.29682868590857708 0 0.10503294426377539 0.29331217048508129 0 0.10047234770126751 0.30153803195665319 0 0.094276921991693061 0.29682868590857708 0 0.094638021884004789 0.30897529007660268 0 0.10047234770126751 0.30153803195665319 0 0.10503294426377539 0.29331217048508129 0 0.10047234770126751 0.30153803195665319 0 0.1070042549003143 0.30447391138211077 0 0.10047234770126751 0.30153803195665319 0 0.1070042549003143 0.30447391138211077 0 0.10180294175864681 0.30842278876719109 0 0.1070042549003143 0.30447391138211077 0 0.10180294175864681 0.30842278876719109 0 0.1081834635685644 0.30703130307439719 0 0.1070042549003143 0.30447391138211077 0 0.1081834635685644 0.30703130307439719 0 0.1081834635685644 0.30703130307439719 0 0.1162834796626484 0.30250330111494389 0 0.1163762973026618 0.28801508217565419 0 0.1070042549003143 0.30447391138211077 0 0.1081834635685644 0.30703130307439719 0 0.1163762973026618 0.28801508217565419 0 0.1081834635685644 0.30703130307439719 0 0.1163762973026618 0.28801508217565419 0 0.1081834635685644 0.30703130307439719 0 0.1162834796626484 0.30250330111494389 0 0.1183379224466953 0.31175409948093541 0 0.12223623533267219 0.30321271972878899 0 0.1163762973026618 0.28801508217565419 0 0.1299985077300343 0.3001104103803367 0 0.1162834796626484 0.30250330111494389 0 0.12223623533267219 0.30321271972878899 0 0.1163762973026618 0.28801508217565419 0 0.1162834796626484 0.30250330111494389 0 0.12223623533267219 0.30321271972878899 0 0.1183379224466953 0.31175409948093541 0 0.12223623533267219 0.30321271972878899 0 0.1183379224466953 0.31175409948093541 0 0.13043956581236379 0.31033170467451499 0 0.10503294426377539 0.29331217048508129 0 0.1070042549003143 0.30447391138211077 0 0.1163762973026618 0.28801508217565419 0 0.1163762973026618 0.28801508217565419 0 0.12520213023579241 0.27056586726383969 0 0.1163762973026618 0.28801508217565419 0 0.12520213023579241 0.27056586726383969 0 0.13050812821457961 0.28467603872362079 0 0.1163762973026618 0.28801508217565419 0 0.11573678264415151 0.27582695249792322 0 0.12520213023579241 0.27056586726383969 0 0.1163762973026618 0.28801508217565419 0 0.11573678264415151 0.27582695249792322 0 0.10685522163906271 0.27398828378951612 0 0.11573678264415151 0.27582695249792322 0 0.117229699101878 0.27016448652343378 0 0.10685522163906271 0.27398828378951612 0 0.117229699101878 0.27016448652343378 0 0.11251308670682229 0.26519313962074398 0 0.10685522163906271 0.27398828378951612 0 0.11573678264415151 0.27582695249792322 0 0.117229699101878 0.27016448652343378 0 0.12520213023579241 0.27056586726383969 0 0.117229699101878 0.27016448652343378 0 0.1216579449276463 0.26047655809485709 0 0.12520213023579241 0.27056586726383969 0 0.12420690320853529 0.24949505869540881 0 0.1216579449276463 0.26047655809485709 0 0.11429371688878941 0.25312723840298168 0 0.1216579449276463 0.26047655809485709 0 0.11429371688878941 0.25312723840298168 0 0.11251308670682229 0.26519313962074398 0 0.117229699101878 0.27016448652343378 0 0.1216579449276463 0.26047655809485709 0 0.11251308670682229 0.26519313962074398 0 0.091270759852565567 0.24070087989023611 0 0.11429371688878941 0.25312723840298168 0 0.095242938757805345 0.26332173925879238 0 0.11429371688878941 0.25312723840298168 0 0.11251308670682229 0.26519313962074398 0 0.095242938757805345 0.26332173925879238 0 0.096553835137135821 0.28222322633947411 0 0.095242938757805345 0.26332173925879238 0 0.10685522163906271 0.27398828378951612 0 0.11251308670682229 0.26519313962074398 0 0.095242938757805345 0.26332173925879238 0 0.10685522163906271 0.27398828378951612 0 0.1458915719643181 0.26883480688446187 0 0.14074742642415419 0.26671902840248057 0 0.14564832583197401 0.26165865655538029 0 0.1458915719643181 0.26883480688446187 0 0.14074742642415419 0.26671902840248057 0 0.13932576958442219 0.27203986347829701 0 0.1458915719643181 0.26883480688446187 0 0.1460028923325746 0.27498131910340939 0 0.13932576958442219 0.27203986347829701 0 0.14076764493699609 0.27743867076657269 0 0.1460028923325746 0.27498131910340939 0 0.13932576958442219 0.27203986347829701 0 0.14076764493699609 0.27743867076657269 0 0.1474584932079093 0.28038167759208849 0 0.14328681314677469 0.28311987860909837 0 0.14076764493699609 0.27743867076657269 0 0.1474584932079093 0.28038167759208849 0 0.1460028923325746 0.27498131910340939 0 0.1474584932079093 0.28038167759208849 0 0.1460028923325746 0.27498131910340939 0 0.15349736059092939 0.27434147438607648 0 0.15349736059092939 0.27434147438607648 0 0.15231911545608501 0.28258530658700709 0 0.1579866314691708 0.28164611127911388 0 0.1474584932079093 0.28038167759208849 0 0.15349736059092939 0.27434147438607648 0 0.15231911545608501 0.28258530658700709 0 0.15349736059092939 0.27434147438607648 0 0.15295318113557649 0.2654035069753985 0 0.16201174606238339 0.27140816125270473 0 0.1458915719643181 0.26883480688446187 0 0.15349736059092939 0.27434147438607648 0 0.15295318113557649 0.2654035069753985 0 0.1458915719643181 0.26883480688446187 0 0.1460028923325746 0.27498131910340939 0 0.15349736059092939 0.27434147438607648 0 0.15295318113557649 0.2654035069753985 0 0.15203491696431279 0.25768554944804589 0 0.1613784721168571 0.26027199968308667 0 0.15295318113557649 0.2654035069753985 0 0.15203491696431279 0.25768554944804589 0 0.14564832583197401 0.26165865655538029 0 0.14608089257451429 0.24992769762422701 0 0.15203491696431279 0.25768554944804589 0 0.15691297891071249 0.25204874182608528 0 0.14608089257451429 0.24992769762422701 0 0.15203491696431279 0.25768554944804589 0 0.14564832583197401 0.26165865655538029 0 0.14608089257451429 0.24992769762422701 0 0.14564832583197401 0.26165865655538029 0 0.13859006684160191 0.2635198561980383 0 0.1458915719643181 0.26883480688446187 0 0.15295318113557649 0.2654035069753985 0 0.14564832583197401 0.26165865655538029 0 0.14074742642415419 0.26671902840248057 0 0.14564832583197401 0.26165865655538029 0 0.13859006684160191 0.2635198561980383 0 0.14608089257451429 0.24992769762422701 0 0.13859006684160191 0.2635198561980383 0 0.12520213023579241 0.27056586726383969 0 0.13454712077130621 0.24583915084270511 0 0.1216579449276463 0.26047655809485709 0 0.12520213023579241 0.27056586726383969 0 0.13454712077130621 0.24583915084270511 0 0.12520213023579241 0.27056586726383969 0 0.14608089257451429 0.24992769762422701 0 0.12520213023579241 0.27056586726383969 0 0.14608089257451429 0.24992769762422701 0 0.13454712077130621 0.24583915084270511 0 0.12520213023579241 0.27056586726383969 0 0.12420690320853529 0.24949505869540881 0 0.13454712077130621 0.24583915084270511 0 0.1216579449276463 0.26047655809485709 0 0.12520213023579241 0.27056586726383969 0 0.1342381792213887 0.27213723271648932 0 0.13503852407291689 0.27519609765038489 0 0.12520213023579241 0.27056586726383969 0 0.13771547191095809 0.27982294139273012 0 0.1428895489845684 0.28995065018485561 0 0.12520213023579241 0.27056586726383969 0 0.1352715591415744 0.26872803114426391 0 0.1342381792213887 0.27213723271648932 0 0.12520213023579241 0.27056586726383969 0 0.1428895489845684 0.28995065018485561 0 0.13859006684160191 0.2635198561980383 0 0.12520213023579241 0.27056586726383969 0 0.1352715591415744 0.26872803114426391 0 0.1352715591415744 0.26872803114426391 0 0.1342381792213887 0.27213723271648932 0 0.13932576958442219 0.27203986347829701 0 0.1342381792213887 0.27213723271648932 0 0.13932576958442219 0.27203986347829701 0 0.13734252945393099 0.27420296615293599 0 0.14074742642415419 0.26671902840248057 0 0.1352715591415744 0.26872803114426391 0 0.13932576958442219 0.27203986347829701 0 0.14074742642415419 0.26671902840248057 0 0.13859006684160191 0.2635198561980383 0 0.1352715591415744 0.26872803114426391 0 0.14076764493699609 0.27743867076657269 0 0.13771547191095809 0.27982294139273012 0 0.14328681314677469 0.28311987860909837 0 0.14076764493699609 0.27743867076657269 0 0.13771547191095809 0.27982294139273012 0 0.13503852407291689 0.27519609765038489 0 0.14076764493699609 0.27743867076657269 0 0.13734252945393099 0.27420296615293599 0 0.13503852407291689 0.27519609765038489 0 0.14076764493699609 0.27743867076657269 0 0.13932576958442219 0.27203986347829701 0 0.13734252945393099 0.27420296615293599 0 0.1342381792213887 0.27213723271648932 0 0.13734252945393099 0.27420296615293599 0 0.13503852407291689 0.27519609765038489 0 0.12520213023579241 0.27056586726383969 0 0.13771547191095809 0.27982294139273012 0 0.13503852407291689 0.27519609765038489 0 0.1163762973026618 0.28801508217565419 0 0.13050812821457961 0.28467603872362079 0 0.14110659811743501 0.29524094220799818 0 0.1163762973026618 0.28801508217565419 0 0.1299985077300343 0.3001104103803367 0 0.14110659811743501 0.29524094220799818 0 0.1163762973026618 0.28801508217565419 0 0.14110659811743501 0.29524094220799818 0 0.12520213023579241 0.27056586726383969 0 0.13050812821457961 0.28467603872362079 0 0.1428895489845684 0.28995065018485561 0 0.13050812821457961 0.28467603872362079 0 0.14110659811743501 0.29524094220799818 0 0.1428895489845684 0.28995065018485561 0 0.13043956581236379 0.31033170467451499 0 0.1299985077300343 0.3001104103803367 0 0.13652772618382131 0.30415546315798481 0 0.12223623533267219 0.30321271972878899 0 0.13043956581236379 0.31033170467451499 0 0.1299985077300343 0.3001104103803367 0 0.1299985077300343 0.3001104103803367 0 0.13652772618382131 0.30415546315798481 0 0.14110659811743501 0.29524094220799818 0 0.13043956581236379 0.31033170467451499 0 0.13652772618382131 0.30415546315798481 0 0.14456623307545199 0.31093879536908942 0 0.14456623307545199 0.31093879536908942 0 0.14110659811743501 0.29524094220799818 0 0.16056199652453779 0.30934907225143382 0 0.13652772618382131 0.30415546315798481 0 0.14456623307545199 0.31093879536908942 0 0.14110659811743501 0.29524094220799818 0 0.1428895489845684 0.28995065018485561 0 0.16056199652453779 0.30934907225143382 0 0.14110659811743501 0.29524094220799818 0 0.1428895489845684 0.28995065018485561 0 0.16056199652453779 0.30934907225143382 0 0.1428895489845684 0.28995065018485561 0 0.1537612380908876 0.2902589604058462 0 0.16056199652453779 0.30934907225143382 0 0.14798099426301631 0.2853008552596244 0 0.1428895489845684 0.28995065018485561 0 0.1537612380908876 0.2902589604058462 0 0.13771547191095809 0.27982294139273012 0 0.14328681314677469 0.28311987860909837 0 0.1428895489845684 0.28995065018485561 0 0.14798099426301631 0.2853008552596244 0 0.14328681314677469 0.28311987860909837 0 0.1428895489845684 0.28995065018485561 0 0.1474584932079093 0.28038167759208849 0 0.14798099426301631 0.2853008552596244 0 0.14328681314677469 0.28311987860909837 0 0.1537612380908876 0.2902589604058462 0 0.15231911545608501 0.28258530658700709 0 0.1579866314691708 0.28164611127911388 0 0.14798099426301631 0.2853008552596244 0 0.1537612380908876 0.2902589604058462 0 0.15231911545608501 0.28258530658700709 0 0.1474584932079093 0.28038167759208849 0 0.14798099426301631 0.2853008552596244 0 0.15231911545608501 0.28258530658700709 0 0.1579866314691708 0.28164611127911388 0 0.16393984472808371 0.28334999046173442 0 0.1627778988013002 0.29213050038661642 0 0.1537612380908876 0.2902589604058462 0 0.1579866314691708 0.28164611127911388 0 0.1627778988013002 0.29213050038661642 0 0.1627778988013002 0.29213050038661642 0 0.17021821662277001 0.28701471607643247 0 0.17070233104689339 0.29947024545406792 0 0.16393984472808371 0.28334999046173442 0 0.17021821662277001 0.28701471607643247 0 0.16721291984588271 0.27884003648454148 0 0.16393984472808371 0.28334999046173442 0 0.1627778988013002 0.29213050038661642 0 0.17021821662277001 0.28701471607643247 0 0.17021821662277001 0.28701471607643247 0 0.1733596290566313 0.27963569039896458 0 0.16721291984588271 0.27884003648454148 0 0.1627778988013002 0.29213050038661642 0 0.16056199652453779 0.30934907225143382 0 0.17070233104689339 0.29947024545406792 0 0.16056199652453779 0.30934907225143382 0 0.17070233104689339 0.29947024545406792 0 0.17649440770189381 0.31228303738950502 0 0.1537612380908876 0.2902589604058462 0 0.1627778988013002 0.29213050038661642 0 0.16056199652453779 0.30934907225143382 0 0.17070233104689339 0.29947024545406792 0 0.17649440770189381 0.31228303738950502 0 0.1799397066357159 0.30421591942325232 0 0.17070233104689339 0.29947024545406792 0 0.1811494576226674 0.29722787934622907 0 0.1799397066357159 0.30421591942325232 0 0.1811494576226674 0.29722787934622907 0 0.18713651330098091 0.30254182671464191 0 0.18810898209814811 0.29489161717331103 0 0.1811494576226674 0.29722787934622907 0 0.18713651330098091 0.30254182671464191 0 0.1799397066357159 0.30421591942325232 0 0.17649440770189381 0.31228303738950502 0 0.1799397066357159 0.30421591942325232 0 0.18421582350614399 0.30955660821181741 0 0.18713651330098091 0.30254182671464191 0 0.1799397066357159 0.30421591942325232 0 0.18421582350614399 0.30955660821181741 0 0.17021821662277001 0.28701471607643247 0 0.17840947948586919 0.28347340206841459 0 0.1781532683007821 0.29078350734134328 0 0.17021821662277001 0.28701471607643247 0 0.17840947948586919 0.28347340206841459 0 0.1733596290566313 0.27963569039896458 0 0.17021821662277001 0.28701471607643247 0 0.17070233104689339 0.29947024545406792 0 0.1781532683007821 0.29078350734134328 0 0.17070233104689339 0.29947024545406792 0 0.1811494576226674 0.29722787934622907 0 0.1781532683007821 0.29078350734134328 0 0.1781532683007821 0.29078350734134328 0 0.18446553209613351 0.29163174108468343 0 0.18514041795407099 0.2861477555486881 0 0.1811494576226674 0.29722787934622907 0 0.1781532683007821 0.29078350734134328 0 0.18446553209613351 0.29163174108468343 0 0.1811494576226674 0.29722787934622907 0 0.18446553209613351 0.29163174108468343 0 0.18810898209814811 0.29489161717331103 0 0.18446553209613351 0.29163174108468343 0 0.18810898209814811 0.29489161717331103 0 0.18936437974896261 0.28985451458231509 0 0.18446553209613351 0.29163174108468343 0 0.18514041795407099 0.2861477555486881 0 0.18936437974896261 0.28985451458231509 0 0.17840947948586919 0.28347340206841459 0 0.1781532683007821 0.29078350734134328 0 0.18514041795407099 0.2861477555486881 0 0.17840947948586919 0.28347340206841459 0 0.18514041795407099 0.2861477555486881 0 0.18495112985105661 0.27991147031196451 0 0.18514041795407099 0.2861477555486881 0 0.18495112985105661 0.27991147031196451 0 0.187976074348262 0.28272679919325422 0 0.18495112985105661 0.27991147031196451 0 0.18598219134136501 0.27460873672179931 0 0.19076520150475901 0.27884973694825371 0 0.18598219134136501 0.27460873672179931 0 0.18052421886174641 0.27130887826027589 0 0.17935377191147789 0.27749114889193122 0 0.18495112985105661 0.27991147031196451 0 0.18598219134136501 0.27460873672179931 0 0.17935377191147789 0.27749114889193122 0 0.17840947948586919 0.28347340206841459 0 0.18495112985105661 0.27991147031196451 0 0.17935377191147789 0.27749114889193122 0 0.18052421886174641 0.27130887826027589 0 0.1768877840647064 0.26495142838226399 0 0.1858625209849401 0.26403672424845231 0 0.18598219134136501 0.27460873672179931 0 0.18052421886174641 0.27130887826027589 0 0.1858625209849401 0.26403672424845231 0 0.17289553049286099 0.27300828771728541 0 0.16848596334080429 0.26620447635876338 0 0.1768877840647064 0.26495142838226399 0 0.18052421886174641 0.27130887826027589 0 0.17289553049286099 0.27300828771728541 0 0.1768877840647064 0.26495142838226399 0 0.17840947948586919 0.28347340206841459 0 0.17935377191147789 0.27749114889193122 0 0.1733596290566313 0.27963569039896458 0 0.18052421886174641 0.27130887826027589 0 0.17289553049286099 0.27300828771728541 0 0.17935377191147789 0.27749114889193122 0 0.17289553049286099 0.27300828771728541 0 0.17935377191147789 0.27749114889193122 0 0.1733596290566313 0.27963569039896458 0 0.17289553049286099 0.27300828771728541 0 0.16721291984588271 0.27884003648454148 0 0.16201174606238339 0.27140816125270473 0 0.16393984472808371 0.28334999046173442 0 0.16721291984588271 0.27884003648454148 0 0.16150355690129459 0.27711858808196832 0 0.17289553049286099 0.27300828771728541 0 0.1733596290566313 0.27963569039896458 0 0.16721291984588271 0.27884003648454148 0 0.17289553049286099 0.27300828771728541 0 0.16848596334080429 0.26620447635876338 0 0.16201174606238339 0.27140816125270473 0 0.15295318113557649 0.2654035069753985 0 0.16201174606238339 0.27140816125270473 0 0.1613784721168571 0.26027199968308667 0 0.16848596334080429 0.26620447635876338 0 0.16201174606238339 0.27140816125270473 0 0.1613784721168571 0.26027199968308667 0 0.15349736059092939 0.27434147438607648 0 0.16201174606238339 0.27140816125270473 0 0.16150355690129459 0.27711858808196832 0 0.15349736059092939 0.27434147438607648 0 0.1579866314691708 0.28164611127911388 0 0.16150355690129459 0.27711858808196832 0 0.1579866314691708 0.28164611127911388 0 0.16393984472808371 0.28334999046173442 0 0.16150355690129459 0.27711858808196832 0 0.16721291984588271 0.27884003648454148 0 0.16201174606238339 0.27140816125270473 0 0.16150355690129459 0.27711858808196832 0 0.15203491696431279 0.25768554944804589 0 0.15691297891071249 0.25204874182608528 0 0.1613784721168571 0.26027199968308667 0 0.15691297891071249 0.25204874182608528 0 0.1613784721168571 0.26027199968308667 0 0.1651050667405432 0.25249092321613159 0 0.16848596334080429 0.26620447635876338 0 0.1613784721168571 0.26027199968308667 0 0.17199769630782369 0.2589763491916845 0 0.1613784721168571 0.26027199968308667 0 0.1651050667405432 0.25249092321613159 0 0.17199769630782369 0.2589763491916845 0 0.1651050667405432 0.25249092321613159 0 0.17265565700519639 0.25152565263121213 0 0.17199769630782369 0.2589763491916845 0 0.18578460157279211 0.2482688543205844 0 0.17265565700519639 0.25152565263121213 0 0.17902574137345209 0.25758316955675059 0 0.18578460157279211 0.2482688543205844 0 0.17902574137345209 0.25758316955675059 0 0.1858625209849401 0.26403672424845231 0 0.17265565700519639 0.25152565263121213 0 0.17902574137345209 0.25758316955675059 0 0.17199769630782369 0.2589763491916845 0 0.16848596334080429 0.26620447635876338 0 0.17199769630782369 0.2589763491916845 0 0.1768877840647064 0.26495142838226399 0 0.17902574137345209 0.25758316955675059 0 0.17199769630782369 0.2589763491916845 0 0.1768877840647064 0.26495142838226399 0 0.17902574137345209 0.25758316955675059 0 0.1768877840647064 0.26495142838226399 0 0.1858625209849401 0.26403672424845231 0 0.18578460157279211 0.2482688543205844 0 0.20955480890895681 0.26481679165656569 0 0.18578460157279211 0.2482688543205844 0 0.20963359064467821 0.25604280018186582 0 0.18578460157279211 0.2482688543205844 0 0.1858625209849401 0.26403672424845231 0 0.20955480890895681 0.26481679165656569 0 0.18578460157279211 0.2482688543205844 0 0.20963359064467821 0.25604280018186582 0 0.20955480890895681 0.26481679165656569 0 0.19368053997613749 0.27188191159778952 0 0.1981746227657965 0.27755282021791378 0 0.20955480890895681 0.26481679165656569 0 0.1858625209849401 0.26403672424845231 0 0.19368053997613749 0.27188191159778952 0 0.20955480890895681 0.26481679165656569 0 0.19076520150475901 0.27884973694825371 0 0.19122366988832129 0.28318739383506991 0 0.1940474585065492 0.28145405427188219 0 0.19076520150475901 0.27884973694825371 0 0.1981746227657965 0.27755282021791378 0 0.1940474585065492 0.28145405427188219 0 0.18495112985105661 0.27991147031196451 0 0.19076520150475901 0.27884973694825371 0 0.187976074348262 0.28272679919325422 0 0.18598219134136501 0.27460873672179931 0 0.19076520150475901 0.27884973694825371 0 0.19368053997613749 0.27188191159778952 0 0.19076520150475901 0.27884973694825371 0 0.19368053997613749 0.27188191159778952 0 0.1981746227657965 0.27755282021791378 0 0.18598219134136501 0.27460873672179931 0 0.1858625209849401 0.26403672424845231 0 0.19368053997613749 0.27188191159778952 0 0.1981746227657965 0.27755282021791378 0 0.2065513959323669 0.28056875600653253 0 0.20053089231167129 0.28201488331199109 0 0.1981746227657965 0.27755282021791378 0 0.19662930992992761 0.28296557376458559 0 0.1940474585065492 0.28145405427188219 0 0.1981746227657965 0.27755282021791378 0 0.19662930992992761 0.28296557376458559 0 0.20053089231167129 0.28201488331199109 0 0.2065513959323669 0.28056875600653253 0 0.20955480890895681 0.26481679165656569 0 0.21711886360413701 0.28654672829365441 0 0.1981746227657965 0.27755282021791378 0 0.2065513959323669 0.28056875600653253 0 0.20955480890895681 0.26481679165656569 0 0.20963359064467821 0.25604280018186582 0 0.20955480890895681 0.26481679165656569 0 0.23348257971656511 0.26381674604314481 0 0.21948614212466469 0.24360632728838769 0 0.23348257971656511 0.26381674604314481 0 0.21948614212466469 0.24360632728838769 0 0.20963359064467821 0.25604280018186582 0 0.23348257971656511 0.26381674604314481 0 0.23618340067457189 0.2480357533165394 0 0.21948614212466469 0.24360632728838769 0 0.23348257971656511 0.26381674604314481 0 0.20963359064467821 0.25604280018186582 0 0.23348257971656511 0.26381674604314481 0 0.20955480890895681 0.26481679165656569 0 0.23332501624512131 0.28136472899254727 0 0.21711886360413701 0.28654672829365441 0 0.20955480890895681 0.26481679165656569 0 0.23332501624512131 0.28136472899254727 0 0.20955480890895681 0.26481679165656569 0 0.23348257971656511 0.26381674604314481 0 0.23332501624512131 0.28136472899254727 0 0.23348257971656511 0.26381674604314481 0 0.25578546138992581 0.27108671434900022 0 0.23348257971656511 0.26381674604314481 0 0.24528890164892619 0.28086470618583631 0 0.23332501624512131 0.28136472899254727 0 0.23348257971656511 0.26381674604314481 0 0.24528890164892619 0.28086470618583631 0 0.25578546138992581 0.27108671434900022 0 0.23348257971656511 0.26381674604314481 0 0.24528890164892619 0.28086470618583631 0 0.23618340067457189 0.2480357533165394 0 0.2480693896173545 0.25691267053065481 0 0.25916419269841368 0.24538229102785139 0 0.23348257971656511 0.26381674604314481 0 0.2480693896173545 0.25691267053065481 0 0.25578546138992581 0.27108671434900022 0 0.23618340067457189 0.2480357533165394 0 0.23348257971656511 0.26381674604314481 0 0.2480693896173545 0.25691267053065481 0 0.2406948679857599 0.30147011490061099 0 0.25709522358128561 0.29791266632852897 0 0.25204943857301709 0.30347311497133989 0 0.2406948679857599 0.30147011490061099 0 0.23855792589641861 0.3124197517724111 0 0.2309554053448791 0.30819137434805211 0 0.2406948679857599 0.30147011490061099 0 0.23855792589641861 0.3124197517724111 0 0.24591462716611359 0.31029372467315858 0 0.2406948679857599 0.30147011490061099 0 0.24591462716611359 0.31029372467315858 0 0.25204943857301709 0.30347311497133989 0 0.23332501624512131 0.28136472899254727 0 0.25709522358128561 0.29791266632852897 0 0.24528890164892619 0.28086470618583631 0 0.23332501624512131 0.28136472899254727 0 0.25709522358128561 0.29791266632852897 0 0.2406948679857599 0.30147011490061099 0 0.23332501624512131 0.28136472899254727 0 0.25709522358128561 0.29791266632852897 0 0.23332501624512131 0.28136472899254727 0 0.22755569434733011 0.29628632980663677 0 0.21711886360413701 0.28654672829365441 0 0.2406948679857599 0.30147011490061099 0 0.23332501624512131 0.28136472899254727 0 0.22755569434733011 0.29628632980663677 0 0.22755569434733011 0.29628632980663677 0 0.2208946576240543 0.29786852504569711 0 0.21711886360413701 0.28654672829365441 0 0.22416453279636511 0.30146292066549663 0 0.2309554053448791 0.30819137434805211 0 0.21725237386919699 0.30350545346160041 0 0.2146389750801104 0.30735479608954819 0 0.21725237386919699 0.30350545346160041 0 0.2366739555203583 0.32149660302207878 0 0.2309554053448791 0.30819137434805211 0 0.21725237386919699 0.30350545346160041 0 0.2366739555203583 0.32149660302207878 0 0.2208946576240543 0.29786852504569711 0 0.22416453279636511 0.30146292066549663 0 0.21725237386919699 0.30350545346160041 0 0.22755569434733011 0.29628632980663677 0 0.2208946576240543 0.29786852504569711 0 0.22416453279636511 0.30146292066549663 0 0.2406948679857599 0.30147011490061099 0 0.22755569434733011 0.29628632980663677 0 0.2309554053448791 0.30819137434805211 0 0.22755569434733011 0.29628632980663677 0 0.22416453279636511 0.30146292066549663 0 0.2309554053448791 0.30819137434805211 0 0.2146389750801104 0.30735479608954819 0 0.19669106984229201 0.28756644780580709 0 0.2146389750801104 0.30735479608954819 0 0.21355660294534151 0.31271870485715669 0 0.2153819195769355 0.31585082911000367 0 0.2146389750801104 0.30735479608954819 0 0.21725237386919699 0.30350545346160041 0 0.19669106984229201 0.28756644780580709 0 0.2146389750801104 0.30735479608954819 0 0.21026264893607141 0.31084478782109498 0 0.21355660294534151 0.31271870485715669 0 0.2146389750801104 0.30735479608954819 0 0.21026264893607141 0.31084478782109498 0 0.20931729486169531 0.30699281773909592 0 0.2208946576240543 0.29786852504569711 0 0.21725237386919699 0.30350545346160041 0 0.21601649500272271 0.29441239285813142 0 0.2146389750801104 0.30735479608954819 0 0.20570454427391041 0.30247756888084859 0 0.1991736253897651 0.29419413648988613 0 0.20570454427391041 0.30247756888084859 0 0.206663011156689 0.3072941181648921 0 0.20239431867948199 0.30537708540661268 0 0.2146389750801104 0.30735479608954819 0 0.20570454427391041 0.30247756888084859 0 0.20931729486169531 0.30699281773909592 0 0.206663011156689 0.3072941181648921 0 0.20369643598624401 0.31087653668608661 0 0.20239431867948199 0.30537708540661268 0 0.206663011156689 0.3072941181648921 0 0.20369643598624401 0.31087653668608661 0 0.21026264893607141 0.31084478782109498 0 0.20570454427391041 0.30247756888084859 0 0.206663011156689 0.3072941181648921 0 0.20931729486169531 0.30699281773909592 0 0.206663011156689 0.3072941181648921 0 0.21026264893607141 0.31084478782109498 0 0.20931729486169531 0.30699281773909592 0 0.2146389750801104 0.30735479608954819 0 0.19669106984229201 0.28756644780580709 0 0.1991736253897651 0.29419413648988613 0 0.21725237386919699 0.30350545346160041 0 0.20880008491350249 0.28972886463157371 0 0.19783079221803571 0.28551430390112192 0 0.21725237386919699 0.30350545346160041 0 0.19783079221803571 0.28551430390112192 0 0.21725237386919699 0.30350545346160041 0 0.19783079221803571 0.28551430390112192 0 0.19669106984229201 0.28756644780580709 0 0.21711886360413701 0.28654672829365441 0 0.21601649500272271 0.29441239285813142 0 0.20880008491350249 0.28972886463157371 0 0.2208946576240543 0.29786852504569711 0 0.21711886360413701 0.28654672829365441 0 0.21601649500272271 0.29441239285813142 0 0.21725237386919699 0.30350545346160041 0 0.21601649500272271 0.29441239285813142 0 0.20880008491350249 0.28972886463157371 0 0.20880008491350249 0.28972886463157371 0 0.2034889653503158 0.28429932210248787 0 0.19783079221803571 0.28551430390112192 0 0.2065513959323669 0.28056875600653253 0 0.21711886360413701 0.28654672829365441 0 0.20880008491350249 0.28972886463157371 0 0.2065513959323669 0.28056875600653253 0 0.20880008491350249 0.28972886463157371 0 0.2034889653503158 0.28429932210248787 0 0.2065513959323669 0.28056875600653253 0 0.2034889653503158 0.28429932210248787 0 0.20053089231167129 0.28201488331199109 0 0.19662930992992761 0.28296557376458559 0 0.19783079221803571 0.28551430390112192 0 0.19557397363798251 0.28571322782811148 0 0.19662930992992761 0.28296557376458559 0 0.20053089231167129 0.28201488331199109 0 0.19783079221803571 0.28551430390112192 0 0.2034889653503158 0.28429932210248787 0 0.20053089231167129 0.28201488331199109 0 0.19783079221803571 0.28551430390112192 0 0.19783079221803571 0.28551430390112192 0 0.19557397363798251 0.28571322782811148 0 0.19669106984229201 0.28756644780580709 0 0.19669106984229201 0.28756644780580709 0 0.1991736253897651 0.29419413648988613 0 0.1942634823227474 0.29225852108214873 0 0.1991736253897651 0.29419413648988613 0 0.19639329693948279 0.29611726134269789 0 0.1942634823227474 0.29225852108214873 0 0.1991736253897651 0.29419413648988613 0 0.19639329693948279 0.29611726134269789 0 0.19977970747788451 0.29860591135798092 0 0.18810898209814811 0.29489161717331103 0 0.1942634823227474 0.29225852108214873 0 0.19268895874331221 0.29736508146547069 0 0.19639329693948279 0.29611726134269789 0 0.1942634823227474 0.29225852108214873 0 0.19268895874331221 0.29736508146547069 0 0.18810898209814811 0.29489161717331103 0 0.18936437974896261 0.28985451458231509 0 0.1942634823227474 0.29225852108214873 0 0.18936437974896261 0.28985451458231509 0 0.1942634823227474 0.29225852108214873 0 0.19327420775571499 0.28780506707545511 0 0.19669106984229201 0.28756644780580709 0 0.1942634823227474 0.29225852108214873 0 0.19327420775571499 0.28780506707545511 0 0.19557397363798251 0.28571322782811148 0 0.19327420775571499 0.28780506707545511 0 0.1934444884439418 0.28471474659358809 0 0.19557397363798251 0.28571322782811148 0 0.19669106984229201 0.28756644780580709 0 0.19327420775571499 0.28780506707545511 0 0.19327420775571499 0.28780506707545511 0 0.1899700044305252 0.28597725271518992 0 0.1934444884439418 0.28471474659358809 0 0.18514041795407099 0.2861477555486881 0 0.18936437974896261 0.28985451458231509 0 0.1899700044305252 0.28597725271518992 0 0.18936437974896261 0.28985451458231509 0 0.19327420775571499 0.28780506707545511 0 0.1899700044305252 0.28597725271518992 0 0.1899700044305252 0.28597725271518992 0 0.187976074348262 0.28272679919325422 0 0.19122366988832129 0.28318739383506991 0 0.19076520150475901 0.27884973694825371 0 0.187976074348262 0.28272679919325422 0 0.19122366988832129 0.28318739383506991 0 0.18514041795407099 0.2861477555486881 0 0.1899700044305252 0.28597725271518992 0 0.187976074348262 0.28272679919325422 0 0.19122366988832129 0.28318739383506991 0 0.1934444884439418 0.28471474659358809 0 0.1940474585065492 0.28145405427188219 0 0.1899700044305252 0.28597725271518992 0 0.19122366988832129 0.28318739383506991 0 0.1934444884439418 0.28471474659358809 0 0.19662930992992761 0.28296557376458559 0 0.19557397363798251 0.28571322782811148 0 0.1934444884439418 0.28471474659358809 0 0.19662930992992761 0.28296557376458559 0 0.1934444884439418 0.28471474659358809 0 0.1940474585065492 0.28145405427188219 0 0.19851609984229729 0.30726639270646078 0 0.19198186731471351 0.31045371470481542 0 0.19814755853173499 0.3125356115492226 0 0.20369643598624401 0.31087653668608661 0 0.19851609984229729 0.30726639270646078 0 0.19814755853173499 0.3125356115492226 0 0.20369643598624401 0.31087653668608661 0 0.19851609984229729 0.30726639270646078 0 0.20239431867948199 0.30537708540661268 0 0.19851609984229729 0.30726639270646078 0 0.20239431867948199 0.30537708540661268 0 0.19866532835339951 0.30327624809586118 0 0.20570454427391041 0.30247756888084859 0 0.1991736253897651 0.29419413648988613 0 0.19977970747788451 0.29860591135798092 0 0.20570454427391041 0.30247756888084859 0 0.20239431867948199 0.30537708540661268 0 0.20103082260036739 0.30140001289677743 0 0.20570454427391041 0.30247756888084859 0 0.20103082260036739 0.30140001289677743 0 0.19977970747788451 0.29860591135798092 0 0.20239431867948199 0.30537708540661268 0 0.20103082260036739 0.30140001289677743 0 0.19866532835339951 0.30327624809586118 0 0.20103082260036739 0.30140001289677743 0 0.19977970747788451 0.29860591135798092 0 0.19713178560808831 0.29951849804138653 0 0.19639329693948279 0.29611726134269789 0 0.19713178560808831 0.29951849804138653 0 0.19268895874331221 0.29736508146547069 0 0.19639329693948279 0.29611726134269789 0 0.19977970747788451 0.29860591135798092 0 0.19713178560808831 0.29951849804138653 0 0.19851609984229729 0.30726639270646078 0 0.19866532835339951 0.30327624809586118 0 0.1940742753087927 0.30347598141056981 0 0.19713178560808831 0.29951849804138653 0 0.19866532835339951 0.30327624809586118 0 0.1940742753087927 0.30347598141056981 0 0.20103082260036739 0.30140001289677743 0 0.19713178560808831 0.29951849804138653 0 0.19866532835339951 0.30327624809586118 0 0.19713178560808831 0.29951849804138653 0 0.1940742753087927 0.30347598141056981 0 0.19268895874331221 0.29736508146547069 0 0.18713651330098091 0.30254182671464191 0 0.18810898209814811 0.29489161717331103 0 0.19268895874331221 0.29736508146547069 0 0.18713651330098091 0.30254182671464191 0 0.1940742753087927 0.30347598141056981 0 0.19268895874331221 0.29736508146547069 0 0.18713651330098091 0.30254182671464191 0 0.18421582350614399 0.30955660821181741 0 0.19198186731471351 0.31045371470481542 0 0.18713651330098091 0.30254182671464191 0 0.1940742753087927 0.30347598141056981 0 0.19198186731471351 0.31045371470481542 0 0.19851609984229729 0.30726639270646078 0 0.1940742753087927 0.30347598141056981 0 0.19198186731471351 0.31045371470481542 0 0.19198186731471351 0.31045371470481542 0 0.1948905389987616 0.31656061741172292 0 0.18673026978279039 0.31875417479765922 0 0.18421582350614399 0.30955660821181741 0 0.19198186731471351 0.31045371470481542 0 0.18673026978279039 0.31875417479765922 0 0.1948905389987616 0.31656061741172292 0 0.19564895892306319 0.32368966981659658 0 0.18673026978279039 0.31875417479765922 0 0.19198186731471351 0.31045371470481542 0 0.1948905389987616 0.31656061741172292 0 0.19814755853173499 0.3125356115492226 0 0.1881915042192546 0.32614326870281818 0 0.19564895892306319 0.32368966981659658 0 0.18673026978279039 0.31875417479765922 0 0.1881915042192546 0.32614326870281818 0 0.19564895892306319 0.32368966981659658 0 0.1927526585356254 0.33297130996138602 0 0.19564895892306319 0.32368966981659658 0 0.201781898661644 0.33030708852459117 0 0.20496245225086421 0.32330943200547918 0 0.19564895892306319 0.32368966981659658 0 0.20100625554653859 0.31736620601821808 0 0.20496245225086421 0.32330943200547918 0 0.20369643598624401 0.31087653668608661 0 0.20100625554653859 0.31736620601821808 0 0.19814755853173499 0.3125356115492226 0 0.1948905389987616 0.31656061741172292 0 0.20100625554653859 0.31736620601821808 0 0.19814755853173499 0.3125356115492226 0 0.1948905389987616 0.31656061741172292 0 0.19564895892306319 0.32368966981659658 0 0.20100625554653859 0.31736620601821808 0 0.1927526585356254 0.33297130996138602 0 0.1959068916044765 0.34814591638459041 0 0.17823444406450711 0.32874749431801198 0 0.19564895892306319 0.32368966981659658 0 0.1927526585356254 0.33297130996138602 0 0.201781898661644 0.33030708852459117 0 0.1927526585356254 0.33297130996138602 0 0.201781898661644 0.33030708852459117 0 0.20021006485166201 0.33843036873622179 0 0.1927526585356254 0.33297130996138602 0 0.20021006485166201 0.33843036873622179 0 0.1959068916044765 0.34814591638459041 0 0.207471814335772 0.33689000286742959 0 0.21316353710992919 0.34326406106883878 0 0.20810022628629271 0.34761380098265238 0 0.20021006485166201 0.33843036873622179 0 0.207471814335772 0.33689000286742959 0 0.20810022628629271 0.34761380098265238 0 0.201781898661644 0.33030708852459117 0 0.20021006485166201 0.33843036873622179 0 0.207471814335772 0.33689000286742959 0 0.201781898661644 0.33030708852459117 0 0.207471814335772 0.33689000286742959 0 0.21013158747714261 0.32910182627702922 0 0.207471814335772 0.33689000286742959 0 0.21013158747714261 0.32910182627702922 0 0.21561255532008961 0.33544837711898762 0 0.21013158747714261 0.32910182627702922 0 0.21561255532008961 0.33544837711898762 0 0.2176012745834853 0.3280137636365309 0 0.207471814335772 0.33689000286742959 0 0.21561255532008961 0.33544837711898762 0 0.21316353710992919 0.34326406106883878 0 0.21561255532008961 0.33544837711898762 0 0.21316353710992919 0.34326406106883878 0 0.22246055418020291 0.34271257524822929 0 0.20713976066027581 0.31685435211505808 0 0.21292375583822781 0.32126889881454412 0 0.2123167201917901 0.3160622691856213 0 0.21026264893607141 0.31084478782109498 0 0.20713976066027581 0.31685435211505808 0 0.2123167201917901 0.3160622691856213 0 0.20369643598624401 0.31087653668608661 0 0.21026264893607141 0.31084478782109498 0 0.20713976066027581 0.31685435211505808 0 0.20369643598624401 0.31087653668608661 0 0.20100625554653859 0.31736620601821808 0 0.20713976066027581 0.31685435211505808 0 0.20100625554653859 0.31736620601821808 0 0.20713976066027581 0.31685435211505808 0 0.20496245225086421 0.32330943200547918 0 0.20713976066027581 0.31685435211505808 0 0.20496245225086421 0.32330943200547918 0 0.21292375583822781 0.32126889881454412 0 0.201781898661644 0.33030708852459117 0 0.21013158747714261 0.32910182627702922 0 0.20496245225086421 0.32330943200547918 0 0.21013158747714261 0.32910182627702922 0 0.20496245225086421 0.32330943200547918 0 0.21292375583822781 0.32126889881454412 0 0.21013158747714261 0.32910182627702922 0 0.21292375583822781 0.32126889881454412 0 0.2176012745834853 0.3280137636365309 0 0.21292375583822781 0.32126889881454412 0 0.2176012745834853 0.3280137636365309 0 0.2202212478362908 0.32032520215843058 0 0.21292375583822781 0.32126889881454412 0 0.2153819195769355 0.31585082911000367 0 0.2202212478362908 0.32032520215843058 0 0.2146389750801104 0.30735479608954819 0 0.2153819195769355 0.31585082911000367 0 0.2202212478362908 0.32032520215843058 0 0.21292375583822781 0.32126889881454412 0 0.2123167201917901 0.3160622691856213 0 0.2153819195769355 0.31585082911000367 0 0.21026264893607141 0.31084478782109498 0 0.2123167201917901 0.3160622691856213 0 0.21355660294534151 0.31271870485715669 0 0.2123167201917901 0.3160622691856213 0 0.21355660294534151 0.31271870485715669 0 0.2153819195769355 0.31585082911000367 0 0.2146389750801104 0.30735479608954819 0 0.23258688031792879 0.32714314437328929 0 0.2146389750801104 0.30735479608954819 0 0.23258688031792879 0.32714314437328929 0 0.2366739555203583 0.32149660302207878 0 0.21725237386919699 0.30350545346160041 0 0.2366739555203583 0.32149660302207878 0 0.2146389750801104 0.30735479608954819 0 0.23258688031792879 0.32714314437328929 0 0.2202212478362908 0.32032520215843058 0 0.23258688031792879 0.32714314437328929 0 0.224645000464373 0.32750556811363007 0 0.2202212478362908 0.32032520215843058 0 0.2176012745834853 0.3280137636365309 0 0.224645000464373 0.32750556811363007 0 0.2202212478362908 0.32032520215843058 0 0.2176012745834853 0.3280137636365309 0 0.224645000464373 0.32750556811363007 0 0.2232604577563449 0.33292686551157202 0 0.21561255532008961 0.33544837711898762 0 0.2176012745834853 0.3280137636365309 0 0.2232604577563449 0.33292686551157202 0 0.224645000464373 0.32750556811363007 0 0.2232604577563449 0.33292686551157202 0 0.2278661805840155 0.33077374163336121 0 0.21561255532008961 0.33544837711898762 0 0.2232604577563449 0.33292686551157202 0 0.22246055418020291 0.34271257524822929 0 0.2232604577563449 0.33292686551157202 0 0.22246055418020291 0.34271257524822929 0 0.22974608504628691 0.33605134778209822 0 0.22974608504628691 0.33605134778209822 0 0.23695010236382269 0.34199516006879432 0 0.23032971625624041 0.34440646580811529 0 0.22246055418020291 0.34271257524822929 0 0.22974608504628691 0.33605134778209822 0 0.23032971625624041 0.34440646580811529 0 0.23258688031792879 0.32714314437328929 0 0.22974608504628691 0.33605134778209822 0 0.2278661805840155 0.33077374163336121 0 0.23258688031792879 0.32714314437328929 0 0.224645000464373 0.32750556811363007 0 0.2278661805840155 0.33077374163336121 0 0.23258688031792879 0.32714314437328929 0 0.22974608504628691 0.33605134778209822 0 0.23695010236382269 0.34199516006879432 0 0.2232604577563449 0.33292686551157202 0 0.22974608504628691 0.33605134778209822 0 0.2278661805840155 0.33077374163336121 0 0.2366739555203583 0.32149660302207878 0 0.25012038484626709 0.32780996745395108 0 0.25609553717151962 0.33948775258255742 0 0.23258688031792879 0.32714314437328929 0 0.23695010236382269 0.34199516006879432 0 0.25053478555574732 0.34693149265703049 0 0.23258688031792879 0.32714314437328929 0 0.25053478555574732 0.34693149265703049 0 0.2366739555203583 0.32149660302207878 0 0.25609553717151962 0.33948775258255742 0 0.23258688031792879 0.32714314437328929 0 0.2366739555203583 0.32149660302207878 0 0.25609553717151962 0.33948775258255742 0 0.23258688031792879 0.32714314437328929 0 0.25053478555574732 0.34693149265703049 0 0.25609553717151962 0.33948775258255742 0 0.246027491827217 0.31934260733412989 0 0.2519964294110788 0.32181255064985959 0 0.25012038484626709 0.32780996745395108 0 0.246027491827217 0.31934260733412989 0 0.2366739555203583 0.32149660302207878 0 0.25012038484626709 0.32780996745395108 0 0.24591462716611359 0.31029372467315858 0 0.246027491827217 0.31934260733412989 0 0.25181126385540392 0.3158872292956737 0 0.24591462716611359 0.31029372467315858 0 0.246027491827217 0.31934260733412989 0 0.24131344255971729 0.31683612838054731 0 0.246027491827217 0.31934260733412989 0 0.25181126385540392 0.3158872292956737 0 0.2519964294110788 0.32181255064985959 0 0.23855792589641861 0.3124197517724111 0 0.2309554053448791 0.30819137434805211 0 0.2366739555203583 0.32149660302207878 0 0.246027491827217 0.31934260733412989 0 0.24131344255971729 0.31683612838054731 0 0.2366739555203583 0.32149660302207878 0 0.23855792589641861 0.3124197517724111 0 0.24131344255971729 0.31683612838054731 0 0.2366739555203583 0.32149660302207878 0 0.23855792589641861 0.3124197517724111 0 0.24591462716611359 0.31029372467315858 0 0.24131344255971729 0.31683612838054731 0 0.23757042228430231 0.36519924807446391 0 0.24008780827055159 0.35639031600303062 0 0.22908249051920529 0.35974116868790618 0 0.23757042228430231 0.36519924807446391 0 0.24684450495698829 0.36135141315910069 0 0.24008780827055159 0.35639031600303062 0 0.23757042228430231 0.36519924807446391 0 0.22954824984347061 0.37074549334670309 0 0.2377537910601473 0.37770827801418999 0 0.23757042228430231 0.36519924807446391 0 0.24516707140924371 0.36938540914434159 0 0.2377537910601473 0.37770827801418999 0 0.24516707140924371 0.36938540914434159 0 0.2377537910601473 0.37770827801418999 0 0.25015794308343509 0.37639538023269642 0 0.24516707140924371 0.36938540914434159 0 0.25015794308343509 0.37639538023269642 0 0.25086148503025818 0.36791768504038341 0 0.24516707140924371 0.36938540914434159 0 0.24684450495698829 0.36135141315910069 0 0.25086148503025818 0.36791768504038341 0 0.23757042228430231 0.36519924807446391 0 0.24516707140924371 0.36938540914434159 0 0.24684450495698829 0.36135141315910069 0 0.24684450495698829 0.36135141315910069 0 0.2467928684213696 0.35504984426619662 0 0.25458279346296919 0.36065684054664832 0 0.2467928684213696 0.35504984426619662 0 0.24191444986059199 0.34991915896517312 0 0.24008780827055159 0.35639031600303062 0 0.24684450495698829 0.36135141315910069 0 0.2467928684213696 0.35504984426619662 0 0.24008780827055159 0.35639031600303062 0 0.2467928684213696 0.35504984426619662 0 0.24191444986059199 0.34991915896517312 0 0.25053478555574732 0.34693149265703049 0 0.23695010236382269 0.34199516006879432 0 0.24191444986059199 0.34991915896517312 0 0.25053478555574732 0.34693149265703049 0 0.23695010236382269 0.34199516006879432 0 0.24191444986059199 0.34991915896517312 0 0.23468438142865311 0.35067095189922692 0 0.23468438142865311 0.35067095189922692 0 0.24008780827055159 0.35639031600303062 0 0.22908249051920529 0.35974116868790618 0 0.24191444986059199 0.34991915896517312 0 0.23468438142865311 0.35067095189922692 0 0.24008780827055159 0.35639031600303062 0 0.23468438142865311 0.35067095189922692 0 0.22740110048087739 0.35039827139094343 0 0.22908249051920529 0.35974116868790618 0 0.23695010236382269 0.34199516006879432 0 0.23468438142865311 0.35067095189922692 0 0.23032971625624041 0.34440646580811529 0 0.22246055418020291 0.34271257524822929 0 0.22740110048087739 0.35039827139094343 0 0.23032971625624041 0.34440646580811529 0 0.23468438142865311 0.35067095189922692 0 0.22740110048087739 0.35039827139094343 0 0.23032971625624041 0.34440646580811529 0 0.22246055418020291 0.34271257524822929 0 0.22740110048087739 0.35039827139094343 0 0.21826971067147091 0.35140811838766578 0 0.22740110048087739 0.35039827139094343 0 0.22908249051920529 0.35974116868790618 0 0.21826971067147091 0.35140811838766578 0 0.22908249051920529 0.35974116868790618 0 0.2135793391444458 0.36754433845116857 0 0.21826971067147091 0.35140811838766578 0 0.22908249051920529 0.35974116868790618 0 0.22954824984347061 0.37074549334670309 0 0.2135793391444458 0.36754433845116857 0 0.23757042228430231 0.36519924807446391 0 0.22908249051920529 0.35974116868790618 0 0.22954824984347061 0.37074549334670309 0 0.2135793391444458 0.36754433845116857 0 0.19001983601158559 0.36072101793311367 0 0.2065746197375295 0.38147223860790802 0 0.2135793391444458 0.36754433845116857 0 0.20810022628629271 0.34761380098265238 0 0.1959068916044765 0.34814591638459041 0 0.2135793391444458 0.36754433845116857 0 0.21826971067147091 0.35140811838766578 0 0.20810022628629271 0.34761380098265238 0 0.2135793391444458 0.36754433845116857 0 0.1959068916044765 0.34814591638459041 0 0.21316353710992919 0.34326406106883878 0 0.22246055418020291 0.34271257524822929 0 0.21826971067147091 0.35140811838766578 0 0.21316353710992919 0.34326406106883878 0 0.21826971067147091 0.35140811838766578 0 0.20810022628629271 0.34761380098265238 0 0.2135793391444458 0.36754433845116857 0 0.1959068916044765 0.34814591638459041 0 0.19001983601158559 0.36072101793311367 0 0.20021006485166201 0.33843036873622179 0 0.20810022628629271 0.34761380098265238 0 0.1959068916044765 0.34814591638459041 0 0.19001983601158559 0.36072101793311367 0 0.2065746197375295 0.38147223860790802 0 0.19001983601158559 0.36072101793311367 0 0.1854413008759592 0.37528755408302028 0 0.19381288424484991 0.37709619719494342 0 0.19001983601158559 0.36072101793311367 0 0.19381288424484991 0.37709619719494342 0 0.2065746197375295 0.38147223860790802 0 0.1769423681445709 0.36333232049016623 0 0.17171745704783459 0.37976720384364138 0 0.1854413008759592 0.37528755408302028 0 0.19001983601158559 0.36072101793311367 0 0.1769423681445709 0.36333232049016623 0 0.1854413008759592 0.37528755408302028 0 0.1769423681445709 0.36333232049016623 0 0.16406819450183341 0.36091602933273631 0 0.17171745704783459 0.37976720384364138 0 0.16406819450183341 0.36091602933273631 0 0.15646383289604501 0.37369343637984531 0 0.17171745704783459 0.37976720384364138 0 0.16406819450183341 0.36091602933273631 0 0.1571904382071273 0.34625601499951381 0 0.1734650522856416 0.33996979725831938 0 0.1769423681445709 0.36333232049016623 0 0.16406819450183341 0.36091602933273631 0 0.1734650522856416 0.33996979725831938 0 0.19001983601158559 0.36072101793311367 0 0.1769423681445709 0.36333232049016623 0 0.1734650522856416 0.33996979725831938 0 0.19001983601158559 0.36072101793311367 0 0.1734650522856416 0.33996979725831938 0 0.1959068916044765 0.34814591638459041 0 0.19001983601158559 0.36072101793311367 0 0.1734650522856416 0.33996979725831938 0 0.1959068916044765 0.34814591638459041 0 0.17823444406450711 0.32874749431801198 0 0.1959068916044765 0.34814591638459041 0 0.1734650522856416 0.33996979725831938 0 0.17823444406450711 0.32874749431801198 0 0.1881915042192546 0.32614326870281818 0 0.1927526585356254 0.33297130996138602 0 0.17823444406450711 0.32874749431801198 0 0.17649440770189381 0.31228303738950502 0 0.17823444406450711 0.32874749431801198 0 0.18673026978279039 0.31875417479765922 0 0.17649440770189381 0.31228303738950502 0 0.18421582350614399 0.30955660821181741 0 0.18673026978279039 0.31875417479765922 0 0.1881915042192546 0.32614326870281818 0 0.17823444406450711 0.32874749431801198 0 0.18673026978279039 0.31875417479765922 0 0.16056199652453779 0.30934907225143382 0 0.17649440770189381 0.31228303738950502 0 0.17823444406450711 0.32874749431801198 0 0.16056199652453779 0.30934907225143382 0 0.17823444406450711 0.32874749431801198 0 0.1607383645248201 0.32835246661397921 0 0.16056199652453779 0.30934907225143382 0 0.17823444406450711 0.32874749431801198 0 0.1734650522856416 0.33996979725831938 0 0.17823444406450711 0.32874749431801198 0 0.1607383645248201 0.32835246661397921 0 0.1571904382071273 0.34625601499951381 0 0.1734650522856416 0.33996979725831938 0 0.1607383645248201 0.32835246661397921 0 0.1571904382071273 0.34625601499951381 0 0.1607383645248201 0.32835246661397921 0 0.1439785715542134 0.33451585906114079 0 0.14456623307545199 0.31093879536908942 0 0.1607383645248201 0.32835246661397921 0 0.1439785715542134 0.33451585906114079 0 0.14456623307545199 0.31093879536908942 0 0.16056199652453779 0.30934907225143382 0 0.1607383645248201 0.32835246661397921 0 0.14456623307545199 0.31093879536908942 0 0.1439785715542134 0.33451585906114079 0 0.1352063961540021 0.3227154504359272 0 0.11907224257712271 0.33064618458380363 0 0.1352063961540021 0.3227154504359272 0 0.12597518363583121 0.31900508238158909 0 0.13043956581236379 0.31033170467451499 0 0.14456623307545199 0.31093879536908942 0 0.1352063961540021 0.3227154504359272 0 0.13043956581236379 0.31033170467451499 0 0.1352063961540021 0.3227154504359272 0 0.12597518363583121 0.31900508238158909 0 0.11907224257712271 0.33064618458380363 0 0.1439785715542134 0.33451585906114079 0 0.12996102158567971 0.3542610660932104 0 0.11907224257712271 0.33064618458380363 0 0.1439785715542134 0.33451585906114079 0 0.1352063961540021 0.3227154504359272 0 0.1439785715542134 0.33451585906114079 0 0.12996102158567971 0.3542610660932104 0 0.14696009151148459 0.35937756932798381 0 0.12996102158567971 0.3542610660932104 0 0.14696009151148459 0.35937756932798381 0 0.1408498005942368 0.37787594760261728 0 0.1204359294245167 0.37540768903004512 0 0.12996102158567971 0.3542610660932104 0 0.1408498005942368 0.37787594760261728 0 0.12996102158567971 0.3542610660932104 0 0.1408498005942368 0.37787594760261728 0 0.15646383289604501 0.37369343637984531 0 0.14696009151148459 0.35937756932798381 0 0.1408498005942368 0.37787594760261728 0 0.16406819450183341 0.36091602933273631 0 0.15646383289604501 0.37369343637984531 0 0.14696009151148459 0.35937756932798381 0 0.1571904382071273 0.34625601499951381 0 0.1439785715542134 0.33451585906114079 0 0.14696009151148459 0.35937756932798381 0 0.16406819450183341 0.36091602933273631 0 0.1571904382071273 0.34625601499951381 0 0.14696009151148459 0.35937756932798381 0 0.15173857960279391 0.40149082911202427 0 0.1408498005942368 0.37787594760261728 0 0.15173857960279391 0.40149082911202427 0 0.1408498005942368 0.37787594760261728 0 0.1582194596477349 0.38641739189674418 0 0.15646383289604501 0.37369343637984531 0 0.1408498005942368 0.37787594760261728 0 0.1582194596477349 0.38641739189674418 0 0.1204359294245167 0.37540768903004512 0 0.1408498005942368 0.37787594760261728 0 0.12638213440864571 0.40016694692531168 0 0.15173857960279391 0.40149082911202427 0 0.12638213440864571 0.40016694692531168 0 0.14006362305950801 0.41349394965867908 0 0.15173857960279391 0.40149082911202427 0 0.1408498005942368 0.37787594760261728 0 0.12638213440864571 0.40016694692531168 0 0.12638213440864571 0.40016694692531168 0 0.14006362305950801 0.41349394965867908 0 0.12819467301334569 0.42295040886334478 0 0.1142280614004636 0.44188273683014229 0 0.14039264614926419 0.43409760548549847 0 0.12819467301334569 0.42295040886334478 0 0.14006362305950801 0.41349394965867908 0 0.14039264614926419 0.43409760548549847 0 0.12819467301334569 0.42295040886334478 0 0.14006362305950801 0.41349394965867908 0 0.14039264614926419 0.43409760548549847 0 0.15197496669944291 0.42320943189625931 0 0.14039264614926419 0.43409760548549847 0 0.15197496669944291 0.42320943189625931 0 0.1640431351853191 0.44764712002975637 0 0.15173857960279391 0.40149082911202427 0 0.15197496669944291 0.42320943189625931 0 0.16262735861135089 0.42510571062143121 0 0.15173857960279391 0.40149082911202427 0 0.14006362305950801 0.41349394965867908 0 0.15197496669944291 0.42320943189625931 0 0.15173857960279391 0.40149082911202427 0 0.16262735861135089 0.42510571062143121 0 0.17338018079879991 0.4143763530597272 0 0.15173857960279391 0.40149082911202427 0 0.16262735861135089 0.42510571062143121 0 0.16262735861135089 0.42510571062143121 0 0.17266418859170099 0.42573303942752461 0 0.17338018079879991 0.4143763530597272 0 0.15197496669944291 0.42320943189625931 0 0.16262735861135089 0.42510571062143121 0 0.1640431351853191 0.44764712002975637 0 0.16262735861135089 0.42510571062143121 0 0.17268080246038661 0.43578944144140569 0 0.1640431351853191 0.44764712002975637 0 0.15197496669944291 0.42320943189625931 0 0.1640431351853191 0.44764712002975637 0 0.16262735861135089 0.42510571062143121 0 0.17268080246038661 0.43578944144140569 0 0.17266418859170099 0.42573303942752461 0 0.17268080246038661 0.43578944144140569 0 0.18459643215696059 0.42751079687421051 0 0.1849182962379031 0.44359250620182011 0 0.17266418859170099 0.42573303942752461 0 0.18459643215696059 0.42751079687421051 0 0.17338018079879991 0.4143763530597272 0 0.17268080246038661 0.43578944144140569 0 0.17266418859170099 0.42573303942752461 0 0.18459643215696059 0.42751079687421051 0 0.18459643215696059 0.42751079687421051 0 0.17338018079879991 0.4143763530597272 0 0.18718095769667931 0.41562826598177077 0 0.17338018079879991 0.4143763530597272 0 0.18718095769667931 0.41562826598177077 0 0.18515631867079049 0.40464807832777622 0 0.18515631867079049 0.40464807832777622 0 0.1811716970093348 0.38997327139115251 0 0.19321578035432529 0.39090397815573152 0 0.18515631867079049 0.40464807832777622 0 0.17032762809776439 0.39925954254559282 0 0.1811716970093348 0.38997327139115251 0 0.17338018079879991 0.4143763530597272 0 0.18515631867079049 0.40464807832777622 0 0.17032762809776439 0.39925954254559282 0 0.15173857960279391 0.40149082911202427 0 0.17032762809776439 0.39925954254559282 0 0.1582194596477349 0.38641739189674418 0 0.15173857960279391 0.40149082911202427 0 0.17338018079879991 0.4143763530597272 0 0.17032762809776439 0.39925954254559282 0 0.17032762809776439 0.39925954254559282 0 0.1582194596477349 0.38641739189674418 0 0.17171745704783459 0.37976720384364138 0 0.15646383289604501 0.37369343637984531 0 0.1582194596477349 0.38641739189674418 0 0.17171745704783459 0.37976720384364138 0 0.17171745704783459 0.37976720384364138 0 0.1811716970093348 0.38997327139115251 0 0.1854413008759592 0.37528755408302028 0 0.17032762809776439 0.39925954254559282 0 0.17171745704783459 0.37976720384364138 0 0.1811716970093348 0.38997327139115251 0 0.1811716970093348 0.38997327139115251 0 0.1854413008759592 0.37528755408302028 0 0.19321578035432529 0.39090397815573152 0 0.19321578035432529 0.39090397815573152 0 0.2057795846349301 0.39836757600590822 0 0.2065746197375295 0.38147223860790802 0 0.1854413008759592 0.37528755408302028 0 0.19381288424484991 0.37709619719494342 0 0.19321578035432529 0.39090397815573152 0 0.19381288424484991 0.37709619719494342 0 0.19321578035432529 0.39090397815573152 0 0.2065746197375295 0.38147223860790802 0 0.18515631867079049 0.40464807832777622 0 0.19321578035432529 0.39090397815573152 0 0.1969752041003342 0.40716064567366572 0 0.19321578035432529 0.39090397815573152 0 0.2057795846349301 0.39836757600590822 0 0.1969752041003342 0.40716064567366572 0 0.2057795846349301 0.39836757600590822 0 0.22312940346347099 0.40222345928270431 0 0.20925478672808939 0.40901560430550182 0 0.2057795846349301 0.39836757600590822 0 0.2065746197375295 0.38147223860790802 0 0.22312940346347099 0.40222345928270431 0 0.2065746197375295 0.38147223860790802 0 0.22312940346347099 0.40222345928270431 0 0.2057795846349301 0.39836757600590822 0 0.20925478672808939 0.40901560430550182 0 0.1969752041003342 0.40716064567366572 0 0.2065746197375295 0.38147223860790802 0 0.2188480940776355 0.38450120260973952 0 0.22312940346347099 0.40222345928270431 0 0.2135793391444458 0.36754433845116857 0 0.2065746197375295 0.38147223860790802 0 0.2188480940776355 0.38450120260973952 0 0.22954824984347061 0.37074549334670309 0 0.2135793391444458 0.36754433845116857 0 0.23125178668441501 0.38694276051774668 0 0.2135793391444458 0.36754433845116857 0 0.23125178668441501 0.38694276051774668 0 0.2135793391444458 0.36754433845116857 0 0.23125178668441501 0.38694276051774668 0 0.2188480940776355 0.38450120260973952 0 0.22954824984347061 0.37074549334670309 0 0.23125178668441501 0.38694276051774668 0 0.2377537910601473 0.37770827801418999 0 0.23125178668441501 0.38694276051774668 0 0.22476937871282479 0.38886089196587081 0 0.2272942621067445 0.39390731981747718 0 0.23125178668441501 0.38694276051774668 0 0.2188480940776355 0.38450120260973952 0 0.22476937871282479 0.38886089196587081 0 0.2188480940776355 0.38450120260973952 0 0.22476937871282479 0.38886089196587081 0 0.22312940346347099 0.40222345928270431 0 0.22476937871282479 0.38886089196587081 0 0.22312940346347099 0.40222345928270431 0 0.2272942621067445 0.39390731981747718 0 0.22312940346347099 0.40222345928270431 0 0.2272942621067445 0.39390731981747718 0 0.22312940346347099 0.40222345928270431 0 0.23331750252295169 0.40155121167942159 0 0.2272942621067445 0.39390731981747718 0 0.23125178668441501 0.38694276051774668 0 0.23331750252295169 0.40155121167942159 0 0.2272942621067445 0.39390731981747718 0 0.23125178668441501 0.38694276051774668 0 0.23331750252295169 0.40155121167942159 0 0.24892423422438431 0.40634118258432489 0 0.23125178668441501 0.38694276051774668 0 0.24738735982592119 0.39100718209703472 0 0.24892423422438431 0.40634118258432489 0 0.23125178668441501 0.38694276051774668 0 0.24892423422438431 0.40634118258432489 0 0.23125178668441501 0.38694276051774668 0 0.24738735982592119 0.39100718209703472 0 0.24075450417149599 0.38489080073466192 0 0.24738735982592119 0.39100718209703472 0 0.24662507911550041 0.38390498230967618 0 0.24075450417149599 0.38489080073466192 0 0.24662507911550041 0.38390498230967618 0 0.2377537910601473 0.37770827801418999 0 0.25015794308343509 0.37639538023269642 0 0.24662507911550041 0.38390498230967618 0 0.2377537910601473 0.37770827801418999 0 0.24075450417149599 0.38489080073466192 0 0.23125178668441501 0.38694276051774668 0 0.2377537910601473 0.37770827801418999 0 0.24075450417149599 0.38489080073466192 0 0.24884624880801609 0.43445921310700869 0 0.23598782613574479 0.41834133619485547 0 0.2551889496141147 0.41809586073196209 0 0.24884624880801609 0.43445921310700869 0 0.23598782613574479 0.41834133619485547 0 0.24884624880801609 0.43445921310700869 0 0.23598782613574479 0.41834133619485547 0 0.22999618869546701 0.43419770726556989 0 0.23331750252295169 0.40155121167942159 0 0.23598782613574479 0.41834133619485547 0 0.24892423422438431 0.40634118258432489 0 0.23598782613574479 0.41834133619485547 0 0.24892423422438431 0.40634118258432489 0 0.2551889496141147 0.41809586073196209 0 0.22312940346347099 0.40222345928270431 0 0.23598782613574479 0.41834133619485547 0 0.21407190186304989 0.42018655946551481 0 0.22312940346347099 0.40222345928270431 0 0.23331750252295169 0.40155121167942159 0 0.23598782613574479 0.41834133619485547 0 0.22312940346347099 0.40222345928270431 0 0.23598782613574479 0.41834133619485547 0 0.22999618869546701 0.43419770726556989 0 0.21407190186304989 0.42018655946551481 0 0.21715720473947389 0.44679103964367711 0 0.23598782613574479 0.41834133619485547 0 0.22999618869546701 0.43419770726556989 0 0.21407190186304989 0.42018655946551481 0 0.21407190186304989 0.42018655946551481 0 0.21715720473947389 0.44679103964367711 0 0.21407190186304989 0.42018655946551481 0 0.20331795955727 0.44178175997017383 0 0.21407190186304989 0.42018655946551481 0 0.1971452384373221 0.43029553551038879 0 0.20331795955727 0.44178175997017383 0 0.21407190186304989 0.42018655946551481 0 0.20331795955727 0.44178175997017383 0 0.21715720473947389 0.44679103964367711 0 0.21407190186304989 0.42018655946551481 0 0.19882160237142679 0.41840605504022471 0 0.1971452384373221 0.43029553551038879 0 0.22312940346347099 0.40222345928270431 0 0.21407190186304989 0.42018655946551481 0 0.20925478672808939 0.40901560430550182 0 0.22312940346347099 0.40222345928270431 0 0.21407190186304989 0.42018655946551481 0 0.21407190186304989 0.42018655946551481 0 0.20925478672808939 0.40901560430550182 0 0.19882160237142679 0.41840605504022471 0 0.20925478672808939 0.40901560430550182 0 0.1969752041003342 0.40716064567366572 0 0.19882160237142679 0.41840605504022471 0 0.18459643215696059 0.42751079687421051 0 0.18718095769667931 0.41562826598177077 0 0.19882160237142679 0.41840605504022471 0 0.18718095769667931 0.41562826598177077 0 0.18515631867079049 0.40464807832777622 0 0.1969752041003342 0.40716064567366572 0 0.18718095769667931 0.41562826598177077 0 0.1969752041003342 0.40716064567366572 0 0.19882160237142679 0.41840605504022471 0 0.18459643215696059 0.42751079687421051 0 0.1971452384373221 0.43029553551038879 0 0.1849182962379031 0.44359250620182011 0 0.18459643215696059 0.42751079687421051 0 0.19882160237142679 0.41840605504022471 0 0.1971452384373221 0.43029553551038879 0 0.1971452384373221 0.43029553551038879 0 0.20331795955727 0.44178175997017383 0 0.1849182962379031 0.44359250620182011 0 0.19251501946368851 0.46335242158140988 0 0.20331795955727 0.44178175997017383 0 0.1849182962379031 0.44359250620182011 0 0.19251501946368851 0.46335242158140988 0 0.20331795955727 0.44178175997017383 0 0.19251501946368851 0.46335242158140988 0 0.20609721151463109 0.45826118526402132 0 0.20331795955727 0.44178175997017383 0 0.19251501946368851 0.46335242158140988 0 0.20609721151463109 0.45826118526402132 0 0.19976242831190069 0.48116808532403971 0 0.21715720473947389 0.44679103964367711 0 0.220242507615898 0.47339551982183942 0 0.20609721151463109 0.45826118526402132 0 0.21715720473947389 0.44679103964367711 0 0.220242507615898 0.47339551982183942 0 0.20609721151463109 0.45826118526402132 0 0.20331795955727 0.44178175997017383 0 0.21715720473947389 0.44679103964367711 0 0.22999618869546701 0.43419770726556989 0 0.21715720473947389 0.44679103964367711 0 0.22478959831681561 0.44628002250685889 0 0.22999618869546701 0.43419770726556989 0 0.22478959831681561 0.44628002250685889 0 0.24059402992970871 0.4446235974270612 0 0.21715720473947389 0.44679103964367711 0 0.22478959831681561 0.44628002250685889 0 0.22693147006098471 0.45811878121704658 0 0.21715720473947389 0.44679103964367711 0 0.22693147006098471 0.45811878121704658 0 0.220242507615898 0.47339551982183942 0 0.22693147006098471 0.45811878121704658 0 0.23113625608443411 0.46939103018801659 0 0.220242507615898 0.47339551982183942 0 0.22693147006098471 0.45811878121704658 0 0.23870540464721121 0.46059229829315013 0 0.23113625608443411 0.46939103018801659 0 0.22478959831681561 0.44628002250685889 0 0.22693147006098471 0.45811878121704658 0 0.23870540464721121 0.46059229829315013 0 0.23870540464721121 0.46059229829315013 0 0.2442269679619716 0.4566526866451362 0 0.25606037152951822 0.48029614914657481 0 0.22478959831681561 0.44628002250685889 0 0.23870540464721121 0.46059229829315013 0 0.2442269679619716 0.4566526866451362 0 0.2442269679619716 0.4566526866451362 0 0.2470590775252231 0.45099891191126978 0 0.25207553745229377 0.45364513947565083 0 0.2470590775252231 0.45099891191126978 0 0.24059402992970871 0.4446235974270612 0 0.25156716754184683 0.44789819024522082 0 0.22478959831681561 0.44628002250685889 0 0.2442269679619716 0.4566526866451362 0 0.24059402992970871 0.4446235974270612 0 0.22478959831681561 0.44628002250685889 0 0.2442269679619716 0.4566526866451362 0 0.24884624880801609 0.43445921310700869 0 0.22999618869546701 0.43419770726556989 0 0.24059402992970871 0.4446235974270612 0 0.2442269679619716 0.4566526866451362 0 0.2470590775252231 0.45099891191126978 0 0.24059402992970871 0.4446235974270612 0 0.24884624880801609 0.43445921310700869 0 0.24059402992970871 0.4446235974270612 0 0.25156716754184683 0.44789819024522082 0 0.24837157445207361 0.5 0 0.23775017031970519 0.47892863111338679 0 0.25606037152951822 0.48029614914657481 0 0.24837157445207361 0.5 0 0.23775017031970519 0.47892863111338679 0 0.2233278104923222 0.50000000000000155 0 0.23870540464721121 0.46059229829315013 0 0.25606037152951822 0.48029614914657481 0 0.23870540464721121 0.46059229829315013 0 0.23775017031970519 0.47892863111338679 0 0.25606037152951822 0.48029614914657481 0 0.23870540464721121 0.46059229829315013 0 0.23775017031970519 0.47892863111338679 0 0.23113625608443411 0.46939103018801659 0 0.23775017031970519 0.47892863111338679 0 0.23113625608443411 0.46939103018801659 0 0.220242507615898 0.47339551982183942 0 0.23775017031970519 0.47892863111338679 0 0.220242507615898 0.47339551982183942 0 0.2233278104923222 0.50000000000000155 0 0.220242507615898 0.47339551982183942 0 0.2233278104923222 0.50000000000000155 0 0.220242507615898 0.47339551982183942 0 0.2233278104923222 0.50000000000000155 0 0.19976242831190069 0.48116808532403971 0 0.2233278104923222 0.50000000000000155 0 0.19976242831190069 0.48116808532403971 0 0.1958532341185977 0.5 0 0.20609721151463109 0.45826118526402132 0 0.220242507615898 0.47339551982183942 0 0.19976242831190069 0.48116808532403971 0 0.19976242831190069 0.48116808532403971 0 0.18817947215707159 0.49652249629675083 0 0.1761113036711954 0.47208480816325349 0 0.19251501946368851 0.46335242158140988 0 0.19976242831190069 0.48116808532403971 0 0.1761113036711954 0.47208480816325349 0 0.19976242831190069 0.48116808532403971 0 0.18817947215707159 0.49652249629675083 0 0.1958532341185977 0.5 0 0.18817947215707159 0.49652249629675083 0 0.17322880939906779 0.48867131076825232 0 0.1761113036711954 0.47208480816325349 0 0.18817947215707159 0.49652249629675083 0 0.1958532341185977 0.5 0 0.16837865774487329 0.5 0 0.18817947215707159 0.49652249629675083 0 0.17322880939906779 0.48867131076825232 0 0.16837865774487329 0.5 0 0.16837865774487329 0.5 0 0.1602458040231311 0.48607793861300491 0 0.14090408137114879 0.5 0 0.17322880939906779 0.48867131076825232 0 0.16837865774487329 0.5 0 0.1602458040231311 0.48607793861300491 0 0.17322880939906779 0.48867131076825232 0 0.1602458040231311 0.48607793861300491 0 0.1761113036711954 0.47208480816325349 0 0.1602458040231311 0.48607793861300491 0 0.1761113036711954 0.47208480816325349 0 0.16188999336116161 0.4639090971076934 0 0.1602458040231311 0.48607793861300491 0 0.16188999336116161 0.4639090971076934 0 0.1492132088551161 0.47432000738420438 0 0.18817947215707159 0.49652249629675083 0 0.1761113036711954 0.47208480816325349 0 0.19251501946368851 0.46335242158140988 0 0.17939693863952649 0.45666921399406002 0 0.1849182962379031 0.44359250620182011 0 0.1761113036711954 0.47208480816325349 0 0.17939693863952649 0.45666921399406002 0 0.1640431351853191 0.44764712002975637 0 0.19251501946368851 0.46335242158140988 0 0.1761113036711954 0.47208480816325349 0 0.17939693863952649 0.45666921399406002 0 0.17939693863952649 0.45666921399406002 0 0.1849182962379031 0.44359250620182011 0 0.1640431351853191 0.44764712002975637 0 0.17268080246038661 0.43578944144140569 0 0.1849182962379031 0.44359250620182011 0 0.1640431351853191 0.44764712002975637 0 0.1761113036711954 0.47208480816325349 0 0.1640431351853191 0.44764712002975637 0 0.1761113036711954 0.47208480816325349 0 0.1640431351853191 0.44764712002975637 0 0.16188999336116161 0.4639090971076934 0 0.1640431351853191 0.44764712002975637 0 0.16188999336116161 0.4639090971076934 0 0.1379275053092226 0.44980192190090618 0 0.16188999336116161 0.4639090971076934 0 0.1379275053092226 0.44980192190090618 0 0.1492132088551161 0.47432000738420438 0 0.14039264614926419 0.43409760548549847 0 0.1640431351853191 0.44764712002975637 0 0.1379275053092226 0.44980192190090618 0 0.1142280614004636 0.44188273683014229 0 0.14039264614926419 0.43409760548549847 0 0.1379275053092226 0.44980192190090618 0 0.1180657170444107 0.46235144142567919 0 0.1379275053092226 0.44980192190090618 0 0.1325274624765877 0.46670780663835049 0 0.1180657170444107 0.46235144142567919 0 0.1379275053092226 0.44980192190090618 0 0.1379275053092226 0.44980192190090618 0 0.1325274624765877 0.46670780663835049 0 0.1492132088551161 0.47432000738420438 0 0.12198042715027541 0.48126814430390719 0 0.1325274624765877 0.46670780663835049 0 0.1492132088551161 0.47432000738420438 0 0.11342950499742439 0.5 0 0.12198042715027541 0.48126814430390719 0 0.14090408137114879 0.5 0 0.12198042715027541 0.48126814430390719 0 0.14090408137114879 0.5 0 0.1492132088551161 0.47432000738420438 0 0.1602458040231311 0.48607793861300491 0 0.14090408137114879 0.5 0 0.1492132088551161 0.47432000738420438 0 0.35583680672812479 0.48312900236458078 0 0.3579965501949201 0.46531213549317929 0 0.34219837712682333 0.47045712308609589 0 0.35583680672812479 0.48312900236458078 0 0.34219837712682333 0.47045712308609589 0 0.34194298176788068 0.49999999999999761 0 0.35583680672812479 0.48312900236458078 0 0.36238974973300309 0.49095811398892453 0 0.34194298176788068 0.49999999999999761 0 0.36238974973300309 0.49095811398892453 0 0.36554308048952572 0.5 0 0.34194298176788068 0.49999999999999761 0 0.35583680672812479 0.48312900236458078 0 0.36238974973300309 0.49095811398892453 0 0.37353932790407451 0.4897100248141647 0 0.36238974973300309 0.49095811398892453 0 0.36554308048952572 0.5 0 0.37353932790407451 0.4897100248141647 0 0.37353932790407451 0.4897100248141647 0 0.3579965501949201 0.46531213549317929 0 0.37615225476051178 0.47260000609078862 0 0.35583680672812479 0.48312900236458078 0 0.37353932790407451 0.4897100248141647 0 0.3579965501949201 0.46531213549317929 0 0.37353932790407451 0.4897100248141647 0 0.3579965501949201 0.46531213549317929 0 0.37234436633307222 0.45664581748427779 0 0.35993673284775868 0.44622476303668351 0 0.3579965501949201 0.46531213549317929 0 0.37234436633307222 0.45664581748427779 0 0.3579965501949201 0.46531213549317929 0 0.37615225476051178 0.47260000609078862 0 0.35993673284775868 0.44622476303668351 0 0.35435066047913238 0.43276507937342601 0 0.37253831474590338 0.43548653666034037 0 0.37234436633307222 0.45664581748427779 0 0.35993673284775868 0.44622476303668351 0 0.37253831474590338 0.43548653666034037 0 0.35993673284775868 0.44622476303668351 0 0.3579965501949201 0.46531213549317929 0 0.34245377248576581 0.44091424617219399 0 0.35993673284775868 0.44622476303668351 0 0.34245377248576581 0.44091424617219399 0 0.35435066047913238 0.43276507937342601 0 0.3579965501949201 0.46531213549317929 0 0.34245377248576581 0.44091424617219399 0 0.3579965501949201 0.46531213549317929 0 0.34245377248576581 0.44091424617219399 0 0.34219837712682333 0.47045712308609589 0 0.33095378344154353 0.45698653610792739 0 0.34245377248576581 0.44091424617219399 0 0.34219837712682333 0.47045712308609589 0 0.34245377248576581 0.44091424617219399 0 0.34219837712682333 0.47045712308609589 0 0.33095378344154353 0.45698653610792739 0 0.32692461346357832 0.47019464132377481 0 0.34219837712682333 0.47045712308609589 0 0.33095378344154353 0.45698653610792739 0 0.34245377248576581 0.44091424617219399 0 0.33109210949050688 0.44447028457905091 0 0.34245377248576581 0.44091424617219399 0 0.33109210949050688 0.44447028457905091 0 0.33000828360097118 0.43687562973578659 0 0.32095259843374713 0.44310472630029568 0 0.31410804400523717 0.45996196647526261 0 0.30375803890432818 0.44602069750819079 0 0.33109210949050688 0.44447028457905091 0 0.32095259843374713 0.44310472630029568 0 0.33000828360097118 0.43687562973578659 0 0.33095378344154353 0.45698653610792739 0 0.33109210949050688 0.44447028457905091 0 0.32095259843374713 0.44310472630029568 0 0.33095378344154353 0.45698653610792739 0 0.31410804400523717 0.45996196647526261 0 0.32692461346357832 0.47019464132377481 0 0.33095378344154353 0.45698653610792739 0 0.32095259843374713 0.44310472630029568 0 0.31410804400523717 0.45996196647526261 0 0.31410804400523717 0.45996196647526261 0 0.31723661174276091 0.47937706726328522 0 0.32692461346357832 0.47019464132377481 0 0.31723661174276091 0.47937706726328522 0 0.32692461346357832 0.47019464132377481 0 0.33012625100152659 0.48419051368630273 0 0.32692461346357832 0.47019464132377481 0 0.33012625100152659 0.48419051368630273 0 0.34219837712682333 0.47045712308609589 0 0.34219837712682333 0.47045712308609589 0 0.34194298176788068 0.49999999999999761 0 0.33012625100152659 0.48419051368630273 0 0.34219837712682333 0.47045712308609589 0 0.34194298176788068 0.49999999999999761 0 0.33012625100152659 0.48419051368630273 0 0.34194298176788068 0.49999999999999761 0 0.32153798220707358 0.5 0 0.31723661174276091 0.47937706726328522 0 0.32153798220707358 0.5 0 0.30729920600206723 0.48837753395616712 0 0.31723661174276091 0.47937706726328522 0 0.33012625100152659 0.48419051368630273 0 0.32153798220707358 0.5 0 0.30729920600206723 0.48837753395616712 0 0.30113298264626648 0.50000000000000355 0 0.29545692194689799 0.48399131919707061 0 0.32153798220707358 0.5 0 0.30729920600206723 0.48837753395616712 0 0.30113298264626648 0.50000000000000355 0 0.31723661174276091 0.47937706726328522 0 0.30729920600206723 0.48837753395616712 0 0.30253420512455442 0.47197552743450039 0 0.31410804400523717 0.45996196647526261 0 0.31723661174276091 0.47937706726328522 0 0.30253420512455442 0.47197552743450039 0 0.30729920600206723 0.48837753395616712 0 0.30253420512455442 0.47197552743450039 0 0.29545692194689799 0.48399131919707061 0 0.30253420512455442 0.47197552743450039 0 0.28310170725228351 0.47739801492169098 0 0.29262987076784958 0.45882396329937702 0 0.30253420512455442 0.47197552743450039 0 0.29545692194689799 0.48399131919707061 0 0.28310170725228351 0.47739801492169098 0 0.29545692194689799 0.48399131919707061 0 0.28310170725228351 0.47739801492169098 0 0.30113298264626648 0.50000000000000355 0 0.29545692194689799 0.48399131919707061 0 0.28310170725228351 0.47739801492169098 0 0.30113298264626648 0.50000000000000355 0 0.28310170725228351 0.47739801492169098 0 0.30113298264626648 0.50000000000000355 0 0.28310170725228351 0.47739801492169098 0 0.27341533841182508 0.49999999999999972 0 0.27341533841182508 0.49999999999999972 0 0.26962469588610882 0.47925442339647012 0 0.25606037152951822 0.48029614914657481 0 0.28310170725228351 0.47739801492169098 0 0.27341533841182508 0.49999999999999972 0 0.26962469588610882 0.47925442339647012 0 0.28310170725228351 0.47739801492169098 0 0.26962469588610882 0.47925442339647012 0 0.2636643376071276 0.46702535078341351 0 0.28310170725228351 0.47739801492169098 0 0.2636643376071276 0.46702535078341351 0 0.27240318936628538 0.4639875524704265 0 0.28310170725228351 0.47739801492169098 0 0.2636643376071276 0.46702535078341351 0 0.28310170725228351 0.47739801492169098 0 0.27240318936628538 0.4639875524704265 0 0.26962469588610882 0.47925442339647012 0 0.25606037152951822 0.48029614914657481 0 0.2636643376071276 0.46702535078341351 0 0.24837157445207361 0.5 0 0.27341533841182508 0.49999999999999972 0 0.25606037152951822 0.48029614914657481 0 0.27341533841182508 0.49999999999999972 0 0.25606037152951822 0.48029614914657481 0 0.24884624880801609 0.43445921310700869 0 0.26170467148028781 0.45057709001916157 0 0.24884624880801609 0.43445921310700869 0 0.26170467148028781 0.45057709001916157 0 0.26851235784897121 0.42800655497011919 0 0.24884624880801609 0.43445921310700869 0 0.26170467148028781 0.45057709001916157 0 0.25156716754184683 0.44789819024522082 0 0.25945063919974548 0.45167400968083993 0 0.26170467148028781 0.45057709001916157 0 0.25945063919974548 0.45167400968083993 0 0.26170467148028781 0.45057709001916157 0 0.25156716754184683 0.44789819024522082 0 0.25945063919974548 0.45167400968083993 0 0.25156716754184683 0.44789819024522082 0 0.25207553745229377 0.45364513947565083 0 0.2470590775252231 0.45099891191126978 0 0.25156716754184683 0.44789819024522082 0 0.25207553745229377 0.45364513947565083 0 0.2442269679619716 0.4566526866451362 0 0.2636643376071276 0.46702535078341351 0 0.2589208905112852 0.4572603048457714 0 0.2442269679619716 0.4566526866451362 0 0.2636643376071276 0.46702535078341351 0 0.2442269679619716 0.4566526866451362 0 0.25207553745229377 0.45364513947565083 0 0.2589208905112852 0.4572603048457714 0 0.2442269679619716 0.4566526866451362 0 0.25606037152951822 0.48029614914657481 0 0.2636643376071276 0.46702535078341351 0 0.25945063919974548 0.45167400968083993 0 0.25207553745229377 0.45364513947565083 0 0.2589208905112852 0.4572603048457714 0 0.2636643376071276 0.46702535078341351 0 0.2589208905112852 0.4572603048457714 0 0.27240318936628538 0.4639875524704265 0 0.26170467148028781 0.45057709001916157 0 0.2589208905112852 0.4572603048457714 0 0.27240318936628538 0.4639875524704265 0 0.25945063919974548 0.45167400968083993 0 0.26170467148028781 0.45057709001916157 0 0.2589208905112852 0.4572603048457714 0 0.26170467148028781 0.45057709001916157 0 0.27240318936628538 0.4639875524704265 0 0.26170467148028781 0.45057709001916157 0 0.27240318936628538 0.4639875524704265 0 0.28426811759836462 0.43959664049505959 0 0.26170467148028781 0.45057709001916157 0 0.28426811759836462 0.43959664049505959 0 0.26851235784897121 0.42800655497011919 0 0.26170467148028781 0.45057709001916157 0 0.28426811759836462 0.43959664049505959 0 0.28426811759836462 0.43959664049505959 0 0.29262987076784958 0.45882396329937702 0 0.30375803890432818 0.44602069750819079 0 0.27240318936628538 0.4639875524704265 0 0.28426811759836462 0.43959664049505959 0 0.29262987076784958 0.45882396329937702 0 0.28310170725228351 0.47739801492169098 0 0.27240318936628538 0.4639875524704265 0 0.29262987076784958 0.45882396329937702 0 0.31410804400523717 0.45996196647526261 0 0.30253420512455442 0.47197552743450039 0 0.29262987076784958 0.45882396329937702 0 0.31410804400523717 0.45996196647526261 0 0.29262987076784958 0.45882396329937702 0 0.30375803890432818 0.44602069750819079 0 0.28426811759836462 0.43959664049505959 0 0.30375803890432818 0.44602069750819079 0 0.30683156371644232 0.42861619097095932 0 0.32095259843374713 0.44310472630029568 0 0.30375803890432818 0.44602069750819079 0 0.30683156371644232 0.42861619097095932 0 0.30982962526437491 0.41762036957565962 0 0.29026424069423029 0.41760499770446241 0 0.30683156371644232 0.42861619097095932 0 0.30982962526437491 0.41762036957565962 0 0.29026424069423029 0.41760499770446241 0 0.30982962526437491 0.41762036957565962 0 0.30437850126920252 0.4062965375082539 0 0.29026424069423029 0.41760499770446241 0 0.30982962526437491 0.41762036957565962 0 0.30437850126920252 0.4062965375082539 0 0.31826127631298601 0.40695797879515588 0 0.30437850126920252 0.4062965375082539 0 0.29026424069423029 0.41760499770446241 0 0.28529905891015428 0.40256617253956012 0 0.29026424069423029 0.41760499770446241 0 0.27269391678514099 0.40940408842205978 0 0.28529905891015428 0.40256617253956012 0 0.28426811759836462 0.43959664049505959 0 0.30683156371644232 0.42861619097095932 0 0.29026424069423029 0.41760499770446241 0 0.28426811759836462 0.43959664049505959 0 0.30683156371644232 0.42861619097095932 0 0.28426811759836462 0.43959664049505959 0 0.29026424069423029 0.41760499770446241 0 0.26851235784897121 0.42800655497011919 0 0.29026424069423029 0.41760499770446241 0 0.26851235784897121 0.42800655497011919 0 0.27269391678514099 0.40940408842205978 0 0.26851235784897121 0.42800655497011919 0 0.27269391678514099 0.40940408842205978 0 0.2551889496141147 0.41809586073196209 0 0.24892423422438431 0.40634118258432489 0 0.2551889496141147 0.41809586073196209 0 0.26027935348245851 0.39958943436075761 0 0.27269391678514099 0.40940408842205978 0 0.2551889496141147 0.41809586073196209 0 0.26027935348245851 0.39958943436075761 0 0.24884624880801609 0.43445921310700869 0 0.26851235784897121 0.42800655497011919 0 0.2551889496141147 0.41809586073196209 0 0.25782190365108681 0.38500266191309951 0 0.2686063906315464 0.38029980437340921 0 0.25755511223865502 0.37179938211912988 0 0.25782190365108681 0.38500266191309951 0 0.25015794308343509 0.37639538023269642 0 0.25755511223865502 0.37179938211912988 0 0.24662507911550041 0.38390498230967618 0 0.25782190365108681 0.38500266191309951 0 0.25015794308343509 0.37639538023269642 0 0.24738735982592119 0.39100718209703472 0 0.24662507911550041 0.38390498230967618 0 0.25782190365108681 0.38500266191309951 0 0.24738735982592119 0.39100718209703472 0 0.25782190365108681 0.38500266191309951 0 0.26027935348245851 0.39958943436075761 0 0.24738735982592119 0.39100718209703472 0 0.24892423422438431 0.40634118258432489 0 0.26027935348245851 0.39958943436075761 0 0.25782190365108681 0.38500266191309951 0 0.26027935348245851 0.39958943436075761 0 0.27272803977081361 0.39301704983851188 0 0.27269391678514099 0.40940408842205978 0 0.27272803977081361 0.39301704983851188 0 0.28529905891015428 0.40256617253956012 0 0.27269391678514099 0.40940408842205978 0 0.26027935348245851 0.39958943436075761 0 0.27272803977081361 0.39301704983851188 0 0.27272803977081361 0.39301704983851188 0 0.2686063906315464 0.38029980437340921 0 0.28643059603138399 0.38650818922451269 0 0.2686063906315464 0.38029980437340921 0 0.28643059603138399 0.38650818922451269 0 0.26848269079356563 0.36671984094077159 0 0.28643059603138399 0.38650818922451269 0 0.26848269079356563 0.36671984094077159 0 0.25782190365108681 0.38500266191309951 0 0.27272803977081361 0.39301704983851188 0 0.2686063906315464 0.38029980437340921 0 0.28643059603138399 0.38650818922451269 0 0.30356649718312401 0.38440741026254638 0 0.28683749003618458 0.36977965039555699 0 0.30437850126920252 0.4062965375082539 0 0.28643059603138399 0.38650818922451269 0 0.28529905891015428 0.40256617253956012 0 0.30437850126920252 0.4062965375082539 0 0.28643059603138399 0.38650818922451269 0 0.27272803977081361 0.39301704983851188 0 0.28643059603138399 0.38650818922451269 0 0.28529905891015428 0.40256617253956012 0 0.30437850126920252 0.4062965375082539 0 0.30356649718312401 0.38440741026254638 0 0.31472733001881992 0.39471107276520462 0 0.30437850126920252 0.4062965375082539 0 0.28643059603138399 0.38650818922451269 0 0.30356649718312401 0.38440741026254638 0 0.30437850126920252 0.4062965375082539 0 0.31472733001881992 0.39471107276520462 0 0.31826127631298601 0.40695797879515588 0 0.30356649718312401 0.38440741026254638 0 0.32121645566082502 0.38058545846033898 0 0.30487425361449499 0.36268686223379359 0 0.30356649718312401 0.38440741026254638 0 0.32121645566082502 0.38058545846033898 0 0.31472733001881992 0.39471107276520462 0 0.32121645566082502 0.38058545846033898 0 0.33210229585353229 0.3842260822289339 0 0.32621391966796209 0.3953079787997279 0 0.32121645566082502 0.38058545846033898 0 0.32621391966796209 0.3953079787997279 0 0.31472733001881992 0.39471107276520462 0 0.32121645566082502 0.38058545846033898 0 0.33210229585353229 0.3842260822289339 0 0.33351993558275939 0.37262028277448378 0 0.33210229585353229 0.3842260822289339 0 0.33577959391482459 0.39263163147215718 0 0.34379682244895299 0.38848187671542261 0 0.33210229585353229 0.3842260822289339 0 0.34317742548078273 0.37875369722152602 0 0.34379682244895299 0.38848187671542261 0 0.33210229585353229 0.3842260822289339 0 0.34317742548078273 0.37875369722152602 0 0.33351993558275939 0.37262028277448378 0 0.33622850769911272 0.40171844933089101 0 0.34289202642355487 0.39685776983267063 0 0.34645362448043748 0.40517813665836422 0 0.34289202642355487 0.39685776983267063 0 0.33577959391482459 0.39263163147215718 0 0.34379682244895299 0.38848187671542261 0 0.33622850769911272 0.40171844933089101 0 0.34289202642355487 0.39685776983267063 0 0.33577959391482459 0.39263163147215718 0 0.33210229585353229 0.3842260822289339 0 0.33577959391482459 0.39263163147215718 0 0.32621391966796209 0.3953079787997279 0 0.33622850769911272 0.40171844933089101 0 0.33577959391482459 0.39263163147215718 0 0.32621391966796209 0.3953079787997279 0 0.33622850769911272 0.40171844933089101 0 0.32621391966796209 0.3953079787997279 0 0.32953020834232249 0.40717746652130182 0 0.32621391966796209 0.3953079787997279 0 0.31826127631298601 0.40695797879515588 0 0.32953020834232249 0.40717746652130182 0 0.32621391966796209 0.3953079787997279 0 0.31472733001881992 0.39471107276520462 0 0.31826127631298601 0.40695797879515588 0 0.30982962526437491 0.41762036957565962 0 0.31826127631298601 0.40695797879515588 0 0.32939500983451941 0.41763574144685789 0 0.30982962526437491 0.41762036957565962 0 0.32939500983451941 0.41763574144685789 0 0.30683156371644232 0.42861619097095932 0 0.30982962526437491 0.41762036957565962 0 0.32939500983451941 0.41763574144685789 0 0.31826127631298601 0.40695797879515588 0 0.32953020834232249 0.40717746652130182 0 0.32939500983451941 0.41763574144685789 0 0.30683156371644232 0.42861619097095932 0 0.32375509616154158 0.43001805953956868 0 0.32939500983451941 0.41763574144685789 0 0.32095259843374713 0.44310472630029568 0 0.30683156371644232 0.42861619097095932 0 0.32375509616154158 0.43001805953956868 0 0.30683156371644232 0.42861619097095932 0 0.32939500983451941 0.41763574144685789 0 0.32095259843374713 0.44310472630029568 0 0.32375509616154158 0.43001805953956868 0 0.33000828360097118 0.43687562973578659 0 0.34245377248576581 0.44091424617219399 0 0.33158802522202752 0.42385800924394251 0 0.34245377248576581 0.44091424617219399 0 0.33158802522202752 0.42385800924394251 0 0.34262651687976559 0.42093202570182547 0 0.34245377248576581 0.44091424617219399 0 0.33000828360097118 0.43687562973578659 0 0.33158802522202752 0.42385800924394251 0 0.34245377248576581 0.44091424617219399 0 0.34262651687976559 0.42093202570182547 0 0.32375509616154158 0.43001805953956868 0 0.33000828360097118 0.43687562973578659 0 0.33158802522202752 0.42385800924394251 0 0.32375509616154158 0.43001805953956868 0 0.33158802522202752 0.42385800924394251 0 0.32939500983451941 0.41763574144685789 0 0.32939500983451941 0.41763574144685789 0 0.35719396282022009 0.41765758215860938 0 0.32939500983451941 0.41763574144685789 0 0.34262651687976559 0.42093202570182547 0 0.35719396282022009 0.41765758215860938 0 0.32939500983451941 0.41763574144685789 0 0.34031529762505941 0.41232140833279651 0 0.35719396282022009 0.41765758215860938 0 0.33622850769911272 0.40171844933089101 0 0.32953020834232249 0.40717746652130182 0 0.34031529762505941 0.41232140833279651 0 0.32953020834232249 0.40717746652130182 0 0.32939500983451941 0.41763574144685789 0 0.34031529762505941 0.41232140833279651 0 0.33158802522202752 0.42385800924394251 0 0.32939500983451941 0.41763574144685789 0 0.34262651687976559 0.42093202570182547 0 0.32939500983451941 0.41763574144685789 0 0.34031529762505941 0.41232140833279651 0 0.33622850769911272 0.40171844933089101 0 0.34031529762505941 0.41232140833279651 0 0.34645362448043748 0.40517813665836422 0 0.34031529762505941 0.41232140833279651 0 0.35719396282022009 0.41765758215860938 0 0.34645362448043748 0.40517813665836422 0 0.35719396282022009 0.41765758215860938 0 0.35743329757792469 0.40759840142825282 0 0.34645362448043748 0.40517813665836422 0 0.35719396282022009 0.41765758215860938 0 0.34645362448043748 0.40517813665836422 0 0.34245377248576581 0.44091424617219399 0 0.34262651687976559 0.42093202570182547 0 0.35435066047913238 0.43276507937342601 0 0.34262651687976559 0.42093202570182547 0 0.35719396282022009 0.41765758215860938 0 0.35435066047913238 0.43276507937342601 0 0.35719396282022009 0.41765758215860938 0 0.37253831474590338 0.43548653666034037 0 0.35719396282022009 0.41765758215860938 0 0.35435066047913238 0.43276507937342601 0 0.37253831474590338 0.43548653666034037 0 0.35719396282022009 0.41765758215860938 0 0.37253831474590338 0.43548653666034037 0 0.37263512358100759 0.41766971376448148 0 0.37263512358100759 0.41766971376448148 0 0.36552146282708092 0.40055327418533559 0 0.38099658063248659 0.40323918451089708 0 0.35743329757792469 0.40759840142825282 0 0.37263512358100759 0.41766971376448148 0 0.36552146282708092 0.40055327418533559 0 0.35719396282022009 0.41765758215860938 0 0.37263512358100759 0.41766971376448148 0 0.35719396282022009 0.41765758215860938 0 0.35743329757792469 0.40759840142825282 0 0.37263512358100759 0.41766971376448148 0 0.36552146282708092 0.40055327418533559 0 0.36460528593267483 0.38449987087582432 0 0.35310066534665657 0.39511327574183042 0 0.36552146282708092 0.40055327418533559 0 0.37238120952571291 0.39348532896574417 0 0.36460528593267483 0.38449987087582432 0 0.36552146282708092 0.40055327418533559 0 0.37238120952571291 0.39348532896574417 0 0.38099658063248659 0.40323918451089708 0 0.36460528593267483 0.38449987087582432 0 0.37980872133630089 0.38482324852666477 0 0.37238120952571291 0.39348532896574417 0 0.36460528593267483 0.38449987087582432 0 0.37980872133630089 0.38482324852666477 0 0.36460528593267483 0.38449987087582432 0 0.36919400944770597 0.37267712336721581 0 0.37980872133630089 0.38482324852666477 0 0.3600242324362542 0.37851657592286719 0 0.36460528593267483 0.38449987087582432 0 0.36919400944770597 0.37267712336721581 0 0.36460528593267483 0.38449987087582432 0 0.35327722899375558 0.38368771630629811 0 0.35310066534665657 0.39511327574183042 0 0.3600242324362542 0.37851657592286719 0 0.35327722899375558 0.38368771630629811 0 0.35302040537088047 0.37320159314213108 0 0.3600242324362542 0.37851657592286719 0 0.36460528593267483 0.38449987087582432 0 0.35327722899375558 0.38368771630629811 0 0.34317742548078273 0.37875369722152602 0 0.35327722899375558 0.38368771630629811 0 0.35302040537088047 0.37320159314213108 0 0.35327722899375558 0.38368771630629811 0 0.34379682244895299 0.38848187671542261 0 0.35310066534665657 0.39511327574183042 0 0.34317742548078273 0.37875369722152602 0 0.35327722899375558 0.38368771630629811 0 0.34379682244895299 0.38848187671542261 0 0.34289202642355487 0.39685776983267063 0 0.34379682244895299 0.38848187671542261 0 0.35310066534665657 0.39511327574183042 0 0.34289202642355487 0.39685776983267063 0 0.34645362448043748 0.40517813665836422 0 0.35310066534665657 0.39511327574183042 0 0.35743329757792469 0.40759840142825282 0 0.36552146282708092 0.40055327418533559 0 0.35310066534665657 0.39511327574183042 0 0.35743329757792469 0.40759840142825282 0 0.34645362448043748 0.40517813665836422 0 0.35310066534665657 0.39511327574183042 0 0.34682963497508862 0.35586506809233742 0 0.36138990915836477 0.35805682184789461 0 0.34337586215548521 0.36020762055692468 0 0.35133735085033568 0.3486037172648741 0 0.36138990915836477 0.35805682184789461 0 0.35708457082267459 0.34195384488769381 0 0.35133735085033568 0.3486037172648741 0 0.3508874017229463 0.3311701865389331 0 0.34049523757260441 0.35597266495751162 0 0.35133735085033568 0.3486037172648741 0 0.34682963497508862 0.35586506809233742 0 0.36138990915836477 0.35805682184789461 0 0.35133735085033568 0.3486037172648741 0 0.34682963497508862 0.35586506809233742 0 0.34049523757260441 0.35597266495751162 0 0.36919400944770597 0.37267712336721581 0 0.36138990915836477 0.35805682184789461 0 0.34337586215548521 0.36020762055692468 0 0.36919400944770597 0.37267712336721581 0 0.34337586215548521 0.36020762055692468 0 0.35302040537088047 0.37320159314213108 0 0.36919400944770597 0.37267712336721581 0 0.34337586215548521 0.36020762055692468 0 0.35302040537088047 0.37320159314213108 0 0.34334786463481559 0.37030463216188669 0 0.34337586215548521 0.36020762055692468 0 0.34317742548078273 0.37875369722152602 0 0.35302040537088047 0.37320159314213108 0 0.34334786463481559 0.37030463216188669 0 0.3600242324362542 0.37851657592286719 0 0.35302040537088047 0.37320159314213108 0 0.36919400944770597 0.37267712336721581 0 0.36919400944770597 0.37267712336721581 0 0.37430332883695422 0.35867341269957492 0 0.36138990915836477 0.35805682184789461 0 0.36138990915836477 0.35805682184789461 0 0.36576233028553462 0.33304381217517481 0 0.35708457082267459 0.34195384488769381 0 0.36138990915836477 0.35805682184789461 0 0.36576233028553462 0.33304381217517481 0 0.36138990915836477 0.35805682184789461 0 0.37301667831521118 0.34711577528834381 0 0.36576233028553462 0.33304381217517481 0 0.37430332883695422 0.35867341269957492 0 0.36138990915836477 0.35805682184789461 0 0.37301667831521118 0.34711577528834381 0 0.37301667831521118 0.34711577528834381 0 0.36576233028553462 0.33304381217517481 0 0.37994430171133392 0.33544338875816959 0 0.36576233028553462 0.33304381217517481 0 0.37591983961542041 0.32242147603143712 0 0.37994430171133392 0.33544338875816959 0 0.36576233028553462 0.33304381217517481 0 0.37013475141270452 0.30803080250245513 0 0.37591983961542041 0.32242147603143712 0 0.36576233028553462 0.33304381217517481 0 0.37013475141270452 0.30803080250245513 0 0.36576233028553462 0.33304381217517481 0 0.36127956587328958 0.30636770812035502 0 0.37013475141270452 0.30803080250245513 0 0.36576233028553462 0.33304381217517481 0 0.3508874017229463 0.3311701865389331 0 0.36127956587328958 0.30636770812035502 0 0.34896918438839658 0.31729859274974809 0 0.3508874017229463 0.3311701865389331 0 0.36127956587328958 0.30636770812035502 0 0.3508874017229463 0.3311701865389331 0 0.36127956587328958 0.30636770812035502 0 0.34896918438839658 0.31729859274974809 0 0.3508874017229463 0.3311701865389331 0 0.33900528632107851 0.32670479229462668 0 0.34896918438839658 0.31729859274974809 0 0.33684701980875592 0.31488860198216628 0 0.35059857293052588 0.3077912477928767 0 0.3508874017229463 0.3311701865389331 0 0.34049523757260441 0.35597266495751162 0 0.35133735085033568 0.3486037172648741 0 0.35708457082267459 0.34195384488769381 0 0.3508874017229463 0.3311701865389331 0 0.36576233028553462 0.33304381217517481 0 0.35708457082267459 0.34195384488769381 0 0.3508874017229463 0.3311701865389331 0 0.3508874017229463 0.3311701865389331 0 0.3363700417931304 0.33966583825322999 0 0.34049523757260441 0.35597266495751162 0 0.3363700417931304 0.33966583825322999 0 0.33900528632107851 0.32670479229462668 0 0.32295472682008552 0.32512612632796961 0 0.3508874017229463 0.3311701865389331 0 0.3363700417931304 0.33966583825322999 0 0.33900528632107851 0.32670479229462668 0 0.33684701980875592 0.31488860198216628 0 0.33900528632107851 0.32670479229462668 0 0.32295472682008552 0.32512612632796961 0 0.34896918438839658 0.31729859274974809 0 0.33684701980875592 0.31488860198216628 0 0.33900528632107851 0.32670479229462668 0 0.33684701980875592 0.31488860198216628 0 0.32295472682008552 0.32512612632796961 0 0.31458304428353978 0.30618276432357011 0 0.32295472682008552 0.32512612632796961 0 0.3196452340747748 0.34145766530026572 0 0.29879523057694513 0.3269426656430201 0 0.3363700417931304 0.33966583825322999 0 0.32295472682008552 0.32512612632796961 0 0.3196452340747748 0.34145766530026572 0 0.3196452340747748 0.34145766530026572 0 0.32395022330109169 0.36266458674527868 0 0.30487425361449499 0.36268686223379359 0 0.3196452340747748 0.34145766530026572 0 0.34049523757260441 0.35597266495751162 0 0.32395022330109169 0.36266458674527868 0 0.3363700417931304 0.33966583825322999 0 0.3196452340747748 0.34145766530026572 0 0.34049523757260441 0.35597266495751162 0 0.3196452340747748 0.34145766530026572 0 0.34049523757260441 0.35597266495751162 0 0.34682963497508862 0.35586506809233742 0 0.34049523757260441 0.35597266495751162 0 0.34337586215548521 0.36020762055692468 0 0.34049523757260441 0.35597266495751162 0 0.33351993558275939 0.37262028277448378 0 0.34049523757260441 0.35597266495751162 0 0.34337586215548521 0.36020762055692468 0 0.33351993558275939 0.37262028277448378 0 0.34049523757260441 0.35597266495751162 0 0.33351993558275939 0.37262028277448378 0 0.32395022330109169 0.36266458674527868 0 0.34334786463481559 0.37030463216188669 0 0.34337586215548521 0.36020762055692468 0 0.33351993558275939 0.37262028277448378 0 0.34317742548078273 0.37875369722152602 0 0.34334786463481559 0.37030463216188669 0 0.33351993558275939 0.37262028277448378 0 0.32121645566082502 0.38058545846033898 0 0.32395022330109169 0.36266458674527868 0 0.30487425361449499 0.36268686223379359 0 0.32121645566082502 0.38058545846033898 0 0.33351993558275939 0.37262028277448378 0 0.32395022330109169 0.36266458674527868 0 0.30356649718312401 0.38440741026254638 0 0.30487425361449499 0.36268686223379359 0 0.28683749003618458 0.36977965039555699 0 0.3196452340747748 0.34145766530026572 0 0.30487425361449499 0.36268686223379359 0 0.29452988043128442 0.34484301358192521 0 0.30487425361449499 0.36268686223379359 0 0.29452988043128442 0.34484301358192521 0 0.28899943946757051 0.35724666072332262 0 0.28899943946757051 0.35724666072332262 0 0.27551711882268087 0.35747890214303579 0 0.27957778557798219 0.34785942156275229 0 0.29452988043128442 0.34484301358192521 0 0.28899943946757051 0.35724666072332262 0 0.27957778557798219 0.34785942156275229 0 0.30487425361449499 0.36268686223379359 0 0.28899943946757051 0.35724666072332262 0 0.28683749003618458 0.36977965039555699 0 0.28899943946757051 0.35724666072332262 0 0.28683749003618458 0.36977965039555699 0 0.27551711882268087 0.35747890214303579 0 0.28643059603138399 0.38650818922451269 0 0.28683749003618458 0.36977965039555699 0 0.26848269079356563 0.36671984094077159 0 0.28683749003618458 0.36977965039555699 0 0.26848269079356563 0.36671984094077159 0 0.27551711882268087 0.35747890214303579 0 0.27551711882268087 0.35747890214303579 0 0.25609553717151962 0.33948775258255742 0 0.27002890647204358 0.34288665359628479 0 0.27551711882268087 0.35747890214303579 0 0.25609553717151962 0.33948775258255742 0 0.27551711882268087 0.35747890214303579 0 0.27957778557798219 0.34785942156275229 0 0.27002890647204358 0.34288665359628479 0 0.26848269079356563 0.36671984094077159 0 0.27551711882268087 0.35747890214303579 0 0.25053478555574732 0.34693149265703049 0 0.27551711882268087 0.35747890214303579 0 0.25053478555574732 0.34693149265703049 0 0.25609553717151962 0.33948775258255742 0 0.26848269079356563 0.36671984094077159 0 0.25053478555574732 0.34693149265703049 0 0.26848269079356563 0.36671984094077159 0 0.25053478555574732 0.34693149265703049 0 0.25458279346296919 0.36065684054664832 0 0.2467928684213696 0.35504984426619662 0 0.25053478555574732 0.34693149265703049 0 0.25458279346296919 0.36065684054664832 0 0.25458279346296919 0.36065684054664832 0 0.25755511223865502 0.37179938211912988 0 0.25086148503025818 0.36791768504038341 0 0.24684450495698829 0.36135141315910069 0 0.25458279346296919 0.36065684054664832 0 0.25086148503025818 0.36791768504038341 0 0.25015794308343509 0.37639538023269642 0 0.25755511223865502 0.37179938211912988 0 0.25086148503025818 0.36791768504038341 0 0.2686063906315464 0.38029980437340921 0 0.26848269079356563 0.36671984094077159 0 0.25755511223865502 0.37179938211912988 0 0.26848269079356563 0.36671984094077159 0 0.25458279346296919 0.36065684054664832 0 0.25755511223865502 0.37179938211912988 0 0.26370847933705099 0.32087329204338988 0 0.25664323506587888 0.32560844525098981 0 0.26289963570094832 0.33011014482523909 0 0.26370847933705099 0.32087329204338988 0 0.25599836769244699 0.32008908978393158 0 0.25664323506587888 0.32560844525098981 0 0.26370847933705099 0.32087329204338988 0 0.25692435183014728 0.31469806639384051 0 0.26164243429153983 0.31073638142567478 0 0.26370847933705099 0.32087329204338988 0 0.25599836769244699 0.32008908978393158 0 0.25692435183014728 0.31469806639384051 0 0.25599836769244699 0.32008908978393158 0 0.25692435183014728 0.31469806639384051 0 0.25181126385540392 0.3158872292956737 0 0.25692435183014728 0.31469806639384051 0 0.25181126385540392 0.3158872292956737 0 0.25517372396781518 0.31007305485058118 0 0.25599836769244699 0.32008908978393158 0 0.25181126385540392 0.3158872292956737 0 0.2519964294110788 0.32181255064985959 0 0.25599836769244699 0.32008908978393158 0 0.2519964294110788 0.32181255064985959 0 0.25664323506587888 0.32560844525098981 0 0.2519964294110788 0.32181255064985959 0 0.25664323506587888 0.32560844525098981 0 0.25012038484626709 0.32780996745395108 0 0.25012038484626709 0.32780996745395108 0 0.25609553717151962 0.33948775258255742 0 0.25796698240991017 0.33189932159706431 0 0.25664323506587888 0.32560844525098981 0 0.25012038484626709 0.32780996745395108 0 0.25796698240991017 0.33189932159706431 0 0.25609553717151962 0.33948775258255742 0 0.26407611926493679 0.33648029787258432 0 0.25796698240991017 0.33189932159706431 0 0.25609553717151962 0.33948775258255742 0 0.26407611926493679 0.33648029787258432 0 0.27002890647204358 0.34288665359628479 0 0.25664323506587888 0.32560844525098981 0 0.25796698240991017 0.33189932159706431 0 0.26289963570094832 0.33011014482523909 0 0.26407611926493679 0.33648029787258432 0 0.25796698240991017 0.33189932159706431 0 0.26289963570094832 0.33011014482523909 0 0.26407611926493679 0.33648029787258432 0 0.26289963570094832 0.33011014482523909 0 0.27452469993110051 0.33211783650765803 0 0.27957778557798219 0.34785942156275229 0 0.27002890647204358 0.34288665359628479 0 0.27452469993110051 0.33211783650765803 0 0.26407611926493679 0.33648029787258432 0 0.27002890647204358 0.34288665359628479 0 0.27452469993110051 0.33211783650765803 0 0.26370847933705099 0.32087329204338988 0 0.27452469993110051 0.33211783650765803 0 0.27794522707911529 0.31242766598577448 0 0.26370847933705099 0.32087329204338988 0 0.27794522707911529 0.31242766598577448 0 0.26164243429153983 0.31073638142567478 0 0.26370847933705099 0.32087329204338988 0 0.26289963570094832 0.33011014482523909 0 0.27452469993110051 0.33211783650765803 0 0.29879523057694513 0.3269426656430201 0 0.29421298808387558 0.30209299440795973 0 0.27794522707911529 0.31242766598577448 0 0.27452469993110051 0.33211783650765803 0 0.29879523057694513 0.3269426656430201 0 0.27794522707911529 0.31242766598577448 0 0.29879523057694513 0.3269426656430201 0 0.27794522707911529 0.31242766598577448 0 0.29452988043128442 0.34484301358192521 0 0.27957778557798219 0.34785942156275229 0 0.27452469993110051 0.33211783650765803 0 0.29452988043128442 0.34484301358192521 0 0.27452469993110051 0.33211783650765803 0 0.29879523057694513 0.3269426656430201 0 0.3196452340747748 0.34145766530026572 0 0.29879523057694513 0.3269426656430201 0 0.3196452340747748 0.34145766530026572 0 0.29452988043128442 0.34484301358192521 0 0.29879523057694513 0.3269426656430201 0 0.32295472682008552 0.32512612632796961 0 0.29879523057694513 0.3269426656430201 0 0.31458304428353978 0.30618276432357011 0 0.30558102548451038 0.2931275120272645 0 0.29421298808387558 0.30209299440795973 0 0.31458304428353978 0.30618276432357011 0 0.29879523057694513 0.3269426656430201 0 0.29421298808387558 0.30209299440795973 0 0.31458304428353978 0.30618276432357011 0 0.30558102548451038 0.2931275120272645 0 0.31713543207111999 0.29138239705693342 0 0.31458304428353978 0.30618276432357011 0 0.30558102548451038 0.2931275120272645 0 0.29725780302012528 0.28283900438327148 0 0.29421298808387558 0.30209299440795973 0 0.31082798744896001 0.282322581171781 0 0.30558102548451038 0.2931275120272645 0 0.31713543207111999 0.29138239705693342 0 0.31082798744896001 0.282322581171781 0 0.30558102548451038 0.2931275120272645 0 0.29725780302012528 0.28283900438327148 0 0.29725780302012528 0.28283900438327148 0 0.28385279804008251 0.29189932985631911 0 0.29421298808387558 0.30209299440795973 0 0.29725780302012528 0.28283900438327148 0 0.28385279804008251 0.29189932985631911 0 0.28313111092062082 0.27643683156156451 0 0.28385279804008251 0.29189932985631911 0 0.29421298808387558 0.30209299440795973 0 0.27794522707911529 0.31242766598577448 0 0.28385279804008251 0.29189932985631911 0 0.27794522707911529 0.31242766598577448 0 0.27043640371253858 0.29409363892773399 0 0.27794522707911529 0.31242766598577448 0 0.26164243429153983 0.31073638142567478 0 0.25872905193911783 0.30027186345053758 0 0.27794522707911529 0.31242766598577448 0 0.27043640371253858 0.29409363892773399 0 0.25709522358128561 0.29791266632852897 0 0.27794522707911529 0.31242766598577448 0 0.25709522358128561 0.29791266632852897 0 0.28385279804008251 0.29189932985631911 0 0.27309811703767523 0.28397145974461802 0 0.27043640371253858 0.29409363892773399 0 0.28385279804008251 0.29189932985631911 0 0.27309811703767523 0.28397145974461802 0 0.28313111092062082 0.27643683156156451 0 0.27309811703767523 0.28397145974461802 0 0.27043640371253858 0.29409363892773399 0 0.26019065282453452 0.28425707272342943 0 0.27043640371253858 0.29409363892773399 0 0.26019065282453452 0.28425707272342943 0 0.25709522358128561 0.29791266632852897 0 0.24528890164892619 0.28086470618583631 0 0.26019065282453452 0.28425707272342943 0 0.25709522358128561 0.29791266632852897 0 0.24528890164892619 0.28086470618583631 0 0.25709522358128561 0.29791266632852897 0 0.27794522707911529 0.31242766598577448 0 0.25709522358128561 0.29791266632852897 0 0.25872905193911783 0.30027186345053758 0 0.25709522358128561 0.29791266632852897 0 0.25204943857301709 0.30347311497133989 0 0.25872905193911783 0.30027186345053758 0 0.25204943857301709 0.30347311497133989 0 0.2568986621928725 0.30613860367453338 0 0.25872905193911783 0.30027186345053758 0 0.24591462716611359 0.31029372467315858 0 0.25181126385540392 0.3158872292956737 0 0.25517372396781518 0.31007305485058118 0 0.24591462716611359 0.31029372467315858 0 0.25204943857301709 0.30347311497133989 0 0.25517372396781518 0.31007305485058118 0 0.25204943857301709 0.30347311497133989 0 0.25517372396781518 0.31007305485058118 0 0.2568986621928725 0.30613860367453338 0 0.2568986621928725 0.30613860367453338 0 0.26164243429153983 0.31073638142567478 0 0.25872905193911783 0.30027186345053758 0 0.25692435183014728 0.31469806639384051 0 0.25517372396781518 0.31007305485058118 0 0.26164243429153983 0.31073638142567478 0 0.25517372396781518 0.31007305485058118 0 0.2568986621928725 0.30613860367453338 0 0.26164243429153983 0.31073638142567478 0 0.25709522358128561 0.29791266632852897 0 0.25872905193911783 0.30027186345053758 0 0.2480693896173545 0.25691267053065481 0 0.26479858358752228 0.25933649802632169 0 0.25578546138992581 0.27108671434900022 0 0.2480693896173545 0.25691267053065481 0 0.26479858358752228 0.25933649802632169 0 0.25916419269841368 0.24538229102785139 0 0.24528890164892619 0.28086470618583631 0 0.26019065282453452 0.28425707272342943 0 0.25578546138992581 0.27108671434900022 0 0.26019065282453452 0.28425707272342943 0 0.25578546138992581 0.27108671434900022 0 0.26819038104424747 0.27221319894403412 0 0.26479858358752228 0.25933649802632169 0 0.25578546138992581 0.27108671434900022 0 0.26819038104424747 0.27221319894403412 0 0.27309811703767523 0.28397145974461802 0 0.26019065282453452 0.28425707272342943 0 0.26819038104424747 0.27221319894403412 0 0.27309811703767523 0.28397145974461802 0 0.26819038104424747 0.27221319894403412 0 0.28313111092062082 0.27643683156156451 0 0.26819038104424747 0.27221319894403412 0 0.27987694588243939 0.26210520192831849 0 0.28313111092062082 0.27643683156156451 0 0.26479858358752228 0.25933649802632169 0 0.27987694588243939 0.26210520192831849 0 0.27512345585407538 0.2463025367310307 0 0.26479858358752228 0.25933649802632169 0 0.27512345585407538 0.2463025367310307 0 0.25916419269841368 0.24538229102785139 0 0.26479858358752228 0.25933649802632169 0 0.26819038104424747 0.27221319894403412 0 0.27987694588243939 0.26210520192831849 0 0.27987694588243939 0.26210520192831849 0 0.29651062049915528 0.26559279451282641 0 0.29005194844804699 0.23849299082461689 0 0.29725780302012528 0.28283900438327148 0 0.29651062049915528 0.26559279451282641 0 0.28313111092062082 0.27643683156156451 0 0.27987694588243939 0.26210520192831849 0 0.29651062049915528 0.26559279451282641 0 0.28313111092062082 0.27643683156156451 0 0.29725780302012528 0.28283900438327148 0 0.29651062049915528 0.26559279451282641 0 0.30657316058200729 0.27032752800880189 0 0.30657316058200729 0.27032752800880189 0 0.31443772372117962 0.26395809857832991 0 0.31631984153786902 0.27305208209789988 0 0.31082798744896001 0.282322581171781 0 0.29725780302012528 0.28283900438327148 0 0.30657316058200729 0.27032752800880189 0 0.31082798744896001 0.282322581171781 0 0.30657316058200729 0.27032752800880189 0 0.31631984153786902 0.27305208209789988 0 0.29651062049915528 0.26559279451282641 0 0.3083100152658747 0.25294123855744932 0 0.29005194844804699 0.23849299082461689 0 0.30657316058200729 0.27032752800880189 0 0.3083100152658747 0.25294123855744932 0 0.31443772372117962 0.26395809857832991 0 0.29651062049915528 0.26559279451282641 0 0.30657316058200729 0.27032752800880189 0 0.3083100152658747 0.25294123855744932 0 0.32656808208370192 0.2673894862902822 0 0.3215627720717773 0.2390234467512414 0 0.3083100152658747 0.25294123855744932 0 0.31443772372117962 0.26395809857832991 0 0.32656808208370192 0.2673894862902822 0 0.3083100152658747 0.25294123855744932 0 0.32656808208370192 0.2673894862902822 0 0.3083100152658747 0.25294123855744932 0 0.32656808208370192 0.2673894862902822 0 0.3215627720717773 0.2390234467512414 0 0.32656808208370192 0.2673894862902822 0 0.33693281645895012 0.2434646213280616 0 0.33610201042620752 0.25663172002063311 0 0.32656808208370192 0.2673894862902822 0 0.33693281645895012 0.2434646213280616 0 0.33507439186364968 0.26354745331343388 0 0.33610201042620752 0.25663172002063311 0 0.32656808208370192 0.2673894862902822 0 0.33507439186364968 0.26354745331343388 0 0.34142609135805291 0.25803748200745902 0 0.33610201042620752 0.25663172002063311 0 0.33507439186364968 0.26354745331343388 0 0.34117070479473571 0.26548560031076412 0 0.34142609135805291 0.25803748200745902 0 0.34117070479473571 0.26548560031076412 0 0.34142609135805291 0.25803748200745902 0 0.34785909665485287 0.26320584096942168 0 0.34035687143163951 0.25120624042459933 0 0.33610201042620752 0.25663172002063311 0 0.33693281645895012 0.2434646213280616 0 0.34142609135805291 0.25803748200745902 0 0.34035687143163951 0.25120624042459933 0 0.34778673323924031 0.24958637436864911 0 0.34142609135805291 0.25803748200745902 0 0.34035687143163951 0.25120624042459933 0 0.33610201042620752 0.25663172002063311 0 0.32856474726350871 0.26896951737709951 0 0.32656808208370192 0.2673894862902822 0 0.33212957376472341 0.29147300557318112 0 0.32656808208370192 0.2673894862902822 0 0.33212957376472341 0.29147300557318112 0 0.34250919425360599 0.27927980967635407 0 0.33567151840016402 0.27111530184105709 0 0.33212957376472341 0.29147300557318112 0 0.33567151840016402 0.27111530184105709 0 0.32856474726350871 0.26896951737709951 0 0.33212957376472341 0.29147300557318112 0 0.34250919425360599 0.27927980967635407 0 0.33567151840016402 0.27111530184105709 0 0.3458224256969587 0.27152192342244852 0 0.34117070479473571 0.26548560031076412 0 0.33567151840016402 0.27111530184105709 0 0.3458224256969587 0.27152192342244852 0 0.33507439186364968 0.26354745331343388 0 0.34117070479473571 0.26548560031076412 0 0.33567151840016402 0.27111530184105709 0 0.33507439186364968 0.26354745331343388 0 0.32975786879454783 0.26693814251326747 0 0.32656808208370192 0.2673894862902822 0 0.33507439186364968 0.26354745331343388 0 0.33567151840016402 0.27111530184105709 0 0.32975786879454783 0.26693814251326747 0 0.33567151840016402 0.27111530184105709 0 0.32856474726350871 0.26896951737709951 0 0.32975786879454783 0.26693814251326747 0 0.32856474726350871 0.26896951737709951 0 0.32975786879454783 0.26693814251326747 0 0.32816232362026099 0.26730663043913411 0 0.32975786879454783 0.26693814251326747 0 0.32816232362026099 0.26730663043913411 0 0.32656808208370192 0.2673894862902822 0 0.32656808208370192 0.2673894862902822 0 0.32523762924458538 0.27046056398142071 0 0.32391027560887392 0.28253240470331442 0 0.32656808208370192 0.2673894862902822 0 0.32391027560887392 0.28253240470331442 0 0.33212957376472341 0.29147300557318112 0 0.32523762924458538 0.27046056398142071 0 0.31631984153786902 0.27305208209789988 0 0.32391027560887392 0.28253240470331442 0 0.31443772372117962 0.26395809857832991 0 0.32656808208370192 0.2673894862902822 0 0.3206408191468334 0.2687150577369829 0 0.32523762924458538 0.27046056398142071 0 0.3206408191468334 0.2687150577369829 0 0.31631984153786902 0.27305208209789988 0 0.32856474726350871 0.26896951737709951 0 0.32816232362026099 0.26730663043913411 0 0.32656808208370192 0.2673894862902822 0 0.32856474726350871 0.26896951737709951 0 0.32656808208370192 0.2673894862902822 0 0.32656808208370192 0.2673894862902822 0 0.32523762924458538 0.27046056398142071 0 0.32656808208370192 0.2673894862902822 0 0.32523762924458538 0.27046056398142071 0 0.3206408191468334 0.2687150577369829 0 0.31443772372117962 0.26395809857832991 0 0.3206408191468334 0.2687150577369829 0 0.31631984153786902 0.27305208209789988 0 0.31082798744896001 0.282322581171781 0 0.31631984153786902 0.27305208209789988 0 0.32391027560887392 0.28253240470331442 0 0.31713543207111999 0.29138239705693342 0 0.31458304428353978 0.30618276432357011 0 0.33212957376472341 0.29147300557318112 0 0.31082798744896001 0.282322581171781 0 0.31713543207111999 0.29138239705693342 0 0.32391027560887392 0.28253240470331442 0 0.31713543207111999 0.29138239705693342 0 0.32391027560887392 0.28253240470331442 0 0.33212957376472341 0.29147300557318112 0 0.33684701980875592 0.31488860198216628 0 0.31458304428353978 0.30618276432357011 0 0.33212957376472341 0.29147300557318112 0 0.33684701980875592 0.31488860198216628 0 0.33212957376472341 0.29147300557318112 0 0.33684701980875592 0.31488860198216628 0 0.33212957376472341 0.29147300557318112 0 0.34423728901825312 0.30074802859933558 0 0.33212957376472341 0.29147300557318112 0 0.34682633015113412 0.28956813685021032 0 0.34423728901825312 0.30074802859933558 0 0.34250919425360599 0.27927980967635407 0 0.33212957376472341 0.29147300557318112 0 0.34682633015113412 0.28956813685021032 0 0.34682633015113412 0.28956813685021032 0 0.3533306809857677 0.2844270025663036 0 0.3493738461133678 0.2796057157497458 0 0.34250919425360599 0.27927980967635407 0 0.34682633015113412 0.28956813685021032 0 0.3493738461133678 0.2796057157497458 0 0.34682633015113412 0.28956813685021032 0 0.34423728901825312 0.30074802859933558 0 0.35250348081400268 0.29909324394917419 0 0.34682633015113412 0.28956813685021032 0 0.3576680784405748 0.29087441847400952 0 0.35250348081400268 0.29909324394917419 0 0.34682633015113412 0.28956813685021032 0 0.3576680784405748 0.29087441847400952 0 0.3533306809857677 0.2844270025663036 0 0.3576680784405748 0.29087441847400952 0 0.35824495993453009 0.28439709835443372 0 0.3533306809857677 0.2844270025663036 0 0.35824495993453009 0.28439709835443372 0 0.3533306809857677 0.2844270025663036 0 0.35609317955534242 0.27924805320503893 0 0.35824495993453009 0.28439709835443372 0 0.36204496978594908 0.2801946263865831 0 0.35609317955534242 0.27924805320503893 0 0.33684701980875592 0.31488860198216628 0 0.35059857293052588 0.3077912477928767 0 0.34423728901825312 0.30074802859933558 0 0.35059857293052588 0.3077912477928767 0 0.34423728901825312 0.30074802859933558 0 0.35250348081400268 0.29909324394917419 0 0.35059857293052588 0.3077912477928767 0 0.35250348081400268 0.29909324394917419 0 0.36127956587328958 0.30636770812035502 0 0.3576680784405748 0.29087441847400952 0 0.35250348081400268 0.29909324394917419 0 0.36127956587328958 0.30636770812035502 0 0.34896918438839658 0.31729859274974809 0 0.35059857293052588 0.3077912477928767 0 0.36127956587328958 0.30636770812035502 0 0.36127956587328958 0.30636770812035502 0 0.37013475141270452 0.30803080250245513 0 0.37450717253987431 0.28301779282973522 0 0.36127956587328958 0.30636770812035502 0 0.37167173002363291 0.281565229701777 0 0.37013475141270452 0.30803080250245513 0 0.37450717253987431 0.28301779282973522 0 0.3576680784405748 0.29087441847400952 0 0.36127956587328958 0.30636770812035502 0 0.36402365406309672 0.28938657375141358 0 0.36127956587328958 0.30636770812035502 0 0.36402365406309672 0.28938657375141358 0 0.37167173002363291 0.281565229701777 0 0.37013475141270452 0.30803080250245513 0 0.37450717253987431 0.28301779282973522 0 0.37681412097063283 0.29298523013575312 0 0.36127956587328958 0.30636770812035502 0 0.37450717253987431 0.28301779282973522 0 0.37167173002363291 0.281565229701777 0 0.36588192375517198 0.28246157488029372 0 0.36242729604692192 0.28535012899656859 0 0.36402365406309672 0.28938657375141358 0 0.36588192375517198 0.28246157488029372 0 0.36242729604692192 0.28535012899656859 0 0.36204496978594908 0.2801946263865831 0 0.35824495993453009 0.28439709835443372 0 0.36242729604692192 0.28535012899656859 0 0.36204496978594908 0.2801946263865831 0 0.3576680784405748 0.29087441847400952 0 0.36242729604692192 0.28535012899656859 0 0.36402365406309672 0.28938657375141358 0 0.3576680784405748 0.29087441847400952 0 0.35824495993453009 0.28439709835443372 0 0.36242729604692192 0.28535012899656859 0 0.36588192375517198 0.28246157488029372 0 0.36402365406309672 0.28938657375141358 0 0.37167173002363291 0.281565229701777 0 0.37450717253987431 0.28301779282973522 0 0.37167173002363291 0.281565229701777 0 0.36735262731356738 0.27511905999517522 0 0.37450717253987431 0.28301779282973522 0 0.36735262731356738 0.27511905999517522 0 0.36734801484641261 0.26735969592126108 0 0.37450717253987431 0.28301779282973522 0 0.36734801484641261 0.26735969592126108 0 0.3788795936670441 0.25800478315701542 0 0.36588192375517198 0.28246157488029372 0 0.37167173002363291 0.281565229701777 0 0.36735262731356738 0.27511905999517522 0 0.36588192375517198 0.28246157488029372 0 0.36735262731356738 0.27511905999517522 0 0.36204496978594908 0.2801946263865831 0 0.36735262731356738 0.27511905999517522 0 0.36204496978594908 0.2801946263865831 0 0.35970116062877788 0.27271093209819208 0 0.35970116062877788 0.27271093209819208 0 0.36734801484641261 0.26735969592126108 0 0.35726819356649892 0.26014919129604158 0 0.36735262731356738 0.27511905999517522 0 0.35970116062877788 0.27271093209819208 0 0.36734801484641261 0.26735969592126108 0 0.36613357719467671 0.25453914141910888 0 0.3788795936670441 0.25800478315701542 0 0.37102660984626401 0.23925257198647151 0 0.36613357719467671 0.25453914141910888 0 0.35726819356649892 0.26014919129604158 0 0.35924901423308142 0.244261847178849 0 0.36734801484641261 0.26735969592126108 0 0.36613357719467671 0.25453914141910888 0 0.3788795936670441 0.25800478315701542 0 0.36734801484641261 0.26735969592126108 0 0.36613357719467671 0.25453914141910888 0 0.35726819356649892 0.26014919129604158 0 0.35726819356649892 0.26014919129604158 0 0.34785909665485287 0.26320584096942168 0 0.35241892573918371 0.26832240020067388 0 0.35726819356649892 0.26014919129604158 0 0.35924901423308142 0.244261847178849 0 0.34778673323924031 0.24958637436864911 0 0.34142609135805291 0.25803748200745902 0 0.34785909665485287 0.26320584096942168 0 0.34778673323924031 0.24958637436864911 0 0.35726819356649892 0.26014919129604158 0 0.34785909665485287 0.26320584096942168 0 0.34778673323924031 0.24958637436864911 0 0.34117070479473571 0.26548560031076412 0 0.34785909665485287 0.26320584096942168 0 0.3458224256969587 0.27152192342244852 0 0.34785909665485287 0.26320584096942168 0 0.3458224256969587 0.27152192342244852 0 0.35241892573918371 0.26832240020067388 0 0.3458224256969587 0.27152192342244852 0 0.35292775130915499 0.27435277415538328 0 0.35241892573918371 0.26832240020067388 0 0.3458224256969587 0.27152192342244852 0 0.3493738461133678 0.2796057157497458 0 0.35292775130915499 0.27435277415538328 0 0.34250919425360599 0.27927980967635407 0 0.3458224256969587 0.27152192342244852 0 0.3493738461133678 0.2796057157497458 0 0.3533306809857677 0.2844270025663036 0 0.3493738461133678 0.2796057157497458 0 0.35609317955534242 0.27924805320503893 0 0.3493738461133678 0.2796057157497458 0 0.35292775130915499 0.27435277415538328 0 0.35609317955534242 0.27924805320503893 0 0.36204496978594908 0.2801946263865831 0 0.35970116062877788 0.27271093209819208 0 0.35609317955534242 0.27924805320503893 0 0.35970116062877788 0.27271093209819208 0 0.35292775130915499 0.27435277415538328 0 0.35609317955534242 0.27924805320503893 0 0.35970116062877788 0.27271093209819208 0 0.35726819356649892 0.26014919129604158 0 0.35241892573918371 0.26832240020067388 0 0.35970116062877788 0.27271093209819208 0 0.35292775130915499 0.27435277415538328 0 0.35241892573918371 0.26832240020067388 0 0.39813048291819192 0.27019058895497322 0 0.40435978175028792 0.28843052108194439 0 0.41244736722265679 0.27636542968211408 0 0.39813048291819192 0.27019058895497322 0 0.38869435581080708 0.283865679095965 0 0.40435978175028792 0.28843052108194439 0 0.39813048291819192 0.27019058895497322 0 0.3788795936670441 0.25800478315701542 0 0.40271910907510888 0.2488673347769414 0 0.39813048291819192 0.27019058895497322 0 0.41764542718711029 0.26327596438309608 0 0.40271910907510888 0.2488673347769414 0 0.39813048291819192 0.27019058895497322 0 0.3788795936670441 0.25800478315701542 0 0.38306244164277198 0.27162463686589572 0 0.37450717253987431 0.28301779282973522 0 0.3788795936670441 0.25800478315701542 0 0.37450717253987431 0.28301779282973522 0 0.3788795936670441 0.25800478315701542 0 0.38306244164277198 0.27162463686589572 0 0.39813048291819192 0.27019058895497322 0 0.38306244164277198 0.27162463686589572 0 0.38869435581080708 0.283865679095965 0 0.38306244164277198 0.27162463686589572 0 0.38176956213283558 0.28110823010920932 0 0.38869435581080708 0.283865679095965 0 0.37450717253987431 0.28301779282973522 0 0.38306244164277198 0.27162463686589572 0 0.38176956213283558 0.28110823010920932 0 0.37450717253987431 0.28301779282973522 0 0.38081427853788902 0.28592481164524158 0 0.37681412097063283 0.29298523013575312 0 0.37450717253987431 0.28301779282973522 0 0.38176956213283558 0.28110823010920932 0 0.38081427853788902 0.28592481164524158 0 0.38081427853788902 0.28592481164524158 0 0.37681412097063283 0.29298523013575312 0 0.38180028139206368 0.29496751356558049 0 0.38180028139206368 0.29496751356558049 0 0.38869435581080708 0.283865679095965 0 0.39336269594347689 0.29799197475127409 0 0.38081427853788902 0.28592481164524158 0 0.38180028139206368 0.29496751356558049 0 0.38869435581080708 0.283865679095965 0 0.38176956213283558 0.28110823010920932 0 0.38081427853788902 0.28592481164524158 0 0.38869435581080708 0.283865679095965 0 0.37013475141270452 0.30803080250245513 0 0.38302822867031622 0.30515474839747619 0 0.38175000217283911 0.31419142360762131 0 0.37013475141270452 0.30803080250245513 0 0.37681412097063283 0.29298523013575312 0 0.38180028139206368 0.29496751356558049 0 0.37013475141270452 0.30803080250245513 0 0.38180028139206368 0.29496751356558049 0 0.38302822867031622 0.30515474839747619 0 0.38180028139206368 0.29496751356558049 0 0.38302822867031622 0.30515474839747619 0 0.39336269594347689 0.29799197475127409 0 0.38302822867031622 0.30515474839747619 0 0.3922718737546933 0.31167567000331609 0 0.38175000217283911 0.31419142360762131 0 0.38302822867031622 0.30515474839747619 0 0.3922718737546933 0.31167567000331609 0 0.39336269594347689 0.29799197475127409 0 0.3922718737546933 0.31167567000331609 0 0.39336269594347689 0.29799197475127409 0 0.41343658685629509 0.30395281747074171 0 0.39336269594347689 0.29799197475127409 0 0.40435978175028792 0.28843052108194439 0 0.41343658685629509 0.30395281747074171 0 0.38869435581080708 0.283865679095965 0 0.39336269594347689 0.29799197475127409 0 0.40435978175028792 0.28843052108194439 0 0.41343658685629509 0.30395281747074171 0 0.42596435773501762 0.28215894421758247 0 0.40435978175028792 0.28843052108194439 0 0.42596435773501762 0.28215894421758247 0 0.41244736722265679 0.27636542968211408 0 0.40435978175028792 0.28843052108194439 0 0.41343658685629509 0.30395281747074171 0 0.42596435773501762 0.28215894421758247 0 0.4305148699217195 0.29611593222970162 0 0.4446042659817418 0.30023826096423889 0 0.43624503196907471 0.32365621541639911 0 0.41343658685629509 0.30395281747074171 0 0.4305148699217195 0.29611593222970162 0 0.43624503196907471 0.32365621541639911 0 0.41343658685629509 0.30395281747074171 0 0.42596435773501762 0.28215894421758247 0 0.4305148699217195 0.29611593222970162 0 0.42596435773501762 0.28215894421758247 0 0.4305148699217195 0.29611593222970162 0 0.44086058262508598 0.28570099563886331 0 0.42596435773501762 0.28215894421758247 0 0.43849212861374032 0.26036507096442352 0 0.43816394371048373 0.27093361988081011 0 0.42596435773501762 0.28215894421758247 0 0.41764542718711029 0.26327596438309608 0 0.43849212861374032 0.26036507096442352 0 0.42596435773501762 0.28215894421758247 0 0.43849212861374032 0.26036507096442352 0 0.42596435773501762 0.28215894421758247 0 0.43816394371048373 0.27093361988081011 0 0.44086058262508598 0.28570099563886331 0 0.42596435773501762 0.28215894421758247 0 0.41244736722265679 0.27636542968211408 0 0.41764542718711029 0.26327596438309608 0 0.39813048291819192 0.27019058895497322 0 0.41244736722265679 0.27636542968211408 0 0.41764542718711029 0.26327596438309608 0 0.41764542718711029 0.26327596438309608 0 0.40271910907510888 0.2488673347769414 0 0.42357869181305041 0.24340716774122159 0 0.43849212861374032 0.26036507096442352 0 0.4371524055486643 0.24630088829334601 0 0.42357869181305041 0.24340716774122159 0 0.41764542718711029 0.26327596438309608 0 0.43849212861374032 0.26036507096442352 0 0.42357869181305041 0.24340716774122159 0 0.43849212861374032 0.26036507096442352 0 0.42357869181305041 0.24340716774122159 0 0.44273741397019861 0.26519233775689621 0 0.45705306047764871 0.24722126530684749 0 0.43849212861374032 0.26036507096442352 0 0.44273741397019861 0.26519233775689621 0 0.45705306047764871 0.24722126530684749 0 0.43849212861374032 0.26036507096442352 0 0.44951841264914738 0.2411832517048503 0 0.44273741397019861 0.26519233775689621 0 0.45951313538030952 0.25847184744120549 0 0.45705306047764871 0.24722126530684749 0 0.43849212861374032 0.26036507096442352 0 0.44273741397019861 0.26519233775689621 0 0.43816394371048373 0.27093361988081011 0 0.43849212861374032 0.26036507096442352 0 0.44273741397019861 0.26519233775689621 0 0.44273741397019861 0.26519233775689621 0 0.45296349999440988 0.27682030651207901 0 0.45951313538030952 0.25847184744120549 0 0.44413316153222882 0.27747349538896338 0 0.43816394371048373 0.27093361988081011 0 0.44086058262508598 0.28570099563886331 0 0.44273741397019861 0.26519233775689621 0 0.44413316153222882 0.27747349538896338 0 0.43816394371048373 0.27093361988081011 0 0.44273741397019861 0.26519233775689621 0 0.43816394371048373 0.27093361988081011 0 0.44273741397019861 0.26519233775689621 0 0.44413316153222882 0.27747349538896338 0 0.45296349999440988 0.27682030651207901 0 0.44273741397019861 0.26519233775689621 0 0.45296349999440988 0.27682030651207901 0 0.44413316153222882 0.27747349538896338 0 0.45296349999440988 0.27682030651207901 0 0.44086058262508598 0.28570099563886331 0 0.46510196950813448 0.27081003136591292 0 0.47978271243604548 0.28471299033089331 0 0.45759003224709799 0.28208108491269729 0 0.45296349999440988 0.27682030651207901 0 0.45951313538030952 0.25847184744120549 0 0.45296349999440988 0.27682030651207901 0 0.46510196950813448 0.27081003136591292 0 0.45951313538030952 0.25847184744120549 0 0.45296349999440988 0.27682030651207901 0 0.46510196950813448 0.27081003136591292 0 0.45759003224709799 0.28208108491269729 0 0.45296349999440988 0.27682030651207901 0 0.45759003224709799 0.28208108491269729 0 0.46510196950813448 0.27081003136591292 0 0.45951313538030952 0.25847184744120549 0 0.4712224033741923 0.25970797940624868 0 0.45951313538030952 0.25847184744120549 0 0.46695963389532219 0.25094932758018068 0 0.4712224033741923 0.25970797940624868 0 0.45951313538030952 0.25847184744120549 0 0.46695963389532219 0.25094932758018068 0 0.45705306047764871 0.24722126530684749 0 0.46695963389532219 0.25094932758018068 0 0.48001501526039331 0.250742014252193 0 0.4712224033741923 0.25970797940624868 0 0.48001501526039331 0.250742014252193 0 0.4712224033741923 0.25970797940624868 0 0.48282818953725642 0.26654445183280429 0 0.46510196950813448 0.27081003136591292 0 0.4712224033741923 0.25970797940624868 0 0.48282818953725642 0.26654445183280429 0 0.46510196950813448 0.27081003136591292 0 0.48282818953725642 0.26654445183280429 0 0.47978271243604548 0.28471299033089331 0 0.48282818953725642 0.26654445183280429 0 0.49999999999999889 0.28100794042592248 0 0.5 0.25177464293618179 0 0.48282818953725642 0.26654445183280429 0 0.49999999999999889 0.28100794042592248 0 0.47978271243604548 0.28471299033089331 0 0.48001501526039331 0.250742014252193 0 0.48282818953725642 0.26654445183280429 0 0.5 0.25177464293618179 0 0.4846489433822424 0.31018507429480441 0 0.5 0.30419995048187692 0 0.48733903750174662 0.29591644142894319 0 0.49999999999999889 0.28100794042592248 0 0.47978271243604548 0.28471299033089331 0 0.49999999999999889 0.28100794042592248 0 0.5 0.30419995048187692 0 0.48733903750174662 0.29591644142894319 0 0.49999999999999889 0.28100794042592248 0 0.48733903750174662 0.29591644142894319 0 0.47978271243604548 0.28471299033089331 0 0.47978271243604548 0.28471299033089331 0 0.47226353169044483 0.29947625161121871 0 0.45956542487209218 0.28841804023586443 0 0.48733903750174662 0.29591644142894319 0 0.47978271243604548 0.28471299033089331 0 0.47226353169044483 0.29947625161121871 0 0.47978271243604548 0.28471299033089331 0 0.45956542487209218 0.28841804023586443 0 0.4846489433822424 0.31018507429480441 0 0.48733903750174662 0.29591644142894319 0 0.47226353169044483 0.29947625161121871 0 0.4846489433822424 0.31018507429480441 0 0.47226353169044483 0.29947625161121871 0 0.4696644895695723 0.31289548743931311 0 0.47226353169044483 0.29947625161121871 0 0.45886943273462538 0.30259891474752182 0 0.4696644895695723 0.31289548743931311 0 0.45886943273462538 0.30259891474752182 0 0.4550701176037748 0.31610047366593003 0 0.4696644895695723 0.31289548743931311 0 0.45886943273462538 0.30259891474752182 0 0.45956542487209218 0.28841804023586443 0 0.4446042659817418 0.30023826096423889 0 0.47978271243604548 0.28471299033089331 0 0.45956542487209218 0.28841804023586443 0 0.45759003224709799 0.28208108491269729 0 0.45956542487209218 0.28841804023586443 0 0.45759003224709799 0.28208108491269729 0 0.4446042659817418 0.30023826096423889 0 0.47226353169044483 0.29947625161121871 0 0.45886943273462538 0.30259891474752182 0 0.45956542487209218 0.28841804023586443 0 0.45296349999440988 0.27682030651207901 0 0.45759003224709799 0.28208108491269729 0 0.4446042659817418 0.30023826096423889 0 0.45296349999440988 0.27682030651207901 0 0.44086058262508598 0.28570099563886331 0 0.4446042659817418 0.30023826096423889 0 0.45296349999440988 0.27682030651207901 0 0.4446042659817418 0.30023826096423889 0 0.4305148699217195 0.29611593222970162 0 0.44086058262508598 0.28570099563886331 0 0.4446042659817418 0.30023826096423889 0 0.45886943273462538 0.30259891474752182 0 0.4446042659817418 0.30023826096423889 0 0.4550701176037748 0.31610047366593003 0 0.4446042659817418 0.30023826096423889 0 0.43624503196907471 0.32365621541639911 0 0.4446042659817418 0.30023826096423889 0 0.4550701176037748 0.31610047366593003 0 0.43624503196907471 0.32365621541639911 0 0.45514926559881552 0.33028654933269991 0 0.4550701176037748 0.31610047366593003 0 0.43624503196907471 0.32365621541639911 0 0.44470663094253599 0.33738086625650371 0 0.45514926559881552 0.33028654933269991 0 0.43624503196907471 0.32365621541639911 0 0.44470663094253599 0.33738086625650371 0 0.45601932912594101 0.34258479370567341 0 0.45514926559881552 0.33028654933269991 0 0.44470663094253599 0.33738086625650371 0 0.45601932912594101 0.34258479370567341 0 0.44369674102144607 0.34903538837030229 0 0.45601932912594101 0.34258479370567341 0 0.46728847809157592 0.32886649618450642 0 0.46836427299285449 0.34534294188021808 0 0.45601932912594101 0.34258479370567341 0 0.45514926559881552 0.33028654933269991 0 0.46728847809157592 0.32886649618450642 0 0.46728847809157592 0.32886649618450642 0 0.4550701176037748 0.31610047366593003 0 0.4696644895695723 0.31289548743931311 0 0.45514926559881552 0.33028654933269991 0 0.46728847809157592 0.32886649618450642 0 0.4550701176037748 0.31610047366593003 0 0.46728847809157592 0.32886649618450642 0 0.4696644895695723 0.31289548743931311 0 0.48025051751494668 0.32178194989051462 0 0.4846489433822424 0.31018507429480441 0 0.4696644895695723 0.31289548743931311 0 0.48025051751494668 0.32178194989051462 0 0.46728847809157592 0.32886649618450642 0 0.48025051751494668 0.32178194989051462 0 0.48093109433849479 0.33296673460840409 0 0.46728847809157592 0.32886649618450642 0 0.48093109433849479 0.33296673460840409 0 0.46836427299285449 0.34534294188021808 0 0.48093109433849479 0.33296673460840409 0 0.48846823509187992 0.34287979293620408 0 0.46836427299285449 0.34534294188021808 0 0.48846823509187992 0.34287979293620408 0 0.5 0.32739196053783132 0 0.50000000000000389 0.35058397059378571 0 0.48093109433849479 0.33296673460840409 0 0.48846823509187992 0.34287979293620408 0 0.5 0.32739196053783132 0 0.48025051751494668 0.32178194989051462 0 0.48093109433849479 0.33296673460840409 0 0.5 0.32739196053783132 0 0.4846489433822424 0.31018507429480441 0 0.5 0.30419995048187692 0 0.5 0.32739196053783132 0 0.4846489433822424 0.31018507429480441 0 0.48025051751494668 0.32178194989051462 0 0.5 0.32739196053783132 0 0.48617070540070417 0.36565403402469621 0 0.49999999999999972 0.36493176322328108 0 0.49118579020880943 0.38733319335763589 0 0.48617070540070417 0.36565403402469621 0 0.49999999999999972 0.36493176322328108 0 0.50000000000000389 0.35058397059378571 0 0.50000000000000389 0.35058397059378571 0 0.47954314698923589 0.3534948180250006 0 0.48846823509187992 0.34287979293620408 0 0.50000000000000389 0.35058397059378571 0 0.47954314698923589 0.3534948180250006 0 0.48617070540070417 0.36565403402469621 0 0.50000000000000389 0.35058397059378571 0 0.47954314698923589 0.3534948180250006 0 0.47954314698923589 0.3534948180250006 0 0.45908629397846762 0.35640566545621372 0 0.47954314698923589 0.3534948180250006 0 0.46836427299285449 0.34534294188021808 0 0.45908629397846762 0.35640566545621372 0 0.48846823509187992 0.34287979293620408 0 0.47954314698923589 0.3534948180250006 0 0.46836427299285449 0.34534294188021808 0 0.48617070540070417 0.36565403402469621 0 0.46787958074356351 0.36951841739396291 0 0.48089354350068819 0.37845726121574852 0 0.48617070540070417 0.36565403402469621 0 0.47954314698923589 0.3534948180250006 0 0.46787958074356351 0.36951841739396291 0 0.47954314698923589 0.3534948180250006 0 0.46787958074356351 0.36951841739396291 0 0.45908629397846762 0.35640566545621372 0 0.46787958074356351 0.36951841739396291 0 0.45908629397846762 0.35640566545621372 0 0.45567023717480232 0.37626240090032848 0 0.45908629397846762 0.35640566545621372 0 0.44668394228152192 0.37119377699459621 0 0.45567023717480232 0.37626240090032848 0 0.45601932912594101 0.34258479370567341 0 0.46836427299285449 0.34534294188021808 0 0.45908629397846762 0.35640566545621372 0 0.46836427299285449 0.34534294188021808 0 0.45908629397846762 0.35640566545621372 0 0.45908629397846762 0.35640566545621372 0 0.43132382754395521 0.3603560435550624 0 0.44470663094253599 0.33738086625650371 0 0.44369674102144607 0.34903538837030229 0 0.42788579795640752 0.34707416986855932 0 0.45908629397846762 0.35640566545621372 0 0.44369674102144607 0.34903538837030229 0 0.43132382754395521 0.3603560435550624 0 0.45601932912594101 0.34258479370567341 0 0.45908629397846762 0.35640566545621372 0 0.44369674102144607 0.34903538837030229 0 0.45908629397846762 0.35640566545621372 0 0.44668394228152192 0.37119377699459621 0 0.44228794612701378 0.3646869586572517 0 0.45908629397846762 0.35640566545621372 0 0.44228794612701378 0.3646869586572517 0 0.43132382754395521 0.3603560435550624 0 0.45908629397846762 0.35640566545621372 0 0.44668394228152192 0.37119377699459621 0 0.44668394228152192 0.37119377699459621 0 0.44228794612701378 0.3646869586572517 0 0.4320577207041103 0.37079234862313332 0 0.44228794612701378 0.3646869586572517 0 0.4320577207041103 0.37079234862313332 0 0.43132382754395521 0.3603560435550624 0 0.4320577207041103 0.37079234862313332 0 0.43132382754395521 0.3603560435550624 0 0.41671646146311497 0.37235190373608101 0 0.43132382754395521 0.3603560435550624 0 0.40356136110944252 0.36430642165390981 0 0.43132382754395521 0.3603560435550624 0 0.41671646146311497 0.37235190373608101 0 0.40356136110944252 0.36430642165390981 0 0.43132382754395521 0.3603560435550624 0 0.41447002009174999 0.34894319081859498 0 0.40356136110944252 0.36430642165390981 0 0.43132382754395521 0.3603560435550624 0 0.41447002009174999 0.34894319081859498 0 0.42788579795640752 0.34707416986855932 0 0.44369674102144607 0.34903538837030229 0 0.43132382754395521 0.3603560435550624 0 0.42788579795640752 0.34707416986855932 0 0.42788579795640752 0.34707416986855932 0 0.43624503196907471 0.32365621541639911 0 0.42788579795640752 0.34707416986855932 0 0.43624503196907471 0.32365621541639911 0 0.42034731207775861 0.33118231815614491 0 0.44470663094253599 0.33738086625650371 0 0.42788579795640752 0.34707416986855932 0 0.43624503196907471 0.32365621541639911 0 0.41343658685629509 0.30395281747074171 0 0.43624503196907471 0.32365621541639911 0 0.42034731207775861 0.33118231815614491 0 0.41343658685629509 0.30395281747074171 0 0.42034731207775861 0.33118231815614491 0 0.40206183118001981 0.32478465378344862 0 0.41447002009174999 0.34894319081859498 0 0.42034731207775861 0.33118231815614491 0 0.40625070312444961 0.33923955648573217 0 0.42034731207775861 0.33118231815614491 0 0.40625070312444961 0.33923955648573217 0 0.40206183118001981 0.32478465378344862 0 0.41447002009174999 0.34894319081859498 0 0.42788579795640752 0.34707416986855932 0 0.42034731207775861 0.33118231815614491 0 0.40625070312444961 0.33923955648573217 0 0.39273480870399502 0.33822678398778311 0 0.39797651086013403 0.35110999881793259 0 0.40625070312444961 0.33923955648573217 0 0.39273480870399502 0.33822678398778311 0 0.40206183118001981 0.32478465378344862 0 0.39273480870399502 0.33822678398778311 0 0.40206183118001981 0.32478465378344862 0 0.38739531741106081 0.32367442110342198 0 0.3922718737546933 0.31167567000331609 0 0.41343658685629509 0.30395281747074171 0 0.40206183118001981 0.32478465378344862 0 0.3922718737546933 0.31167567000331609 0 0.40206183118001981 0.32478465378344862 0 0.38739531741106081 0.32367442110342198 0 0.3922718737546933 0.31167567000331609 0 0.38739531741106081 0.32367442110342198 0 0.38175000217283911 0.31419142360762131 0 0.38739531741106081 0.32367442110342198 0 0.37591983961542041 0.32242147603143712 0 0.37994430171133392 0.33544338875816959 0 0.37013475141270452 0.30803080250245513 0 0.37591983961542041 0.32242147603143712 0 0.38175000217283911 0.31419142360762131 0 0.38739531741106081 0.32367442110342198 0 0.37591983961542041 0.32242147603143712 0 0.38175000217283911 0.31419142360762131 0 0.39273480870399502 0.33822678398778311 0 0.37994430171133392 0.33544338875816959 0 0.38368352158386843 0.3503614409609051 0 0.39273480870399502 0.33822678398778311 0 0.38739531741106081 0.32367442110342198 0 0.37994430171133392 0.33544338875816959 0 0.37301667831521118 0.34711577528834381 0 0.37994430171133392 0.33544338875816959 0 0.38368352158386843 0.3503614409609051 0 0.38368352158386843 0.3503614409609051 0 0.3871586505472987 0.36558259900067069 0 0.39797651086013403 0.35110999881793259 0 0.37430332883695422 0.35867341269957492 0 0.37301667831521118 0.34711577528834381 0 0.38368352158386843 0.3503614409609051 0 0.37430332883695422 0.35867341269957492 0 0.38368352158386843 0.3503614409609051 0 0.3871586505472987 0.36558259900067069 0 0.36919400944770597 0.37267712336721581 0 0.37430332883695422 0.35867341269957492 0 0.3871586505472987 0.36558259900067069 0 0.36919400944770597 0.37267712336721581 0 0.3871586505472987 0.36558259900067069 0 0.39501215673992718 0.38514662617750611 0 0.3871586505472987 0.36558259900067069 0 0.40356136110944252 0.36430642165390981 0 0.39797651086013403 0.35110999881793259 0 0.41671646146311497 0.37235190373608101 0 0.40356136110944252 0.36430642165390981 0 0.39501215673992718 0.38514662617750611 0 0.3871586505472987 0.36558259900067069 0 0.40356136110944252 0.36430642165390981 0 0.39501215673992718 0.38514662617750611 0 0.41447002009174999 0.34894319081859498 0 0.40625070312444961 0.33923955648573217 0 0.39797651086013403 0.35110999881793259 0 0.41447002009174999 0.34894319081859498 0 0.40356136110944252 0.36430642165390981 0 0.39797651086013403 0.35110999881793259 0 0.39273480870399502 0.33822678398778311 0 0.38368352158386843 0.3503614409609051 0 0.39797651086013403 0.35110999881793259 0 0.40211449353097001 0.40149446437231079 0 0.39501215673992718 0.38514662617750611 0 0.41871887472061431 0.39659636279637223 0 0.39097774840662441 0.39636816585963702 0 0.40211449353097001 0.40149446437231079 0 0.39501215673992718 0.38514662617750611 0 0.39097774840662441 0.39636816585963702 0 0.40211449353097001 0.40149446437231079 0 0.39469059278368218 0.40993777231395168 0 0.39097774840662441 0.39636816585963702 0 0.39501215673992718 0.38514662617750611 0 0.37980872133630089 0.38482324852666477 0 0.36919400944770597 0.37267712336721581 0 0.39501215673992718 0.38514662617750611 0 0.39501215673992718 0.38514662617750611 0 0.37980872133630089 0.38482324852666477 0 0.36919400944770597 0.37267712336721581 0 0.39501215673992718 0.38514662617750611 0 0.37980872133630089 0.38482324852666477 0 0.39097774840662441 0.39636816585963702 0 0.37980872133630089 0.38482324852666477 0 0.38099658063248659 0.40323918451089708 0 0.37238120952571291 0.39348532896574417 0 0.37980872133630089 0.38482324852666477 0 0.38099658063248659 0.40323918451089708 0 0.39097774840662441 0.39636816585963702 0 0.38099658063248659 0.40323918451089708 0 0.39469059278368218 0.40993777231395168 0 0.37263512358100759 0.41766971376448148 0 0.38099658063248659 0.40323918451089708 0 0.38807628434179509 0.41768184537035402 0 0.37263512358100759 0.41766971376448148 0 0.38807628434179509 0.41768184537035402 0 0.38099658063248659 0.40323918451089708 0 0.38807628434179509 0.41768184537035402 0 0.39469059278368218 0.40993777231395168 0 0.37253831474590338 0.43548653666034037 0 0.37263512358100759 0.41766971376448148 0 0.38551206107465702 0.43112633247134868 0 0.37263512358100759 0.41766971376448148 0 0.38807628434179509 0.41768184537035402 0 0.38551206107465702 0.43112633247134868 0 0.38807628434179509 0.41768184537035402 0 0.38551206107465702 0.43112633247134868 0 0.39466503975041878 0.42292001027190801 0 0.40792171175752467 0.41748348800008572 0 0.39712454879443498 0.43837061320379939 0 0.40792171175752467 0.41748348800008572 0 0.41317232024523032 0.43259813126525548 0 0.39712454879443498 0.43837061320379939 0 0.39466503975041878 0.42292001027190801 0 0.40792171175752467 0.41748348800008572 0 0.39712454879443498 0.43837061320379939 0 0.38551206107465702 0.43112633247134868 0 0.39466503975041878 0.42292001027190801 0 0.39712454879443498 0.43837061320379939 0 0.40211449353097001 0.40149446437231079 0 0.39469059278368218 0.40993777231395168 0 0.40792171175752467 0.41748348800008572 0 0.38807628434179509 0.41768184537035402 0 0.39466503975041878 0.42292001027190801 0 0.39469059278368218 0.40993777231395168 0 0.39466503975041878 0.42292001027190801 0 0.39469059278368218 0.40993777231395168 0 0.40792171175752467 0.41748348800008572 0 0.41768392901168949 0.41749584181180788 0 0.41521435661690259 0.40871696245544481 0 0.42701968025614051 0.40060543892338141 0 0.40792171175752467 0.41748348800008572 0 0.41521435661690259 0.40871696245544481 0 0.41871887472061431 0.39659636279637223 0 0.40792171175752467 0.41748348800008572 0 0.41871887472061431 0.39659636279637223 0 0.40792171175752467 0.41748348800008572 0 0.41768392901168949 0.41749584181180788 0 0.41521435661690259 0.40871696245544481 0 0.41317232024523032 0.43259813126525548 0 0.42602393685411888 0.42281622857112949 0 0.42502819345209453 0.44502701821887758 0 0.40792171175752467 0.41748348800008572 0 0.41768392901168949 0.41749584181180788 0 0.41317232024523032 0.43259813126525548 0 0.41768392901168949 0.41749584181180788 0 0.41317232024523032 0.43259813126525548 0 0.42602393685411888 0.42281622857112949 0 0.42602393685411888 0.42281622857112949 0 0.4354966609457086 0.43873130380064512 0 0.42502819345209453 0.44502701821887758 0 0.42602393685411888 0.42281622857112949 0 0.42502819345209453 0.44502701821887758 0 0.42602393685411888 0.42281622857112949 0 0.4416387607097228 0.42956826812525811 0 0.4354966609457086 0.43873130380064512 0 0.42602393685411888 0.42281622857112949 0 0.43273628460821739 0.40709912416509031 0 0.42701968025614051 0.40060543892338141 0 0.42602393685411888 0.42281622857112949 0 0.44103951702849398 0.41283291669341182 0 0.4416387607097228 0.42956826812525811 0 0.42602393685411888 0.42281622857112949 0 0.42701968025614051 0.40060543892338141 0 0.41768392901168949 0.41749584181180788 0 0.42602393685411888 0.42281622857112949 0 0.42701968025614051 0.40060543892338141 0 0.42602393685411888 0.42281622857112949 0 0.43273628460821739 0.40709912416509031 0 0.44103951702849398 0.41283291669341182 0 0.43273628460821739 0.40709912416509031 0 0.43455007910801702 0.40063916352874318 0 0.44079688049911198 0.40202624638453588 0 0.43455007910801702 0.40063916352874318 0 0.43195969918554361 0.39700965414512718 0 0.42959250212714339 0.40184804588459228 0 0.43273628460821739 0.40709912416509031 0 0.43455007910801702 0.40063916352874318 0 0.42959250212714339 0.40184804588459228 0 0.43273628460821739 0.40709912416509031 0 0.42959250212714339 0.40184804588459228 0 0.42701968025614051 0.40060543892338141 0 0.43195969918554361 0.39700965414512718 0 0.43428159058457722 0.38598188853297949 0 0.43766502912006872 0.39521274706437021 0 0.43195969918554361 0.39700965414512718 0 0.42730218905401551 0.39430387220407193 0 0.43428159058457722 0.38598188853297949 0 0.43455007910801702 0.40063916352874318 0 0.43195969918554361 0.39700965414512718 0 0.43766502912006872 0.39521274706437021 0 0.42298863519969948 0.39405504425821908 0 0.41871887472061431 0.39659636279637223 0 0.42431538486112041 0.38576990695716518 0 0.42730218905401551 0.39430387220407193 0 0.42701968025614051 0.40060543892338141 0 0.42345937536912809 0.39888590299806631 0 0.43195969918554361 0.39700965414512718 0 0.42730218905401551 0.39430387220407193 0 0.42701968025614051 0.40060543892338141 0 0.42730218905401551 0.39430387220407193 0 0.42701968025614051 0.40060543892338141 0 0.42730218905401551 0.39430387220407193 0 0.42345937536912809 0.39888590299806631 0 0.42730218905401551 0.39430387220407193 0 0.42298863519969948 0.39405504425821908 0 0.42345937536912809 0.39888590299806631 0 0.42730218905401551 0.39430387220407193 0 0.42298863519969948 0.39405504425821908 0 0.42557153913486873 0.38999257368766482 0 0.41521435661690259 0.40871696245544481 0 0.42701968025614051 0.40060543892338141 0 0.42345937536912809 0.39888590299806631 0 0.43195969918554361 0.39700965414512718 0 0.42959250212714339 0.40184804588459228 0 0.42701968025614051 0.40060543892338141 0 0.42959250212714339 0.40184804588459228 0 0.42701968025614051 0.40060543892338141 0 0.42701968025614051 0.40060543892338141 0 0.42345937536912809 0.39888590299806631 0 0.40211449353097001 0.40149446437231079 0 0.40792171175752467 0.41748348800008572 0 0.41871887472061431 0.39659636279637223 0 0.39501215673992718 0.38514662617750611 0 0.41871887472061431 0.39659636279637223 0 0.41521435661690259 0.40871696245544481 0 0.42345937536912809 0.39888590299806631 0 0.41521435661690259 0.40871696245544481 0 0.42345937536912809 0.39888590299806631 0 0.41871887472061431 0.39659636279637223 0 0.41871887472061431 0.39659636279637223 0 0.42431538486112041 0.38576990695716518 0 0.42298863519969948 0.39405504425821908 0 0.42345937536912809 0.39888590299806631 0 0.41871887472061431 0.39659636279637223 0 0.42345937536912809 0.39888590299806631 0 0.41871887472061431 0.39659636279637223 0 0.41671646146311497 0.37235190373608101 0 0.39501215673992718 0.38514662617750611 0 0.42431538486112041 0.38576990695716518 0 0.39501215673992718 0.38514662617750611 0 0.41871887472061431 0.39659636279637223 0 0.42431538486112041 0.38576990695716518 0 0.39501215673992718 0.38514662617750611 0 0.42431538486112041 0.38576990695716518 0 0.4320577207041103 0.37079234862313332 0 0.42431538486112041 0.38576990695716518 0 0.4320577207041103 0.37079234862313332 0 0.41671646146311497 0.37235190373608101 0 0.42431538486112041 0.38576990695716518 0 0.4320577207041103 0.37079234862313332 0 0.42431538486112041 0.38576990695716518 0 0.42767848145389042 0.38591039319865122 0 0.42298863519969948 0.39405504425821908 0 0.42557153913486873 0.38999257368766482 0 0.42431538486112041 0.38576990695716518 0 0.42730218905401551 0.39430387220407193 0 0.42557153913486873 0.38999257368766482 0 0.42767848145389042 0.38591039319865122 0 0.42730218905401551 0.39430387220407193 0 0.42767848145389042 0.38591039319865122 0 0.42431538486112041 0.38576990695716518 0 0.42767848145389042 0.38591039319865122 0 0.42557153913486873 0.38999257368766482 0 0.42431538486112041 0.38576990695716518 0 0.42767848145389042 0.38591039319865122 0 0.42730218905401551 0.39430387220407193 0 0.42767848145389042 0.38591039319865122 0 0.43428159058457722 0.38598188853297949 0 0.42730218905401551 0.39430387220407193 0 0.43428159058457722 0.38598188853297949 0 0.42767848145389042 0.38591039319865122 0 0.43428159058457722 0.38598188853297949 0 0.4320577207041103 0.37079234862313332 0 0.42767848145389042 0.38591039319865122 0 0.43428159058457722 0.38598188853297949 0 0.44668394228152192 0.37119377699459621 0 0.4320577207041103 0.37079234862313332 0 0.43428159058457722 0.38598188853297949 0 0.44668394228152192 0.37119377699459621 0 0.43428159058457722 0.38598188853297949 0 0.44668394228152192 0.37119377699459621 0 0.43428159058457722 0.38598188853297949 0 0.44370272349378459 0.38618227638924618 0 0.43428159058457722 0.38598188853297949 0 0.44370272349378459 0.38618227638924618 0 0.43766502912006872 0.39521274706437021 0 0.43428159058457722 0.38598188853297949 0 0.44370272349378459 0.38618227638924618 0 0.44370272349378459 0.38618227638924618 0 0.45567023717480232 0.37626240090032848 0 0.45392898434214579 0.38982769653091048 0 0.44370272349378459 0.38618227638924618 0 0.44559029689643381 0.39440832800108933 0 0.45392898434214579 0.38982769653091048 0 0.44668394228152192 0.37119377699459621 0 0.44370272349378459 0.38618227638924618 0 0.45567023717480232 0.37626240090032848 0 0.44079688049911198 0.40202624638453588 0 0.45231742907486022 0.40058466278589477 0 0.44103951702849398 0.41283291669341182 0 0.43455007910801702 0.40063916352874318 0 0.44079688049911198 0.40202624638453588 0 0.43766502912006872 0.39521274706437021 0 0.44370272349378459 0.38618227638924618 0 0.43766502912006872 0.39521274706437021 0 0.44559029689643381 0.39440832800108933 0 0.44079688049911198 0.40202624638453588 0 0.43766502912006872 0.39521274706437021 0 0.44559029689643381 0.39440832800108933 0 0.44559029689643381 0.39440832800108933 0 0.45231742907486022 0.40058466278589477 0 0.45392898434214579 0.38982769653091048 0 0.44079688049911198 0.40202624638453588 0 0.44559029689643381 0.39440832800108933 0 0.45231742907486022 0.40058466278589477 0 0.45231742907486022 0.40058466278589477 0 0.46326273126768452 0.39479537708715501 0 0.46292185265158198 0.40630276310412572 0 0.45231742907486022 0.40058466278589477 0 0.46326273126768452 0.39479537708715501 0 0.45392898434214579 0.38982769653091048 0 0.46326273126768452 0.39479537708715501 0 0.47525252212556229 0.3988985943432441 0 0.46292185265158198 0.40630276310412572 0 0.45567023717480232 0.37626240090032848 0 0.45392898434214579 0.38982769653091048 0 0.46273989820933048 0.38444657263704007 0 0.46326273126768452 0.39479537708715501 0 0.45392898434214579 0.38982769653091048 0 0.46273989820933048 0.38444657263704007 0 0.46273989820933048 0.38444657263704007 0 0.47095200345692589 0.37892509576970002 0 0.47062013971203831 0.38710458021057748 0 0.46326273126768452 0.39479537708715501 0 0.46273989820933048 0.38444657263704007 0 0.47062013971203831 0.38710458021057748 0 0.46787958074356351 0.36951841739396291 0 0.45567023717480232 0.37626240090032848 0 0.46273989820933048 0.38444657263704007 0 0.46787958074356351 0.36951841739396291 0 0.46273989820933048 0.38444657263704007 0 0.47095200345692589 0.37892509576970002 0 0.46787958074356351 0.36951841739396291 0 0.47095200345692589 0.37892509576970002 0 0.48089354350068819 0.37845726121574852 0 0.48089354350068819 0.37845726121574852 0 0.47525252212556229 0.3988985943432441 0 0.49118579020880943 0.38733319335763589 0 0.48089354350068819 0.37845726121574852 0 0.47062013971203831 0.38710458021057748 0 0.47525252212556229 0.3988985943432441 0 0.48089354350068819 0.37845726121574852 0 0.47525252212556229 0.3988985943432441 0 0.47095200345692589 0.37892509576970002 0 0.48089354350068819 0.37845726121574852 0 0.47062013971203831 0.38710458021057748 0 0.47525252212556229 0.3988985943432441 0 0.49118579020880943 0.38733319335763589 0 0.48237158041761929 0.40973462349199091 0 0.46326273126768452 0.39479537708715501 0 0.47062013971203831 0.38710458021057748 0 0.47525252212556229 0.3988985943432441 0 0.49118579020880943 0.38733319335763589 0 0.48237158041761929 0.40973462349199091 0 0.49118579020880943 0.38733319335763589 0 0.49837936294812368 0.40856046164709708 0 0.48237158041761929 0.40973462349199091 0 0.5 0.39159846092082179 0 0.49837936294812368 0.40856046164709708 0 0.5 0.40892954707236251 0 0.5 0.39159846092082179 0 0.49837936294812368 0.40856046164709708 0 0.5 0.39159846092082179 0 0.49118579020880943 0.38733319335763589 0 0.49837936294812368 0.40856046164709708 0 0.49999999999999972 0.36493176322328108 0 0.5 0.39159846092082179 0 0.49118579020880943 0.38733319335763589 0 0.48617070540070417 0.36565403402469621 0 0.48089354350068819 0.37845726121574852 0 0.49118579020880943 0.38733319335763589 0 0.49999999999999972 0.36493176322328108 0 0.49118579020880943 0.38733319335763589 0 0.49999999999999861 0.42626063322390312 0 0.49675872589624742 0.42552246237337238 0 0.49468048152022809 0.44727389806626972 0 0.49675872589624742 0.42552246237337238 0 0.49468048152022809 0.44727389806626972 0 0.49999999999999861 0.42626063322390312 0 0.49675872589624742 0.42552246237337238 0 0.49999999999999861 0.42626063322390312 0 0.49675872589624742 0.42552246237337238 0 0.5 0.40892954707236251 0 0.49675872589624742 0.42552246237337238 0 0.49837936294812368 0.40856046164709708 0 0.49675872589624742 0.42552246237337238 0 0.49837936294812368 0.40856046164709708 0 0.5 0.40892954707236251 0 0.49675872589624742 0.42552246237337238 0 0.49837936294812368 0.40856046164709708 0 0.48237158041761929 0.40973462349199091 0 0.49675872589624742 0.42552246237337238 0 0.48237158041761929 0.40973462349199091 0 0.46961150075043989 0.41933992747074078 0 0.47525252212556229 0.3988985943432441 0 0.48237158041761929 0.40973462349199091 0 0.46961150075043989 0.41933992747074078 0 0.47525252212556229 0.3988985943432441 0 0.46961150075043989 0.41933992747074078 0 0.46292185265158198 0.40630276310412572 0 0.47525252212556229 0.3988985943432441 0 0.46961150075043989 0.41933992747074078 0 0.49675872589624742 0.42552246237337238 0 0.46961150075043989 0.41933992747074078 0 0.49675872589624742 0.42552246237337238 0 0.46961150075043989 0.41933992747074078 0 0.47848685020610171 0.43974624996439537 0 0.46961150075043989 0.41933992747074078 0 0.46388676654413119 0.44008461024990031 0 0.47848685020610171 0.43974624996439537 0 0.46961150075043989 0.41933992747074078 0 0.46388676654413119 0.44008461024990031 0 0.46961150075043989 0.41933992747074078 0 0.45427338123532618 0.42885450274909681 0 0.46388676654413119 0.44008461024990031 0 0.46961150075043989 0.41933992747074078 0 0.45427338123532618 0.42885450274909681 0 0.44103951702849398 0.41283291669341182 0 0.46961150075043989 0.41933992747074078 0 0.46292185265158198 0.40630276310412572 0 0.44103951702849398 0.41283291669341182 0 0.46961150075043989 0.41933992747074078 0 0.44103951702849398 0.41283291669341182 0 0.45231742907486022 0.40058466278589477 0 0.46292185265158198 0.40630276310412572 0 0.44103951702849398 0.41283291669341182 0 0.43273628460821739 0.40709912416509031 0 0.44079688049911198 0.40202624638453588 0 0.44103951702849398 0.41283291669341182 0 0.45427338123532618 0.42885450274909681 0 0.44103951702849398 0.41283291669341182 0 0.4416387607097228 0.42956826812525811 0 0.45427338123532618 0.42885450274909681 0 0.4416387607097228 0.42956826812525811 0 0.44979775965682212 0.44612876369192173 0 0.49999999999999861 0.42626063322390312 0 0.49468048152022809 0.44727389806626972 0 0.5 0.5 0 0.4416387607097228 0.42956826812525811 0 0.44979775965682212 0.44612876369192173 0 0.4354966609457086 0.43873130380064512 0 0.44979775965682212 0.44612876369192173 0 0.4354966609457086 0.43873130380064512 0 0.43499465405578469 0.45011624039603848 0 0.44979775965682212 0.44612876369192173 0 0.44578881192842063 0.45531904302471049 0 0.43499465405578469 0.45011624039603848 0 0.44020080166324932 0.46420187498182142 0 0.45816203233782682 0.46082929302906089 0 0.44020080166324932 0.46420187498182142 0 0.44578881192842063 0.45531904302471049 0 0.45816203233782682 0.46082929302906089 0 0.44020080166324932 0.46420187498182142 0 0.45816203233782682 0.46082929302906089 0 0.45585762635180432 0.46917975428222242 0 0.44020080166324932 0.46420187498182142 0 0.43499465405578469 0.45011624039603848 0 0.44020080166324932 0.46420187498182142 0 0.44578881192842063 0.45531904302471049 0 0.43499465405578469 0.45011624039603848 0 0.44979775965682212 0.44612876369192173 0 0.44578881192842063 0.45531904302471049 0 0.45816203233782682 0.46082929302906089 0 0.46768227999433959 0.4590416752419566 0 0.47481424454571669 0.45562863610140619 0 0.45585762635180432 0.46917975428222242 0 0.47481424454571669 0.45562863610140619 0 0.47066326949097792 0.46985658665370073 0 0.45585762635180432 0.46917975428222242 0 0.47481424454571669 0.45562863610140619 0 0.45585762635180432 0.46917975428222242 0 0.45816203233782682 0.46082929302906089 0 0.45585762635180432 0.46917975428222242 0 0.45816203233782682 0.46082929302906089 0 0.46768227999433959 0.4590416752419566 0 0.45585762635180432 0.46917975428222242 0 0.45816203233782682 0.46082929302906089 0 0.46768227999433959 0.4590416752419566 0 0.45816203233782682 0.46082929302906089 0 0.46768227999433959 0.4590416752419566 0 0.46825499613843818 0.45054561583797981 0 0.44979775965682212 0.44612876369192173 0 0.45816203233782682 0.46082929302906089 0 0.46388676654413119 0.44008461024990031 0 0.45816203233782682 0.46082929302906089 0 0.46825499613843818 0.45054561583797981 0 0.46388676654413119 0.44008461024990031 0 0.45427338123532618 0.42885450274909681 0 0.44979775965682212 0.44612876369192173 0 0.46388676654413119 0.44008461024990031 0 0.45816203233782682 0.46082929302906089 0 0.46388676654413119 0.44008461024990031 0 0.46825499613843818 0.45054561583797981 0 0.47848685020610171 0.43974624996439537 0 0.47481424454571669 0.45562863610140619 0 0.47848685020610171 0.43974624996439537 0 0.47481424454571669 0.45562863610140619 0 0.49468048152022809 0.44727389806626972 0 0.46825499613843818 0.45054561583797981 0 0.46388676654413119 0.44008461024990031 0 0.47848685020610171 0.43974624996439537 0 0.46768227999433959 0.4590416752419566 0 0.46825499613843818 0.45054561583797981 0 0.47481424454571669 0.45562863610140619 0 0.47481424454571669 0.45562863610140619 0 0.48147553485555261 0.46529154818526419 0 0.49468048152022809 0.44727389806626972 0 0.47481424454571669 0.45562863610140619 0 0.48147553485555261 0.46529154818526419 0 0.47066326949097792 0.46985658665370073 0 0.48147553485555261 0.46529154818526419 0 0.49468048152022809 0.44727389806626972 0 0.49260223714420898 0.46902533375916711 0 0.49468048152022809 0.44727389806626972 0 0.49260223714420898 0.46902533375916711 0 0.49675872589624742 0.42552246237337238 0 0.47848685020610171 0.43974624996439537 0 0.49468048152022809 0.44727389806626972 0 0.49468048152022809 0.44727389806626972 0 0.5 0.5 0 0.49260223714420898 0.46902533375916711 0 0.49052399276818981 0.49077676945206439 0 0.5 0.5 0 0.45343203535599541 0.50000000000000144 0 0.49052399276818981 0.49077676945206439 0 0.46995185526737238 0.48344947603810051 0 0.45343203535599541 0.50000000000000144 0 0.49052399276818981 0.49077676945206439 0 0.5 0.5 0 0.49260223714420898 0.46902533375916711 0 0.49052399276818981 0.49077676945206439 0 0.49260223714420898 0.46902533375916711 0 0.4814829457850956 0.47660661280335809 0 0.49052399276818981 0.49077676945206439 0 0.49260223714420898 0.46902533375916711 0 0.48147553485555261 0.46529154818526419 0 0.49260223714420898 0.46902533375916711 0 0.4814829457850956 0.47660661280335809 0 0.49052399276818981 0.49077676945206439 0 0.4814829457850956 0.47660661280335809 0 0.46995185526737238 0.48344947603810051 0 0.48147553485555261 0.46529154818526419 0 0.4814829457850956 0.47660661280335809 0 0.47066326949097792 0.46985658665370073 0 0.4814829457850956 0.47660661280335809 0 0.47066326949097792 0.46985658665370073 0 0.46995185526737238 0.48344947603810051 0 0.46995185526737238 0.48344947603810051 0 0.45343203535599541 0.50000000000000144 0 0.4582874082675808 0.4813666386469333 0 0.45343203535599541 0.50000000000000144 0 0.4582874082675808 0.4813666386469333 0 0.44995127942749003 0.49058254590766759 0 0.4582874082675808 0.4813666386469333 0 0.45585762635180432 0.46917975428222242 0 0.44995127942749003 0.49058254590766759 0 0.47066326949097792 0.46985658665370073 0 0.46369003984443408 0.47596311390523932 0 0.45585762635180432 0.46917975428222242 0 0.47066326949097792 0.46985658665370073 0 0.46995185526737238 0.48344947603810051 0 0.46369003984443408 0.47596311390523932 0 0.46995185526737238 0.48344947603810051 0 0.46369003984443408 0.47596311390523932 0 0.4582874082675808 0.4813666386469333 0 0.46369003984443408 0.47596311390523932 0 0.4582874082675808 0.4813666386469333 0 0.45585762635180432 0.46917975428222242 0 0.44020080166324932 0.46420187498182142 0 0.45585762635180432 0.46917975428222242 0 0.44492832470923271 0.47699255383735628 0 0.45585762635180432 0.46917975428222242 0 0.44492832470923271 0.47699255383735628 0 0.44995127942749003 0.49058254590766759 0 0.45585762635180432 0.46917975428222242 0 0.44995127942749003 0.49058254590766759 0 0.45585762635180432 0.46917975428222242 0 0.44492832470923271 0.47699255383735628 0 0.44492832470923271 0.47699255383735628 0 0.44995127942749003 0.49058254590766759 0 0.44020080166324932 0.46420187498182142 0 0.44492832470923271 0.47699255383735628 0 0.44020080166324932 0.46420187498182142 0 0.44492832470923271 0.47699255383735628 0 0.43365105788856262 0.473891707390862 0 0.44735242447498708 0.50000000000000222 0 0.4386364340071065 0.49206451498324938 0 0.42806132846677142 0.49999999999999561 0 0.44735242447498708 0.50000000000000222 0 0.44995127942749003 0.49058254590766759 0 0.45343203535599541 0.50000000000000144 0 0.44995127942749003 0.49058254590766759 0 0.44735242447498708 0.50000000000000222 0 0.44995127942749003 0.49058254590766759 0 0.4386364340071065 0.49206451498324938 0 0.45343203535599541 0.50000000000000144 0 0.44735242447498708 0.50000000000000222 0 0.44995127942749003 0.49058254590766759 0 0.44492832470923271 0.47699255383735628 0 0.44995127942749003 0.49058254590766759 0 0.4386364340071065 0.49206451498324938 0 0.4386364340071065 0.49206451498324938 0 0.42806132846677142 0.49999999999999561 0 0.42288881295704972 0.49274747517122808 0 0.44492832470923271 0.47699255383735628 0 0.4386364340071065 0.49206451498324938 0 0.42288881295704972 0.49274747517122808 0 0.44492832470923271 0.47699255383735628 0 0.42288881295704972 0.49274747517122808 0 0.42288881295704972 0.49274747517122808 0 0.42256367126417188 0.50000000000000022 0 0.42806132846677142 0.49999999999999561 0 0.42288881295704972 0.49274747517122808 0 0.42256367126417188 0.50000000000000022 0 0.42806132846677142 0.49999999999999561 0 0.42288881295704972 0.49274747517122808 0 0.42288881295704972 0.49274747517122808 0 0.42256367126417188 0.50000000000000022 0 0.41274327793281551 0.50000000000000178 0 0.42288881295704972 0.49274747517122808 0 0.41274327793281551 0.50000000000000178 0 0.42288881295704972 0.49274747517122808 0 0.41274327793281551 0.50000000000000178 0 0.40094322857199333 0.48789457412823578 0 0.42288881295704972 0.49274747517122808 0 0.40322701859727161 0.47114444566380093 0 0.42288881295704972 0.49274747517122808 0 0.42403245005007012 0.46723780786662561 0 0.40322701859727161 0.47114444566380093 0 0.42288881295704972 0.49274747517122808 0 0.40094322857199333 0.48789457412823578 0 0.40322701859727161 0.47114444566380093 0 0.42403245005007012 0.46723780786662561 0 0.40322701859727161 0.47114444566380093 0 0.44492832470923271 0.47699255383735628 0 0.42288881295704972 0.49274747517122808 0 0.43365105788856262 0.473891707390862 0 0.42288881295704972 0.49274747517122808 0 0.43365105788856262 0.473891707390862 0 0.42403245005007012 0.46723780786662561 0 0.42288881295704972 0.49274747517122808 0 0.42403245005007012 0.46723780786662561 0 0.44020080166324932 0.46420187498182142 0 0.42403245005007012 0.46723780786662561 0 0.43106402480529971 0.45664573536584069 0 0.44020080166324932 0.46420187498182142 0 0.42403245005007012 0.46723780786662561 0 0.42403245005007012 0.46723780786662561 0 0.42502819345209453 0.44502701821887758 0 0.44020080166324932 0.46420187498182142 0 0.43365105788856262 0.473891707390862 0 0.42403245005007012 0.46723780786662561 0 0.42403245005007012 0.46723780786662561 0 0.43106402480529971 0.45664573536584069 0 0.42502819345209453 0.44502701821887758 0 0.44020080166324932 0.46420187498182142 0 0.43106402480529971 0.45664573536584069 0 0.43499465405578469 0.45011624039603848 0 0.4354966609457086 0.43873130380064512 0 0.43499465405578469 0.45011624039603848 0 0.42502819345209453 0.44502701821887758 0 0.43106402480529971 0.45664573536584069 0 0.43499465405578469 0.45011624039603848 0 0.42502819345209453 0.44502701821887758 0 0.41317232024523032 0.43259813126525548 0 0.42502819345209453 0.44502701821887758 0 0.40691601142046457 0.4525117638001428 0 0.42403245005007012 0.46723780786662561 0 0.42502819345209453 0.44502701821887758 0 0.40691601142046457 0.4525117638001428 0 0.42403245005007012 0.46723780786662561 0 0.40691601142046457 0.4525117638001428 0 0.40322701859727161 0.47114444566380093 0 0.38788266667158727 0.45331549116207082 0 0.40322701859727161 0.47114444566380093 0 0.39063476319310708 0.47350889463113899 0 0.40691601142046457 0.4525117638001428 0 0.38788266667158727 0.45331549116207082 0 0.40322701859727161 0.47114444566380093 0 0.38788266667158727 0.45331549116207082 0 0.40322701859727161 0.47114444566380093 0 0.40691601142046457 0.4525117638001428 0 0.39712454879443498 0.43837061320379939 0 0.38788266667158727 0.45331549116207082 0 0.41317232024523032 0.43259813126525548 0 0.40691601142046457 0.4525117638001428 0 0.39712454879443498 0.43837061320379939 0 0.37253831474590338 0.43548653666034037 0 0.38788266667158727 0.45331549116207082 0 0.37253831474590338 0.43548653666034037 0 0.38551206107465702 0.43112633247134868 0 0.38788266667158727 0.45331549116207082 0 0.38551206107465702 0.43112633247134868 0 0.39712454879443498 0.43837061320379939 0 0.38788266667158727 0.45331549116207082 0 0.37234436633307222 0.45664581748427779 0 0.37253831474590338 0.43548653666034037 0 0.38788266667158727 0.45331549116207082 0 0.38788266667158727 0.45331549116207082 0 0.38175351273956959 0.46401755234206898 0 0.39063476319310708 0.47350889463113899 0 0.37234436633307222 0.45664581748427779 0 0.38175351273956959 0.46401755234206898 0 0.37615225476051178 0.47260000609078862 0 0.37234436633307222 0.45664581748427779 0 0.38788266667158727 0.45331549116207082 0 0.38175351273956959 0.46401755234206898 0 0.37353932790407451 0.4897100248141647 0 0.37615225476051178 0.47260000609078862 0 0.38661172585410242 0.48610203685418862 0 0.38175351273956959 0.46401755234206898 0 0.37615225476051178 0.47260000609078862 0 0.39063476319310708 0.47350889463113899 0 0.37615225476051178 0.47260000609078862 0 0.38661172585410242 0.48610203685418862 0 0.39063476319310708 0.47350889463113899 0 0.36554308048952572 0.5 0 0.37353932790407451 0.4897100248141647 0 0.38914317921117059 0.5 0 0.37353932790407451 0.4897100248141647 0 0.38914317921117059 0.5 0 0.38661172585410242 0.48610203685418862 0 0.41274327793281551 0.50000000000000178 0 0.38914317921117059 0.5 0 0.40094322857199333 0.48789457412823578 0 0.38914317921117059 0.5 0 0.38661172585410242 0.48610203685418862 0 0.40094322857199333 0.48789457412823578 0 0.40094322857199333 0.48789457412823578 0 0.40322701859727161 0.47114444566380093 0 0.39063476319310708 0.47350889463113899 0 0.40322701859727161 0.47114444566380093 0 0.39063476319310708 0.47350889463113899 0 0.38661172585410242 0.48610203685418862 0 0.40094322857199333 0.48789457412823578 0 0.39063476319310708 0.47350889463113899 0 0.33987479690296801 0.080648021064563452 0 0.32572662987313922 0.087750176869617863 0 0.33713471123999911 0.1002143075080984 0 0.33987479690296801 0.080648021064563452 0 0.32232831018639602 0.075711235737897759 0 0.32572662987313922 0.087750176869617863 0 0.33987479690296801 0.080648021064563452 0 0.32232831018639602 0.075711235737897759 0 0.33987479690296801 0.080648021064563452 0 0.32870928983325509 0.069403786173485915 0 0.34508537962074448 0.071557875950860425 0 0.33884188131580778 0.065882438704130158 0 0.32870928983325509 0.069403786173485915 0 0.34508537962074448 0.071557875950860425 0 0.32870928983325509 0.069403786173485915 0 0.34508537962074448 0.071557875950860425 0 0.33987479690296801 0.080648021064563452 0 0.32870928983325509 0.069403786173485915 0 0.32232831018639602 0.075711235737897759 0 0.33884188131580778 0.065882438704130158 0 0.3473695025654685 0.062476489051213148 0 0.33681624817641448 0.06085344331303269 0 0.33884188131580778 0.065882438704130158 0 0.33291791667343601 0.06524365669510393 0 0.33681624817641448 0.06085344331303269 0 0.33884188131580778 0.065882438704130158 0 0.33291791667343601 0.06524365669510393 0 0.32870928983325509 0.069403786173485915 0 0.33291791667343601 0.06524365669510393 0 0.32870928983325509 0.069403786173485915 0 0.33291791667343601 0.06524365669510393 0 0.32870928983325509 0.069403786173485915 0 0.32922097873140937 0.063209767214072843 0 0.33291791667343601 0.06524365669510393 0 0.32922097873140937 0.063209767214072843 0 0.33167440460465669 0.059423619740526408 0 0.31868904655471209 0.062898826844328654 0 0.31461423613864459 0.05638253533592489 0 0.31123448241187512 0.072589935898307076 0 0.32870928983325509 0.069403786173485915 0 0.32232831018639602 0.075711235737897759 0 0.32345468138834188 0.068712601740438028 0 0.32870928983325509 0.069403786173485915 0 0.32232831018639602 0.075711235737897759 0 0.32232831018639602 0.075711235737897759 0 0.32345468138834188 0.068712601740438028 0 0.31892663013533118 0.069978150055242994 0 0.32922097873140937 0.063209767214072843 0 0.32543784082578381 0.064864659540034952 0 0.32583127351907309 0.060553651392534581 0 0.32870928983325509 0.069403786173485915 0 0.32922097873140937 0.063209767214072843 0 0.32543784082578381 0.064864659540034952 0 0.32870928983325509 0.069403786173485915 0 0.32345468138834188 0.068712601740438028 0 0.32870928983325509 0.069403786173485915 0 0.32543784082578381 0.064864659540034952 0 0.32345468138834188 0.068712601740438028 0 0.32345468138834188 0.068712601740438028 0 0.31868904655471209 0.062898826844328654 0 0.31892663013533118 0.069978150055242994 0 0.32543784082578381 0.064864659540034952 0 0.32345468138834188 0.068712601740438028 0 0.31868904655471209 0.062898826844328654 0 0.32543784082578381 0.064864659540034952 0 0.31868904655471209 0.062898826844328654 0 0.32583127351907309 0.060553651392534581 0 0.31868904655471209 0.062898826844328654 0 0.31892663013533118 0.069978150055242994 0 0.31123448241187512 0.072589935898307076 0 0.32232831018639602 0.075711235737897759 0 0.31123448241187512 0.072589935898307076 0 0.32232831018639602 0.075711235737897759 0 0.31892663013533118 0.069978150055242994 0 0.31123448241187512 0.072589935898307076 0 0.32232831018639602 0.075711235737897759 0 0.3120468173300186 0.074869579366969308 0 0.31123448241187512 0.072589935898307076 0 0.32232831018639602 0.075711235737897759 0 0.30914314618924599 0.080756855671199196 0 0.3120468173300186 0.074869579366969308 0 0.32572662987313922 0.087750176869617863 0 0.3079929866167358 0.089881368759656743 0 0.30936001040582872 0.094571921240013776 0 0.32232831018639602 0.075711235737897759 0 0.3079929866167358 0.089881368759656743 0 0.30914314618924599 0.080756855671199196 0 0.32232831018639602 0.075711235737897759 0 0.32572662987313922 0.087750176869617863 0 0.3079929866167358 0.089881368759656743 0 0.32232831018639602 0.075711235737897759 0 0.3079929866167358 0.089881368759656743 0 0.32230700222733177 0.1023328888310594 0 0.31469512853409182 0.1168097818064744 0 0.30739383795764619 0.1009375849746442 0 0.32572662987313922 0.087750176869617863 0 0.30739383795764619 0.1009375849746442 0 0.32572662987313922 0.087750176869617863 0 0.32230700222733177 0.1023328888310594 0 0.30739383795764619 0.1009375849746442 0 0.32572662987313922 0.087750176869617863 0 0.30936001040582872 0.094571921240013776 0 0.30739383795764619 0.1009375849746442 0 0.31469512853409182 0.1168097818064744 0 0.33511330216137009 0.12192313498609279 0 0.31929741700318848 0.13349819412048011 0 0.32230700222733177 0.1023328888310594 0 0.31469512853409182 0.1168097818064744 0 0.33511330216137009 0.12192313498609279 0 0.33511330216137009 0.12192313498609279 0 0.33713471123999911 0.1002143075080984 0 0.34824470737693852 0.1133314532331882 0 0.32230700222733177 0.1023328888310594 0 0.33511330216137009 0.12192313498609279 0 0.33713471123999911 0.1002143075080984 0 0.32572662987313922 0.087750176869617863 0 0.32230700222733177 0.1023328888310594 0 0.33713471123999911 0.1002143075080984 0 0.33713471123999911 0.1002143075080984 0 0.35807014964970652 0.1013919704018363 0 0.35742128361954051 0.085584806391227328 0 0.33713471123999911 0.1002143075080984 0 0.35807014964970652 0.1013919704018363 0 0.34824470737693852 0.1133314532331882 0 0.33511330216137009 0.12192313498609279 0 0.34824470737693852 0.1133314532331882 0 0.35147701743370702 0.12998206918191499 0 0.34824470737693852 0.1133314532331882 0 0.36658012664697798 0.11607995366614191 0 0.35147701743370702 0.12998206918191499 0 0.35807014964970652 0.1013919704018363 0 0.34824470737693852 0.1133314532331882 0 0.36658012664697798 0.11607995366614191 0 0.35807014964970652 0.1013919704018363 0 0.36658012664697798 0.11607995366614191 0 0.38454580448861098 0.093216415999595487 0 0.36736180175733302 0.078416280408697803 0 0.37196867523372512 0.075094070061515111 0 0.38354659254428841 0.091320358415573483 0 0.35742128361954051 0.085584806391227328 0 0.38454580448861098 0.093216415999595487 0 0.35807014964970652 0.1013919704018363 0 0.35742128361954051 0.085584806391227328 0 0.38454580448861098 0.093216415999595487 0 0.36736180175733302 0.078416280408697803 0 0.35742128361954051 0.085584806391227328 0 0.38354659254428841 0.091320358415573483 0 0.36736180175733302 0.078416280408697803 0 0.35742128361954051 0.085584806391227328 0 0.36736180175733302 0.078416280408697803 0 0.35742128361954051 0.085584806391227328 0 0.3614614694082337 0.073711965728236156 0 0.33987479690296801 0.080648021064563452 0 0.35742128361954051 0.085584806391227328 0 0.33713471123999911 0.1002143075080984 0 0.35742128361954051 0.085584806391227328 0 0.33987479690296801 0.080648021064563452 0 0.35742128361954051 0.085584806391227328 0 0.35265466277202812 0.07733894847945226 0 0.33987479690296801 0.080648021064563452 0 0.33713471123999911 0.1002143075080984 0 0.35742128361954051 0.085584806391227328 0 0.35742128361954051 0.085584806391227328 0 0.35265466277202812 0.07733894847945226 0 0.3614614694082337 0.073711965728236156 0 0.34508537962074448 0.071557875950860425 0 0.3614614694082337 0.073711965728236156 0 0.3473695025654685 0.062476489051213148 0 0.3614614694082337 0.073711965728236156 0 0.3473695025654685 0.062476489051213148 0 0.3560447953676843 0.055094542235772259 0 0.34508537962074448 0.071557875950860425 0 0.35265466277202812 0.07733894847945226 0 0.3614614694082337 0.073711965728236156 0 0.34508537962074448 0.071557875950860425 0 0.3614614694082337 0.073711965728236156 0 0.33884188131580778 0.065882438704130158 0 0.34508537962074448 0.071557875950860425 0 0.3473695025654685 0.062476489051213148 0 0.33987479690296801 0.080648021064563452 0 0.34508537962074448 0.071557875950860425 0 0.35265466277202812 0.07733894847945226 0 0.3614614694082337 0.073711965728236156 0 0.3473695025654685 0.062476489051213148 0 0.3614614694082337 0.073711965728236156 0 0.36835081073895859 0.062850067842340679 0 0.3560447953676843 0.055094542235772259 0 0.37196867523372512 0.075094070061515111 0 0.36835081073895859 0.062850067842340679 0 0.37824264548110509 0.056886857138190507 0 0.36736180175733302 0.078416280408697803 0 0.3614614694082337 0.073711965728236156 0 0.37196867523372512 0.075094070061515111 0 0.3614614694082337 0.073711965728236156 0 0.37196867523372512 0.075094070061515111 0 0.36736180175733302 0.078416280408697803 0 0.3614614694082337 0.073711965728236156 0 0.3614614694082337 0.073711965728236156 0 0.37196867523372512 0.075094070061515111 0 0.36835081073895859 0.062850067842340679 0 0.36736180175733302 0.078416280408697803 0 0.37196867523372512 0.075094070061515111 0 0.36835081073895859 0.062850067842340679 0 0.37026461567553448 0.048757981701712423 0 0.37824264548110509 0.056886857138190507 0 0.36835081073895859 0.062850067842340679 0 0.37026461567553448 0.048757981701712423 0 0.3560447953676843 0.055094542235772259 0 0.37026461567553448 0.048757981701712423 0 0.35554483809520743 0.031529736716940933 0 0.38630734050745957 0.038757864402103409 0 0.37026461567553448 0.048757981701712423 0 0.35554483809520743 0.031529736716940933 0 0.3560447953676843 0.055094542235772259 0 0.35554483809520743 0.031529736716940933 0 0.3560447953676843 0.055094542235772259 0 0.33327753572270369 0.051241012374189827 0 0.35554483809520743 0.031529736716940933 0 0.33327753572270369 0.051241012374189827 0 0.3473695025654685 0.062476489051213148 0 0.3560447953676843 0.055094542235772259 0 0.33327753572270369 0.051241012374189827 0 0.35554483809520743 0.031529736716940933 0 0.33844269633881607 0.01148836042809109 0 0.35528893128914452 -0.0039215522358231076 0 0.35554483809520743 0.031529736716940933 0 0.37781214046771111 0.011818461059692 0 0.35528893128914452 -0.0039215522358231076 0 0.35554483809520743 0.031529736716940933 0 0.37781214046771111 0.011818461059692 0 0.35554483809520743 0.031529736716940933 0 0.37781214046771111 0.011818461059692 0 0.38630734050745957 0.038757864402103409 0 0.33844269633881607 0.01148836042809109 0 0.33200543966187918 0.027418611334966311 0 0.31762153628356848 0.0125801377078211 0 0.35554483809520743 0.031529736716940933 0 0.33844269633881607 0.01148836042809109 0 0.33200543966187918 0.027418611334966311 0 0.33200543966187918 0.027418611334966311 0 0.31762153628356848 0.0125801377078211 0 0.31280791462477092 0.031794574731929579 0 0.33844269633881607 0.01148836042809109 0 0.31762153628356848 0.0125801377078211 0 0.32810368720994448 -0.0079222365021426946 0 0.31762153628356848 0.0125801377078211 0 0.32810368720994448 -0.0079222365021426946 0 0.30501130485267042 -0.0014971883304511779 0 0.33327753572270369 0.051241012374189827 0 0.33065828124575319 0.053559606973031332 0 0.32215881774693589 0.042376096788663969 0 0.33327753572270369 0.051241012374189827 0 0.33065828124575319 0.053559606973031332 0 0.33327753572270369 0.051241012374189827 0 0.33167440460465669 0.059423619740526408 0 0.33681624817641448 0.06085344331303269 0 0.33065828124575319 0.053559606973031332 0 0.33167440460465669 0.059423619740526408 0 0.32690953306982212 0.057012103143924082 0 0.33327753572270369 0.051241012374189827 0 0.33065828124575319 0.053559606973031332 0 0.33167440460465669 0.059423619740526408 0 0.33167440460465669 0.059423619740526408 0 0.32583127351907309 0.060553651392534581 0 0.32690953306982212 0.057012103143924082 0 0.32922097873140937 0.063209767214072843 0 0.33167440460465669 0.059423619740526408 0 0.32583127351907309 0.060553651392534581 0 0.33291791667343601 0.06524365669510393 0 0.33167440460465669 0.059423619740526408 0 0.33681624817641448 0.06085344331303269 0 0.3473695025654685 0.062476489051213148 0 0.33327753572270369 0.051241012374189827 0 0.3473695025654685 0.062476489051213148 0 0.33327753572270369 0.051241012374189827 0 0.33681624817641448 0.06085344331303269 0 0.35554483809520743 0.031529736716940933 0 0.33327753572270369 0.051241012374189827 0 0.33574665780668161 0.038141364303690251 0 0.35554483809520743 0.031529736716940933 0 0.33200543966187918 0.027418611334966311 0 0.33574665780668161 0.038141364303690251 0 0.33200543966187918 0.027418611334966311 0 0.33574665780668161 0.038141364303690251 0 0.32215881774693589 0.042376096788663969 0 0.33327753572270369 0.051241012374189827 0 0.33574665780668161 0.038141364303690251 0 0.32215881774693589 0.042376096788663969 0 0.33200543966187918 0.027418611334966311 0 0.32215881774693589 0.042376096788663969 0 0.31280791462477092 0.031794574731929579 0 0.33327753572270369 0.051241012374189827 0 0.32215881774693589 0.042376096788663969 0 0.32215881774693589 0.042376096788663969 0 0.31280791462477092 0.031794574731929579 0 0.31343102363621822 0.045840435360357167 0 0.32215881774693589 0.042376096788663969 0 0.31343102363621822 0.045840435360357167 0 0.32270595932733143 0.053203461574964327 0 0.31343102363621822 0.045840435360357167 0 0.32270595932733143 0.053203461574964327 0 0.31461423613864459 0.05638253533592489 0 0.33065828124575319 0.053559606973031332 0 0.32270595932733143 0.053203461574964327 0 0.32690953306982212 0.057012103143924082 0 0.33065828124575319 0.053559606973031332 0 0.32215881774693589 0.042376096788663969 0 0.32270595932733143 0.053203461574964327 0 0.32583127351907309 0.060553651392534581 0 0.32690953306982212 0.057012103143924082 0 0.32114337236890378 0.058325064596638762 0 0.32270595932733143 0.053203461574964327 0 0.32690953306982212 0.057012103143924082 0 0.32114337236890378 0.058325064596638762 0 0.31868904655471209 0.062898826844328654 0 0.32583127351907309 0.060553651392534581 0 0.32114337236890378 0.058325064596638762 0 0.31868904655471209 0.062898826844328654 0 0.32114337236890378 0.058325064596638762 0 0.31461423613864459 0.05638253533592489 0 0.32270595932733143 0.053203461574964327 0 0.32114337236890378 0.058325064596638762 0 0.31461423613864459 0.05638253533592489 0 0.30140929427236629 0.045017655708989662 0 0.31123448241187512 0.072589935898307076 0 0.29739535658567728 0.060287397024973391 0 0.30140929427236629 0.045017655708989662 0 0.31123448241187512 0.072589935898307076 0 0.31461423613864459 0.05638253533592489 0 0.30140929427236629 0.045017655708989662 0 0.31123448241187512 0.072589935898307076 0 0.31343102363621822 0.045840435360357167 0 0.31461423613864459 0.05638253533592489 0 0.30140929427236629 0.045017655708989662 0 0.31280791462477092 0.031794574731929579 0 0.31343102363621822 0.045840435360357167 0 0.30140929427236629 0.045017655708989662 0 0.31280791462477092 0.031794574731929579 0 0.30140929427236629 0.045017655708989662 0 0.29158410613285712 0.017445375519672311 0 0.30140929427236629 0.045017655708989662 0 0.2849102750846928 0.039526230414216323 0 0.29158410613285712 0.017445375519672311 0 0.2849102750846928 0.039526230414216323 0 0.28807646062305459 0.056323905407780643 0 0.27832001910397908 0.050275665539532881 0 0.30140929427236629 0.045017655708989662 0 0.2849102750846928 0.039526230414216323 0 0.28807646062305459 0.056323905407780643 0 0.28807646062305459 0.056323905407780643 0 0.27022369114932349 0.061051359782745118 0 0.28851027881433072 0.066196375939965052 0 0.29739535658567728 0.060287397024973391 0 0.28807646062305459 0.056323905407780643 0 0.29183166641530761 0.061414168125171233 0 0.28807646062305459 0.056323905407780643 0 0.29183166641530761 0.061414168125171233 0 0.28851027881433072 0.066196375939965052 0 0.29739535658567728 0.060287397024973391 0 0.30140929427236629 0.045017655708989662 0 0.28807646062305459 0.056323905407780643 0 0.31762153628356848 0.0125801377078211 0 0.29158410613285712 0.017445375519672311 0 0.30501130485267042 -0.0014971883304511779 0 0.31762153628356848 0.0125801377078211 0 0.31280791462477092 0.031794574731929579 0 0.29158410613285712 0.017445375519672311 0 0.2849102750846928 0.039526230414216323 0 0.29158410613285712 0.017445375519672311 0 0.27726085075735363 0.02804887018614444 0 0.30140929427236629 0.045017655708989662 0 0.29158410613285712 0.017445375519672311 0 0.29158410613285712 0.017445375519672311 0 0.28175891799334779 -0.01012690466964521 0 0.29158410613285712 0.017445375519672311 0 0.28175891799334779 -0.01012690466964521 0 0.30501130485267042 -0.0014971883304511779 0 0.26875773324523938 0.014666892188701101 0 0.25507115673211361 -0.0045350410014435294 0 0.28175891799334779 -0.01012690466964521 0 0.29158410613285712 0.017445375519672311 0 0.26875773324523938 0.014666892188701101 0 0.28175891799334779 -0.01012690466964521 0 0.26875773324523938 0.014666892188701101 0 0.27726085075735363 0.02804887018614444 0 0.26198574359321491 0.033908258332737959 0 0.29158410613285712 0.017445375519672311 0 0.26875773324523938 0.014666892188701101 0 0.27726085075735363 0.02804887018614444 0 0.24488562426254959 0.023260794764740599 0 0.26875773324523938 0.014666892188701101 0 0.26198574359321491 0.033908258332737959 0 0.24488562426254959 0.023260794764740599 0 0.26875773324523938 0.014666892188701101 0 0.25507115673211361 -0.0045350410014435294 0 0.28807646062305459 0.056323905407780643 0 0.27022369114932349 0.061051359782745118 0 0.27832001910397908 0.050275665539532881 0 0.27022369114932349 0.061051359782745118 0 0.27832001910397908 0.050275665539532881 0 0.26484266889691022 0.048343386933524621 0 0.27022369114932349 0.061051359782745118 0 0.27832001910397908 0.050275665539532881 0 0.2849102750846928 0.039526230414216323 0 0.27832001910397908 0.050275665539532881 0 0.27314407873522167 0.040032936734429668 0 0.2849102750846928 0.039526230414216323 0 0.27726085075735363 0.02804887018614444 0 0.27314407873522167 0.040032936734429668 0 0.27726085075735363 0.02804887018614444 0 0.27314407873522167 0.040032936734429668 0 0.26198574359321491 0.033908258332737959 0 0.27314407873522167 0.040032936734429668 0 0.26198574359321491 0.033908258332737959 0 0.26484266889691022 0.048343386933524621 0 0.27832001910397908 0.050275665539532881 0 0.27314407873522167 0.040032936734429668 0 0.26484266889691022 0.048343386933524621 0 0.24488562426254959 0.023260794764740599 0 0.26198574359321491 0.033908258332737959 0 0.25177520400336678 0.042524613143754143 0 0.26198574359321491 0.033908258332737959 0 0.25177520400336678 0.042524613143754143 0 0.26484266889691022 0.048343386933524621 0 0.25177520400336678 0.042524613143754143 0 0.26484266889691022 0.048343386933524621 0 0.25246189147116121 0.056053995156836831 0 0.27022369114932349 0.061051359782745118 0 0.25246189147116121 0.056053995156836831 0 0.27022369114932349 0.061051359782745118 0 0.26484266889691022 0.048343386933524621 0 0.25246189147116121 0.056053995156836831 0 0.27022369114932349 0.061051359782745118 0 0.25246189147116121 0.056053995156836831 0 0.25224945453329622 0.068441285752912751 0 0.27022369114932349 0.061051359782745118 0 0.2557397221572818 0.080328595359260457 0 0.27022369114932349 0.061051359782745118 0 0.25224945453329622 0.068441285752912751 0 0.2557397221572818 0.080328595359260457 0 0.27284772979096761 0.081553478889662995 0 0.2547156849319907 0.099331918348845943 0 0.27284772979096761 0.081553478889662995 0 0.2547156849319907 0.099331918348845943 0 0.25389036789066038 0.096150293627130429 0 0.2485246850727259 0.098667562616148161 0 0.2557397221572818 0.080328595359260457 0 0.25389036789066038 0.096150293627130429 0 0.2557397221572818 0.080328595359260457 0 0.27284772979096761 0.081553478889662995 0 0.25389036789066038 0.096150293627130429 0 0.2557397221572818 0.080328595359260457 0 0.27284772979096761 0.081553478889662995 0 0.27284772979096761 0.081553478889662995 0 0.26963844554521482 0.095372485750224667 0 0.2547156849319907 0.099331918348845943 0 0.27284772979096761 0.081553478889662995 0 0.2851675847297992 0.082435544629550758 0 0.27284772979096761 0.081553478889662995 0 0.2851675847297992 0.082435544629550758 0 0.28290113282945661 0.086478041770240682 0 0.27284772979096761 0.081553478889662995 0 0.28290113282945661 0.086478041770240682 0 0.26963844554521482 0.095372485750224667 0 0.27022369114932349 0.061051359782745118 0 0.2557397221572818 0.080328595359260457 0 0.27284772979096761 0.081553478889662995 0 0.27022369114932349 0.061051359782745118 0 0.28851027881433072 0.066196375939965052 0 0.27022369114932349 0.061051359782745118 0 0.27284772979096761 0.081553478889662995 0 0.28851027881433072 0.066196375939965052 0 0.27284772979096761 0.081553478889662995 0 0.28851027881433072 0.066196375939965052 0 0.28851027881433072 0.066196375939965052 0 0.29498381955551162 0.068017736617974153 0 0.2851675847297992 0.082435544629550758 0 0.27284772979096761 0.081553478889662995 0 0.28851027881433072 0.066196375939965052 0 0.2851675847297992 0.082435544629550758 0 0.29183166641530761 0.061414168125171233 0 0.28851027881433072 0.066196375939965052 0 0.29498381955551162 0.068017736617974153 0 0.28851027881433072 0.066196375939965052 0 0.29498381955551162 0.068017736617974153 0 0.29739535658567728 0.060287397024973391 0 0.29498381955551162 0.068017736617974153 0 0.29739535658567728 0.060287397024973391 0 0.29183166641530761 0.061414168125171233 0 0.29498381955551162 0.068017736617974153 0 0.29498381955551162 0.068017736617974153 0 0.2871530795164603 0.093119685710573441 0 0.29498381955551162 0.068017736617974153 0 0.2851675847297992 0.082435544629550758 0 0.2871530795164603 0.093119685710573441 0 0.29498381955551162 0.068017736617974153 0 0.2871530795164603 0.093119685710573441 0 0.29870994567604259 0.086288934276612189 0 0.2851675847297992 0.082435544629550758 0 0.28290113282945661 0.086478041770240682 0 0.2871530795164603 0.093119685710573441 0 0.29870994567604259 0.086288934276612189 0 0.30914314618924599 0.080756855671199196 0 0.30463767113703721 0.077033160214859897 0 0.29870994567604259 0.086288934276612189 0 0.3079929866167358 0.089881368759656743 0 0.29365766304707569 0.1040515017814158 0 0.29870994567604259 0.086288934276612189 0 0.3079929866167358 0.089881368759656743 0 0.30914314618924599 0.080756855671199196 0 0.3120468173300186 0.074869579366969308 0 0.31123448241187512 0.072589935898307076 0 0.30463767113703721 0.077033160214859897 0 0.29498381955551162 0.068017736617974153 0 0.31123448241187512 0.072589935898307076 0 0.30463767113703721 0.077033160214859897 0 0.30914314618924599 0.080756855671199196 0 0.3120468173300186 0.074869579366969308 0 0.30463767113703721 0.077033160214859897 0 0.29498381955551162 0.068017736617974153 0 0.29870994567604259 0.086288934276612189 0 0.30463767113703721 0.077033160214859897 0 0.29739535658567728 0.060287397024973391 0 0.29498381955551162 0.068017736617974153 0 0.31123448241187512 0.072589935898307076 0 0.29498381955551162 0.068017736617974153 0 0.31123448241187512 0.072589935898307076 0 0.3120468173300186 0.074869579366969308 0 0.31123448241187512 0.072589935898307076 0 0.30158018000248532 0.119759836117923 0 0.30739383795764619 0.1009375849746442 0 0.29277311791373628 0.1114547720401598 0 0.30158018000248532 0.119759836117923 0 0.30739383795764619 0.1009375849746442 0 0.31469512853409182 0.1168097818064744 0 0.30158018000248532 0.119759836117923 0 0.30739383795764619 0.1009375849746442 0 0.31469512853409182 0.1168097818064744 0 0.30158018000248532 0.119759836117923 0 0.3076955572030502 0.1303266906902672 0 0.3079929866167358 0.089881368759656743 0 0.30936001040582872 0.094571921240013776 0 0.30739383795764619 0.1009375849746442 0 0.30936001040582872 0.094571921240013776 0 0.30739383795764619 0.1009375849746442 0 0.3079929866167358 0.089881368759656743 0 0.29365766304707569 0.1040515017814158 0 0.3079929866167358 0.089881368759656743 0 0.30739383795764619 0.1009375849746442 0 0.29365766304707569 0.1040515017814158 0 0.30739383795764619 0.1009375849746442 0 0.29277311791373628 0.1114547720401598 0 0.30739383795764619 0.1009375849746442 0 0.29365766304707569 0.1040515017814158 0 0.29277311791373628 0.1114547720401598 0 0.2871530795164603 0.093119685710573441 0 0.29870994567604259 0.086288934276612189 0 0.29365766304707569 0.1040515017814158 0 0.28290113282945661 0.086478041770240682 0 0.2871530795164603 0.093119685710573441 0 0.27421499175265468 0.1037563450018507 0 0.2871530795164603 0.093119685710573441 0 0.29365766304707569 0.1040515017814158 0 0.27932233947741558 0.1182216348031747 0 0.2871530795164603 0.093119685710573441 0 0.27932233947741558 0.1182216348031747 0 0.29277311791373628 0.1114547720401598 0 0.27815239786982637 0.12197195910567531 0 0.29365766304707569 0.1040515017814158 0 0.29277311791373628 0.1114547720401598 0 0.27932233947741558 0.1182216348031747 0 0.29365766304707569 0.1040515017814158 0 0.27932233947741558 0.1182216348031747 0 0.29288121869312372 0.12048331642204139 0 0.28349283669018632 0.12309038905671769 0 0.29367874016608692 0.12762826847336539 0 0.29277311791373628 0.1114547720401598 0 0.29288121869312372 0.12048331642204139 0 0.28349283669018632 0.12309038905671769 0 0.30158018000248532 0.119759836117923 0 0.29288121869312372 0.12048331642204139 0 0.29367874016608692 0.12762826847336539 0 0.30158018000248532 0.119759836117923 0 0.29277311791373628 0.1114547720401598 0 0.29288121869312372 0.12048331642204139 0 0.29277311791373628 0.1114547720401598 0 0.28349283669018632 0.12309038905671769 0 0.27815239786982637 0.12197195910567531 0 0.29277311791373628 0.1114547720401598 0 0.27815239786982637 0.12197195910567531 0 0.27932233947741558 0.1182216348031747 0 0.27421499175265468 0.1037563450018507 0 0.26552885067584842 0.12103464823345859 0 0.28349283669018632 0.12309038905671769 0 0.27815239786982637 0.12197195910567531 0 0.27580937248122123 0.1294826801530122 0 0.27932233947741558 0.1182216348031747 0 0.27202937355224538 0.12637646120689061 0 0.27421499175265468 0.1037563450018507 0 0.26379776082843392 0.1060760142848414 0 0.26552885067584842 0.12103464823345859 0 0.27264325619064422 0.1172399247447799 0 0.27421499175265468 0.1037563450018507 0 0.26552885067584842 0.12103464823345859 0 0.27815239786982637 0.12197195910567531 0 0.27932233947741558 0.1182216348031747 0 0.27202937355224538 0.12637646120689061 0 0.27932233947741558 0.1182216348031747 0 0.27264325619064422 0.1172399247447799 0 0.27202937355224538 0.12637646120689061 0 0.27815239786982637 0.12197195910567531 0 0.27202937355224538 0.12637646120689061 0 0.27815239786982637 0.12197195910567531 0 0.27932233947741558 0.1182216348031747 0 0.27932233947741558 0.1182216348031747 0 0.27264325619064422 0.1172399247447799 0 0.27421499175265468 0.1037563450018507 0 0.27264325619064422 0.1172399247447799 0 0.26552885067584842 0.12103464823345859 0 0.27202937355224538 0.12637646120689061 0 0.26552885067584842 0.12103464823345859 0 0.27202937355224538 0.12637646120689061 0 0.28290113282945661 0.086478041770240682 0 0.27421499175265468 0.1037563450018507 0 0.26963844554521482 0.095372485750224667 0 0.2871530795164603 0.093119685710573441 0 0.27932233947741558 0.1182216348031747 0 0.27421499175265468 0.1037563450018507 0 0.28290113282945661 0.086478041770240682 0 0.27421499175265468 0.1037563450018507 0 0.27421499175265468 0.1037563450018507 0 0.26963844554521482 0.095372485750224667 0 0.26379776082843392 0.1060760142848414 0 0.26379776082843392 0.1060760142848414 0 0.2547156849319907 0.099331918348845943 0 0.25894114000125662 0.1156211885755439 0 0.2547156849319907 0.099331918348845943 0 0.25894114000125662 0.1156211885755439 0 0.24760401894731479 0.10630489487443209 0 0.2547156849319907 0.099331918348845943 0 0.25894114000125662 0.1156211885755439 0 0.26963844554521482 0.095372485750224667 0 0.26379776082843392 0.1060760142848414 0 0.2547156849319907 0.099331918348845943 0 0.24760401894731479 0.10630489487443209 0 0.2547156849319907 0.099331918348845943 0 0.2547156849319907 0.099331918348845943 0 0.25389036789066038 0.096150293627130429 0 0.2485246850727259 0.098667562616148161 0 0.2547156849319907 0.099331918348845943 0 0.25389036789066038 0.096150293627130429 0 0.2485246850727259 0.098667562616148161 0 0.24760401894731479 0.10630489487443209 0 0.2547156849319907 0.099331918348845943 0 0.25894114000125662 0.1156211885755439 0 0.26210967661584911 0.1278360029073102 0 0.26552885067584842 0.12103464823345859 0 0.25894114000125662 0.1156211885755439 0 0.26210967661584911 0.1278360029073102 0 0.26552885067584842 0.12103464823345859 0 0.26210967661584911 0.1278360029073102 0 0.26552885067584842 0.12103464823345859 0 0.25894114000125662 0.1156211885755439 0 0.26379776082843392 0.1060760142848414 0 0.26552885067584842 0.12103464823345859 0 0.25894114000125662 0.1156211885755439 0 0.24728074087785509 0.1165698880688527 0 0.24760401894731479 0.10630489487443209 0 0.25894114000125662 0.1156211885755439 0 0.24760401894731479 0.10630489487443209 0 0.25894114000125662 0.1156211885755439 0 0.24841421863416779 0.12487025200301539 0 0.24728074087785509 0.1165698880688527 0 0.25894114000125662 0.1156211885755439 0 0.24841421863416779 0.12487025200301539 0 0.25894114000125662 0.1156211885755439 0 0.26210967661584911 0.1278360029073102 0 0.24841421863416779 0.12487025200301539 0 0.25063503352337868 0.13313637413336671 0 0.26210967661584911 0.1278360029073102 0 0.25063503352337868 0.13313637413336671 0 0.26210967661584911 0.1278360029073102 0 0.25471493415999991 0.1425454810682216 0 0.25951021007630798 0.13538192631290191 0 0.26210967661584911 0.1278360029073102 0 0.25471493415999991 0.1425454810682216 0 0.25951021007630798 0.13538192631290191 0 0.26335051206218901 0.1326194649394353 0 0.25471493415999991 0.1425454810682216 0 0.26210967661584911 0.1278360029073102 0 0.25471493415999991 0.1425454810682216 0 0.26335051206218901 0.1326194649394353 0 0.25471493415999991 0.1425454810682216 0 0.25951021007630798 0.13538192631290191 0 0.26335051206218901 0.1326194649394353 0 0.26552885067584842 0.12103464823345859 0 0.26210967661584911 0.1278360029073102 0 0.26851487659698392 0.12890455981001361 0 0.25951021007630798 0.13538192631290191 0 0.26335051206218901 0.1326194649394353 0 0.26210967661584911 0.1278360029073102 0 0.26335051206218901 0.1326194649394353 0 0.26210967661584911 0.1278360029073102 0 0.26851487659698392 0.12890455981001361 0 0.26335051206218901 0.1326194649394353 0 0.26210967661584911 0.1278360029073102 0 0.26552885067584842 0.12103464823345859 0 0.26851487659698392 0.12890455981001361 0 0.27202937355224538 0.12637646120689061 0 0.27580937248122123 0.1294826801530122 0 0.26922812615305552 0.15057929547567139 0 0.27580937248122123 0.1294826801530122 0 0.27789808871016608 0.14661550954161631 0 0.28414293081202779 0.1444016076806334 0 0.26335051206218901 0.1326194649394353 0 0.27580937248122123 0.1294826801530122 0 0.26922812615305552 0.15057929547567139 0 0.26335051206218901 0.1326194649394353 0 0.26851487659698392 0.12890455981001361 0 0.27580937248122123 0.1294826801530122 0 0.26851487659698392 0.12890455981001361 0 0.27202937355224538 0.12637646120689061 0 0.27580937248122123 0.1294826801530122 0 0.26851487659698392 0.12890455981001361 0 0.27202937355224538 0.12637646120689061 0 0.26335051206218901 0.1326194649394353 0 0.26851487659698392 0.12890455981001361 0 0.27815239786982637 0.12197195910567531 0 0.27202937355224538 0.12637646120689061 0 0.27580937248122123 0.1294826801530122 0 0.27815239786982637 0.12197195910567531 0 0.27580937248122123 0.1294826801530122 0 0.27202937355224538 0.12637646120689061 0 0.27580937248122123 0.1294826801530122 0 0.26335051206218901 0.1326194649394353 0 0.2701703057472491 0.158909997060868 0 0.27580937248122123 0.1294826801530122 0 0.27789808871016608 0.14661550954161631 0 0.26922812615305552 0.15057929547567139 0 0.26335051206218901 0.1326194649394353 0 0.26922812615305552 0.15057929547567139 0 0.2701703057472491 0.158909997060868 0 0.2760516541884499 0.1546529033177845 0 0.27789808871016608 0.14661550954161631 0 0.26922812615305552 0.15057929547567139 0 0.2760516541884499 0.1546529033177845 0 0.27789808871016608 0.14661550954161631 0 0.2830806591398905 0.1536504058693032 0 0.2760516541884499 0.1546529033177845 0 0.26922812615305552 0.15057929547567139 0 0.2701703057472491 0.158909997060868 0 0.26335051206218901 0.1326194649394353 0 0.26151721314907422 0.1507101567682145 0 0.25471493415999991 0.1425454810682216 0 0.26151721314907422 0.1507101567682145 0 0.2628394769672685 0.15903569168219189 0 0.2701703057472491 0.158909997060868 0 0.26335051206218901 0.1326194649394353 0 0.26151721314907422 0.1507101567682145 0 0.2701703057472491 0.158909997060868 0 0.26151721314907422 0.1507101567682145 0 0.25471493415999991 0.1425454810682216 0 0.25622386542606368 0.15933386483886339 0 0.24247576601688781 0.16689139677573009 0 0.25471493415999991 0.1425454810682216 0 0.25622386542606368 0.15933386483886339 0 0.25622386542606368 0.15933386483886339 0 0.25316802083769918 0.17045115467188021 0 0.26347836758201099 0.16892336961757151 0 0.24247576601688781 0.16689139677573009 0 0.25622386542606368 0.15933386483886339 0 0.25316802083769918 0.17045115467188021 0 0.25316802083769918 0.17045115467188021 0 0.26347836758201099 0.16892336961757151 0 0.25947612679119691 0.17486636671029321 0 0.26151721314907422 0.1507101567682145 0 0.25622386542606368 0.15933386483886339 0 0.2628394769672685 0.15903569168219189 0 0.25622386542606368 0.15933386483886339 0 0.26347836758201099 0.16892336961757151 0 0.2628394769672685 0.15903569168219189 0 0.26347836758201099 0.16892336961757151 0 0.2628394769672685 0.15903569168219189 0 0.2701703057472491 0.158909997060868 0 0.24631191293372251 0.18708186623926701 0 0.25397011602997399 0.1810567586058261 0 0.25583476687377482 0.1922858934871631 0 0.25316802083769918 0.17045115467188021 0 0.25397011602997399 0.1810567586058261 0 0.25947612679119691 0.17486636671029321 0 0.2449165897512576 0.1786649505904794 0 0.25316802083769918 0.17045115467188021 0 0.25397011602997399 0.1810567586058261 0 0.25397011602997399 0.1810567586058261 0 0.25947612679119691 0.17486636671029321 0 0.26411327899219328 0.18299031993587381 0 0.26347836758201099 0.16892336961757151 0 0.25947612679119691 0.17486636671029321 0 0.26411327899219328 0.18299031993587381 0 0.25397011602997399 0.1810567586058261 0 0.26411327899219328 0.18299031993587381 0 0.25583476687377482 0.1922858934871631 0 0.27670312804970659 0.18409424493080781 0 0.27988109119188848 0.1635093086414634 0 0.28518006658824741 0.17285670831816491 0 0.26347836758201099 0.16892336961757151 0 0.26411327899219328 0.18299031993587381 0 0.27670312804970659 0.18409424493080781 0 0.26347836758201099 0.16892336961757151 0 0.27670312804970659 0.18409424493080781 0 0.2701703057472491 0.158909997060868 0 0.27670312804970659 0.18409424493080781 0 0.2701703057472491 0.158909997060868 0 0.27988109119188848 0.1635093086414634 0 0.27670312804970659 0.18409424493080781 0 0.2701703057472491 0.158909997060868 0 0.2760516541884499 0.1546529033177845 0 0.2701703057472491 0.158909997060868 0 0.27988109119188848 0.1635093086414634 0 0.2760516541884499 0.1546529033177845 0 0.27988109119188848 0.1635093086414634 0 0.2830806591398905 0.1536504058693032 0 0.28518006658824741 0.17285670831816491 0 0.2830806591398905 0.1536504058693032 0 0.2939681014786788 0.14440463889141411 0 0.28518006658824741 0.17285670831816491 0 0.2939681014786788 0.14440463889141411 0 0.27988109119188848 0.1635093086414634 0 0.28518006658824741 0.17285670831816491 0 0.2830806591398905 0.1536504058693032 0 0.28518006658824741 0.17285670831816491 0 0.2982038727296551 0.16306742479698899 0 0.2939681014786788 0.14440463889141411 0 0.28518006658824741 0.17285670831816491 0 0.30125219497826611 0.18007120725749731 0 0.28927716538145498 0.19231782135735059 0 0.27670312804970659 0.18409424493080781 0 0.28518006658824741 0.17285670831816491 0 0.28927716538145498 0.19231782135735059 0 0.28518006658824741 0.17285670831816491 0 0.30125219497826611 0.18007120725749731 0 0.2982038727296551 0.16306742479698899 0 0.30125219497826611 0.18007120725749731 0 0.3076460848860787 0.17161157995025769 0 0.31514200906475709 0.18087910351632441 0 0.30125219497826611 0.18007120725749731 0 0.31200171362477108 0.19067661612064099 0 0.31514200906475709 0.18087910351632441 0 0.3076460848860787 0.17161157995025769 0 0.31447302605915478 0.16219321188919161 0 0.31514200906475709 0.18087910351632441 0 0.2982038727296551 0.16306742479698899 0 0.29691456071865979 0.14682589553385489 0 0.31447302605915478 0.16219321188919161 0 0.2982038727296551 0.16306742479698899 0 0.3076460848860787 0.17161157995025769 0 0.31447302605915478 0.16219321188919161 0 0.30125219497826611 0.18007120725749731 0 0.2982038727296551 0.16306742479698899 0 0.3076460848860787 0.17161157995025769 0 0.29576652204732701 0.1385820872612025 0 0.31447302605915478 0.16219321188919161 0 0.29691456071865979 0.14682589553385489 0 0.29576652204732701 0.1385820872612025 0 0.31447302605915478 0.16219321188919161 0 0.31156458426765837 0.142643261882134 0 0.29576652204732701 0.1385820872612025 0 0.31447302605915478 0.16219321188919161 0 0.30158018000248532 0.119759836117923 0 0.3076955572030502 0.1303266906902672 0 0.29576652204732701 0.1385820872612025 0 0.31156458426765837 0.142643261882134 0 0.3076955572030502 0.1303266906902672 0 0.29576652204732701 0.1385820872612025 0 0.30158018000248532 0.119759836117923 0 0.29576652204732701 0.1385820872612025 0 0.29367874016608692 0.12762826847336539 0 0.30158018000248532 0.119759836117923 0 0.29576652204732701 0.1385820872612025 0 0.27580937248122123 0.1294826801530122 0 0.28414293081202779 0.1444016076806334 0 0.2939681014786788 0.14440463889141411 0 0.27580937248122123 0.1294826801530122 0 0.2939681014786788 0.14440463889141411 0 0.28349283669018632 0.12309038905671769 0 0.27580937248122123 0.1294826801530122 0 0.29576652204732701 0.1385820872612025 0 0.27580937248122123 0.1294826801530122 0 0.29576652204732701 0.1385820872612025 0 0.2939681014786788 0.14440463889141411 0 0.28349283669018632 0.12309038905671769 0 0.29576652204732701 0.1385820872612025 0 0.28349283669018632 0.12309038905671769 0 0.29576652204732701 0.1385820872612025 0 0.29367874016608692 0.12762826847336539 0 0.28414293081202779 0.1444016076806334 0 0.2830806591398905 0.1536504058693032 0 0.2939681014786788 0.14440463889141411 0 0.2982038727296551 0.16306742479698899 0 0.29691456071865979 0.14682589553385489 0 0.2939681014786788 0.14440463889141411 0 0.27789808871016608 0.14661550954161631 0 0.28414293081202779 0.1444016076806334 0 0.2830806591398905 0.1536504058693032 0 0.29691456071865979 0.14682589553385489 0 0.29576652204732701 0.1385820872612025 0 0.2939681014786788 0.14440463889141411 0 0.29691456071865979 0.14682589553385489 0 0.2939681014786788 0.14440463889141411 0 0.29576652204732701 0.1385820872612025 0 0.2939681014786788 0.14440463889141411 0 0.27512345585407538 0.2463025367310307 0 0.27179388163021928 0.22404474309178429 0 0.29005194844804699 0.23849299082461689 0 0.27512345585407538 0.2463025367310307 0 0.25916419269841368 0.24538229102785139 0 0.27179388163021928 0.22404474309178429 0 0.23928668947315221 0.2323916017396139 0 0.25916419269841368 0.24538229102785139 0 0.25594514465354418 0.2278537828045504 0 0.25916419269841368 0.24538229102785139 0 0.25594514465354418 0.2278537828045504 0 0.27179388163021928 0.22404474309178429 0 0.25594514465354418 0.2278537828045504 0 0.27179388163021928 0.22404474309178429 0 0.25353581481239162 0.20959649535895189 0 0.27179388163021928 0.22404474309178429 0 0.29005194844804699 0.23849299082461689 0 0.27179388163021928 0.22404474309178429 0 0.27228666192763201 0.19818322042489189 0 0.28571582841304949 0.20830072825331969 0 0.27179388163021928 0.22404474309178429 0 0.25353581481239162 0.20959649535895189 0 0.27228666192763201 0.19818322042489189 0 0.27179388163021928 0.22404474309178429 0 0.25353581481239162 0.20959649535895189 0 0.25353581481239162 0.20959649535895189 0 0.25583476687377482 0.1922858934871631 0 0.27228666192763201 0.19818322042489189 0 0.26411327899219328 0.18299031993587381 0 0.25583476687377482 0.1922858934871631 0 0.27228666192763201 0.19818322042489189 0 0.24278683002938581 0.19728741683585771 0 0.25353581481239162 0.20959649535895189 0 0.25583476687377482 0.1922858934871631 0 0.27670312804970659 0.18409424493080781 0 0.27228666192763201 0.19818322042489189 0 0.28927716538145498 0.19231782135735059 0 0.26411327899219328 0.18299031993587381 0 0.27670312804970659 0.18409424493080781 0 0.27228666192763201 0.19818322042489189 0 0.28927716538145498 0.19231782135735059 0 0.29916091251332161 0.20740007214684569 0 0.28571582841304949 0.20830072825331969 0 0.27228666192763201 0.19818322042489189 0 0.28927716538145498 0.19231782135735059 0 0.28571582841304949 0.20830072825331969 0 0.30125219497826611 0.18007120725749731 0 0.28927716538145498 0.19231782135735059 0 0.30304077102267979 0.19490224891827981 0 0.30125219497826611 0.18007120725749731 0 0.30304077102267979 0.19490224891827981 0 0.31200171362477108 0.19067661612064099 0 0.30304077102267979 0.19490224891827981 0 0.29916091251332161 0.20740007214684569 0 0.31226952161276139 0.20516518544601081 0 0.30304077102267979 0.19490224891827981 0 0.31200171362477108 0.19067661612064099 0 0.31226952161276139 0.20516518544601081 0 0.28927716538145498 0.19231782135735059 0 0.30304077102267979 0.19490224891827981 0 0.29916091251332161 0.20740007214684569 0 0.29916091251332161 0.20740007214684569 0 0.31226952161276139 0.20516518544601081 0 0.30942506135684023 0.2183250120619816 0 0.29916091251332161 0.20740007214684569 0 0.30942506135684023 0.2183250120619816 0 0.29395056358654692 0.22183665606865191 0 0.29916091251332161 0.20740007214684569 0 0.28571582841304949 0.20830072825331969 0 0.29395056358654692 0.22183665606865191 0 0.27179388163021928 0.22404474309178429 0 0.28571582841304949 0.20830072825331969 0 0.29395056358654692 0.22183665606865191 0 0.27179388163021928 0.22404474309178429 0 0.29395056358654692 0.22183665606865191 0 0.29005194844804699 0.23849299082461689 0 0.30942506135684023 0.2183250120619816 0 0.29395056358654692 0.22183665606865191 0 0.30701968094672177 0.23297606471024659 0 0.29395056358654692 0.22183665606865191 0 0.30701968094672177 0.23297606471024659 0 0.29005194844804699 0.23849299082461689 0 0.30942506135684023 0.2183250120619816 0 0.30701968094672177 0.23297606471024659 0 0.31847206462404781 0.22772280286741811 0 0.3083100152658747 0.25294123855744932 0 0.29005194844804699 0.23849299082461689 0 0.3083100152658747 0.25294123855744932 0 0.30701968094672177 0.23297606471024659 0 0.29005194844804699 0.23849299082461689 0 0.3083100152658747 0.25294123855744932 0 0.30701968094672177 0.23297606471024659 0 0.3215627720717773 0.2390234467512414 0 0.27987694588243939 0.26210520192831849 0 0.27512345585407538 0.2463025367310307 0 0.29005194844804699 0.23849299082461689 0 0.32656808208370192 0.2673894862902822 0 0.33693281645895012 0.2434646213280616 0 0.3215627720717773 0.2390234467512414 0 0.34035687143163951 0.25120624042459933 0 0.33693281645895012 0.2434646213280616 0 0.34778673323924031 0.24958637436864911 0 0.33693281645895012 0.2434646213280616 0 0.3215627720717773 0.2390234467512414 0 0.33174481215405011 0.23319953104268679 0 0.31847206462404781 0.22772280286741811 0 0.33174481215405011 0.23319953104268679 0 0.32084637353151718 0.2149855941751766 0 0.3215627720717773 0.2390234467512414 0 0.31847206462404781 0.22772280286741811 0 0.33174481215405011 0.23319953104268679 0 0.30701968094672177 0.23297606471024659 0 0.3215627720717773 0.2390234467512414 0 0.31847206462404781 0.22772280286741811 0 0.30942506135684023 0.2183250120619816 0 0.31847206462404781 0.22772280286741811 0 0.32084637353151718 0.2149855941751766 0 0.33174481215405011 0.23319953104268679 0 0.33246217111251669 0.20950193377993381 0 0.34681327703425768 0.22065760317685429 0 0.33174481215405011 0.23319953104268679 0 0.33246217111251669 0.20950193377993381 0 0.33693281645895012 0.2434646213280616 0 0.34681327703425768 0.22065760317685429 0 0.33693281645895012 0.2434646213280616 0 0.33174481215405011 0.23319953104268679 0 0.34681327703425768 0.22065760317685429 0 0.33174481215405011 0.23319953104268679 0 0.33246217111251669 0.20950193377993381 0 0.32084637353151718 0.2149855941751766 0 0.31226952161276139 0.20516518544601081 0 0.32084637353151718 0.2149855941751766 0 0.3207046103288877 0.19599909985302849 0 0.33246217111251669 0.20950193377993381 0 0.32084637353151718 0.2149855941751766 0 0.3207046103288877 0.19599909985302849 0 0.31226952161276139 0.20516518544601081 0 0.30942506135684023 0.2183250120619816 0 0.32084637353151718 0.2149855941751766 0 0.3207046103288877 0.19599909985302849 0 0.31514200906475709 0.18087910351632441 0 0.33317953007098272 0.1858043365171807 0 0.31200171362477108 0.19067661612064099 0 0.31226952161276139 0.20516518544601081 0 0.3207046103288877 0.19599909985302849 0 0.31200171362477108 0.19067661612064099 0 0.3207046103288877 0.19599909985302849 0 0.31514200906475709 0.18087910351632441 0 0.33246217111251669 0.20950193377993381 0 0.3207046103288877 0.19599909985302849 0 0.33317953007098272 0.1858043365171807 0 0.33246217111251669 0.20950193377993381 0 0.33317953007098272 0.1858043365171807 0 0.33246217111251669 0.20950193377993381 0 0.34402318926013081 0.1923596391392085 0 0.33317953007098272 0.1858043365171807 0 0.34402318926013081 0.1923596391392085 0 0.33317953007098272 0.1858043365171807 0 0.34053083586754901 0.1859225704408905 0 0.33246217111251669 0.20950193377993381 0 0.35669373760956541 0.19785058502564709 0 0.34402318926013081 0.1923596391392085 0 0.35669373760956541 0.19785058502564709 0 0.34402318926013081 0.1923596391392085 0 0.34752827109097278 0.17732461590345891 0 0.35669373760956541 0.19785058502564709 0 0.36657419818487302 0.17504356687443989 0 0.37577674387175791 0.20160076393901941 0 0.35669373760956541 0.19785058502564709 0 0.37406470815103332 0.21914285419121951 0 0.35963609027291521 0.22635747443073739 0 0.35669373760956541 0.19785058502564709 0 0.37406470815103332 0.21914285419121951 0 0.37577674387175791 0.20160076393901941 0 0.35669373760956541 0.19785058502564709 0 0.34681327703425768 0.22065760317685429 0 0.33246217111251669 0.20950193377993381 0 0.35669373760956541 0.19785058502564709 0 0.34681327703425768 0.22065760317685429 0 0.35669373760956541 0.19785058502564709 0 0.34681327703425768 0.22065760317685429 0 0.35963609027291521 0.22635747443073739 0 0.33693281645895012 0.2434646213280616 0 0.34681327703425768 0.22065760317685429 0 0.34996919476328942 0.2369793850253829 0 0.34681327703425768 0.22065760317685429 0 0.35963609027291521 0.22635747443073739 0 0.34996919476328942 0.2369793850253829 0 0.37406470815103332 0.21914285419121951 0 0.35963609027291521 0.22635747443073739 0 0.37102660984626401 0.23925257198647151 0 0.35963609027291521 0.22635747443073739 0 0.37102660984626401 0.23925257198647151 0 0.35924901423308142 0.244261847178849 0 0.36613357719467671 0.25453914141910888 0 0.37102660984626401 0.23925257198647151 0 0.35924901423308142 0.244261847178849 0 0.35963609027291521 0.22635747443073739 0 0.35924901423308142 0.244261847178849 0 0.34996919476328942 0.2369793850253829 0 0.35924901423308142 0.244261847178849 0 0.34996919476328942 0.2369793850253829 0 0.34778673323924031 0.24958637436864911 0 0.33693281645895012 0.2434646213280616 0 0.34996919476328942 0.2369793850253829 0 0.34778673323924031 0.24958637436864911 0 0.33446871146457452 0.14321686882978871 0 0.32059039902557313 0.1486161254495289 0 0.3338241207677789 0.16451060267348469 0 0.33446871146457452 0.14321686882978871 0 0.3338241207677789 0.16451060267348469 0 0.35501684166218028 0.15403364789730381 0 0.33446871146457452 0.14321686882978871 0 0.3338241207677789 0.16451060267348469 0 0.33511330216137009 0.12192313498609279 0 0.33446871146457452 0.14321686882978871 0 0.31929741700318848 0.13349819412048011 0 0.33511330216137009 0.12192313498609279 0 0.33446871146457452 0.14321686882978871 0 0.33511330216137009 0.12192313498609279 0 0.33446871146457452 0.14321686882978871 0 0.35147701743370702 0.12998206918191499 0 0.31469512853409182 0.1168097818064744 0 0.3076955572030502 0.1303266906902672 0 0.31929741700318848 0.13349819412048011 0 0.31156458426765837 0.142643261882134 0 0.3076955572030502 0.1303266906902672 0 0.31929741700318848 0.13349819412048011 0 0.31156458426765837 0.142643261882134 0 0.32059039902557313 0.1486161254495289 0 0.31447302605915478 0.16219321188919161 0 0.31156458426765837 0.142643261882134 0 0.31929741700318848 0.13349819412048011 0 0.32059039902557313 0.1486161254495289 0 0.33446871146457452 0.14321686882978871 0 0.31929741700318848 0.13349819412048011 0 0.32059039902557313 0.1486161254495289 0 0.31447302605915478 0.16219321188919161 0 0.33317953007098272 0.1858043365171807 0 0.3338241207677789 0.16451060267348469 0 0.32059039902557313 0.1486161254495289 0 0.31447302605915478 0.16219321188919161 0 0.3338241207677789 0.16451060267348469 0 0.31447302605915478 0.16219321188919161 0 0.31514200906475709 0.18087910351632441 0 0.33317953007098272 0.1858043365171807 0 0.31447302605915478 0.16219321188919161 0 0.33317953007098272 0.1858043365171807 0 0.33961693810857108 0.1805511484600934 0 0.3338241207677789 0.16451060267348469 0 0.34752827109097278 0.17732461590345891 0 0.33317953007098272 0.1858043365171807 0 0.3338241207677789 0.16451060267348469 0 0.33317953007098272 0.1858043365171807 0 0.33961693810857108 0.1805511484600934 0 0.3338241207677789 0.16451060267348469 0 0.33961693810857108 0.1805511484600934 0 0.34053083586754901 0.1859225704408905 0 0.34752827109097278 0.17732461590345891 0 0.33961693810857108 0.1805511484600934 0 0.34053083586754901 0.1859225704408905 0 0.33679439205664607 0.1847322461172613 0 0.33317953007098272 0.1858043365171807 0 0.33961693810857108 0.1805511484600934 0 0.33679439205664607 0.1847322461172613 0 0.33317953007098272 0.1858043365171807 0 0.34053083586754901 0.1859225704408905 0 0.33679439205664607 0.1847322461172613 0 0.34752827109097278 0.17732461590345891 0 0.36657419818487302 0.17504356687443989 0 0.35501684166218028 0.15403364789730381 0 0.3338241207677789 0.16451060267348469 0 0.34752827109097278 0.17732461590345891 0 0.35501684166218028 0.15403364789730381 0 0.35669373760956541 0.19785058502564709 0 0.34752827109097278 0.17732461590345891 0 0.36657419818487302 0.17504356687443989 0 0.34402318926013081 0.1923596391392085 0 0.34053083586754901 0.1859225704408905 0 0.34752827109097278 0.17732461590345891 0 0.35669373760956541 0.19785058502564709 0 0.36657419818487302 0.17504356687443989 0 0.36657419818487302 0.17504356687443989 0 0.37645465876018058 0.15223654872323281 0 0.36657419818487302 0.17504356687443989 0 0.35501684166218028 0.15403364789730381 0 0.37645465876018058 0.15223654872323281 0 0.35501684166218028 0.15403364789730381 0 0.37281114709885399 0.13394027336086481 0 0.37645465876018058 0.15223654872323281 0 0.33446871146457452 0.14321686882978871 0 0.35501684166218028 0.15403364789730381 0 0.35147701743370702 0.12998206918191499 0 0.35501684166218028 0.15403364789730381 0 0.35147701743370702 0.12998206918191499 0 0.37281114709885399 0.13394027336086481 0 0.36658012664697798 0.11607995366614191 0 0.35147701743370702 0.12998206918191499 0 0.37281114709885399 0.13394027336086481 0 0.37281114709885399 0.13394027336086481 0 0.39239884956066962 0.14388751221757429 0 0.39281359224249762 0.1196211754982715 0 0.39239884956066962 0.14388751221757429 0 0.40739952475875441 0.13375103352703699 0 0.39281359224249762 0.1196211754982715 0 0.39239884956066962 0.14388751221757429 0 0.40739952475875441 0.13375103352703699 0 0.40682659655341141 0.15155457519991111 0 0.39239884956066962 0.14388751221757429 0 0.39407595153629438 0.1572390407789078 0 0.40682659655341141 0.15155457519991111 0 0.37281114709885399 0.13394027336086481 0 0.39239884956066962 0.14388751221757429 0 0.37645465876018058 0.15223654872323281 0 0.39239884956066962 0.14388751221757429 0 0.37645465876018058 0.15223654872323281 0 0.39407595153629438 0.1572390407789078 0 0.36657419818487302 0.17504356687443989 0 0.37645465876018058 0.15223654872323281 0 0.3859896074605782 0.16829888436049631 0 0.37645465876018058 0.15223654872323281 0 0.3859896074605782 0.16829888436049631 0 0.39407595153629438 0.1572390407789078 0 0.36657419818487302 0.17504356687443989 0 0.3859896074605782 0.16829888436049631 0 0.38689727540868629 0.1876125190097272 0 0.3859896074605782 0.16829888436049631 0 0.40318186147908108 0.16850780943902269 0 0.38689727540868629 0.1876125190097272 0 0.40620327573452952 0.18516371566501011 0 0.40318186147908108 0.16850780943902269 0 0.38689727540868629 0.1876125190097272 0 0.40318186147908108 0.16850780943902269 0 0.39407595153629438 0.1572390407789078 0 0.40682659655341141 0.15155457519991111 0 0.3859896074605782 0.16829888436049631 0 0.40318186147908108 0.16850780943902269 0 0.39407595153629438 0.1572390407789078 0 0.40318186147908108 0.16850780943902269 0 0.41935903639285071 0.1593431487626446 0 0.40682659655341141 0.15155457519991111 0 0.40318186147908108 0.16850780943902269 0 0.41935903639285071 0.1593431487626446 0 0.41708120383457781 0.1727439998848381 0 0.41935903639285071 0.1593431487626446 0 0.41708120383457781 0.1727439998848381 0 0.42807768347476161 0.17090464922380291 0 0.40620327573452952 0.18516371566501011 0 0.40318186147908108 0.16850780943902269 0 0.41708120383457781 0.1727439998848381 0 0.40620327573452952 0.18516371566501011 0 0.41708120383457781 0.1727439998848381 0 0.42187164625477142 0.18392008133696011 0 0.42187164625477142 0.18392008133696011 0 0.43349505158986551 0.18186004684820811 0 0.42956911490546479 0.19645616357397749 0 0.42187164625477142 0.18392008133696011 0 0.43349505158986551 0.18186004684820811 0 0.42807768347476161 0.17090464922380291 0 0.41708120383457781 0.1727439998848381 0 0.42187164625477142 0.18392008133696011 0 0.42807768347476161 0.17090464922380291 0 0.43349505158986551 0.18186004684820811 0 0.42807768347476161 0.17090464922380291 0 0.43981800936350091 0.16858943342317431 0 0.41935903639285071 0.1593431487626446 0 0.42807768347476161 0.17090464922380291 0 0.43127656117988422 0.1566256280665812 0 0.42807768347476161 0.17090464922380291 0 0.43127656117988422 0.1566256280665812 0 0.43981800936350091 0.16858943342317431 0 0.43127656117988422 0.1566256280665812 0 0.43308402633216431 0.14025021003661131 0 0.4212401523388693 0.14641692606836859 0 0.43127656117988422 0.1566256280665812 0 0.43308402633216431 0.14025021003661131 0 0.43939799891901149 0.14870669478579379 0 0.41935903639285071 0.1593431487626446 0 0.43127656117988422 0.1566256280665812 0 0.4212401523388693 0.14641692606836859 0 0.43308402633216431 0.14025021003661131 0 0.42398648764572971 0.13236552875078439 0 0.44422534230605037 0.13408935207882691 0 0.42398648764572971 0.13236552875078439 0 0.44422534230605037 0.13408935207882691 0 0.42398648764572971 0.13236552875078439 0 0.44422534230605037 0.13408935207882691 0 0.43500566660301532 0.1226637462614863 0 0.43308402633216431 0.14025021003661131 0 0.42398648764572971 0.13236552875078439 0 0.4212401523388693 0.14641692606836859 0 0.42398648764572971 0.13236552875078439 0 0.40739952475875441 0.13375103352703699 0 0.4212401523388693 0.14641692606836859 0 0.42398648764572971 0.13236552875078439 0 0.40739952475875441 0.13375103352703699 0 0.41827840713907188 0.11962152414364489 0 0.40739952475875441 0.13375103352703699 0 0.40682659655341141 0.15155457519991111 0 0.4212401523388693 0.14641692606836859 0 0.41935903639285071 0.1593431487626446 0 0.40682659655341141 0.15155457519991111 0 0.4212401523388693 0.14641692606836859 0 0.40271910907510888 0.2488673347769414 0 0.38941520385289707 0.2318762399073217 0 0.40866525501236001 0.22644926451802019 0 0.3788795936670441 0.25800478315701542 0 0.40271910907510888 0.2488673347769414 0 0.38941520385289707 0.2318762399073217 0 0.3788795936670441 0.25800478315701542 0 0.37102660984626401 0.23925257198647151 0 0.38941520385289707 0.2318762399073217 0 0.37406470815103332 0.21914285419121951 0 0.37102660984626401 0.23925257198647151 0 0.38941520385289707 0.2318762399073217 0 0.37406470815103332 0.21914285419121951 0 0.38941520385289707 0.2318762399073217 0 0.39375181821166949 0.20949136129481871 0 0.38941520385289707 0.2318762399073217 0 0.39375181821166949 0.20949136129481871 0 0.40866525501236001 0.22644926451802019 0 0.39375181821166949 0.20949136129481871 0 0.40202298535580511 0.19742961811930071 0 0.41573633860437847 0.20885970344072119 0 0.39375181821166949 0.20949136129481871 0 0.40866525501236001 0.22644926451802019 0 0.39375181821166949 0.20949136129481871 0 0.41573633860437847 0.20885970344072119 0 0.40866525501236001 0.22644926451802019 0 0.37406470815103332 0.21914285419121951 0 0.39375181821166949 0.20949136129481871 0 0.37577674387175791 0.20160076393901941 0 0.36657419818487302 0.17504356687443989 0 0.38689727540868629 0.1876125190097272 0 0.37577674387175791 0.20160076393901941 0 0.39375181821166949 0.20949136129481871 0 0.38689727540868629 0.1876125190097272 0 0.37577674387175791 0.20160076393901941 0 0.40620327573452952 0.18516371566501011 0 0.38689727540868629 0.1876125190097272 0 0.40202298535580511 0.19742961811930071 0 0.39375181821166949 0.20949136129481871 0 0.38689727540868629 0.1876125190097272 0 0.40202298535580511 0.19742961811930071 0 0.40620327573452952 0.18516371566501011 0 0.42187164625477142 0.18392008133696011 0 0.41469196589363111 0.19515323507879581 0 0.40620327573452952 0.18516371566501011 0 0.40202298535580511 0.19742961811930071 0 0.41469196589363111 0.19515323507879581 0 0.40202298535580511 0.19742961811930071 0 0.41469196589363111 0.19515323507879581 0 0.41573633860437847 0.20885970344072119 0 0.41469196589363111 0.19515323507879581 0 0.42956911490546479 0.19645616357397749 0 0.41573633860437847 0.20885970344072119 0 0.42187164625477142 0.18392008133696011 0 0.41469196589363111 0.19515323507879581 0 0.42956911490546479 0.19645616357397749 0 0.42956911490546479 0.19645616357397749 0 0.44468399186136243 0.19646600889235069 0 0.43816566512173571 0.18987075094452671 0 0.43349505158986551 0.18186004684820811 0 0.42956911490546479 0.19645616357397749 0 0.43816566512173571 0.18987075094452671 0 0.42956911490546479 0.19645616357397749 0 0.43524949109538241 0.21134159223491919 0 0.44468399186136243 0.19646600889235069 0 0.43524949109538241 0.21134159223491919 0 0.41573633860437847 0.20885970344072119 0 0.4276966037300608 0.22551594840950201 0 0.42956911490546479 0.19645616357397749 0 0.43524949109538241 0.21134159223491919 0 0.41573633860437847 0.20885970344072119 0 0.41573633860437847 0.20885970344072119 0 0.40866525501236001 0.22644926451802019 0 0.4276966037300608 0.22551594840950201 0 0.40866525501236001 0.22644926451802019 0 0.4276966037300608 0.22551594840950201 0 0.42357869181305041 0.24340716774122159 0 0.43524949109538241 0.21134159223491919 0 0.4276966037300608 0.22551594840950201 0 0.44190419451232998 0.22373794212948669 0 0.4276966037300608 0.22551594840950201 0 0.4379356452822552 0.23546608768170749 0 0.44190419451232998 0.22373794212948669 0 0.4276966037300608 0.22551594840950201 0 0.42357869181305041 0.24340716774122159 0 0.4379356452822552 0.23546608768170749 0 0.4371524055486643 0.24630088829334601 0 0.42357869181305041 0.24340716774122159 0 0.4379356452822552 0.23546608768170749 0 0.40271910907510888 0.2488673347769414 0 0.40866525501236001 0.22644926451802019 0 0.42357869181305041 0.24340716774122159 0 0.40866525501236001 0.22644926451802019 0 0.42357869181305041 0.24340716774122159 0 0.45705306047764871 0.24722126530684749 0 0.47136870698509842 0.2292501928567984 0 0.45962121919911231 0.23491403557844329 0 0.45705306047764871 0.24722126530684749 0 0.47136870698509842 0.2292501928567984 0 0.45705306047764871 0.24722126530684749 0 0.47136870698509842 0.2292501928567984 0 0.47230293033111131 0.2425474245934979 0 0.46695963389532219 0.25094932758018068 0 0.45705306047764871 0.24722126530684749 0 0.47230293033111131 0.2425474245934979 0 0.45962121919911231 0.23491403557844329 0 0.45705306047764871 0.24722126530684749 0 0.44951841264914738 0.2411832517048503 0 0.43849212861374032 0.26036507096442352 0 0.4371524055486643 0.24630088829334601 0 0.44951841264914738 0.2411832517048503 0 0.43849212861374032 0.26036507096442352 0 0.45705306047764871 0.24722126530684749 0 0.44951841264914738 0.2411832517048503 0 0.4371524055486643 0.24630088829334601 0 0.4379356452822552 0.23546608768170749 0 0.44951841264914738 0.2411832517048503 0 0.4379356452822552 0.23546608768170749 0 0.44951841264914738 0.2411832517048503 0 0.44542918324668013 0.23138966749443621 0 0.44542918324668013 0.23138966749443621 0 0.44190419451232998 0.22373794212948669 0 0.45040387926019909 0.22586036695832329 0 0.44951841264914738 0.2411832517048503 0 0.44542918324668013 0.23138966749443621 0 0.45040387926019909 0.22586036695832329 0 0.4379356452822552 0.23546608768170749 0 0.44542918324668013 0.23138966749443621 0 0.44190419451232998 0.22373794212948669 0 0.44190419451232998 0.22373794212948669 0 0.45040387926019909 0.22586036695832329 0 0.4507137066427056 0.21236749801081231 0 0.45040387926019909 0.22586036695832329 0 0.46054469668455472 0.2220014324452772 0 0.4507137066427056 0.21236749801081231 0 0.45962121919911231 0.23491403557844329 0 0.44951841264914738 0.2411832517048503 0 0.46054469668455472 0.2220014324452772 0 0.44951841264914738 0.2411832517048503 0 0.45040387926019909 0.22586036695832329 0 0.46054469668455472 0.2220014324452772 0 0.44951841264914738 0.2411832517048503 0 0.46054469668455472 0.2220014324452772 0 0.45962121919911231 0.23491403557844329 0 0.46054469668455472 0.2220014324452772 0 0.47136870698509842 0.2292501928567984 0 0.46054469668455472 0.2220014324452772 0 0.47175987615899501 0.21437771328236471 0 0.47136870698509842 0.2292501928567984 0 0.46054469668455472 0.2220014324452772 0 0.46443357364776378 0.20717275509752761 0 0.47175987615899501 0.21437771328236471 0 0.46443357364776378 0.20717275509752761 0 0.4507137066427056 0.21236749801081231 0 0.45556177883111321 0.20189057126935819 0 0.46054469668455472 0.2220014324452772 0 0.46443357364776378 0.20717275509752761 0 0.4507137066427056 0.21236749801081231 0 0.4507137066427056 0.21236749801081231 0 0.44468399186136243 0.19646600889235069 0 0.45556177883111321 0.20189057126935819 0 0.43524949109538241 0.21134159223491919 0 0.4507137066427056 0.21236749801081231 0 0.44468399186136243 0.19646600889235069 0 0.43524949109538241 0.21134159223491919 0 0.44190419451232998 0.22373794212948669 0 0.4507137066427056 0.21236749801081231 0 0.44468399186136243 0.19646600889235069 0 0.46241584317262102 0.1915560230767423 0 0.44889019094977572 0.18165519632598051 0 0.44468399186136243 0.19646600889235069 0 0.43816566512173571 0.18987075094452671 0 0.44889019094977572 0.18165519632598051 0 0.44468399186136243 0.19646600889235069 0 0.45556177883111321 0.20189057126935819 0 0.46241584317262102 0.1915560230767423 0 0.46443357364776378 0.20717275509752761 0 0.45556177883111321 0.20189057126935819 0 0.46241584317262102 0.1915560230767423 0 0.46443357364776378 0.20717275509752761 0 0.46241584317262102 0.1915560230767423 0 0.47442070651596141 0.20253309095880909 0 0.46241584317262102 0.1915560230767423 0 0.48311519916978207 0.1889758936373386 0 0.47442070651596141 0.20253309095880909 0 0.48311519916978207 0.1889758936373386 0 0.47442070651596141 0.20253309095880909 0 0.48568435349254818 0.2112791204067492 0 0.48311519916978207 0.1889758936373386 0 0.49999999999999878 0.1933080479567007 0 0.50000000000000056 0.18726364288906269 0 0.48311519916978207 0.1889758936373386 0 0.49999999999999878 0.1933080479567007 0 0.48568435349254818 0.2112791204067492 0 0.49999999999999878 0.1933080479567007 0 0.48568435349254818 0.2112791204067492 0 0.49999999999999878 0.1933080479567007 0 0.48568435349254818 0.2112791204067492 0 0.5 0.22254134544644119 0 0.48568435349254818 0.2112791204067492 0 0.47175987615899501 0.21437771328236471 0 0.47136870698509842 0.2292501928567984 0 0.47442070651596141 0.20253309095880909 0 0.48568435349254818 0.2112791204067492 0 0.47175987615899501 0.21437771328236471 0 0.46443357364776378 0.20717275509752761 0 0.47442070651596141 0.20253309095880909 0 0.47175987615899501 0.21437771328236471 0 0.48568435349254818 0.2112791204067492 0 0.47136870698509842 0.2292501928567984 0 0.48568435349254818 0.2112791204067492 0 0.47136870698509842 0.2292501928567984 0 0.48611823503709389 0.23457432297146991 0 0.48568435349254818 0.2112791204067492 0 0.5 0.22254134544644119 0 0.48611823503709389 0.23457432297146991 0 0.5 0.25177464293618179 0 0.5 0.22254134544644119 0 0.48611823503709389 0.23457432297146991 0 0.48001501526039331 0.250742014252193 0 0.5 0.25177464293618179 0 0.48611823503709389 0.23457432297146991 0 0.48001501526039331 0.250742014252193 0 0.48611823503709389 0.23457432297146991 0 0.47230293033111131 0.2425474245934979 0 0.47136870698509842 0.2292501928567984 0 0.48611823503709389 0.23457432297146991 0 0.47230293033111131 0.2425474245934979 0 0.46695963389532219 0.25094932758018068 0 0.48001501526039331 0.250742014252193 0 0.47230293033111131 0.2425474245934979 0 0.4508750227602345 0.1471404659516701 0 0.46649729197548689 0.15716405606396311 0 0.47224360869642701 0.13647577868376601 0 0.46724505665877852 0.12732956874117329 0 0.44422534230605037 0.13408935207882691 0 0.46591936709582471 0.1161112448246919 0 0.46724505665877852 0.12732956874117329 0 0.44422534230605037 0.13408935207882691 0 0.47224360869642701 0.13647577868376601 0 0.44422534230605037 0.13408935207882691 0 0.4508750227602345 0.1471404659516701 0 0.47224360869642701 0.13647577868376601 0 0.44422534230605037 0.13408935207882691 0 0.47224360869642701 0.13647577868376601 0 0.44422534230605037 0.13408935207882691 0 0.46591936709582471 0.1161112448246919 0 0.43308402633216431 0.14025021003661131 0 0.44422534230605037 0.13408935207882691 0 0.44175980766234618 0.14265921150065969 0 0.44175980766234618 0.14265921150065969 0 0.4508750227602345 0.1471404659516701 0 0.43939799891901149 0.14870669478579379 0 0.43308402633216431 0.14025021003661131 0 0.44175980766234618 0.14265921150065969 0 0.43939799891901149 0.14870669478579379 0 0.44422534230605037 0.13408935207882691 0 0.44175980766234618 0.14265921150065969 0 0.4508750227602345 0.1471404659516701 0 0.4508750227602345 0.1471404659516701 0 0.43939799891901149 0.14870669478579379 0 0.44262699422702018 0.15760458222082011 0 0.43127656117988422 0.1566256280665812 0 0.43939799891901149 0.14870669478579379 0 0.44262699422702018 0.15760458222082011 0 0.43981800936350091 0.16858943342317431 0 0.44889019094977572 0.18165519632598051 0 0.45424855004714831 0.16529236810482251 0 0.4508750227602345 0.1471404659516701 0 0.44262699422702018 0.15760458222082011 0 0.45424855004714831 0.16529236810482251 0 0.43127656117988422 0.1566256280665812 0 0.44262699422702018 0.15760458222082011 0 0.43981800936350091 0.16858943342317431 0 0.44262699422702018 0.15760458222082011 0 0.43981800936350091 0.16858943342317431 0 0.45424855004714831 0.16529236810482251 0 0.43349505158986551 0.18186004684820811 0 0.43816566512173571 0.18987075094452671 0 0.44889019094977572 0.18165519632598051 0 0.43349505158986551 0.18186004684820811 0 0.43981800936350091 0.16858943342317431 0 0.44889019094977572 0.18165519632598051 0 0.46241584317262102 0.1915560230767423 0 0.44889019094977572 0.18165519632598051 0 0.46899747402541042 0.17504195679314319 0 0.44889019094977572 0.18165519632598051 0 0.45424855004714831 0.16529236810482251 0 0.46899747402541042 0.17504195679314319 0 0.4508750227602345 0.1471404659516701 0 0.46649729197548689 0.15716405606396311 0 0.45424855004714831 0.16529236810482251 0 0.46649729197548689 0.15716405606396311 0 0.45424855004714831 0.16529236810482251 0 0.46899747402541042 0.17504195679314319 0 0.46649729197548689 0.15716405606396311 0 0.46899747402541042 0.17504195679314319 0 0.48612180434821423 0.16186971078641399 0 0.46241584317262102 0.1915560230767423 0 0.48311519916978207 0.1889758936373386 0 0.46899747402541042 0.17504195679314319 0 0.48311519916978207 0.1889758936373386 0 0.46899747402541042 0.17504195679314319 0 0.48612180434821423 0.16186971078641399 0 0.50000000000000056 0.18726364288906269 0 0.48612180434821423 0.16186971078641399 0 0.48311519916978207 0.1889758936373386 0 0.50000000000000056 0.18726364288906269 0 0.48612180434821423 0.16186971078641399 0 0.50000000000000056 0.18726364288906269 0 0.49999999999999978 0.1610334874621743 0 0.48612180434821423 0.16186971078641399 0 0.49999999999999978 0.1610334874621743 0 0.48477993437222172 0.13754354714252989 0 0.49999999999999928 0.1388399003514372 0 0.49999999999999978 0.1610334874621743 0 0.48477993437222172 0.13754354714252989 0 0.49999999999999978 0.1610334874621743 0 0.48612180434821423 0.16186971078641399 0 0.48477993437222172 0.13754354714252989 0 0.46649729197548689 0.15716405606396311 0 0.48612180434821423 0.16186971078641399 0 0.47224360869642701 0.13647577868376601 0 0.48612180434821423 0.16186971078641399 0 0.47224360869642701 0.13647577868376601 0 0.48477993437222172 0.13754354714252989 0 0.48612180434821423 0.16186971078641399 0 0.47224360869642701 0.13647577868376601 0 0.48477993437222172 0.13754354714252989 0 0.47200195509240811 0.1178226091368044 0 0.46724505665877852 0.12732956874117329 0 0.47224360869642701 0.13647577868376601 0 0.47200195509240811 0.1178226091368044 0 0.47224360869642701 0.13647577868376601 0 0.48477993437222172 0.13754354714252989 0 0.47200195509240811 0.1178226091368044 0 0.46724505665877852 0.12732956874117329 0 0.47224360869642701 0.13647577868376601 0 0.47224360869642701 0.13647577868376601 0 0.48477993437222172 0.13754354714252989 0 0.48477993437222172 0.13754354714252989 0 0.49999999999999528 0.12569998878025049 0 0.47200195509240811 0.1178226091368044 0 0.48477993437222172 0.13754354714252989 0 0.49999999999999928 0.1388399003514372 0 0.48477993437222172 0.13754354714252989 0 0.49999999999999928 0.1388399003514372 0 0.49999999999999528 0.12569998878025049 0 0.49999999999999528 0.12569998878025049 0 0.48183483219300471 0.1029219016166238 0 0.47200195509240811 0.1178226091368044 0 0.49999999999999528 0.12569998878025049 0 0.500000000000003 0.1077755847980667 0 0.48183483219300471 0.1029219016166238 0 0.49999999999999528 0.12569998878025049 0 0.47200195509240811 0.1178226091368044 0 0.500000000000003 0.1077755847980667 0 0.48183483219300471 0.1029219016166238 0 0.49451420720336398 0.092414346376843926 0 0.500000000000003 0.1077755847980667 0 0.49999999999999889 0.087868201886479369 0 0.49451420720336398 0.092414346376843926 0 0.500000000000003 0.1077755847980667 0 0.49451420720336398 0.092414346376843926 0 0.48183483219300471 0.1029219016166238 0 0.49451420720336398 0.092414346376843926 0 0.48183483219300471 0.1029219016166238 0 0.46997803031396862 0.099490176465959049 0 0.47543946144635069 0.086006007181312544 0 0.48183483219300471 0.1029219016166238 0 0.49451420720336398 0.092414346376843926 0 0.47543946144635069 0.086006007181312544 0 0.48183483219300471 0.1029219016166238 0 0.46915545718264501 0.1134294568564031 0 0.48183483219300471 0.1029219016166238 0 0.46997803031396862 0.099490176465959049 0 0.46915545718264501 0.1134294568564031 0 0.48183483219300471 0.1029219016166238 0 0.46915545718264501 0.1134294568564031 0 0.47200195509240811 0.1178226091368044 0 0.46915545718264501 0.1134294568564031 0 0.47200195509240811 0.1178226091368044 0 0.47200195509240811 0.1178226091368044 0 0.46591936709582471 0.1161112448246919 0 0.46915545718264501 0.1134294568564031 0 0.47200195509240811 0.1178226091368044 0 0.46591936709582471 0.1161112448246919 0 0.49999999999999928 0.073124734442808328 0 0.49298188450495001 0.056930390355196148 0 0.49999999999999939 0.058096095542249038 0 0.48671747214026978 0.066422134672053934 0 0.49999999999999928 0.073124734442808328 0 0.49298188450495001 0.056930390355196148 0 0.48575049910613372 0.067874336477467892 0 0.49999999999999928 0.073124734442808328 0 0.49451420720336398 0.092414346376843926 0 0.49999999999999928 0.073124734442808328 0 0.49298188450495001 0.056930390355196148 0 0.48671747214026978 0.066422134672053934 0 0.48575049910613372 0.067874336477467892 0 0.49999999999999928 0.073124734442808328 0 0.49999999999999928 0.073124734442808328 0 0.49999999999999889 0.087868201886479369 0 0.49451420720336398 0.092414346376843926 0 0.48575049910613372 0.067874336477467892 0 0.49451420720336398 0.092414346376843926 0 0.47543946144635069 0.086006007181312544 0 0.48575049910613372 0.067874336477467892 0 0.49451420720336398 0.092414346376843926 0 0.49999999999999889 0.087868201886479369 0 0.49451420720336398 0.092414346376843926 0 0.48575049910613372 0.067874336477467892 0 0.47543946144635069 0.086006007181312544 0 0.46055518110906057 0.063618646906805326 0 0.46055518110906057 0.063618646906805326 0 0.4606694919317465 0.087131522661964708 0 0.44655906215011271 0.084905593571223736 0 0.47543946144635069 0.086006007181312544 0 0.46055518110906057 0.063618646906805326 0 0.4606694919317465 0.087131522661964708 0 0.4606694919317465 0.087131522661964708 0 0.44655906215011271 0.084905593571223736 0 0.46094007302076578 0.1007502156241438 0 0.46997803031396862 0.099490176465959049 0 0.47543946144635069 0.086006007181312544 0 0.4606694919317465 0.087131522661964708 0 0.46055518110906057 0.063618646906805326 0 0.44655906215011271 0.084905593571223736 0 0.4331431795094538 0.063693625542713073 0 0.46724505665877852 0.12732956874117329 0 0.47200195509240811 0.1178226091368044 0 0.46591936709582471 0.1161112448246919 0 0.46915545718264501 0.1134294568564031 0 0.46591936709582471 0.1161112448246919 0 0.46094007302076578 0.1007502156241438 0 0.46915545718264501 0.1134294568564031 0 0.46591936709582471 0.1161112448246919 0 0.46997803031396862 0.099490176465959049 0 0.46915545718264501 0.1134294568564031 0 0.46094007302076578 0.1007502156241438 0 0.46591936709582471 0.1161112448246919 0 0.46094007302076578 0.1007502156241438 0 0.43879484622675291 0.10847963521632829 0 0.46915545718264501 0.1134294568564031 0 0.46094007302076578 0.1007502156241438 0 0.46997803031396862 0.099490176465959049 0 0.4606694919317465 0.087131522661964708 0 0.46094007302076578 0.1007502156241438 0 0.44655906215011271 0.084905593571223736 0 0.43879484622675291 0.10847963521632829 0 0.43056857276787402 0.093815442928056353 0 0.44655906215011271 0.084905593571223736 0 0.46094007302076578 0.1007502156241438 0 0.43879484622675291 0.10847963521632829 0 0.46591936709582471 0.1161112448246919 0 0.43879484622675291 0.10847963521632829 0 0.43500566660301532 0.1226637462614863 0 0.46591936709582471 0.1161112448246919 0 0.43879484622675291 0.10847963521632829 0 0.44422534230605037 0.13408935207882691 0 0.46591936709582471 0.1161112448246919 0 0.43500566660301532 0.1226637462614863 0 0.43879484622675291 0.10847963521632829 0 0.41827840713907188 0.11962152414364489 0 0.41167032535768189 0.1008480256079619 0 0.43879484622675291 0.10847963521632829 0 0.43500566660301532 0.1226637462614863 0 0.41827840713907188 0.11962152414364489 0 0.42398648764572971 0.13236552875078439 0 0.43500566660301532 0.1226637462614863 0 0.41827840713907188 0.11962152414364489 0 0.41827840713907188 0.11962152414364489 0 0.41167032535768189 0.1008480256079619 0 0.39281359224249762 0.1196211754982715 0 0.43879484622675291 0.10847963521632829 0 0.41167032535768189 0.1008480256079619 0 0.43879484622675291 0.10847963521632829 0 0.41167032535768189 0.1008480256079619 0 0.43056857276787402 0.093815442928056353 0 0.44655906215011271 0.084905593571223736 0 0.43056857276787402 0.093815442928056353 0 0.42169559984465022 0.081635085734654264 0 0.44655906215011271 0.084905593571223736 0 0.42169559984465022 0.081635085734654264 0 0.44655906215011271 0.084905593571223736 0 0.4331431795094538 0.063693625542713073 0 0.42169559984465022 0.081635085734654264 0 0.4331431795094538 0.063693625542713073 0 0.41253351948182199 0.065104424832755858 0 0.42169559984465022 0.081635085734654264 0 0.41253351948182199 0.065104424832755858 0 0.42169559984465022 0.081635085734654264 0 0.39683213753918772 0.078364577898084792 0 0.41167032535768189 0.1008480256079619 0 0.42169559984465022 0.081635085734654264 0 0.40665487842817849 0.088019989644888386 0 0.41167032535768189 0.1008480256079619 0 0.43056857276787402 0.093815442928056353 0 0.42169559984465022 0.081635085734654264 0 0.42169559984465022 0.081635085734654264 0 0.39683213753918772 0.078364577898084792 0 0.42169559984465022 0.081635085734654264 0 0.40665487842817849 0.088019989644888386 0 0.39683213753918772 0.078364577898084792 0 0.41167032535768189 0.1008480256079619 0 0.40665487842817849 0.088019989644888386 0 0.39253640226527869 0.087810572937936551 0 0.40665487842817849 0.088019989644888386 0 0.39683213753918772 0.078364577898084792 0 0.39253640226527869 0.087810572937936551 0 0.41253351948182199 0.065104424832755858 0 0.39683213753918772 0.078364577898084792 0 0.39432178524984768 0.058974301683280682 0 0.37196867523372512 0.075094070061515111 0 0.39432178524984768 0.058974301683280682 0 0.37196867523372512 0.075094070061515111 0 0.37824264548110509 0.056886857138190507 0 0.39432178524984768 0.058974301683280682 0 0.37196867523372512 0.075094070061515111 0 0.39683213753918772 0.078364577898084792 0 0.39432178524984768 0.058974301683280682 0 0.37196867523372512 0.075094070061515111 0 0.39683213753918772 0.078364577898084792 0 0.35742128361954051 0.085584806391227328 0 0.38454580448861098 0.093216415999595487 0 0.38354659254428841 0.091320358415573483 0 0.36736180175733302 0.078416280408697803 0 0.38354659254428841 0.091320358415573483 0 0.37196867523372512 0.075094070061515111 0 0.39253640226527869 0.087810572937936551 0 0.38354659254428841 0.091320358415573483 0 0.37196867523372512 0.075094070061515111 0 0.39683213753918772 0.078364577898084792 0 0.39253640226527869 0.087810572937936551 0 0.39253640226527869 0.087810572937936551 0 0.38454580448861098 0.093216415999595487 0 0.38354659254428841 0.091320358415573483 0 0.36658012664697798 0.11607995366614191 0 0.37281114709885399 0.13394027336086481 0 0.39281359224249762 0.1196211754982715 0 0.36658012664697798 0.11607995366614191 0 0.38454580448861098 0.093216415999595487 0 0.39281359224249762 0.1196211754982715 0 0.40739952475875441 0.13375103352703699 0 0.41827840713907188 0.11962152414364489 0 0.39281359224249762 0.1196211754982715 0 0.41167032535768189 0.1008480256079619 0 0.39253640226527869 0.087810572937936551 0 0.38454580448861098 0.093216415999595487 0 0.41167032535768189 0.1008480256079619 0 0.38454580448861098 0.093216415999595487 0 0.41167032535768189 0.1008480256079619 0 0.38454580448861098 0.093216415999595487 0 0.39281359224249762 0.1196211754982715 0 0.37781214046771111 0.011818461059692 0 0.4096873822535903 0.019286292193721931 0 0.40007944284021463 -0.0078928145975569082 0 0.37781214046771111 0.011818461059692 0 0.38630734050745957 0.038757864402103409 0 0.4096873822535903 0.019286292193721931 0 0.37781214046771111 0.011818461059692 0 0.40007944284021463 -0.0078928145975569082 0 0.38630734050745957 0.038757864402103409 0 0.37824264548110509 0.056886857138190507 0 0.39432178524984768 0.058974301683280682 0 0.37026461567553448 0.048757981701712423 0 0.38630734050745957 0.038757864402103409 0 0.37824264548110509 0.056886857138190507 0 0.39432178524984768 0.058974301683280682 0 0.41667489526597051 0.042854533305046502 0 0.38630734050745957 0.038757864402103409 0 0.41667489526597051 0.042854533305046502 0 0.4096873822535903 0.019286292193721931 0 0.38630734050745957 0.038757864402103409 0 0.39432178524984768 0.058974301683280682 0 0.41667489526597051 0.042854533305046502 0 0.4331431795094538 0.063693625542713073 0 0.41253351948182199 0.065104424832755858 0 0.41667489526597051 0.042854533305046502 0 0.41253351948182199 0.065104424832755858 0 0.39432178524984768 0.058974301683280682 0 0.41667489526597051 0.042854533305046502 0 0.4331431795094538 0.063693625542713073 0 0.41667489526597051 0.042854533305046502 0 0.44235714391997771 0.042477415941240437 0 0.41667489526597051 0.042854533305046502 0 0.4305882248864874 0.03008879364033603 0 0.44235714391997771 0.042477415941240437 0 0.4305882248864874 0.03008879364033603 0 0.4096873822535903 0.019286292193721931 0 0.43387725403012412 0.013409190412866029 0 0.41667489526597051 0.042854533305046502 0 0.4305882248864874 0.03008879364033603 0 0.4096873822535903 0.019286292193721931 0 0.4096873822535903 0.019286292193721931 0 0.42228321284538262 0.0049718784443159502 0 0.40007944284021463 -0.0078928145975569082 0 0.4096873822535903 0.019286292193721931 0 0.42228321284538262 0.0049718784443159502 0 0.43387725403012412 0.013409190412866029 0 0.42228321284538262 0.0049718784443159502 0 0.43387725403012412 0.013409190412866029 0 0.43708721348028812 -0.002075694141195723 0 0.43387725403012412 0.013409190412866029 0 0.45615177105817473 0.0038644848218230142 0 0.43708721348028812 -0.002075694141195723 0 0.43387725403012412 0.013409190412866029 0 0.44869493075763001 0.023730206978540742 0 0.45615177105817473 0.0038644848218230142 0 0.4305882248864874 0.03008879364033603 0 0.43387725403012412 0.013409190412866029 0 0.44869493075763001 0.023730206978540742 0 0.44869493075763001 0.023730206978540742 0 0.46822308291167503 0.018794316678714909 0 0.46005869950852363 0.035628493998067043 0 0.46822308291167503 0.018794316678714909 0 0.46219605854088031 0.001917529355113481 0 0.45615177105817473 0.0038644848218230142 0 0.46822308291167503 0.018794316678714909 0 0.46219605854088031 0.001917529355113481 0 0.46822308291167503 0.018794316678714909 0 0.46219605854088031 0.001917529355113481 0 0.47155608800135551 0.0074902349209964442 0 0.46822308291167503 0.018794316678714909 0 0.45615177105817473 0.0038644848218230142 0 0.44869493075763001 0.023730206978540742 0 0.46822308291167503 0.018794316678714909 0 0.45615177105817473 0.0038644848218230142 0 0.46055518110906057 0.063618646906805326 0 0.4331431795094538 0.063693625542713073 0 0.44235714391997771 0.042477415941240437 0 0.4305882248864874 0.03008879364033603 0 0.44869493075763001 0.023730206978540742 0 0.44235714391997771 0.042477415941240437 0 0.44869493075763001 0.023730206978540742 0 0.44235714391997771 0.042477415941240437 0 0.46005869950852363 0.035628493998067043 0 0.46822308291167503 0.018794316678714909 0 0.46005869950852363 0.035628493998067043 0 0.47698679100890412 0.043334326578091553 0 0.46055518110906057 0.063618646906805326 0 0.44235714391997771 0.042477415941240437 0 0.46005869950852363 0.035628493998067043 0 0.46055518110906057 0.063618646906805326 0 0.46005869950852363 0.035628493998067043 0 0.47698679100890412 0.043334326578091553 0 0.48671747214026978 0.066422134672053934 0 0.47698679100890412 0.043334326578091553 0 0.48267499133532821 0.036668476951838933 0 0.48575049910613372 0.067874336477467892 0 0.46055518110906057 0.063618646906805326 0 0.47698679100890412 0.043334326578091553 0 0.48575049910613372 0.067874336477467892 0 0.47698679100890412 0.043334326578091553 0 0.48671747214026978 0.066422134672053934 0 0.48575049910613372 0.067874336477467892 0 0.47698679100890412 0.043334326578091553 0 0.46822308291167503 0.018794316678714909 0 0.47698679100890412 0.043334326578091553 0 0.48267499133532821 0.036668476951838933 0 0.48267499133532821 0.036668476951838933 0 0.48197808146333498 0.031539048070510167 0 0.48596376900990179 0.040736046267583502 0 0.48197808146333498 0.031539048070510167 0 0.48596376900990179 0.040736046267583502 0 0.48267499133532821 0.036668476951838933 0 0.48596376900990179 0.040736046267583502 0 0.48267499133532821 0.036668476951838933 0 0.48197808146333498 0.031539048070510167 0 0.48596376900990179 0.040736046267583502 0 0.49999999999999939 0.058096095542249038 0 0.5 0.02903810765914927 0 0.48197808146333498 0.031539048070510167 0 0.48596376900990179 0.040736046267583502 0 0.5 0.02903810765914927 0 0.48671747214026978 0.066422134672053934 0 0.48596376900990179 0.040736046267583502 0 0.49298188450495001 0.056930390355196148 0 0.48596376900990179 0.040736046267583502 0 0.49999999999999939 0.058096095542249038 0 0.48671747214026978 0.066422134672053934 0 0.48267499133532821 0.036668476951838933 0 0.48671747214026978 0.066422134672053934 0 0.48267499133532821 0.036668476951838933 0 0.48596376900990179 0.040736046267583502 0 0.48596376900990179 0.040736046267583502 0 0.49298188450495001 0.056930390355196148 0 0.48596376900990179 0.040736046267583502 0 0.49298188450495001 0.056930390355196148 0 0.49999999999999939 0.058096095542249038 0 0.46822308291167503 0.018794316678714909 0 0.48267499133532821 0.036668476951838933 0 0.46822308291167503 0.018794316678714909 0 0.47698679100890412 0.043334326578091553 0 0.46822308291167503 0.018794316678714909 0 0.48197808146333498 0.031539048070510167 0 0.47155608800135551 0.0074902349209964442 0 0.46822308291167503 0.018794316678714909 0 0.48267499133532821 0.036668476951838933 0 0.48197808146333498 0.031539048070510167 0 0.48197808146333498 0.031539048070510167 0 0.47155608800135551 0.0074902349209964442 0 0.47877244834931387 0.0079447961609958144 0 0.48197808146333498 0.031539048070510167 0 0.47155608800135551 0.0074902349209964442 0 0.48197808146333498 0.031539048070510167 0 0.47877244834931387 0.0079447961609958144 0 0.48935613087005331 0.01852173673177375 0 0.48197808146333498 0.031539048070510167 0 0.47877244834931387 0.0079447961609958144 0 0.48197808146333498 0.031539048070510167 0 0.48935613087005331 0.01852173673177375 0 0.5 0.02903810765914927 0 0.48935613087005331 0.01852173673177375 0 0.5 0.02903810765914927 0 0.5 -1.9880223950441419e-05 0 0.48935613087005331 0.01852173673177375 0 0.48851913909648981 0.0058449262981274362 0 0.5 -1.9880223950441419e-05 0 0.47877244834931387 0.0079447961609958144 0 0.48935613087005331 0.01852173673177375 0 0.48851913909648981 0.0058449262981274362 0 0.48851913909648981 0.0058449262981274362 0 0.5 -1.9880223950441419e-05 0 0.48594797716659188 -0.003066947476309376 0 0.47877244834931387 0.0079447961609958144 0 0.48851913909648981 0.0058449262981274362 0 0.48594797716659188 -0.003066947476309376 0 0.5 -1.9880223950441419e-05 0 0.48841636793431442 -0.014126474944722439 0 0.49999999999999989 -0.02907786810705015 0 0.5 -1.9880223950441419e-05 0 0.48841636793431442 -0.014126474944722439 0 0.48594797716659188 -0.003066947476309376 0 0.47155608800135551 0.0074902349209964442 0 0.47556681523529232 -0.015649455748518511 0 0.46113409453937559 -0.016558578228517241 0 0.47155608800135551 0.0074902349209964442 0 0.47877244834931387 0.0079447961609958144 0 0.47556681523529232 -0.015649455748518511 0 0.47877244834931387 0.0079447961609958144 0 0.47556681523529232 -0.015649455748518511 0 0.47877244834931387 0.0079447961609958144 0 0.48594797716659188 -0.003066947476309376 0 0.47556681523529232 -0.015649455748518511 0 0.48841636793431442 -0.014126474944722439 0 0.48594797716659188 -0.003066947476309376 0 0.47556681523529232 -0.015649455748518511 0 0.47556681523529232 -0.015649455748518511 0 0.4805670472696878 -0.022818223167783709 0 0.46113409453937559 -0.016558578228517241 0 0.4805670472696878 -0.022818223167783709 0 0.46113409453937559 -0.016558578228517241 0 0.4805670472696878 -0.022818223167783709 0 0.47007751833266331 -0.033481777748847003 0 0.46113409453937559 -0.016558578228517241 0 0.48841636793431442 -0.014126474944722439 0 0.47556681523529232 -0.015649455748518511 0 0.4805670472696878 -0.022818223167783709 0 0.4805670472696878 -0.022818223167783709 0 0.49999999999999989 -0.02907786810705015 0 0.48267155981439358 -0.040714349727179848 0 0.4805670472696878 -0.022818223167783709 0 0.49999999999999989 -0.02907786810705015 0 0.48841636793431442 -0.014126474944722439 0 0.4805670472696878 -0.022818223167783709 0 0.49999999999999989 -0.02907786810705015 0 0.49999999999999989 -0.02907786810705015 0 0.5 -0.0501372179362915 0 0.48267155981439358 -0.040714349727179848 0 0.5 -0.0501372179362915 0 0.48243519269847912 -0.055589144870051538 0 0.48267155981439358 -0.040714349727179848 0 0.5 -0.0501372179362915 0 0.48243519269847912 -0.055589144870051538 0 0.49999999999999972 -0.071196567765532792 0 0.48243519269847912 -0.055589144870051538 0 0.46543178729887452 -0.057009600894151059 0 0.47885917041884618 -0.070737431790264232 0 0.48243519269847912 -0.055589144870051538 0 0.46818507597775177 -0.044343279841273231 0 0.46543178729887452 -0.057009600894151059 0 0.48243519269847912 -0.055589144870051538 0 0.48267155981439358 -0.040714349727179848 0 0.46818507597775177 -0.044343279841273231 0 0.4805670472696878 -0.022818223167783709 0 0.48267155981439358 -0.040714349727179848 0 0.47007751833266331 -0.033481777748847003 0 0.48267155981439358 -0.040714349727179848 0 0.47007751833266331 -0.033481777748847003 0 0.46818507597775177 -0.044343279841273231 0 0.47007751833266331 -0.033481777748847003 0 0.46818507597775177 -0.044343279841273231 0 0.45973828709406089 -0.03911706327840575 0 0.45973828709406089 -0.03911706327840575 0 0.44972408244724632 -0.042887250361960699 0 0.46113409453937559 -0.016558578228517241 0 0.46818507597775177 -0.044343279841273231 0 0.45973828709406089 -0.03911706327840575 0 0.45790215234190379 -0.050438518518747318 0 0.45973828709406089 -0.03911706327840575 0 0.45322130347132122 -0.047165642832237953 0 0.44972408244724632 -0.042887250361960699 0 0.45973828709406089 -0.03911706327840575 0 0.45790215234190379 -0.050438518518747318 0 0.45322130347132122 -0.047165642832237953 0 0.46818507597775177 -0.044343279841273231 0 0.46543178729887452 -0.057009600894151059 0 0.45790215234190379 -0.050438518518747318 0 0.45790215234190379 -0.050438518518747318 0 0.45196133646207581 -0.060130411747981193 0 0.45254774636166378 -0.051814003834461823 0 0.45790215234190379 -0.050438518518747318 0 0.45322130347132122 -0.047165642832237953 0 0.45254774636166378 -0.051814003834461823 0 0.46543178729887452 -0.057009600894151059 0 0.45790215234190379 -0.050438518518747318 0 0.45196133646207581 -0.060130411747981193 0 0.46543178729887452 -0.057009600894151059 0 0.45196133646207581 -0.060130411747981193 0 0.45771834083769292 -0.070278295814995673 0 0.44461404758522072 -0.047315365912055998 0 0.43657751125653932 -0.069819159839733178 0 0.44710619317135453 -0.049521442238880803 0 0.44461404758522072 -0.047315365912055998 0 0.43657751125653932 -0.069819159839733178 0 0.45196133646207581 -0.060130411747981193 0 0.44710619317135453 -0.049521442238880803 0 0.43657751125653932 -0.069819159839733178 0 0.45196133646207581 -0.060130411747981193 0 0.45254774636166378 -0.051814003834461823 0 0.44710619317135453 -0.049521442238880803 0 0.45322130347132122 -0.047165642832237953 0 0.45254774636166378 -0.051814003834461823 0 0.44710619317135453 -0.049521442238880803 0 0.44710619317135453 -0.049521442238880803 0 0.44461404758522072 -0.047315365912055998 0 0.44461404758522072 -0.047315365912055998 0 0.43971914779880028 -0.027058364978177499 0 0.45039154087765132 -0.03113731194027133 0 0.44461404758522072 -0.047315365912055998 0 0.45039154087765132 -0.03113731194027133 0 0.44461404758522072 -0.047315365912055998 0 0.44972408244724632 -0.042887250361960699 0 0.45039154087765132 -0.03113731194027133 0 0.45322130347132122 -0.047165642832237953 0 0.44710619317135453 -0.049521442238880803 0 0.44972408244724632 -0.042887250361960699 0 0.44710619317135453 -0.049521442238880803 0 0.44461404758522072 -0.047315365912055998 0 0.44972408244724632 -0.042887250361960699 0 0.45039154087765132 -0.03113731194027133 0 0.4463689308804899 -0.020006213651663059 0 0.45616903417008542 -0.01495925796848788 0 0.43971914779880028 -0.027058364978177499 0 0.45039154087765132 -0.03113731194027133 0 0.4463689308804899 -0.020006213651663059 0 0.43971914779880028 -0.027058364978177499 0 0.4463689308804899 -0.020006213651663059 0 0.4397069446241112 -0.016474521953578201 0 0.4463689308804899 -0.020006213651663059 0 0.4397069446241112 -0.016474521953578201 0 0.44408045920467409 -0.0110653470350686 0 0.45615177105817473 0.0038644848218230142 0 0.44408045920467409 -0.0110653470350686 0 0.45616903417008542 -0.01495925796848788 0 0.4397069446241112 -0.016474521953578201 0 0.44129170459163608 -0.01016704743322122 0 0.43672097882620248 -0.012371471125990369 0 0.45615177105817473 0.0038644848218230142 0 0.44408045920467409 -0.0110653470350686 0 0.43708721348028812 -0.002075694141195723 0 0.44129170459163608 -0.01016704743322122 0 0.4350280004827094 -0.0081566294497829803 0 0.43672097882620248 -0.012371471125990369 0 0.44129170459163608 -0.01016704743322122 0 0.44408045920467409 -0.0110653470350686 0 0.4397069446241112 -0.016474521953578201 0 0.44129170459163608 -0.01016704743322122 0 0.44408045920467409 -0.0110653470350686 0 0.4397069446241112 -0.016474521953578201 0 0.44408045920467409 -0.0110653470350686 0 0.44129170459163608 -0.01016704743322122 0 0.44408045920467409 -0.0110653470350686 0 0.43708721348028812 -0.002075694141195723 0 0.44129170459163608 -0.01016704743322122 0 0.43708721348028812 -0.002075694141195723 0 0.4350280004827094 -0.0081566294497829803 0 0.45615177105817473 0.0038644848218230142 0 0.44408045920467409 -0.0110653470350686 0 0.4463689308804899 -0.020006213651663059 0 0.44408045920467409 -0.0110653470350686 0 0.45616903417008542 -0.01495925796848788 0 0.44408045920467409 -0.0110653470350686 0 0.45616903417008542 -0.01495925796848788 0 0.46219605854088031 0.001917529355113481 0 0.45616903417008542 -0.01495925796848788 0 0.47155608800135551 0.0074902349209964442 0 0.46113409453937559 -0.016558578228517241 0 0.46219605854088031 0.001917529355113481 0 0.47155608800135551 0.0074902349209964442 0 0.46113409453937559 -0.016558578228517241 0 0.46219605854088031 0.001917529355113481 0 0.45616903417008542 -0.01495925796848788 0 0.46113409453937559 -0.016558578228517241 0 0.46219605854088031 0.001917529355113481 0 0.45615177105817473 0.0038644848218230142 0 0.45616903417008542 -0.01495925796848788 0 0.44972408244724632 -0.042887250361960699 0 0.46113409453937559 -0.016558578228517241 0 0.45039154087765132 -0.03113731194027133 0 0.45616903417008542 -0.01495925796848788 0 0.46113409453937559 -0.016558578228517241 0 0.47007751833266331 -0.033481777748847003 0 0.45973828709406089 -0.03911706327840575 0 0.46113409453937559 -0.016558578228517241 0 0.44972408244724632 -0.042887250361960699 0 0.45039154087765132 -0.03113731194027133 0 0.46113409453937559 -0.016558578228517241 0 0.45039154087765132 -0.03113731194027133 0 0.45616903417008542 -0.01495925796848788 0 0.45616903417008542 -0.01495925796848788 0 0.46113409453937559 -0.016558578228517241 0 0.47504955140379312 -0.12213913943755771 0 0.47614234067241079 -0.10751370462274409 0 0.46070877659708748 -0.1141990848355476 0 0.47504955140379312 -0.12213913943755771 0 0.48301851012390928 -0.11689169084179681 0 0.47614234067241079 -0.10751370462274409 0 0.47504955140379312 -0.12213913943755771 0 0.48301851012390928 -0.11689169084179681 0 0.48350878601982578 -0.12670694884668229 0 0.48301851012390928 -0.11689169084179681 0 0.49277468475978359 -0.12616402914135411 0 0.48350878601982578 -0.12670694884668229 0 0.5 -0.1213848863617026 0 0.48916202713967538 -0.1034594412330949 0 0.49277468475978359 -0.12616402914135411 0 0.48301851012390928 -0.11689169084179681 0 0.48916202713967538 -0.1034594412330949 0 0.49277468475978359 -0.12616402914135411 0 0.48916202713967538 -0.1034594412330949 0 0.49277468475978359 -0.12616402914135411 0 0.5 -0.096290727063617687 0 0.48916202713967538 -0.1034594412330949 0 0.48576466762193482 -0.086546150137087871 0 0.5 -0.1213848863617026 0 0.5 -0.096290727063617687 0 0.48916202713967538 -0.1034594412330949 0 0.48916202713967538 -0.1034594412330949 0 0.48018740094541801 -0.096774006350890229 0 0.48576466762193482 -0.086546150137087871 0 0.48301851012390928 -0.11689169084179681 0 0.48916202713967538 -0.1034594412330949 0 0.47614234067241079 -0.10751370462274409 0 0.48916202713967538 -0.1034594412330949 0 0.48018740094541801 -0.096774006350890229 0 0.47614234067241079 -0.10751370462274409 0 0.48018740094541801 -0.096774006350890229 0 0.47614234067241079 -0.10751370462274409 0 0.4685683416594098 -0.091960587866717736 0 0.48576466762193482 -0.086546150137087871 0 0.47885917041884618 -0.070737431790264232 0 0.4685683416594098 -0.091960587866717736 0 0.48018740094541801 -0.096774006350890229 0 0.48576466762193482 -0.086546150137087871 0 0.4685683416594098 -0.091960587866717736 0 0.5 -0.096290727063617687 0 0.48576466762193482 -0.086546150137087871 0 0.49999999999999972 -0.071196567765532792 0 0.49999999999999972 -0.071196567765532792 0 0.47885917041884618 -0.070737431790264232 0 0.48243519269847912 -0.055589144870051538 0 0.49999999999999972 -0.071196567765532792 0 0.47885917041884618 -0.070737431790264232 0 0.48576466762193482 -0.086546150137087871 0 0.49999999999999972 -0.071196567765532792 0 0.47885917041884618 -0.070737431790264232 0 0.47885917041884618 -0.070737431790264232 0 0.45771834083769292 -0.070278295814995673 0 0.46543178729887452 -0.057009600894151059 0 0.47885917041884618 -0.070737431790264232 0 0.45771834083769292 -0.070278295814995673 0 0.47885917041884618 -0.070737431790264232 0 0.45771834083769292 -0.070278295814995673 0 0.4685683416594098 -0.091960587866717736 0 0.45196133646207581 -0.060130411747981193 0 0.45771834083769292 -0.070278295814995673 0 0.43657751125653932 -0.069819159839733178 0 0.45771834083769292 -0.070278295814995673 0 0.43657751125653932 -0.069819159839733178 0 0.45771834083769292 -0.070278295814995673 0 0.44717288961614921 -0.082892737679819486 0 0.43657751125653932 -0.069819159839733178 0 0.44717288961614921 -0.082892737679819486 0 0.44820948343024147 -0.097273446218594184 0 0.42720334545339439 -0.096068564664198081 0 0.45771834083769292 -0.070278295814995673 0 0.44717288961614921 -0.082892737679819486 0 0.4685683416594098 -0.091960587866717736 0 0.44717288961614921 -0.082892737679819486 0 0.4685683416594098 -0.091960587866717736 0 0.44820948343024147 -0.097273446218594184 0 0.47614234067241079 -0.10751370462274409 0 0.4685683416594098 -0.091960587866717736 0 0.46070877659708748 -0.1141990848355476 0 0.4685683416594098 -0.091960587866717736 0 0.44820948343024147 -0.097273446218594184 0 0.46070877659708748 -0.1141990848355476 0 0.44820948343024147 -0.097273446218594184 0 0.44600983030273228 -0.1155910358292109 0 0.46070877659708748 -0.1141990848355476 0 0.44820948343024147 -0.097273446218594184 0 0.44600983030273228 -0.1155910358292109 0 0.43257953552050199 -0.11414317645790049 0 0.44600983030273228 -0.1155910358292109 0 0.43257953552050199 -0.11414317645790049 0 0.43926187276642198 -0.12549397117413871 0 0.44600983030273228 -0.1155910358292109 0 0.46070877659708748 -0.1141990848355476 0 0.45121471096082139 -0.12760653268975669 0 0.44600983030273228 -0.1155910358292109 0 0.45121471096082139 -0.12760653268975669 0 0.43926187276642198 -0.12549397117413871 0 0.47504955140379312 -0.12213913943755771 0 0.46070877659708748 -0.1141990848355476 0 0.46603305814036872 -0.13249713390087281 0 0.46070877659708748 -0.1141990848355476 0 0.46603305814036872 -0.13249713390087281 0 0.45121471096082139 -0.12760653268975669 0 0.41782917965024757 -0.1223179694886625 0 0.40731946218852388 -0.1063841989377044 0 0.40001871730450089 -0.1186308914517533 0 0.41782917965024757 -0.1223179694886625 0 0.43257953552050199 -0.11414317645790049 0 0.42720334545339439 -0.096068564664198081 0 0.41782917965024757 -0.1223179694886625 0 0.43257953552050199 -0.11414317645790049 0 0.42805281342571361 -0.13249761701672449 0 0.43257953552050199 -0.11414317645790049 0 0.42805281342571361 -0.13249761701672449 0 0.43926187276642198 -0.12549397117413871 0 0.41782917965024757 -0.1223179694886625 0 0.42720334545339439 -0.096068564664198081 0 0.44820948343024147 -0.097273446218594184 0 0.43257953552050199 -0.11414317645790049 0 0.42720334545339439 -0.096068564664198081 0 0.42720334545339439 -0.096068564664198081 0 0.40731946218852388 -0.1063841989377044 0 0.40006831118814379 -0.088443946862951706 0 0.41782917965024757 -0.1223179694886625 0 0.42720334545339439 -0.096068564664198081 0 0.40731946218852388 -0.1063841989377044 0 0.42720334545339439 -0.096068564664198081 0 0.40991588672565482 -0.069240123386392044 0 0.40006831118814379 -0.088443946862951706 0 0.42720334545339439 -0.096068564664198081 0 0.43657751125653932 -0.069819159839733178 0 0.40991588672565482 -0.069240123386392044 0 0.44717288961614921 -0.082892737679819486 0 0.42720334545339439 -0.096068564664198081 0 0.43657751125653932 -0.069819159839733178 0 0.42720334545339439 -0.096068564664198081 0 0.43657751125653932 -0.069819159839733178 0 0.43657751125653932 -0.069819159839733178 0 0.40991588672565482 -0.069240123386392044 0 0.43657751125653932 -0.069819159839733178 0 0.40991588672565482 -0.069240123386392044 0 0.42361646955160293 -0.05250362573813866 0 0.40991588672565482 -0.069240123386392044 0 0.38325426219477032 -0.068661086933056989 0 0.40006831118814379 -0.088443946862951706 0 0.40991588672565482 -0.069240123386392044 0 0.38325426219477032 -0.068661086933056989 0 0.4052781320547445 -0.050815157276477431 0 0.40991588672565482 -0.069240123386392044 0 0.38325426219477032 -0.068661086933056989 0 0.37673432309447757 -0.08630600736399327 0 0.40006831118814379 -0.088443946862951706 0 0.38974331050524341 -0.1041136009560253 0 0.38325426219477032 -0.068661086933056989 0 0.37673432309447757 -0.08630600736399327 0 0.40006831118814379 -0.088443946862951706 0 0.40731946218852388 -0.1063841989377044 0 0.40006831118814379 -0.088443946862951706 0 0.38974331050524341 -0.1041136009560253 0 0.38974331050524341 -0.1041136009560253 0 0.37980056132956119 -0.1177274467991231 0 0.37035581550763719 -0.10155866328479141 0 0.37673432309447757 -0.08630600736399327 0 0.38974331050524341 -0.1041136009560253 0 0.37035581550763719 -0.10155866328479141 0 0.38974331050524341 -0.1041136009560253 0 0.37980056132956119 -0.1177274467991231 0 0.40001871730450089 -0.1186308914517533 0 0.40731946218852388 -0.1063841989377044 0 0.38974331050524341 -0.1041136009560253 0 0.40001871730450089 -0.1186308914517533 0 0.42234674521271831 -0.027604090254805851 0 0.40007944284021463 -0.0078928145975569082 0 0.42228321284538262 0.0049718784443159502 0 0.42555547701451091 -0.0097387614941341228 0 0.40007944284021463 -0.0078928145975569082 0 0.42555547701451091 -0.0097387614941341228 0 0.42234674521271831 -0.027604090254805851 0 0.40007944284021463 -0.0078928145975569082 0 0.42228321284538262 0.0049718784443159502 0 0.42555547701451091 -0.0097387614941341228 0 0.43708721348028812 -0.002075694141195723 0 0.42555547701451091 -0.0097387614941341228 0 0.43708721348028812 -0.002075694141195723 0 0.4350280004827094 -0.0081566294497829803 0 0.42555547701451091 -0.0097387614941341228 0 0.43179939823129898 -0.01113491854403735 0 0.4350280004827094 -0.0081566294497829803 0 0.42555547701451091 -0.0097387614941341228 0 0.43179939823129898 -0.01113491854403735 0 0.43264144861794041 -0.01739702139178723 0 0.43179939823129898 -0.01113491854403735 0 0.4350280004827094 -0.0081566294497829803 0 0.43672097882620248 -0.012371471125990369 0 0.43179939823129898 -0.01113491854403735 0 0.43672097882620248 -0.012371471125990369 0 0.43264144861794041 -0.01739702139178723 0 0.4397069446241112 -0.016474521953578201 0 0.43672097882620248 -0.012371471125990369 0 0.43264144861794041 -0.01739702139178723 0 0.43971914779880028 -0.027058364978177499 0 0.4397069446241112 -0.016474521953578201 0 0.43264144861794041 -0.01739702139178723 0 0.43971914779880028 -0.027058364978177499 0 0.42234674521271831 -0.027604090254805851 0 0.43264144861794041 -0.01739702139178723 0 0.42555547701451091 -0.0097387614941341228 0 0.42234674521271831 -0.027604090254805851 0 0.43264144861794041 -0.01739702139178723 0 0.44461404758522072 -0.047315365912055998 0 0.43971914779880028 -0.027058364978177499 0 0.42234674521271831 -0.027604090254805851 0 0.44461404758522072 -0.047315365912055998 0 0.42234674521271831 -0.027604090254805851 0 0.44461404758522072 -0.047315365912055998 0 0.42234674521271831 -0.027604090254805851 0 0.42361646955160293 -0.05250362573813866 0 0.44461404758522072 -0.047315365912055998 0 0.43657751125653932 -0.069819159839733178 0 0.42361646955160293 -0.05250362573813866 0 0.40991588672565482 -0.069240123386392044 0 0.42361646955160293 -0.05250362573813866 0 0.4052781320547445 -0.050815157276477431 0 0.42234674521271831 -0.027604090254805851 0 0.42361646955160293 -0.05250362573813866 0 0.4052781320547445 -0.050815157276477431 0 0.38325426219477032 -0.068661086933056989 0 0.4052781320547445 -0.050815157276477431 0 0.38725729658897617 -0.036066860069993642 0 0.42234674521271831 -0.027604090254805851 0 0.4052781320547445 -0.050815157276477431 0 0.38725729658897617 -0.036066860069993642 0 0.38325426219477032 -0.068661086933056989 0 0.38725729658897617 -0.036066860069993642 0 0.36847426861524918 -0.050222069632299082 0 0.42234674521271831 -0.027604090254805851 0 0.38725729658897617 -0.036066860069993642 0 0.40007944284021463 -0.0078928145975569082 0 0.38725729658897617 -0.036066860069993642 0 0.40007944284021463 -0.0078928145975569082 0 0.37545301924206809 -0.01452749892903348 0 0.37781214046771111 0.011818461059692 0 0.40007944284021463 -0.0078928145975569082 0 0.37545301924206809 -0.01452749892903348 0 0.37781214046771111 0.011818461059692 0 0.37545301924206809 -0.01452749892903348 0 0.35528893128914452 -0.0039215522358231076 0 0.37545301924206809 -0.01452749892903348 0 0.35528893128914452 -0.0039215522358231076 0 0.35738316017139882 -0.031800389658686118 0 0.38725729658897617 -0.036066860069993642 0 0.37545301924206809 -0.01452749892903348 0 0.35738316017139882 -0.031800389658686118 0 0.35528893128914452 -0.0039215522358231076 0 0.3386548304797587 -0.023939078235752489 0 0.35738316017139882 -0.031800389658686118 0 0.33844269633881607 0.01148836042809109 0 0.35528893128914452 -0.0039215522358231076 0 0.32810368720994448 -0.0079222365021426946 0 0.35528893128914452 -0.0039215522358231076 0 0.3386548304797587 -0.023939078235752489 0 0.32810368720994448 -0.0079222365021426946 0 0.3386548304797587 -0.023939078235752489 0 0.31982558767400021 -0.027589483525777642 0 0.32810368720994448 -0.0079222365021426946 0 0.3386548304797587 -0.023939078235752489 0 0.31982558767400021 -0.027589483525777642 0 0.33491284359760909 -0.04160908828788619 0 0.31982558767400021 -0.027589483525777642 0 0.32810368720994448 -0.0079222365021426946 0 0.31982558767400021 -0.027589483525777642 0 0.32810368720994448 -0.0079222365021426946 0 0.3051749993910548 -0.019013229719404379 0 0.32810368720994448 -0.0079222365021426946 0 0.30501130485267042 -0.0014971883304511779 0 0.3051749993910548 -0.019013229719404379 0 0.33491284359760909 -0.04160908828788619 0 0.32993101313300122 -0.067503014026386879 0 0.31154748813805577 -0.047256730549412602 0 0.32993101313300122 -0.067503014026386879 0 0.3032693886021165 -0.06692397757304977 0 0.31154748813805577 -0.047256730549412602 0 0.31982558767400021 -0.027589483525777642 0 0.33491284359760909 -0.04160908828788619 0 0.31154748813805577 -0.047256730549412602 0 0.31982558767400021 -0.027589483525777642 0 0.31154748813805577 -0.047256730549412602 0 0.3386548304797587 -0.023939078235752489 0 0.33491284359760909 -0.04160908828788619 0 0.35738316017139882 -0.031800389658686118 0 0.33491284359760909 -0.04160908828788619 0 0.34945878463622893 -0.051843322416996053 0 0.32993101313300122 -0.067503014026386879 0 0.34945878463622893 -0.051843322416996053 0 0.36847426861524918 -0.050222069632299082 0 0.35659263766388571 -0.068082050479721934 0 0.34945878463622893 -0.051843322416996053 0 0.35659263766388571 -0.068082050479721934 0 0.32993101313300122 -0.067503014026386879 0 0.34945878463622893 -0.051843322416996053 0 0.35738316017139882 -0.031800389658686118 0 0.36847426861524918 -0.050222069632299082 0 0.33491284359760909 -0.04160908828788619 0 0.34945878463622893 -0.051843322416996053 0 0.35738316017139882 -0.031800389658686118 0 0.38725729658897617 -0.036066860069993642 0 0.35738316017139882 -0.031800389658686118 0 0.36847426861524918 -0.050222069632299082 0 0.38325426219477032 -0.068661086933056989 0 0.36847426861524918 -0.050222069632299082 0 0.35659263766388571 -0.068082050479721934 0 0.38325426219477032 -0.068661086933056989 0 0.35659263766388571 -0.068082050479721934 0 0.38325426219477032 -0.068661086933056989 0 0.37673432309447757 -0.08630600736399327 0 0.35659263766388571 -0.068082050479721934 0 0.37673432309447757 -0.08630600736399327 0 0.35916112374153242 -0.088282690319933452 0 0.37035581550763719 -0.10155866328479141 0 0.37673432309447757 -0.08630600736399327 0 0.35916112374153242 -0.088282690319933452 0 0.35659263766388571 -0.068082050479721934 0 0.35916112374153242 -0.088282690319933452 0 0.35659263766388571 -0.068082050479721934 0 0.34036429454390649 -0.085575169200234058 0 0.35916112374153242 -0.088282690319933452 0 0.35196853501252018 -0.1014132345698649 0 0.34036429454390649 -0.085575169200234058 0 0.37980056132956119 -0.1177274467991231 0 0.36186886052071793 -0.1142108895562309 0 0.37035581550763719 -0.10155866328479141 0 0.37980056132956119 -0.1177274467991231 0 0.36186886052071793 -0.1142108895562309 0 0.36402046198743698 -0.13030513340288319 0 0.36186886052071793 -0.1142108895562309 0 0.37035581550763719 -0.10155866328479141 0 0.35196853501252018 -0.1014132345698649 0 0.35916112374153242 -0.088282690319933452 0 0.37035581550763719 -0.10155866328479141 0 0.35196853501252018 -0.1014132345698649 0 0.35196853501252018 -0.1014132345698649 0 0.34374399370123548 -0.1221956302410425 0 0.33623721189088662 -0.1013918038104968 0 0.36186886052071793 -0.1142108895562309 0 0.34374399370123548 -0.1221956302410425 0 0.36402046198743698 -0.13030513340288319 0 0.36186886052071793 -0.1142108895562309 0 0.35196853501252018 -0.1014132345698649 0 0.34374399370123548 -0.1221956302410425 0 0.34374399370123548 -0.1221956302410425 0 0.33623721189088662 -0.1013918038104968 0 0.32596524613546729 -0.11171666058755721 0 0.34374399370123548 -0.1221956302410425 0 0.32596524613546729 -0.11171666058755721 0 0.32752317523884722 -0.12749172654840291 0 0.35196853501252018 -0.1014132345698649 0 0.33623721189088662 -0.1013918038104968 0 0.34036429454390649 -0.085575169200234058 0 0.33623721189088662 -0.1013918038104968 0 0.31737056880705211 -0.095404381129993165 0 0.34036429454390649 -0.085575169200234058 0 0.31737056880705211 -0.095404381129993165 0 0.32596524613546729 -0.11171666058755721 0 0.31041461911367929 -0.1109337466652367 0 0.33623721189088662 -0.1013918038104968 0 0.31737056880705211 -0.095404381129993165 0 0.32596524613546729 -0.11171666058755721 0 0.32596524613546729 -0.11171666058755721 0 0.31283622843512099 -0.12194794521520951 0 0.32752317523884722 -0.12749172654840291 0 0.32596524613546729 -0.11171666058755721 0 0.31283622843512099 -0.12194794521520951 0 0.31041461911367929 -0.1109337466652367 0 0.35659263766388571 -0.068082050479721934 0 0.32993101313300122 -0.067503014026386879 0 0.34036429454390649 -0.085575169200234058 0 0.35659263766388571 -0.068082050479721934 0 0.32993101313300122 -0.067503014026386879 0 0.31737056880705211 -0.095404381129993165 0 0.34036429454390649 -0.085575169200234058 0 0.32993101313300122 -0.067503014026386879 0 0.34036429454390649 -0.085575169200234058 0 0.31478558268600187 -0.082785799990529652 0 0.31737056880705211 -0.095404381129993165 0 0.34036429454390649 -0.085575169200234058 0 0.31478558268600187 -0.082785799990529652 0 0.32993101313300122 -0.067503014026386879 0 0.3032693886021165 -0.06692397757304977 0 0.32993101313300122 -0.067503014026386879 0 0.31478558268600187 -0.082785799990529652 0 0.3032693886021165 -0.06692397757304977 0 0.3032693886021165 -0.06692397757304977 0 0.29441358499399473 -0.08796374357215983 0 0.31478558268600187 -0.082785799990529652 0 0.3032693886021165 -0.06692397757304977 0 0.29441358499399473 -0.08796374357215983 0 0.31478558268600187 -0.082785799990529652 0 0.30336464603594088 -0.093344514441354332 0 0.29441358499399473 -0.08796374357215983 0 0.31737056880705211 -0.095404381129993165 0 0.31478558268600187 -0.082785799990529652 0 0.30336464603594088 -0.093344514441354332 0 0.30336464603594088 -0.093344514441354332 0 0.29441358499399473 -0.08796374357215983 0 0.29554433896061988 -0.099332212819075699 0 0.29441358499399473 -0.08796374357215983 0 0.28562775414080571 -0.087922548299996239 0 0.2900777871152056 -0.075761526847068814 0 0.29441358499399473 -0.08796374357215983 0 0.28562775414080571 -0.087922548299996239 0 0.28562934834179993 -0.096550389119396951 0 0.28562775414080571 -0.087922548299996239 0 0.2900777871152056 -0.075761526847068814 0 0.28108648209287768 -0.066442209798740326 0 0.3032693886021165 -0.06692397757304977 0 0.29441358499399473 -0.08796374357215983 0 0.2900777871152056 -0.075761526847068814 0 0.3032693886021165 -0.06692397757304977 0 0.28108648209287768 -0.066442209798740326 0 0.3032693886021165 -0.06692397757304977 0 0.28108648209287768 -0.066442209798740326 0 0.28834549716246149 -0.057236990974061958 0 0.3032693886021165 -0.06692397757304977 0 0.2900777871152056 -0.075761526847068814 0 0.28108648209287768 -0.066442209798740326 0 0.30152420912055677 -0.1203661533336694 0 0.31041461911367929 -0.1109337466652367 0 0.29437684307019829 -0.1052335930597539 0 0.31283622843512099 -0.12194794521520951 0 0.30152420912055677 -0.1203661533336694 0 0.31041461911367929 -0.1109337466652367 0 0.31737056880705211 -0.095404381129993165 0 0.29437684307019829 -0.1052335930597539 0 0.31737056880705211 -0.095404381129993165 0 0.31041461911367929 -0.1109337466652367 0 0.29437684307019829 -0.1052335930597539 0 0.31737056880705211 -0.095404381129993165 0 0.30336464603594088 -0.093344514441354332 0 0.29437684307019829 -0.1052335930597539 0 0.30336464603594088 -0.093344514441354332 0 0.29554433896061988 -0.099332212819075699 0 0.29437684307019829 -0.1052335930597539 0 0.29441358499399473 -0.08796374357215983 0 0.29554433896061988 -0.099332212819075699 0 0.28555778138587973 -0.1090035095712729 0 0.29441358499399473 -0.08796374357215983 0 0.28555778138587973 -0.1090035095712729 0 0.29441358499399473 -0.08796374357215983 0 0.28562934834179993 -0.096550389119396951 0 0.28555778138587973 -0.1090035095712729 0 0.28562775414080571 -0.087922548299996239 0 0.28562934834179993 -0.096550389119396951 0 0.27706201234548822 -0.098251814162459539 0 0.28562934834179993 -0.096550389119396951 0 0.28555778138587973 -0.1090035095712729 0 0.27706201234548822 -0.098251814162459539 0 0.28555778138587973 -0.1090035095712729 0 0.29437684307019829 -0.1052335930597539 0 0.29554433896061988 -0.099332212819075699 0 0.28555778138587973 -0.1090035095712729 0 0.29437684307019829 -0.1052335930597539 0 0.29554433896061988 -0.099332212819075699 0 0.29437684307019829 -0.1052335930597539 0 0.29437684307019829 -0.1052335930597539 0 0.28121703508653401 -0.1193163270682641 0 0.28902175292606469 -0.13230214501180579 0 0.30152420912055677 -0.1203661533336694 0 0.29437684307019829 -0.1052335930597539 0 0.28902175292606469 -0.13230214501180579 0 0.28121703508653401 -0.1193163270682641 0 0.27534740855717732 -0.1133681749397191 0 0.28902175292606469 -0.13230214501180579 0 0.29437684307019829 -0.1052335930597539 0 0.28902175292606469 -0.13230214501180579 0 0.27534740855717732 -0.1133681749397191 0 0.28902175292606469 -0.13230214501180579 0 0.28555778138587973 -0.1090035095712729 0 0.29437684307019829 -0.1052335930597539 0 0.28121703508653401 -0.1193163270682641 0 0.28555778138587973 -0.1090035095712729 0 0.28121703508653401 -0.1193163270682641 0 0.28555778138587973 -0.1090035095712729 0 0.28121703508653401 -0.1193163270682641 0 0.27534740855717732 -0.1133681749397191 0 0.28555778138587973 -0.1090035095712729 0 0.27534740855717732 -0.1133681749397191 0 0.27534740855717732 -0.1133681749397191 0 0.2604296512077291 -0.092712532257516259 0 0.27534740855717732 -0.1133681749397191 0 0.27706201234548822 -0.098251814162459539 0 0.2604296512077291 -0.092712532257516259 0 0.28555778138587973 -0.1090035095712729 0 0.27534740855717732 -0.1133681749397191 0 0.27706201234548822 -0.098251814162459539 0 0.27534740855717732 -0.1133681749397191 0 0.25731793437991413 -0.10838186084421191 0 0.2604296512077291 -0.092712532257516259 0 0.25731793437991413 -0.10838186084421191 0 0.2604296512077291 -0.092712532257516259 0 0.24287672884378531 -0.093222622253899892 0 0.27534740855717732 -0.1133681749397191 0 0.25731793437991413 -0.10838186084421191 0 0.25108234299010679 -0.1237408511505155 0 0.27534740855717732 -0.1133681749397191 0 0.25108234299010679 -0.1237408511505155 0 0.28562775414080571 -0.087922548299996239 0 0.27062204822889652 -0.077657137451394617 0 0.27544222167124172 -0.060126712533812007 0 0.28562775414080571 -0.087922548299996239 0 0.28108648209287768 -0.066442209798740326 0 0.27544222167124172 -0.060126712533812007 0 0.27062204822889652 -0.077657137451394617 0 0.26596052396163428 -0.066707811628633415 0 0.27544222167124172 -0.060126712533812007 0 0.28562775414080571 -0.087922548299996239 0 0.27544222167124172 -0.060126712533812007 0 0.27706201234548822 -0.098251814162459539 0 0.27411426301605579 -0.088392858755995979 0 0.2604296512077291 -0.092712532257516259 0 0.28562775414080571 -0.087922548299996239 0 0.27062204822889652 -0.077657137451394617 0 0.27411426301605579 -0.088392858755995979 0 0.28562775414080571 -0.087922548299996239 0 0.27706201234548822 -0.098251814162459539 0 0.27411426301605579 -0.088392858755995979 0 0.27062204822889652 -0.077657137451394617 0 0.27411426301605579 -0.088392858755995979 0 0.2604296512077291 -0.092712532257516259 0 0.2604296512077291 -0.092712532257516259 0 0.24551189385827979 -0.07205688957531417 0 0.27062204822889652 -0.077657137451394617 0 0.2604296512077291 -0.092712532257516259 0 0.26009989309373072 -0.074432672411206574 0 0.2604296512077291 -0.092712532257516259 0 0.26009989309373072 -0.074432672411206574 0 0.24551189385827979 -0.07205688957531417 0 0.27062204822889652 -0.077657137451394617 0 0.26596052396163428 -0.066707811628633415 0 0.26009989309373072 -0.074432672411206574 0 0.26596052396163428 -0.066707811628633415 0 0.25921001374024888 -0.062913051663404065 0 0.26504577583812128 -0.058351514343464618 0 0.26596052396163428 -0.066707811628633415 0 0.26009989309373072 -0.074432672411206574 0 0.25921001374024888 -0.062913051663404065 0 0.25921001374024888 -0.062913051663404065 0 0.25074953979106701 -0.057391721610124569 0 0.24551189385827979 -0.07205688957531417 0 0.26009989309373072 -0.074432672411206574 0 0.25921001374024888 -0.062913051663404065 0 0.24551189385827979 -0.07205688957531417 0 0.25921001374024888 -0.062913051663404065 0 0.25074953979106701 -0.057391721610124569 0 0.25732315931500188 -0.052887592535396689 0 0.25074953979106701 -0.057391721610124569 0 0.25732315931500188 -0.052887592535396689 0 0.24997138218959711 -0.046602097251877819 0 0.25732315931500188 -0.052887592535396689 0 0.25634474429285359 -0.041170028594647579 0 0.24997138218959711 -0.046602097251877819 0 0.25732315931500188 -0.052887592535396689 0 0.26473273621259669 -0.048632670816821572 0 0.26504577583812128 -0.058351514343464618 0 0.25732315931500188 -0.052887592535396689 0 0.26473273621259669 -0.048632670816821572 0 0.25634474429285359 -0.041170028594647579 0 0.25921001374024888 -0.062913051663404065 0 0.25732315931500188 -0.052887592535396689 0 0.26504577583812128 -0.058351514343464618 0 0.27544222167124172 -0.060126712533812007 0 0.27193372985383868 -0.037699184858962682 0 0.28143778645819528 -0.047691886173511493 0 0.26596052396163428 -0.066707811628633415 0 0.26504577583812128 -0.058351514343464618 0 0.27544222167124172 -0.060126712533812007 0 0.26473273621259669 -0.048632670816821572 0 0.26504577583812128 -0.058351514343464618 0 0.27544222167124172 -0.060126712533812007 0 0.26473273621259669 -0.048632670816821572 0 0.27544222167124172 -0.060126712533812007 0 0.26525668920167761 -0.032330876767627727 0 0.27544222167124172 -0.060126712533812007 0 0.27193372985383868 -0.037699184858962682 0 0.26525668920167761 -0.032330876767627727 0 0.27544222167124172 -0.060126712533812007 0 0.26525668920167761 -0.032330876767627727 0 0.27193372985383868 -0.037699184858962682 0 0.28143778645819528 -0.047691886173511493 0 0.28442349330463151 -0.038276311311383697 0 0.26473273621259669 -0.048632670816821572 0 0.26525668920167761 -0.032330876767627727 0 0.25634474429285359 -0.041170028594647579 0 0.26525668920167761 -0.032330876767627727 0 0.25634474429285359 -0.041170028594647579 0 0.25254148323653008 -0.028052360621987089 0 0.25634474429285359 -0.041170028594647579 0 0.24997138218959711 -0.046602097251877819 0 0.24741741088909919 -0.03711588908773511 0 0.25634474429285359 -0.041170028594647579 0 0.25254148323653008 -0.028052360621987089 0 0.24741741088909919 -0.03711588908773511 0 0.26525668920167761 -0.032330876767627727 0 0.25507115673211361 -0.0045350410014435294 0 0.26525668920167761 -0.032330876767627727 0 0.25254148323653008 -0.028052360621987089 0 0.25507115673211361 -0.0045350410014435294 0 0.27193372985383868 -0.037699184858962682 0 0.28777458624948338 -0.027807254189587051 0 0.28175891799334779 -0.01012690466964521 0 0.27193372985383868 -0.037699184858962682 0 0.26525668920167761 -0.032330876767627727 0 0.28175891799334779 -0.01012690466964521 0 0.26525668920167761 -0.032330876767627727 0 0.25507115673211361 -0.0045350410014435294 0 0.28175891799334779 -0.01012690466964521 0 0.27193372985383868 -0.037699184858962682 0 0.28175891799334779 -0.01012690466964521 0 0.28777458624948338 -0.027807254189587051 0 0.28175891799334779 -0.01012690466964521 0 0.3051749993910548 -0.019013229719404379 0 0.28175891799334779 -0.01012690466964521 0 0.30501130485267042 -0.0014971883304511779 0 0.3051749993910548 -0.019013229719404379 0 0.28777458624948338 -0.027807254189587051 0 0.3051749993910548 -0.019013229719404379 0 0.30006577919589478 -0.034437096242561957 0 0.31982558767400021 -0.027589483525777642 0 0.3051749993910548 -0.019013229719404379 0 0.30006577919589478 -0.034437096242561957 0 0.31982558767400021 -0.027589483525777642 0 0.30006577919589478 -0.034437096242561957 0 0.31154748813805577 -0.047256730549412602 0 0.30006577919589478 -0.034437096242561957 0 0.31154748813805577 -0.047256730549412602 0 0.29083524316556458 -0.046230484171249371 0 0.3032693886021165 -0.06692397757304977 0 0.31154748813805577 -0.047256730549412602 0 0.31154748813805577 -0.047256730549412602 0 0.2982557095981796 -0.055193088973057108 0 0.29083524316556458 -0.046230484171249371 0 0.3032693886021165 -0.06692397757304977 0 0.31154748813805577 -0.047256730549412602 0 0.2982557095981796 -0.055193088973057108 0 0.2982557095981796 -0.055193088973057108 0 0.28834549716246149 -0.057236990974061958 0 0.29083524316556458 -0.046230484171249371 0 0.3032693886021165 -0.06692397757304977 0 0.2982557095981796 -0.055193088973057108 0 0.28834549716246149 -0.057236990974061958 0 0.27544222167124172 -0.060126712533812007 0 0.28834549716246149 -0.057236990974061958 0 0.28143778645819528 -0.047691886173511493 0 0.28108648209287768 -0.066442209798740326 0 0.27544222167124172 -0.060126712533812007 0 0.28834549716246149 -0.057236990974061958 0 0.28834549716246149 -0.057236990974061958 0 0.28143778645819528 -0.047691886173511493 0 0.29083524316556458 -0.046230484171249371 0 0.28143778645819528 -0.047691886173511493 0 0.28442349330463151 -0.038276311311383697 0 0.29083524316556458 -0.046230484171249371 0 0.27193372985383868 -0.037699184858962682 0 0.28777458624948338 -0.027807254189587051 0 0.28442349330463151 -0.038276311311383697 0 0.28777458624948338 -0.027807254189587051 0 0.30006577919589478 -0.034437096242561957 0 0.28442349330463151 -0.038276311311383697 0 0.30006577919589478 -0.034437096242561957 0 0.28442349330463151 -0.038276311311383697 0 0.29083524316556458 -0.046230484171249371 0 0.28462317075681193 -0.20830753118165249 0 0.29810967900034629 -0.20991686090799419 0 0.28982489952983509 -0.2249563111968127 0 0.28462317075681193 -0.20830753118165249 0 0.28982489952983509 -0.2249563111968127 0 0.27124119669775598 -0.22217811293167189 0 0.28462317075681193 -0.20830753118165249 0 0.29019029373139937 -0.20067378808019681 0 0.29810967900034629 -0.20991686090799419 0 0.28263969471887479 -0.19470150367210959 0 0.29143324159829148 -0.19067753894240819 0 0.29019029373139937 -0.20067378808019681 0 0.28462317075681193 -0.20830753118165249 0 0.28263969471887479 -0.19470150367210959 0 0.29019029373139937 -0.20067378808019681 0 0.28263969471887479 -0.19470150367210959 0 0.27623385227385799 -0.1969415710242737 0 0.28694240427551021 -0.18271465995906139 0 0.28263969471887479 -0.19470150367210959 0 0.29143324159829148 -0.19067753894240819 0 0.28694240427551021 -0.18271465995906139 0 0.29143324159829148 -0.19067753894240819 0 0.29019029373139937 -0.20067378808019681 0 0.29851083968830661 -0.19560572320263159 0 0.29019029373139937 -0.20067378808019681 0 0.29851083968830661 -0.19560572320263159 0 0.29810967900034629 -0.20991686090799419 0 0.29851083968830661 -0.19560572320263159 0 0.29810967900034629 -0.20991686090799419 0 0.31519249136078681 -0.19653758471895641 0 0.29851083968830661 -0.19560572320263159 0 0.30189930452634872 -0.18144324154777991 0 0.31519249136078681 -0.19653758471895641 0 0.30189930452634872 -0.18144324154777991 0 0.31792606865404271 -0.18554123567718131 0 0.31519249136078681 -0.19653758471895641 0 0.29143324159829148 -0.19067753894240819 0 0.29851083968830661 -0.19560572320263159 0 0.30189930452634872 -0.18144324154777991 0 0.30189930452634872 -0.18144324154777991 0 0.31519249136078681 -0.19653758471895641 0 0.29810967900034629 -0.20991686090799419 0 0.31298338845902302 -0.2113123798269696 0 0.31519249136078681 -0.19653758471895641 0 0.29810967900034629 -0.20991686090799419 0 0.31240565370387419 -0.22624023729771989 0 0.31298338845902302 -0.2113123798269696 0 0.31240565370387419 -0.22624023729771989 0 0.29632562921252242 -0.24084854670530759 0 0.28982489952983509 -0.2249563111968127 0 0.31240565370387419 -0.22624023729771989 0 0.29632562921252242 -0.24084854670530759 0 0.31240565370387419 -0.22624023729771989 0 0.29632562921252242 -0.24084854670530759 0 0.32060321440149209 -0.2355485240071086 0 0.29810967900034629 -0.20991686090799419 0 0.31240565370387419 -0.22624023729771989 0 0.28982489952983509 -0.2249563111968127 0 0.29632562921252242 -0.24084854670530759 0 0.32060321440149209 -0.2355485240071086 0 0.30679468666361731 -0.249384579544184 0 0.29632562921252242 -0.24084854670530759 0 0.32060321440149209 -0.2355485240071086 0 0.30679468666361731 -0.249384579544184 0 0.29632562921252242 -0.24084854670530759 0 0.2960622489784801 -0.25367981408193813 0 0.29632562921252242 -0.24084854670530759 0 0.28004875328311768 -0.25563569083518961 0 0.29632562921252242 -0.24084854670530759 0 0.28128708516708778 -0.24413160077218679 0 0.28026885945067043 -0.24769775683955519 0 0.29632562921252242 -0.24084854670530759 0 0.28026885945067043 -0.24769775683955519 0 0.28004875328311768 -0.25563569083518961 0 0.29632562921252242 -0.24084854670530759 0 0.28128708516708778 -0.24413160077218679 0 0.28982489952983509 -0.2249563111968127 0 0.29632562921252242 -0.24084854670530759 0 0.28128708516708778 -0.24413160077218679 0 0.28128708516708778 -0.24413160077218679 0 0.28982489952983509 -0.2249563111968127 0 0.27124119669775598 -0.22217811293167189 0 0.28128708516708778 -0.24413160077218679 0 0.27124119669775598 -0.22217811293167189 0 0.26624854112165408 -0.2474146548390701 0 0.27124119669775598 -0.22217811293167189 0 0.26624854112165408 -0.2474146548390701 0 0.28128708516708778 -0.24413160077218679 0 0.28026885945067043 -0.24769775683955519 0 0.27317960725986401 -0.25147320184929878 0 0.28128708516708778 -0.24413160077218679 0 0.26624854112165408 -0.2474146548390701 0 0.28128708516708778 -0.24413160077218679 0 0.26624854112165408 -0.2474146548390701 0 0.27317960725986401 -0.25147320184929878 0 0.27124119669775598 -0.22217811293167189 0 0.26624854112165408 -0.2474146548390701 0 0.25802317583318252 -0.2354702694931903 0 0.26624854112165408 -0.2474146548390701 0 0.25241460081779321 -0.25043473270287703 0 0.26624854112165408 -0.2474146548390701 0 0.25802317583318252 -0.2354702694931903 0 0.25241460081779321 -0.25043473270287703 0 0.25802317583318252 -0.2354702694931903 0 0.25241460081779321 -0.25043473270287703 0 0.24829625608795741 -0.2383585599429115 0 0.25802317583318252 -0.2354702694931903 0 0.25238674146233819 -0.23044019217813061 0 0.24829625608795741 -0.2383585599429115 0 0.27124119669775598 -0.22217811293167189 0 0.2574147011384027 -0.2239411829581342 0 0.26082032885120721 -0.2126441761163439 0 0.27124119669775598 -0.22217811293167189 0 0.25802317583318252 -0.2354702694931903 0 0.2574147011384027 -0.2239411829581342 0 0.25802317583318252 -0.2354702694931903 0 0.25238674146233819 -0.23044019217813061 0 0.2574147011384027 -0.2239411829581342 0 0.25238674146233819 -0.23044019217813061 0 0.25011186226830828 -0.22413328924172579 0 0.2574147011384027 -0.2239411829581342 0 0.25011186226830828 -0.22413328924172579 0 0.25390929796352041 -0.21791652376992279 0 0.2476196529828556 -0.21837733181959809 0 0.25011186226830828 -0.22413328924172579 0 0.2574147011384027 -0.2239411829581342 0 0.25390929796352041 -0.21791652376992279 0 0.2574147011384027 -0.2239411829581342 0 0.25390929796352041 -0.21791652376992279 0 0.26082032885120721 -0.2126441761163439 0 0.25390929796352041 -0.21791652376992279 0 0.25396624877084079 -0.20952651608544151 0 0.26082032885120721 -0.2126441761163439 0 0.25390929796352041 -0.21791652376992279 0 0.25396624877084079 -0.20952651608544151 0 0.2476196529828556 -0.21837733181959809 0 0.25215667626286681 -0.2053611499286197 0 0.26082032885120721 -0.2126441761163439 0 0.27623385227385799 -0.1969415710242737 0 0.25396624877084079 -0.20952651608544151 0 0.25215667626286681 -0.2053611499286197 0 0.26082032885120721 -0.2126441761163439 0 0.27124119669775598 -0.22217811293167189 0 0.26082032885120721 -0.2126441761163439 0 0.27623385227385799 -0.1969415710242737 0 0.27124119669775598 -0.22217811293167189 0 0.27623385227385799 -0.1969415710242737 0 0.28462317075681193 -0.20830753118165249 0 0.27124119669775598 -0.22217811293167189 0 0.27623385227385799 -0.1969415710242737 0 0.28462317075681193 -0.20830753118165249 0 0.28263969471887479 -0.19470150367210959 0 0.27623385227385799 -0.1969415710242737 0 0.28263969471887479 -0.19470150367210959 0 0.27623385227385799 -0.1969415710242737 0 0.25215667626286681 -0.2053611499286197 0 0.27623385227385799 -0.1969415710242737 0 0.2644909838146226 -0.1891747574223924 0 0.25215667626286681 -0.2053611499286197 0 0.27623385227385799 -0.1969415710242737 0 0.25215667626286681 -0.2053611499286197 0 0.2644909838146226 -0.1891747574223924 0 0.2520260174112951 -0.19611349652224269 0 0.25215667626286681 -0.2053611499286197 0 0.2520260174112951 -0.19611349652224269 0 0.24806112304804151 -0.20079628444228459 0 0.2644909838146226 -0.1891747574223924 0 0.2520260174112951 -0.19611349652224269 0 0.25042149449415368 -0.18865724081545401 0 0.2644909838146226 -0.1891747574223924 0 0.25509373551380121 -0.17893097573479161 0 0.26386653859994641 -0.16992497069817139 0 0.25509373551380121 -0.17893097573479161 0 0.26386653859994641 -0.16992497069817139 0 0.24563299358722171 -0.17256060469185061 0 0.2644909838146226 -0.1891747574223924 0 0.25042149449415368 -0.18865724081545401 0 0.25509373551380121 -0.17893097573479161 0 0.26386653859994641 -0.16992497069817139 0 0.25269095186966017 -0.156165935810328 0 0.24563299358722171 -0.17256060469185061 0 0.26386653859994641 -0.16992497069817139 0 0.24563299358722171 -0.17256060469185061 0 0.26386653859994641 -0.16992497069817139 0 0.26987337834751479 -0.15919682348032849 0 0.25269095186966017 -0.156165935810328 0 0.26386653859994641 -0.16992497069817139 0 0.26987337834751479 -0.15919682348032849 0 0.28210008361267103 -0.16728933670449281 0 0.26386653859994641 -0.16992497069817139 0 0.28210008361267103 -0.16728933670449281 0 0.26987337834751479 -0.15919682348032849 0 0.28210008361267103 -0.16728933670449281 0 0.28344543077349588 -0.16048896574226179 0 0.27623385227385799 -0.1969415710242737 0 0.28210008361267103 -0.16728933670449281 0 0.2644909838146226 -0.1891747574223924 0 0.26386653859994641 -0.16992497069817139 0 0.28210008361267103 -0.16728933670449281 0 0.27623385227385799 -0.1969415710242737 0 0.2644909838146226 -0.1891747574223924 0 0.28210008361267103 -0.16728933670449281 0 0.25108234299010679 -0.1237408511505155 0 0.26726388688180169 -0.14211490844638841 0 0.2478804031781367 -0.1395639772109625 0 0.25108234299010679 -0.1237408511505155 0 0.26726388688180169 -0.14211490844638841 0 0.27534740855717732 -0.1133681749397191 0 0.25108234299010679 -0.1237408511505155 0 0.26726388688180169 -0.14211490844638841 0 0.25269095186966017 -0.156165935810328 0 0.26726388688180169 -0.14211490844638841 0 0.2478804031781367 -0.1395639772109625 0 0.26987337834751479 -0.15919682348032849 0 0.25269095186966017 -0.156165935810328 0 0.26726388688180169 -0.14211490844638841 0 0.26987337834751479 -0.15919682348032849 0 0.26726388688180169 -0.14211490844638841 0 0.28344543077349588 -0.16048896574226179 0 0.26726388688180169 -0.14211490844638841 0 0.28344543077349588 -0.16048896574226179 0 0.26726388688180169 -0.14211490844638841 0 0.28902175292606469 -0.13230214501180579 0 0.28344543077349588 -0.16048896574226179 0 0.27534740855717732 -0.1133681749397191 0 0.26726388688180169 -0.14211490844638841 0 0.28902175292606469 -0.13230214501180579 0 0.28902175292606469 -0.13230214501180579 0 0.30013444157792268 -0.14768915799601789 0 0.28902175292606469 -0.13230214501180579 0 0.29412170835228107 -0.15527743182023579 0 0.30013444157792268 -0.14768915799601789 0 0.28902175292606469 -0.13230214501180579 0 0.29412170835228107 -0.15527743182023579 0 0.28344543077349588 -0.16048896574226179 0 0.28902175292606469 -0.13230214501180579 0 0.28344543077349588 -0.16048896574226179 0 0.30668804087788493 -0.14487132844675699 0 0.30013444157792268 -0.14768915799601789 0 0.31124713022978012 -0.1630761709802305 0 0.29412170835228107 -0.15527743182023579 0 0.30013444157792268 -0.14768915799601789 0 0.31124713022978012 -0.1630761709802305 0 0.30013444157792268 -0.14768915799601789 0 0.31124713022978012 -0.1630761709802305 0 0.30668804087788493 -0.14487132844675699 0 0.30013444157792268 -0.14768915799601789 0 0.30387120819859792 -0.13366888296643301 0 0.28902175292606469 -0.13230214501180579 0 0.30013444157792268 -0.14768915799601789 0 0.30387120819859792 -0.13366888296643301 0 0.30668804087788493 -0.14487132844675699 0 0.30387120819859792 -0.13366888296643301 0 0.31617771381049831 -0.13648317698033019 0 0.31283622843512099 -0.12194794521520951 0 0.30387120819859792 -0.13366888296643301 0 0.31617771381049831 -0.13648317698033019 0 0.31283622843512099 -0.12194794521520951 0 0.30152420912055677 -0.1203661533336694 0 0.30387120819859792 -0.13366888296643301 0 0.30152420912055677 -0.1203661533336694 0 0.28902175292606469 -0.13230214501180579 0 0.30387120819859792 -0.13366888296643301 0 0.27623385227385799 -0.1969415710242737 0 0.28694240427551021 -0.18271465995906139 0 0.28210008361267103 -0.16728933670449281 0 0.28694240427551021 -0.18271465995906139 0 0.28210008361267103 -0.16728933670449281 0 0.28860611769191158 -0.16634889837660261 0 0.28694240427551021 -0.18271465995906139 0 0.28860611769191158 -0.16634889837660261 0 0.30189930452634872 -0.18144324154777991 0 0.28860611769191158 -0.16634889837660261 0 0.30189930452634872 -0.18144324154777991 0 0.29143324159829148 -0.19067753894240819 0 0.28694240427551021 -0.18271465995906139 0 0.30189930452634872 -0.18144324154777991 0 0.28210008361267103 -0.16728933670449281 0 0.28860611769191158 -0.16634889837660261 0 0.28344543077349588 -0.16048896574226179 0 0.28210008361267103 -0.16728933670449281 0 0.28860611769191158 -0.16634889837660261 0 0.29412170835228107 -0.15527743182023579 0 0.28860611769191158 -0.16634889837660261 0 0.28344543077349588 -0.16048896574226179 0 0.28210008361267103 -0.16728933670449281 0 0.28344543077349588 -0.16048896574226179 0 0.28860611769191158 -0.16634889837660261 0 0.28344543077349588 -0.16048896574226179 0 0.28860611769191158 -0.16634889837660261 0 0.31124713022978012 -0.1630761709802305 0 0.29412170835228107 -0.15527743182023579 0 0.28860611769191158 -0.16634889837660261 0 0.31124713022978012 -0.1630761709802305 0 0.28860611769191158 -0.16634889837660261 0 0.31124713022978012 -0.1630761709802305 0 0.30189930452634872 -0.18144324154777991 0 0.31124713022978012 -0.1630761709802305 0 0.30189930452634872 -0.18144324154777991 0 0.31935345994396591 -0.17430047541943219 0 0.30189930452634872 -0.18144324154777991 0 0.31792606865404271 -0.18554123567718131 0 0.31935345994396591 -0.17430047541943219 0 0.31792606865404271 -0.18554123567718131 0 0.31935345994396591 -0.17430047541943219 0 0.32924246012010022 -0.18645421832060971 0 0.31935345994396591 -0.17430047541943219 0 0.32924246012010022 -0.18645421832060971 0 0.33045976103500158 -0.17649158788493011 0 0.30668804087788493 -0.14487132844675699 0 0.31124713022978012 -0.1630761709802305 0 0.32401586908832308 -0.16123046724195461 0 0.31124713022978012 -0.1630761709802305 0 0.31935345994396591 -0.17430047541943219 0 0.31124713022978012 -0.1630761709802305 0 0.31935345994396591 -0.17430047541943219 0 0.32401586908832308 -0.16123046724195461 0 0.31124713022978012 -0.1630761709802305 0 0.32401586908832308 -0.16123046724195461 0 0.31935345994396591 -0.17430047541943219 0 0.32401586908832308 -0.16123046724195461 0 0.33045976103500158 -0.17649158788493011 0 0.32401586908832308 -0.16123046724195461 0 0.34341843353887419 -0.17954835688020121 0 0.32401586908832308 -0.16123046724195461 0 0.3405834064831999 -0.1588356523708476 0 0.32401586908832308 -0.16123046724195461 0 0.34178662529602483 -0.1687849783206504 0 0.34341843353887419 -0.17954835688020121 0 0.32401586908832308 -0.16123046724195461 0 0.3405834064831999 -0.1588356523708476 0 0.33107434246856732 -0.1515563603202299 0 0.32401586908832308 -0.16123046724195461 0 0.3405834064831999 -0.1588356523708476 0 0.34178662529602483 -0.1687849783206504 0 0.32401586908832308 -0.16123046724195461 0 0.34341843353887419 -0.17954835688020121 0 0.33045976103500158 -0.17649158788493011 0 0.34341843353887419 -0.17954835688020121 0 0.33536908843640789 -0.1824694126981338 0 0.33045976103500158 -0.17649158788493011 0 0.34341843353887419 -0.17954835688020121 0 0.33835569905165552 -0.18738348770679439 0 0.34509028993992508 -0.1938589785597776 0 0.34341843353887419 -0.17954835688020121 0 0.33835569905165552 -0.18738348770679439 0 0.33536908843640789 -0.1824694126981338 0 0.32924246012010022 -0.18645421832060971 0 0.33536908843640789 -0.1824694126981338 0 0.33045976103500158 -0.17649158788493011 0 0.33835569905165552 -0.18738348770679439 0 0.32924246012010022 -0.18645421832060971 0 0.33536908843640789 -0.1824694126981338 0 0.31283622843512099 -0.12194794521520951 0 0.32752317523884722 -0.12749172654840291 0 0.31617771381049831 -0.13648317698033019 0 0.32752317523884722 -0.12749172654840291 0 0.31617771381049831 -0.13648317698033019 0 0.32792282585221039 -0.13989399968867919 0 0.30668804087788493 -0.14487132844675699 0 0.32401586908832308 -0.16123046724195461 0 0.30668804087788493 -0.14487132844675699 0 0.32401586908832308 -0.16123046724195461 0 0.32117575841949692 -0.1468070665355902 0 0.31617771381049831 -0.13648317698033019 0 0.32792282585221039 -0.13989399968867919 0 0.32117575841949692 -0.1468070665355902 0 0.32792282585221039 -0.13989399968867919 0 0.32117575841949692 -0.1468070665355902 0 0.33107434246856732 -0.1515563603202299 0 0.30668804087788493 -0.14487132844675699 0 0.31617771381049831 -0.13648317698033019 0 0.32117575841949692 -0.1468070665355902 0 0.32401586908832308 -0.16123046724195461 0 0.32117575841949692 -0.1468070665355902 0 0.33107434246856732 -0.1515563603202299 0 0.3405834064831999 -0.1588356523708476 0 0.33107434246856732 -0.1515563603202299 0 0.33832996361829021 -0.14427938896996351 0 0.3405834064831999 -0.1588356523708476 0 0.33832996361829021 -0.14427938896996351 0 0.34820549937631368 -0.1482201705051378 0 0.32792282585221039 -0.13989399968867919 0 0.33107434246856732 -0.1515563603202299 0 0.33832996361829021 -0.14427938896996351 0 0.34374399370123548 -0.1221956302410425 0 0.32752317523884722 -0.12749172654840291 0 0.33811324951302862 -0.1330719121519699 0 0.32792282585221039 -0.13989399968867919 0 0.33832996361829021 -0.14427938896996351 0 0.33811324951302862 -0.1330719121519699 0 0.32752317523884722 -0.12749172654840291 0 0.32792282585221039 -0.13989399968867919 0 0.33811324951302862 -0.1330719121519699 0 0.33832996361829021 -0.14427938896996351 0 0.33811324951302862 -0.1330719121519699 0 0.34840011700486723 -0.13712436781627471 0 0.34374399370123548 -0.1221956302410425 0 0.33811324951302862 -0.1330719121519699 0 0.34840011700486723 -0.13712436781627471 0 0.34374399370123548 -0.1221956302410425 0 0.34840011700486723 -0.13712436781627471 0 0.36402046198743698 -0.13030513340288319 0 0.34840011700486723 -0.13712436781627471 0 0.35731300669373989 -0.1449459754927104 0 0.36402046198743698 -0.13030513340288319 0 0.3405834064831999 -0.1588356523708476 0 0.34820549937631368 -0.1482201705051378 0 0.35715094387807661 -0.1564408374997398 0 0.33832996361829021 -0.14427938896996351 0 0.34840011700486723 -0.13712436781627471 0 0.34820549937631368 -0.1482201705051378 0 0.34840011700486723 -0.13712436781627471 0 0.35731300669373989 -0.1449459754927104 0 0.34820549937631368 -0.1482201705051378 0 0.35731300669373989 -0.1449459754927104 0 0.34820549937631368 -0.1482201705051378 0 0.35715094387807661 -0.1564408374997398 0 0.36850787303602778 -0.14492616517463219 0 0.35715094387807661 -0.1564408374997398 0 0.36771206830121428 -0.1610796234259588 0 0.36850787303602778 -0.14492616517463219 0 0.36771206830121428 -0.1610796234259588 0 0.38386539280285759 -0.13985525743885599 0 0.35731300669373989 -0.1449459754927104 0 0.36850787303602778 -0.14492616517463219 0 0.35715094387807661 -0.1564408374997398 0 0.36850787303602778 -0.14492616517463219 0 0.36402046198743698 -0.13030513340288319 0 0.38386539280285759 -0.13985525743885599 0 0.35731300669373989 -0.1449459754927104 0 0.36850787303602778 -0.14492616517463219 0 0.36402046198743698 -0.13030513340288319 0 0.34341843353887419 -0.17954835688020121 0 0.35155874379957108 -0.18230398941306139 0 0.36282099798942502 -0.19786624651844831 0 0.34341843353887419 -0.17954835688020121 0 0.35155874379957108 -0.18230398941306139 0 0.34709127035217852 -0.17485358871156531 0 0.34178662529602483 -0.1687849783206504 0 0.34341843353887419 -0.17954835688020121 0 0.34709127035217852 -0.17485358871156531 0 0.35155874379957108 -0.18230398941306139 0 0.34709127035217852 -0.17485358871156531 0 0.35160127877424402 -0.1687770302323483 0 0.3405834064831999 -0.1588356523708476 0 0.35715094387807661 -0.1564408374997398 0 0.35715094387807661 -0.1564408374997398 0 0.35160127877424402 -0.1687770302323483 0 0.36771206830121428 -0.1610796234259588 0 0.34178662529602483 -0.1687849783206504 0 0.34709127035217852 -0.17485358871156531 0 0.35160127877424402 -0.1687770302323483 0 0.3405834064831999 -0.1588356523708476 0 0.35715094387807661 -0.1564408374997398 0 0.35160127877424402 -0.1687770302323483 0 0.35155874379957108 -0.18230398941306139 0 0.35160127877424402 -0.1687770302323483 0 0.36771206830121428 -0.1610796234259588 0 0.3405834064831999 -0.1588356523708476 0 0.34178662529602483 -0.1687849783206504 0 0.35160127877424402 -0.1687770302323483 0 0.36771206830121428 -0.1610796234259588 0 0.3685569238766232 -0.17873836144299921 0 0.37866159239880898 -0.1693656497289652 0 0.35155874379957108 -0.18230398941306139 0 0.36771206830121428 -0.1610796234259588 0 0.35155874379957108 -0.18230398941306139 0 0.3685569238766232 -0.17873836144299921 0 0.36282099798942502 -0.19786624651844831 0 0.35155874379957108 -0.18230398941306139 0 0.36771206830121428 -0.1610796234259588 0 0.3685569238766232 -0.17873836144299921 0 0.37420468499055343 -0.1902830336527844 0 0.36282099798942502 -0.19786624651844831 0 0.38168159881004549 -0.2025469463892256 0 0.3685569238766232 -0.17873836144299921 0 0.37420468499055343 -0.1902830336527844 0 0.36282099798942502 -0.19786624651844831 0 0.36249409782960162 -0.2109405298875747 0 0.3695981637227817 -0.22620293489667359 0 0.38168159881004549 -0.2025469463892256 0 0.36282099798942502 -0.19786624651844831 0 0.36249409782960162 -0.2109405298875747 0 0.38168159881004549 -0.2025469463892256 0 0.36249409782960162 -0.2109405298875747 0 0.35044196528261923 -0.21237003909368221 0 0.35574153325102748 -0.2203569760548397 0 0.36249409782960162 -0.2109405298875747 0 0.35044196528261923 -0.21237003909368221 0 0.34975157246643229 -0.20297532234813551 0 0.36282099798942502 -0.19786624651844831 0 0.36249409782960162 -0.2109405298875747 0 0.34975157246643229 -0.20297532234813551 0 0.35044196528261923 -0.21237003909368221 0 0.34975157246643229 -0.20297532234813551 0 0.34118885628590861 -0.20658348559542761 0 0.35044196528261923 -0.21237003909368221 0 0.34443163002745242 -0.21396978433152861 0 0.34118885628590861 -0.20658348559542761 0 0.35044196528261923 -0.21237003909368221 0 0.34827109174085269 -0.21809548577662291 0 0.35574153325102748 -0.2203569760548397 0 0.35044196528261923 -0.21237003909368221 0 0.34443163002745242 -0.21396978433152861 0 0.34827109174085269 -0.21809548577662291 0 0.34443163002745242 -0.21396978433152861 0 0.34827109174085269 -0.21809548577662291 0 0.34294102588521541 -0.2197507013394906 0 0.36282099798942502 -0.19786624651844831 0 0.34975157246643229 -0.20297532234813551 0 0.34509028993992508 -0.1938589785597776 0 0.34341843353887419 -0.17954835688020121 0 0.36282099798942502 -0.19786624651844831 0 0.34509028993992508 -0.1938589785597776 0 0.34341843353887419 -0.17954835688020121 0 0.36282099798942502 -0.19786624651844831 0 0.34975157246643229 -0.20297532234813551 0 0.34509028993992508 -0.1938589785597776 0 0.34023856256824742 -0.20056946212685181 0 0.33835569905165552 -0.18738348770679439 0 0.34509028993992508 -0.1938589785597776 0 0.33548069781311057 -0.19427117793526361 0 0.33835569905165552 -0.18738348770679439 0 0.32924246012010022 -0.18645421832060971 0 0.33548069781311057 -0.19427117793526361 0 0.32924246012010022 -0.18645421832060971 0 0.33548069781311057 -0.19427117793526361 0 0.32597661007332929 -0.19623184450821951 0 0.33548069781311057 -0.19427117793526361 0 0.33437995191874148 -0.20046138773411709 0 0.32597661007332929 -0.19623184450821951 0 0.33437995191874148 -0.20046138773411709 0 0.33113500470152668 -0.20453466570596049 0 0.32597661007332929 -0.19623184450821951 0 0.34509028993992508 -0.1938589785597776 0 0.33548069781311057 -0.19427117793526361 0 0.34023856256824742 -0.20056946212685181 0 0.33437995191874148 -0.20046138773411709 0 0.34023856256824742 -0.20056946212685181 0 0.33554000698536612 -0.20526642058838951 0 0.33548069781311057 -0.19427117793526361 0 0.33437995191874148 -0.20046138773411709 0 0.34023856256824742 -0.20056946212685181 0 0.34975157246643229 -0.20297532234813551 0 0.34023856256824742 -0.20056946212685181 0 0.34118885628590861 -0.20658348559542761 0 0.34118885628590861 -0.20658348559542761 0 0.33796641582467513 -0.21313084298539031 0 0.33517492589815318 -0.20960712189582209 0 0.34118885628590861 -0.20658348559542761 0 0.33554000698536612 -0.20526642058838951 0 0.33517492589815318 -0.20960712189582209 0 0.34023856256824742 -0.20056946212685181 0 0.34118885628590861 -0.20658348559542761 0 0.33554000698536612 -0.20526642058838951 0 0.33796641582467513 -0.21313084298539031 0 0.32848567819522589 -0.21163192789013191 0 0.34294102588521541 -0.2197507013394906 0 0.34443163002745242 -0.21396978433152861 0 0.33796641582467513 -0.21313084298539031 0 0.34294102588521541 -0.2197507013394906 0 0.34443163002745242 -0.21396978433152861 0 0.34118885628590861 -0.20658348559542761 0 0.33796641582467513 -0.21313084298539031 0 0.33796641582467513 -0.21313084298539031 0 0.32848567819522589 -0.21163192789013191 0 0.33517492589815318 -0.20960712189582209 0 0.32848567819522589 -0.21163192789013191 0 0.33113500470152668 -0.20453466570596049 0 0.32597661007332929 -0.19623184450821951 0 0.33437995191874148 -0.20046138773411709 0 0.33554000698536612 -0.20526642058838951 0 0.33113500470152668 -0.20453466570596049 0 0.33554000698536612 -0.20526642058838951 0 0.33129277633497162 -0.2090817478089434 0 0.33113500470152668 -0.20453466570596049 0 0.33554000698536612 -0.20526642058838951 0 0.33517492589815318 -0.20960712189582209 0 0.33129277633497162 -0.2090817478089434 0 0.32848567819522589 -0.21163192789013191 0 0.33129277633497162 -0.2090817478089434 0 0.33113500470152668 -0.20453466570596049 0 0.32848567819522589 -0.21163192789013191 0 0.33517492589815318 -0.20960712189582209 0 0.33129277633497162 -0.2090817478089434 0 0.32848567819522589 -0.21163192789013191 0 0.33129277633497162 -0.2090817478089434 0 0.32848567819522589 -0.21163192789013191 0 0.31519249136078681 -0.19653758471895641 0 0.31240565370387419 -0.22624023729771989 0 0.32848567819522589 -0.21163192789013191 0 0.31298338845902302 -0.2113123798269696 0 0.32848567819522589 -0.21163192789013191 0 0.31298338845902302 -0.2113123798269696 0 0.31519249136078681 -0.19653758471895641 0 0.31792606865404271 -0.18554123567718131 0 0.31519249136078681 -0.19653758471895641 0 0.32597661007332929 -0.19623184450821951 0 0.31792606865404271 -0.18554123567718131 0 0.32924246012010022 -0.18645421832060971 0 0.32597661007332929 -0.19623184450821951 0 0.32848567819522589 -0.21163192789013191 0 0.31519249136078681 -0.19653758471895641 0 0.32597661007332929 -0.19623184450821951 0 0.30679468666361731 -0.249384579544184 0 0.32060321440149209 -0.2355485240071086 0 0.31612366293074279 -0.25382610042543741 0 0.32060321440149209 -0.2355485240071086 0 0.33095493140582899 -0.24942881102254519 0 0.31612366293074279 -0.25382610042543741 0 0.31240565370387419 -0.22624023729771989 0 0.32848567819522589 -0.21163192789013191 0 0.31240565370387419 -0.22624023729771989 0 0.32848567819522589 -0.21163192789013191 0 0.32060321440149209 -0.2355485240071086 0 0.32848567819522589 -0.21163192789013191 0 0.34294102588521541 -0.2197507013394906 0 0.34488079959046158 -0.23024850130890931 0 0.32848567819522589 -0.21163192789013191 0 0.32060321440149209 -0.2355485240071086 0 0.34488079959046158 -0.23024850130890931 0 0.32848567819522589 -0.21163192789013191 0 0.34488079959046158 -0.23024850130890931 0 0.32060321440149209 -0.2355485240071086 0 0.34488079959046158 -0.23024850130890931 0 0.33095493140582899 -0.24942881102254519 0 0.34783106546937281 -0.24843756050561569 0 0.34488079959046158 -0.23024850130890931 0 0.32060321440149209 -0.2355485240071086 0 0.33095493140582899 -0.24942881102254519 0 0.34488079959046158 -0.23024850130890931 0 0.34488079959046158 -0.23024850130890931 0 0.36157309947191812 -0.2492025193231692 0 0.34488079959046158 -0.23024850130890931 0 0.35605297252967388 -0.2299788328028104 0 0.36157309947191812 -0.2492025193231692 0 0.34783106546937281 -0.24843756050561569 0 0.34488079959046158 -0.23024850130890931 0 0.36157309947191812 -0.2492025193231692 0 0.34783106546937281 -0.24843756050561569 0 0.36157309947191812 -0.2492025193231692 0 0.36122881587163819 -0.25176525652885728 0 0.34827109174085269 -0.21809548577662291 0 0.34779930425794908 -0.22402992806357311 0 0.35574153325102748 -0.2203569760548397 0 0.34294102588521541 -0.2197507013394906 0 0.34779930425794908 -0.22402992806357311 0 0.34488079959046158 -0.23024850130890931 0 0.34827109174085269 -0.21809548577662291 0 0.34294102588521541 -0.2197507013394906 0 0.34779930425794908 -0.22402992806357311 0 0.34779930425794908 -0.22402992806357311 0 0.34488079959046158 -0.23024850130890931 0 0.35605297252967388 -0.2299788328028104 0 0.34779930425794908 -0.22402992806357311 0 0.35605297252967388 -0.2299788328028104 0 0.35574153325102748 -0.2203569760548397 0 0.35605297252967388 -0.2299788328028104 0 0.35574153325102748 -0.2203569760548397 0 0.3695981637227817 -0.22620293489667359 0 0.36249409782960162 -0.2109405298875747 0 0.35574153325102748 -0.2203569760548397 0 0.3695981637227817 -0.22620293489667359 0 0.35605297252967388 -0.2299788328028104 0 0.3695981637227817 -0.22620293489667359 0 0.36157309947191812 -0.2492025193231692 0 0.3695981637227817 -0.22620293489667359 0 0.36157309947191812 -0.2492025193231692 0 0.38338999904444448 -0.23946047744273499 0 0.38338999904444448 -0.23946047744273499 0 0.39418586787487842 -0.223667239266333 0 0.41130646495824041 -0.24149615127211599 0 0.41130646495824041 -0.24149615127211599 0 0.39478593215580748 -0.25482634430477252 0 0.38338999904444448 -0.23946047744273499 0 0.41130646495824041 -0.24149615127211599 0 0.39478593215580748 -0.25482634430477252 0 0.39418586787487842 -0.223667239266333 0 0.40921677587414529 -0.2166621758580132 0 0.41130646495824041 -0.24149615127211599 0 0.3695981637227817 -0.22620293489667359 0 0.38338999904444448 -0.23946047744273499 0 0.39418586787487842 -0.223667239266333 0 0.3695981637227817 -0.22620293489667359 0 0.39418586787487842 -0.223667239266333 0 0.38168159881004549 -0.2025469463892256 0 0.38168159881004549 -0.2025469463892256 0 0.38467216062135429 -0.1820530654775514 0 0.39959945652765178 -0.18658584064483211 0 0.37420468499055343 -0.1902830336527844 0 0.38168159881004549 -0.2025469463892256 0 0.38467216062135429 -0.1820530654775514 0 0.38168159881004549 -0.2025469463892256 0 0.40410037980863711 -0.20185859959043531 0 0.39959945652765178 -0.18658584064483211 0 0.39418586787487842 -0.223667239266333 0 0.38168159881004549 -0.2025469463892256 0 0.40410037980863711 -0.20185859959043531 0 0.39418586787487842 -0.223667239266333 0 0.40410037980863711 -0.20185859959043531 0 0.40921677587414529 -0.2166621758580132 0 0.40921677587414529 -0.2166621758580132 0 0.41801633415683431 -0.2068767332136385 0 0.42568151491355921 -0.2190634197419763 0 0.40410037980863711 -0.20185859959043531 0 0.40921677587414529 -0.2166621758580132 0 0.41801633415683431 -0.2068767332136385 0 0.40410037980863711 -0.20185859959043531 0 0.41923981585166209 -0.19267081108226061 0 0.39959945652765178 -0.18658584064483211 0 0.40410037980863711 -0.20185859959043531 0 0.41801633415683431 -0.2068767332136385 0 0.41923981585166209 -0.19267081108226061 0 0.41923981585166209 -0.19267081108226061 0 0.43184318433616792 -0.20412865979550721 0 0.43440214263584909 -0.18333107006153371 0 0.43184318433616792 -0.20412865979550721 0 0.43440214263584909 -0.18333107006153371 0 0.44623747155662208 -0.19805441275942229 0 0.41801633415683431 -0.2068767332136385 0 0.41923981585166209 -0.19267081108226061 0 0.43184318433616792 -0.20412865979550721 0 0.43184318433616792 -0.20412865979550721 0 0.42568151491355921 -0.2190634197419763 0 0.44720047239836191 -0.21864936445877001 0 0.41801633415683431 -0.2068767332136385 0 0.43184318433616792 -0.20412865979550721 0 0.42568151491355921 -0.2190634197419763 0 0.42568151491355921 -0.2190634197419763 0 0.43414118461746948 -0.23455888656827209 0 0.41130646495824041 -0.24149615127211599 0 0.42568151491355921 -0.2190634197419763 0 0.43414118461746948 -0.23455888656827209 0 0.44720047239836191 -0.21864936445877001 0 0.43414118461746948 -0.23455888656827209 0 0.41130646495824041 -0.24149615127211599 0 0.43120337734240588 -0.2521169601958978 0 0.40921677587414529 -0.2166621758580132 0 0.42568151491355921 -0.2190634197419763 0 0.41130646495824041 -0.24149615127211599 0 0.40001871730450089 -0.1186308914517533 0 0.38386539280285759 -0.13985525743885599 0 0.40001871730450089 -0.1186308914517533 0 0.38386539280285759 -0.13985525743885599 0 0.40845501384710092 -0.14856737431312689 0 0.37980056132956119 -0.1177274467991231 0 0.40001871730450089 -0.1186308914517533 0 0.38386539280285759 -0.13985525743885599 0 0.37980056132956119 -0.1177274467991231 0 0.36402046198743698 -0.13030513340288319 0 0.38386539280285759 -0.13985525743885599 0 0.36771206830121428 -0.1610796234259588 0 0.38386539280285759 -0.13985525743885599 0 0.36771206830121428 -0.1610796234259588 0 0.38386539280285759 -0.13985525743885599 0 0.3867565694027138 -0.15842564619719049 0 0.38386539280285759 -0.13985525743885599 0 0.3867565694027138 -0.15842564619719049 0 0.40845501384710092 -0.14856737431312689 0 0.39508877966358719 -0.17326032607904571 0 0.41347760640998149 -0.17476931244383631 0 0.40845501384710092 -0.14856737431312689 0 0.3867565694027138 -0.15842564619719049 0 0.39508877966358719 -0.17326032607904571 0 0.40845501384710092 -0.14856737431312689 0 0.36771206830121428 -0.1610796234259588 0 0.3867565694027138 -0.15842564619719049 0 0.37866159239880898 -0.1693656497289652 0 0.3867565694027138 -0.15842564619719049 0 0.37866159239880898 -0.1693656497289652 0 0.39508877966358719 -0.17326032607904571 0 0.3685569238766232 -0.17873836144299921 0 0.37420468499055343 -0.1902830336527844 0 0.38467216062135429 -0.1820530654775514 0 0.3685569238766232 -0.17873836144299921 0 0.37866159239880898 -0.1693656497289652 0 0.38467216062135429 -0.1820530654775514 0 0.37866159239880898 -0.1693656497289652 0 0.38467216062135429 -0.1820530654775514 0 0.39508877966358719 -0.17326032607904571 0 0.39508877966358719 -0.17326032607904571 0 0.39959945652765178 -0.18658584064483211 0 0.41347760640998149 -0.17476931244383631 0 0.38467216062135429 -0.1820530654775514 0 0.39508877966358719 -0.17326032607904571 0 0.39959945652765178 -0.18658584064483211 0 0.41923981585166209 -0.19267081108226061 0 0.39959945652765178 -0.18658584064483211 0 0.41347760640998149 -0.17476931244383631 0 0.41923981585166209 -0.19267081108226061 0 0.41347760640998149 -0.17476931244383631 0 0.43440214263584909 -0.18333107006153371 0 0.41347760640998149 -0.17476931244383631 0 0.43440214263584909 -0.18333107006153371 0 0.42657730031076091 -0.16258372677576269 0 0.43440214263584909 -0.18333107006153371 0 0.42657730031076091 -0.16258372677576269 0 0.4419698557000391 -0.1680824515037404 0 0.42657730031076091 -0.16258372677576269 0 0.44142024043006522 -0.15318716480246991 0 0.4419698557000391 -0.1680824515037404 0 0.41347760640998149 -0.17476931244383631 0 0.42657730031076091 -0.16258372677576269 0 0.40845501384710092 -0.14856737431312689 0 0.42657730031076091 -0.16258372677576269 0 0.43072509143284882 -0.1465300548284417 0 0.44142024043006522 -0.15318716480246991 0 0.40845501384710092 -0.14856737431312689 0 0.43072509143284882 -0.1465300548284417 0 0.42805281342571361 -0.13249761701672449 0 0.42657730031076091 -0.16258372677576269 0 0.40845501384710092 -0.14856737431312689 0 0.43072509143284882 -0.1465300548284417 0 0.43072509143284882 -0.1465300548284417 0 0.42805281342571361 -0.13249761701672449 0 0.44072382245935898 -0.1380812744377054 0 0.42805281342571361 -0.13249761701672449 0 0.43926187276642198 -0.12549397117413871 0 0.44072382245935898 -0.1380812744377054 0 0.41782917965024757 -0.1223179694886625 0 0.40845501384710092 -0.14856737431312689 0 0.41782917965024757 -0.1223179694886625 0 0.40001871730450089 -0.1186308914517533 0 0.40845501384710092 -0.14856737431312689 0 0.41782917965024757 -0.1223179694886625 0 0.40845501384710092 -0.14856737431312689 0 0.42805281342571361 -0.13249761701672449 0 0.46603305814036872 -0.13249713390087281 0 0.45121471096082139 -0.12760653268975669 0 0.454841424291967 -0.14379965778814641 0 0.46603305814036872 -0.13249713390087281 0 0.454841424291967 -0.14379965778814641 0 0.46712385728266642 -0.14323647633249359 0 0.45121471096082139 -0.12760653268975669 0 0.44072382245935898 -0.1380812744377054 0 0.454841424291967 -0.14379965778814641 0 0.45121471096082139 -0.12760653268975669 0 0.43926187276642198 -0.12549397117413871 0 0.44072382245935898 -0.1380812744377054 0 0.44072382245935898 -0.1380812744377054 0 0.44142024043006522 -0.15318716480246991 0 0.454841424291967 -0.14379965778814641 0 0.44142024043006522 -0.15318716480246991 0 0.454841424291967 -0.14379965778814641 0 0.45417278944861889 -0.16030722001162501 0 0.43072509143284882 -0.1465300548284417 0 0.44072382245935898 -0.1380812744377054 0 0.44142024043006522 -0.15318716480246991 0 0.454841424291967 -0.14379965778814641 0 0.46680346001803202 -0.15359978440735689 0 0.45417278944861889 -0.16030722001162501 0 0.454841424291967 -0.14379965778814641 0 0.46712385728266642 -0.14323647633249359 0 0.46680346001803202 -0.15359978440735689 0 0.45417278944861889 -0.16030722001162501 0 0.4529024431533844 -0.17896291268937631 0 0.47075835388236598 -0.17020019187767041 0 0.46680346001803202 -0.15359978440735689 0 0.45417278944861889 -0.16030722001162501 0 0.47075835388236598 -0.17020019187767041 0 0.45417278944861889 -0.16030722001162501 0 0.4419698557000391 -0.1680824515037404 0 0.4529024431533844 -0.17896291268937631 0 0.44142024043006522 -0.15318716480246991 0 0.45417278944861889 -0.16030722001162501 0 0.4419698557000391 -0.1680824515037404 0 0.43440214263584909 -0.18333107006153371 0 0.4419698557000391 -0.1680824515037404 0 0.4529024431533844 -0.17896291268937631 0 0.43440214263584909 -0.18333107006153371 0 0.4529024431533844 -0.17896291268937631 0 0.44623747155662208 -0.19805441275942229 0 0.4529024431533844 -0.17896291268937631 0 0.47075835388236598 -0.17020019187767041 0 0.46682888860557881 -0.19251607453394251 0 0.48477125504473811 -0.18341770877143229 0 0.47075835388236598 -0.17020019187767041 0 0.46682888860557881 -0.19251607453394251 0 0.48477125504473811 -0.18341770877143229 0 0.48502420562912912 -0.16766236343047439 0 0.47075835388236598 -0.17020019187767041 0 0.48477125504473811 -0.18341770877143229 0 0.48502420562912912 -0.16766236343047439 0 0.49999999999999989 -0.1715732049578724 0 0.48477125504473811 -0.18341770877143229 0 0.49999999999999989 -0.1715732049578724 0 0.5 -0.19842577851869489 0 0.49999999999999989 -0.1715732049578724 0 0.48992783800287271 -0.1564641190108062 0 0.49638734237989168 -0.14886861704961321 0 0.49999999999999989 -0.1715732049578724 0 0.49638734237989168 -0.14886861704961321 0 0.48502420562912912 -0.16766236343047439 0 0.49999999999999989 -0.1715732049578724 0 0.48992783800287271 -0.1564641190108062 0 0.48502420562912912 -0.16766236343047439 0 0.48992783800287271 -0.1564641190108062 0 0.47966358121566882 -0.15665659253459069 0 0.46680346001803202 -0.15359978440735689 0 0.47966358121566882 -0.15665659253459069 0 0.47075835388236598 -0.17020019187767041 0 0.48502420562912912 -0.16766236343047439 0 0.47966358121566882 -0.15665659253459069 0 0.47075835388236598 -0.17020019187767041 0 0.46680346001803202 -0.15359978440735689 0 0.47966358121566882 -0.15665659253459069 0 0.47444318017135417 -0.1481174431690111 0 0.46712385728266642 -0.14323647633249359 0 0.47444318017135417 -0.1481174431690111 0 0.47603571291654689 -0.14046717258867911 0 0.46712385728266642 -0.14323647633249359 0 0.46680346001803202 -0.15359978440735689 0 0.47444318017135417 -0.1481174431690111 0 0.48385806398632558 -0.14777659507773441 0 0.48576159720357548 -0.14154708639396271 0 0.47603571291654689 -0.14046717258867911 0 0.47444318017135417 -0.1481174431690111 0 0.48385806398632558 -0.14777659507773441 0 0.47603571291654689 -0.14046717258867911 0 0.47966358121566882 -0.15665659253459069 0 0.47444318017135417 -0.1481174431690111 0 0.48385806398632558 -0.14777659507773441 0 0.48992783800287271 -0.1564641190108062 0 0.49638734237989168 -0.14886861704961321 0 0.49018336754295933 -0.14693077980066649 0 0.49999999999999989 -0.1715732049578724 0 0.5 -0.1464790456597875 0 0.49638734237989168 -0.14886861704961321 0 0.48992783800287271 -0.1564641190108062 0 0.47966358121566882 -0.15665659253459069 0 0.48385806398632558 -0.14777659507773441 0 0.48992783800287271 -0.1564641190108062 0 0.48385806398632558 -0.14777659507773441 0 0.49018336754295933 -0.14693077980066649 0 0.49638734237989168 -0.14886861704961321 0 0.49018336754295933 -0.14693077980066649 0 0.49037531410474411 -0.1396456395315217 0 0.49018336754295933 -0.14693077980066649 0 0.48576159720357548 -0.14154708639396271 0 0.49037531410474411 -0.1396456395315217 0 0.48385806398632558 -0.14777659507773441 0 0.49018336754295933 -0.14693077980066649 0 0.48576159720357548 -0.14154708639396271 0 0.5 -0.1464790456597875 0 0.49638734237989168 -0.14886861704961321 0 0.49277468475978359 -0.12616402914135411 0 0.49638734237989168 -0.14886861704961321 0 0.49037531410474411 -0.1396456395315217 0 0.49277468475978359 -0.12616402914135411 0 0.49638734237989168 -0.14886861704961321 0 0.49277468475978359 -0.12616402914135411 0 0.5 -0.1213848863617026 0 0.5 -0.1464790456597875 0 0.49277468475978359 -0.12616402914135411 0 0.48530706931668549 -0.13498589898472019 0 0.49037531410474411 -0.1396456395315217 0 0.49277468475978359 -0.12616402914135411 0 0.48576159720357548 -0.14154708639396271 0 0.48530706931668549 -0.13498589898472019 0 0.49037531410474411 -0.1396456395315217 0 0.48530706931668549 -0.13498589898472019 0 0.49277468475978359 -0.12616402914135411 0 0.48350878601982578 -0.12670694884668229 0 0.47504955140379312 -0.12213913943755771 0 0.47718683555944408 -0.13135925875170251 0 0.48350878601982578 -0.12670694884668229 0 0.48530706931668549 -0.13498589898472019 0 0.47718683555944408 -0.13135925875170251 0 0.48350878601982578 -0.12670694884668229 0 0.48576159720357548 -0.14154708639396271 0 0.48530706931668549 -0.13498589898472019 0 0.47603571291654689 -0.14046717258867911 0 0.48530706931668549 -0.13498589898472019 0 0.47718683555944408 -0.13135925875170251 0 0.47603571291654689 -0.14046717258867911 0 0.46603305814036872 -0.13249713390087281 0 0.46712385728266642 -0.14323647633249359 0 0.47603571291654689 -0.14046717258867911 0 0.46603305814036872 -0.13249713390087281 0 0.47718683555944408 -0.13135925875170251 0 0.47603571291654689 -0.14046717258867911 0 0.47504955140379312 -0.12213913943755771 0 0.46603305814036872 -0.13249713390087281 0 0.47718683555944408 -0.13135925875170251 0 0.45531409347478041 -0.2414685371726005 0 0.44720047239836191 -0.21864936445877001 0 0.47037738343509511 -0.21672492634011939 0 0.45531409347478041 -0.2414685371726005 0 0.47037738343509511 -0.21672492634011939 0 0.47933194349078262 -0.23780742376808089 0 0.45531409347478041 -0.2414685371726005 0 0.47933194349078262 -0.23780742376808089 0 0.47068472795882121 -0.2690410685087038 0 0.43414118461746948 -0.23455888656827209 0 0.45531409347478041 -0.2414685371726005 0 0.43120337734240588 -0.2521169601958978 0 0.43414118461746948 -0.23455888656827209 0 0.45531409347478041 -0.2414685371726005 0 0.44720047239836191 -0.21864936445877001 0 0.43184318433616792 -0.20412865979550721 0 0.44720047239836191 -0.21864936445877001 0 0.44623747155662208 -0.19805441275942229 0 0.44720047239836191 -0.21864936445877001 0 0.44623747155662208 -0.19805441275942229 0 0.45766105399891438 -0.20648619452306349 0 0.4529024431533844 -0.17896291268937631 0 0.44623747155662208 -0.19805441275942229 0 0.46682888860557881 -0.19251607453394251 0 0.44623747155662208 -0.19805441275942229 0 0.46682888860557881 -0.19251607453394251 0 0.45766105399891438 -0.20648619452306349 0 0.46682888860557881 -0.19251607453394251 0 0.45766105399891438 -0.20648619452306349 0 0.47037738343509511 -0.21672492634011939 0 0.44720047239836191 -0.21864936445877001 0 0.45766105399891438 -0.20648619452306349 0 0.47037738343509511 -0.21672492634011939 0 0.47037738343509511 -0.21672492634011939 0 0.48239302876087281 -0.20097525063616001 0 0.5 -0.22527835207951741 0 0.46682888860557881 -0.19251607453394251 0 0.47037738343509511 -0.21672492634011939 0 0.48239302876087281 -0.20097525063616001 0 0.48477125504473811 -0.18341770877143229 0 0.46682888860557881 -0.19251607453394251 0 0.48239302876087281 -0.20097525063616001 0 0.48477125504473811 -0.18341770877143229 0 0.48239302876087281 -0.20097525063616001 0 0.5 -0.19842577851869489 0 0.48239302876087281 -0.20097525063616001 0 0.5 -0.19842577851869489 0 0.5 -0.22527835207951741 0 0.47037738343509511 -0.21672492634011939 0 0.5 -0.22527835207951741 0 0.47933194349078262 -0.23780742376808089 0 0.5 -0.22527835207951741 0 0.47933194349078262 -0.23780742376808089 0 0.5 -0.2521309256403399 0 0.5 -0.2521309256403399 0 0.5 -0.27898349920116239 0 0.47068472795882121 -0.2690410685087038 0 0.5 -0.27898349920116239 0 0.47068472795882121 -0.2690410685087038 0 0.47867914136981993 -0.29278468906198651 0 0.47933194349078262 -0.23780742376808089 0 0.5 -0.2521309256403399 0 0.47068472795882121 -0.2690410685087038 0 0.45531409347478041 -0.2414685371726005 0 0.47068472795882121 -0.2690410685087038 0 0.4471387477793014 -0.26570866752112349 0 0.47068472795882121 -0.2690410685087038 0 0.4471387477793014 -0.26570866752112349 0 0.44677187983569072 -0.28869845382727399 0 0.4471387477793014 -0.26570866752112349 0 0.44677187983569072 -0.28869845382727399 0 0.42447378002309932 -0.27290330230145771 0 0.45531409347478041 -0.2414685371726005 0 0.4471387477793014 -0.26570866752112349 0 0.43120337734240588 -0.2521169601958978 0 0.47068472795882121 -0.2690410685087038 0 0.44677187983569072 -0.28869845382727399 0 0.47867914136981993 -0.29278468906198651 0 0.44677187983569072 -0.28869845382727399 0 0.46336646095250023 -0.31099941062157122 0 0.47867914136981993 -0.29278468906198651 0 0.44529497620684588 -0.30935321934237647 0 0.44677187983569072 -0.28869845382727399 0 0.43233668826842447 -0.30341120226768142 0 0.44529497620684588 -0.30935321934237647 0 0.44677187983569072 -0.28869845382727399 0 0.46336646095250023 -0.31099941062157122 0 0.44677187983569072 -0.28869845382727399 0 0.46336646095250023 -0.31099941062157122 0 0.46336646095250023 -0.31099941062157122 0 0.47867914136981993 -0.29278468906198651 0 0.48248389549510301 -0.31409840680216922 0 0.5 -0.27898349920116239 0 0.47867914136981993 -0.29278468906198651 0 0.5 -0.30583607276198488 0 0.47867914136981993 -0.29278468906198651 0 0.5 -0.30583607276198488 0 0.48248389549510301 -0.31409840680216922 0 0.5 -0.30583607276198488 0 0.5 -0.33268864632280742 0 0.48248389549510301 -0.31409840680216922 0 0.5 -0.33268864632280742 0 0.47996104206930962 -0.33330036741586833 0 0.48248389549510301 -0.31409840680216922 0 0.5 -0.33268864632280742 0 0.47996104206930962 -0.33330036741586833 0 0.49655562318611912 -0.35560132421016549 0 0.47996104206930962 -0.33330036741586833 0 0.47243242050725448 -0.35461336052016867 0 0.46077897502666931 -0.33749544428160477 0 0.46336646095250023 -0.31099941062157122 0 0.47996104206930962 -0.33330036741586833 0 0.46336646095250023 -0.31099941062157122 0 0.47996104206930962 -0.33330036741586833 0 0.48248389549510301 -0.31409840680216922 0 0.50000000000000067 -0.35954121988362991 0 0.47935973618787581 -0.37439579939549439 0 0.5 -0.38761270593065711 0 0.50000000000000067 -0.35954121988362991 0 0.47935973618787581 -0.37439579939549439 0 0.50000000000000067 -0.35954121988362991 0 0.49655562318611912 -0.35560132421016549 0 0.47935973618787581 -0.37439579939549439 0 0.5 -0.33268864632280742 0 0.50000000000000067 -0.35954121988362991 0 0.49655562318611912 -0.35560132421016549 0 0.47996104206930962 -0.33330036741586833 0 0.49655562318611912 -0.35560132421016549 0 0.47996104206930962 -0.33330036741586833 0 0.49655562318611912 -0.35560132421016549 0 0.47243242050725448 -0.35461336052016867 0 0.47243242050725448 -0.35461336052016867 0 0.47935973618787581 -0.37439579939549439 0 0.45860641197244301 -0.37187482402558342 0 0.49655562318611912 -0.35560132421016549 0 0.47243242050725448 -0.35461336052016867 0 0.47935973618787581 -0.37439579939549439 0 0.47243242050725448 -0.35461336052016867 0 0.45860641197244301 -0.37187482402558342 0 0.45305497467800931 -0.35618908365617369 0 0.47243242050725448 -0.35461336052016867 0 0.45305497467800931 -0.35618908365617369 0 0.46077897502666931 -0.33749544428160477 0 0.45305497467800931 -0.35618908365617369 0 0.4452201162740369 -0.34381565356629562 0 0.46077897502666931 -0.33749544428160477 0 0.45305497467800931 -0.35618908365617369 0 0.4452201162740369 -0.34381565356629562 0 0.4366654950034709 -0.3585190098671342 0 0.4452201162740369 -0.34381565356629562 0 0.4366654950034709 -0.3585190098671342 0 0.43227833040643771 -0.34556955406644541 0 0.45860641197244301 -0.37187482402558342 0 0.45305497467800931 -0.35618908365617369 0 0.44414489759694348 -0.37036699331155198 0 0.45305497467800931 -0.35618908365617369 0 0.44414489759694348 -0.37036699331155198 0 0.4366654950034709 -0.3585190098671342 0 0.44414489759694348 -0.37036699331155198 0 0.43411103693773873 -0.37092250397252041 0 0.4366654950034709 -0.3585190098671342 0 0.44414489759694348 -0.37036699331155198 0 0.43411103693773873 -0.37092250397252041 0 0.4368988214418047 -0.37849012458599318 0 0.46336646095250023 -0.31099941062157122 0 0.46077897502666931 -0.33749544428160477 0 0.44845271969336609 -0.32527466552968948 0 0.46336646095250023 -0.31099941062157122 0 0.47996104206930962 -0.33330036741586833 0 0.46077897502666931 -0.33749544428160477 0 0.4452201162740369 -0.34381565356629562 0 0.46077897502666931 -0.33749544428160477 0 0.44845271969336609 -0.32527466552968948 0 0.4452201162740369 -0.34381565356629562 0 0.43789176670069141 -0.33200151016254709 0 0.44845271969336609 -0.32527466552968948 0 0.4452201162740369 -0.34381565356629562 0 0.43789176670069141 -0.33200151016254709 0 0.43227833040643771 -0.34556955406644541 0 0.43789176670069141 -0.33200151016254709 0 0.44845271969336609 -0.32527466552968948 0 0.43254883021824408 -0.31923279248549302 0 0.44529497620684588 -0.30935321934237647 0 0.44845271969336609 -0.32527466552968948 0 0.43254883021824408 -0.31923279248549302 0 0.44529497620684588 -0.30935321934237647 0 0.46336646095250023 -0.31099941062157122 0 0.44845271969336609 -0.32527466552968948 0 0.43789176670069141 -0.33200151016254709 0 0.43254883021824408 -0.31923279248549302 0 0.42184659352003828 -0.32724135646244451 0 0.43254883021824408 -0.31923279248549302 0 0.41975568048271772 -0.31905304679062318 0 0.42253407270533322 -0.31143751472203912 0 0.43254883021824408 -0.31923279248549302 0 0.41975568048271772 -0.31905304679062318 0 0.42184659352003828 -0.32724135646244451 0 0.43789176670069141 -0.33200151016254709 0 0.4257106647415243 -0.3371971098622108 0 0.42184659352003828 -0.32724135646244451 0 0.43789176670069141 -0.33200151016254709 0 0.4257106647415243 -0.3371971098622108 0 0.43227833040643771 -0.34556955406644541 0 0.4257106647415243 -0.3371971098622108 0 0.4205863927478703 -0.34373589225736179 0 0.43227833040643771 -0.34556955406644541 0 0.4257106647415243 -0.3371971098622108 0 0.4125284729318866 -0.33593088702530738 0 0.42184659352003828 -0.32724135646244451 0 0.4257106647415243 -0.3371971098622108 0 0.4205863927478703 -0.34373589225736179 0 0.4125284729318866 -0.33593088702530738 0 0.4205863927478703 -0.34373589225736179 0 0.4125284729318866 -0.33593088702530738 0 0.40835661436514431 -0.34598399040517691 0 0.4125284729318866 -0.33593088702530738 0 0.40835661436514431 -0.34598399040517691 0 0.3993626358780068 -0.34168963075492842 0 0.4125284729318866 -0.33593088702530738 0 0.40835661436514431 -0.34598399040517691 0 0.4125284729318866 -0.33593088702530738 0 0.40707051394932697 -0.3263477336793561 0 0.3993626358780068 -0.34168963075492842 0 0.4125284729318866 -0.33593088702530738 0 0.40707051394932697 -0.3263477336793561 0 0.42184659352003828 -0.32724135646244451 0 0.40707051394932697 -0.3263477336793561 0 0.40350641813129812 -0.31494991173736392 0 0.41477839202064581 -0.311005836603783 0 0.40707051394932697 -0.3263477336793561 0 0.41975568048271772 -0.31905304679062318 0 0.41477839202064581 -0.311005836603783 0 0.40707051394932697 -0.3263477336793561 0 0.41477839202064581 -0.311005836603783 0 0.41975568048271772 -0.31905304679062318 0 0.42253407270533322 -0.31143751472203912 0 0.41477839202064581 -0.311005836603783 0 0.40707051394932697 -0.3263477336793561 0 0.41975568048271772 -0.31905304679062318 0 0.42184659352003828 -0.32724135646244451 0 0.42445476644138141 -0.36802342435757729 0 0.43411103693773873 -0.37092250397252041 0 0.42839120420509302 -0.37921296774034507 0 0.42445476644138141 -0.36802342435757729 0 0.43411103693773873 -0.37092250397252041 0 0.4366654950034709 -0.3585190098671342 0 0.42445476644138141 -0.36802342435757729 0 0.42331467421942692 -0.35312602313030439 0 0.4366654950034709 -0.3585190098671342 0 0.42331467421942692 -0.35312602313030439 0 0.4366654950034709 -0.3585190098671342 0 0.43227833040643771 -0.34556955406644541 0 0.4205863927478703 -0.34373589225736179 0 0.42331467421942692 -0.35312602313030439 0 0.43227833040643771 -0.34556955406644541 0 0.40835661436514431 -0.34598399040517691 0 0.41138196649821429 -0.35917609135897272 0 0.40023553439847259 -0.36555369900265772 0 0.42331467421942692 -0.35312602313030439 0 0.40835661436514431 -0.34598399040517691 0 0.4205863927478703 -0.34373589225736179 0 0.42331467421942692 -0.35312602313030439 0 0.40835661436514431 -0.34598399040517691 0 0.42331467421942692 -0.35312602313030439 0 0.41138196649821429 -0.35917609135897272 0 0.41552111697059552 -0.36521945478387968 0 0.42331467421942692 -0.35312602313030439 0 0.40835661436514431 -0.34598399040517691 0 0.41138196649821429 -0.35917609135897272 0 0.42445476644138141 -0.36802342435757729 0 0.42331467421942692 -0.35312602313030439 0 0.41552111697059552 -0.36521945478387968 0 0.41138196649821429 -0.35917609135897272 0 0.40867868029407789 -0.36606012091925361 0 0.40023553439847259 -0.36555369900265772 0 0.41138196649821429 -0.35917609135897272 0 0.41552111697059552 -0.36521945478387968 0 0.40867868029407789 -0.36606012091925361 0 0.40829401237915658 -0.37040808280654119 0 0.41368050551153013 -0.37186308396378281 0 0.4095682668783947 -0.37830497804368818 0 0.41552111697059552 -0.36521945478387968 0 0.40867868029407789 -0.36606012091925361 0 0.41368050551153013 -0.37186308396378281 0 0.40829401237915658 -0.37040808280654119 0 0.40479298879909548 -0.37243334149499718 0 0.4095682668783947 -0.37830497804368818 0 0.40867868029407789 -0.36606012091925361 0 0.40829401237915658 -0.37040808280654119 0 0.41368050551153013 -0.37186308396378281 0 0.40867868029407789 -0.36606012091925361 0 0.40829401237915658 -0.37040808280654119 0 0.40460799250252588 -0.36798922235593973 0 0.42445476644138141 -0.36802342435757729 0 0.41552111697059552 -0.36521945478387968 0 0.41368050551153013 -0.37186308396378281 0 0.42445476644138141 -0.36802342435757729 0 0.41368050551153013 -0.37186308396378281 0 0.41918050134732188 -0.37852246208793611 0 0.40023553439847259 -0.36555369900265772 0 0.38684697606499452 -0.36660102178985599 0 0.38845109995970079 -0.37830947830900941 0 0.40479298879909548 -0.37243334149499718 0 0.40023553439847259 -0.36555369900265772 0 0.40172642143194781 -0.37944721760464523 0 0.40479298879909548 -0.37243334149499718 0 0.40460799250252588 -0.36798922235593973 0 0.40023553439847259 -0.36555369900265772 0 0.40829401237915658 -0.37040808280654119 0 0.40479298879909548 -0.37243334149499718 0 0.40460799250252588 -0.36798922235593973 0 0.40867868029407789 -0.36606012091925361 0 0.40460799250252588 -0.36798922235593973 0 0.40023553439847259 -0.36555369900265772 0 0.40023553439847259 -0.36555369900265772 0 0.38684697606499452 -0.36660102178985599 0 0.40835661436514431 -0.34598399040517691 0 0.40023553439847259 -0.36555369900265772 0 0.40835661436514431 -0.34598399040517691 0 0.40023553439847259 -0.36555369900265772 0 0.3993626358780068 -0.34168963075492842 0 0.38684697606499452 -0.36660102178985599 0 0.3993626358780068 -0.34168963075492842 0 0.40023553439847259 -0.36555369900265772 0 0.38684697606499452 -0.36660102178985599 0 0.3993626358780068 -0.34168963075492842 0 0.40835661436514431 -0.34598399040517691 0 0.3993626358780068 -0.34168963075492842 0 0.38238154859213408 -0.34994939341446818 0 0.38684697606499452 -0.36660102178985599 0 0.3993626358780068 -0.34168963075492842 0 0.38684697606499452 -0.36660102178985599 0 0.37628804874910649 -0.38761769779457628 0 0.36914771870704671 -0.36798554991348331 0 0.38238154859213408 -0.34994939341446818 0 0.38684697606499452 -0.36660102178985599 0 0.36914771870704671 -0.36798554991348331 0 0.38684697606499452 -0.36660102178985599 0 0.36914771870704671 -0.36798554991348331 0 0.39132151908851642 -0.31903656580036988 0 0.39938993315929677 -0.32245359640506249 0 0.39563259288176728 -0.329336712948056 0 0.39132151908851642 -0.31903656580036988 0 0.40350641813129812 -0.31494991173736392 0 0.39947744745311542 -0.30370800267814352 0 0.39132151908851642 -0.31903656580036988 0 0.40350641813129812 -0.31494991173736392 0 0.39938993315929677 -0.32245359640506249 0 0.40707051394932697 -0.3263477336793561 0 0.39938993315929677 -0.32245359640506249 0 0.39563259288176728 -0.329336712948056 0 0.40707051394932697 -0.3263477336793561 0 0.40350641813129812 -0.31494991173736392 0 0.39938993315929677 -0.32245359640506249 0 0.40707051394932697 -0.3263477336793561 0 0.3993626358780068 -0.34168963075492842 0 0.39563259288176728 -0.329336712948056 0 0.40707051394932697 -0.3263477336793561 0 0.3993626358780068 -0.34168963075492842 0 0.3993626358780068 -0.34168963075492842 0 0.39563259288176728 -0.329336712948056 0 0.38072235236213958 -0.33278944475668432 0 0.38238154859213408 -0.34994939341446818 0 0.3993626358780068 -0.34168963075492842 0 0.38072235236213958 -0.33278944475668432 0 0.38238154859213408 -0.34994939341446818 0 0.38072235236213958 -0.33278944475668432 0 0.36561489377665718 -0.34593740433596271 0 0.3993626358780068 -0.34168963075492842 0 0.38072235236213958 -0.33278944475668432 0 0.39132151908851642 -0.31903656580036988 0 0.38072235236213958 -0.33278944475668432 0 0.37336889936850559 -0.31947899961008203 0 0.39132151908851642 -0.31903656580036988 0 0.38215160193259651 -0.30953338997286778 0 0.37336889936850559 -0.31947899961008203 0 0.39132151908851642 -0.31903656580036988 0 0.39563259288176728 -0.329336712948056 0 0.38072235236213958 -0.33278944475668432 0 0.38215160193259651 -0.30953338997286778 0 0.37016932155194721 -0.30946489114149578 0 0.37336889936850559 -0.31947899961008203 0 0.39947744745311542 -0.30370800267814352 0 0.37642082220089768 -0.2959784906342478 0 0.38215160193259651 -0.30953338997286778 0 0.39947744745311542 -0.30370800267814352 0 0.37642082220089768 -0.2959784906342478 0 0.38215160193259651 -0.30953338997286778 0 0.37642082220089768 -0.2959784906342478 0 0.37016932155194721 -0.30946489114149578 0 0.39947744745311542 -0.30370800267814352 0 0.3951942215517249 -0.28737912518850572 0 0.41212304375007652 -0.30660171303958128 0 0.3951942215517249 -0.28737912518850572 0 0.41212304375007652 -0.30660171303958128 0 0.39132151908851642 -0.31903656580036988 0 0.38215160193259651 -0.30953338997286778 0 0.39947744745311542 -0.30370800267814352 0 0.40350641813129812 -0.31494991173736392 0 0.39947744745311542 -0.30370800267814352 0 0.41477839202064581 -0.311005836603783 0 0.3951942215517249 -0.28737912518850572 0 0.40310433301186399 -0.27100096265051821 0 0.41195249867961331 -0.28971721647423238 0 0.39947744745311542 -0.30370800267814352 0 0.3951942215517249 -0.28737912518850572 0 0.37642082220089768 -0.2959784906342478 0 0.3951942215517249 -0.28737912518850572 0 0.37642082220089768 -0.2959784906342478 0 0.3782298036702354 -0.28298921229491808 0 0.3951942215517249 -0.28737912518850572 0 0.37826539935337461 -0.26815653733742911 0 0.3951942215517249 -0.28737912518850572 0 0.3782298036702354 -0.28298921229491808 0 0.37826539935337461 -0.26815653733742911 0 0.38338999904444448 -0.23946047744273499 0 0.37826539935337461 -0.26815653733742911 0 0.39478593215580748 -0.25482634430477252 0 0.37826539935337461 -0.26815653733742911 0 0.39478593215580748 -0.25482634430477252 0 0.39478593215580748 -0.25482634430477252 0 0.40310433301186399 -0.27100096265051821 0 0.41297477749828337 -0.25846874414495241 0 0.37826539935337461 -0.26815653733742911 0 0.39478593215580748 -0.25482634430477252 0 0.40310433301186399 -0.27100096265051821 0 0.3951942215517249 -0.28737912518850572 0 0.37826539935337461 -0.26815653733742911 0 0.40310433301186399 -0.27100096265051821 0 0.40310433301186399 -0.27100096265051821 0 0.41297477749828337 -0.25846874414495241 0 0.42447378002309932 -0.27290330230145771 0 0.40310433301186399 -0.27100096265051821 0 0.42447378002309932 -0.27290330230145771 0 0.41195249867961331 -0.28971721647423238 0 0.41130646495824041 -0.24149615127211599 0 0.41297477749828337 -0.25846874414495241 0 0.43120337734240588 -0.2521169601958978 0 0.41130646495824041 -0.24149615127211599 0 0.39478593215580748 -0.25482634430477252 0 0.41297477749828337 -0.25846874414495241 0 0.4471387477793014 -0.26570866752112349 0 0.43120337734240588 -0.2521169601958978 0 0.42447378002309932 -0.27290330230145771 0 0.41297477749828337 -0.25846874414495241 0 0.43120337734240588 -0.2521169601958978 0 0.42447378002309932 -0.27290330230145771 0 0.44677187983569072 -0.28869845382727399 0 0.42570341793239003 -0.29098932384679538 0 0.43233668826842447 -0.30341120226768142 0 0.44677187983569072 -0.28869845382727399 0 0.42447378002309932 -0.27290330230145771 0 0.42570341793239003 -0.29098932384679538 0 0.44529497620684588 -0.30935321934237647 0 0.43254883021824408 -0.31923279248549302 0 0.43233668826842447 -0.30341120226768142 0 0.43254883021824408 -0.31923279248549302 0 0.43233668826842447 -0.30341120226768142 0 0.42253407270533322 -0.31143751472203912 0 0.43233668826842447 -0.30341120226768142 0 0.42253407270533322 -0.31143751472203912 0 0.42092994426716751 -0.30043139407006603 0 0.42570341793239003 -0.29098932384679538 0 0.43233668826842447 -0.30341120226768142 0 0.42092994426716751 -0.30043139407006603 0 0.39947744745311542 -0.30370800267814352 0 0.42253407270533322 -0.31143751472203912 0 0.41477839202064581 -0.311005836603783 0 0.42092994426716751 -0.30043139407006603 0 0.41212304375007652 -0.30660171303958128 0 0.41195249867961331 -0.28971721647423238 0 0.39947744745311542 -0.30370800267814352 0 0.42253407270533322 -0.31143751472203912 0 0.41212304375007652 -0.30660171303958128 0 0.39947744745311542 -0.30370800267814352 0 0.42253407270533322 -0.31143751472203912 0 0.42253407270533322 -0.31143751472203912 0 0.42092994426716751 -0.30043139407006603 0 0.41212304375007652 -0.30660171303958128 0 0.42447378002309932 -0.27290330230145771 0 0.42570341793239003 -0.29098932384679538 0 0.41195249867961331 -0.28971721647423238 0 0.3951942215517249 -0.28737912518850572 0 0.41212304375007652 -0.30660171303958128 0 0.41195249867961331 -0.28971721647423238 0 0.42570341793239003 -0.29098932384679538 0 0.42092994426716751 -0.30043139407006603 0 0.41195249867961331 -0.28971721647423238 0 0.44187129846782419 -0.5 0 0.48973119861021358 -0.49607759935986251 0 0.47261987389191829 -0.48159380583791922 0 0.44187129846782419 -0.5 0 0.44106023269328931 -0.47672651962107199 0 0.43267815495306988 -0.48506983855403379 0 0.44187129846782419 -0.5 0 0.44106023269328931 -0.47672651962107199 0 0.45574605150893499 -0.4761345737510852 0 0.44106023269328931 -0.47672651962107199 0 0.45574605150893499 -0.4761345737510852 0 0.45094395739650178 -0.4574642662590534 0 0.45574605150893499 -0.4761345737510852 0 0.47261987389191829 -0.48159380583791922 0 0.47187449375710322 -0.46359242374908732 0 0.44187129846782419 -0.5 0 0.45574605150893499 -0.4761345737510852 0 0.47261987389191829 -0.48159380583791922 0 0.44187129846782419 -0.5 0 0.5 -0.5 0 0.48973119861021358 -0.49607759935986251 0 0.5 -0.5 0 0.48973119861021358 -0.49607759935986251 0 0.49999999999999661 -0.47182716407173858 0 0.48973119861021358 -0.49607759935986251 0 0.49280503011770471 -0.46972058123912103 0 0.47261987389191829 -0.48159380583791922 0 0.48973119861021358 -0.49607759935986251 0 0.49280503011770471 -0.46972058123912103 0 0.48973119861021358 -0.49607759935986251 0 0.49280503011770471 -0.46972058123912103 0 0.49999999999999661 -0.47182716407173858 0 0.49280503011770471 -0.46972058123912103 0 0.49999999999999661 -0.47182716407173858 0 0.49280503011770471 -0.46972058123912103 0 0.47261987389191829 -0.48159380583791922 0 0.47187449375710322 -0.46359242374908732 0 0.49280503011770471 -0.46972058123912103 0 0.47187449375710322 -0.46359242374908732 0 0.48725851691698879 -0.45463116055928943 0 0.47187449375710322 -0.46359242374908732 0 0.47974048580737932 -0.44927775004055259 0 0.46302725979221132 -0.44990694669799858 0 0.49280503011770471 -0.46972058123912103 0 0.47187449375710322 -0.46359242374908732 0 0.47187449375710322 -0.46359242374908732 0 0.48725851691698879 -0.45463116055928943 0 0.47974048580737932 -0.44927775004055259 0 0.49280503011770471 -0.46972058123912103 0 0.49612849644047669 -0.44122303286033238 0 0.49280503011770471 -0.46972058123912103 0 0.49999999999999661 -0.47182716407173858 0 0.5 -0.4437556780247115 0 0.49280503011770471 -0.46972058123912103 0 0.48725851691698879 -0.45463116055928943 0 0.49612849644047669 -0.44122303286033238 0 0.49280503011770471 -0.46972058123912103 0 0.5 -0.4437556780247115 0 0.49612849644047669 -0.44122303286033238 0 0.49612849644047669 -0.44122303286033238 0 0.49003869161848868 -0.44068977900617151 0 0.49106997033050093 -0.43680623077694952 0 0.48725851691698879 -0.45463116055928943 0 0.49612849644047669 -0.44122303286033238 0 0.48822728736494092 -0.44553870633058162 0 0.48725851691698879 -0.45463116055928943 0 0.48822728736494092 -0.44553870633058162 0 0.47974048580737932 -0.44927775004055259 0 0.49612849644047669 -0.44122303286033238 0 0.48822728736494092 -0.44553870633058162 0 0.49003869161848868 -0.44068977900617151 0 0.48822728736494092 -0.44553870633058162 0 0.49003869161848868 -0.44068977900617151 0 0.48472901233803622 -0.43919114605682241 0 0.49003869161848868 -0.44068977900617151 0 0.48472901233803622 -0.43919114605682241 0 0.49106997033050093 -0.43680623077694952 0 0.48822728736494092 -0.44553870633058162 0 0.48472901233803622 -0.43919114605682241 0 0.47974048580737932 -0.44927775004055259 0 0.47974048580737932 -0.44927775004055259 0 0.47524597052465078 -0.44215828783762012 0 0.46302725979221132 -0.44990694669799858 0 0.48472901233803622 -0.43919114605682241 0 0.47524597052465078 -0.44215828783762012 0 0.47950008663641108 -0.43591493993930502 0 0.48472901233803622 -0.43919114605682241 0 0.47974048580737932 -0.44927775004055259 0 0.47524597052465078 -0.44215828783762012 0 0.47524597052465078 -0.44215828783762012 0 0.46302725979221132 -0.44990694669799858 0 0.46321374146398347 -0.43647343312422482 0 0.46302725979221132 -0.44990694669799858 0 0.45254684431627329 -0.43508494155804639 0 0.46321374146398347 -0.43647343312422482 0 0.47187449375710322 -0.46359242374908732 0 0.45094395739650178 -0.4574642662590534 0 0.47187449375710322 -0.46359242374908732 0 0.46302725979221132 -0.44990694669799858 0 0.45094395739650178 -0.4574642662590534 0 0.45574605150893499 -0.4761345737510852 0 0.47187449375710322 -0.46359242374908732 0 0.45094395739650178 -0.4574642662590534 0 0.45094395739650178 -0.4574642662590534 0 0.43001342103590079 -0.45133610876901831 0 0.44106023269328931 -0.47672651962107199 0 0.45094395739650178 -0.4574642662590534 0 0.43769598202098842 -0.46390443968526801 0 0.45094395739650178 -0.4574642662590534 0 0.43769598202098842 -0.46390443968526801 0 0.43001342103590079 -0.45133610876901831 0 0.45094395739650178 -0.4574642662590534 0 0.44132952392917768 -0.44365736946918582 0 0.43001342103590079 -0.45133610876901831 0 0.46302725979221132 -0.44990694669799858 0 0.45094395739650178 -0.4574642662590534 0 0.44132952392917768 -0.44365736946918582 0 0.46302725979221132 -0.44990694669799858 0 0.44132952392917768 -0.44365736946918582 0 0.45254684431627329 -0.43508494155804639 0 0.44132952392917768 -0.44365736946918582 0 0.45254684431627329 -0.43508494155804639 0 0.44420329604864622 -0.42505426368286059 0 0.44132952392917768 -0.44365736946918582 0 0.44420329604864622 -0.42505426368286059 0 0.4321171012464583 -0.43355051584202192 0 0.45254684431627329 -0.43508494155804639 0 0.44420329604864622 -0.42505426368286059 0 0.45714967956605612 -0.42506521161440031 0 0.44420329604864622 -0.42505426368286059 0 0.44237945495506031 -0.41356883902963681 0 0.43422078145701642 -0.41576492291502559 0 0.44237945495506031 -0.41356883902963681 0 0.45221745716943001 -0.41160343684072132 0 0.43807920856362431 -0.40410495841922112 0 0.44237945495506031 -0.41356883902963681 0 0.43807920856362431 -0.40410495841922112 0 0.43422078145701642 -0.41576492291502559 0 0.44420329604864622 -0.42505426368286059 0 0.45221745716943001 -0.41160343684072132 0 0.45714967956605612 -0.42506521161440031 0 0.44420329604864622 -0.42505426368286059 0 0.44237945495506031 -0.41356883902963681 0 0.45221745716943001 -0.41160343684072132 0 0.45221745716943001 -0.41160343684072132 0 0.46196102813989509 -0.41666334273252709 0 0.45714967956605612 -0.42506521161440031 0 0.45221745716943001 -0.41160343684072132 0 0.46496962182176738 -0.40820504542075081 0 0.46196102813989509 -0.41666334273252709 0 0.46496962182176738 -0.40820504542075081 0 0.46196102813989509 -0.41666334273252709 0 0.47161440459133053 -0.41506227515128991 0 0.46196102813989509 -0.41666334273252709 0 0.46583809977748009 -0.42223548109557862 0 0.45714967956605612 -0.42506521161440031 0 0.46196102813989509 -0.41666334273252709 0 0.46583809977748009 -0.42223548109557862 0 0.47161440459133053 -0.41506227515128991 0 0.46583809977748009 -0.42223548109557862 0 0.45714967956605612 -0.42506521161440031 0 0.46839739978224371 -0.43006328748763289 0 0.45254684431627329 -0.43508494155804639 0 0.45714967956605612 -0.42506521161440031 0 0.46321374146398347 -0.43647343312422482 0 0.45714967956605612 -0.42506521161440031 0 0.46321374146398347 -0.43647343312422482 0 0.46839739978224371 -0.43006328748763289 0 0.47524597052465078 -0.44215828783762012 0 0.46839739978224371 -0.43006328748763289 0 0.47580537430658371 -0.43095128639652358 0 0.47524597052465078 -0.44215828783762012 0 0.46321374146398347 -0.43647343312422482 0 0.46839739978224371 -0.43006328748763289 0 0.46583809977748009 -0.42223548109557862 0 0.46839739978224371 -0.43006328748763289 0 0.47313153305470829 -0.4234960248574498 0 0.46839739978224371 -0.43006328748763289 0 0.47580537430658371 -0.43095128639652358 0 0.47313153305470829 -0.4234960248574498 0 0.47580537430658371 -0.43095128639652358 0 0.47313153305470829 -0.4234960248574498 0 0.47907768908477988 -0.42498987993373583 0 0.47313153305470829 -0.4234960248574498 0 0.47907768908477988 -0.42498987993373583 0 0.47726500766545099 -0.41843544654142789 0 0.47580537430658371 -0.43095128639652358 0 0.47907768908477988 -0.42498987993373583 0 0.4822199893763735 -0.43135903946625381 0 0.47907768908477988 -0.42498987993373583 0 0.4822199893763735 -0.43135903946625381 0 0.48605933178714178 -0.42521348018868232 0 0.47907768908477988 -0.42498987993373583 0 0.48605933178714178 -0.42521348018868232 0 0.48295092090773201 -0.41907077564603501 0 0.47524597052465078 -0.44215828783762012 0 0.47580537430658371 -0.43095128639652358 0 0.47950008663641108 -0.43591493993930502 0 0.48472901233803622 -0.43919114605682241 0 0.47950008663641108 -0.43591493993930502 0 0.4822199893763735 -0.43135903946625381 0 0.47580537430658371 -0.43095128639652358 0 0.47950008663641108 -0.43591493993930502 0 0.4822199893763735 -0.43135903946625381 0 0.49612849644047669 -0.44122303286033238 0 0.49921991668232718 -0.41552310632800088 0 0.48472901233803622 -0.43919114605682241 0 0.4822199893763735 -0.43135903946625381 0 0.48852800798397178 -0.4314993708499707 0 0.49612849644047669 -0.44122303286033238 0 0.4949620447012904 -0.43079316197936862 0 0.49921991668232718 -0.41552310632800088 0 0.48472901233803622 -0.43919114605682241 0 0.49106997033050093 -0.43680623077694952 0 0.48852800798397178 -0.4314993708499707 0 0.5 -0.4437556780247115 0 0.49612849644047669 -0.44122303286033238 0 0.49921991668232718 -0.41552310632800088 0 0.49106997033050093 -0.43680623077694952 0 0.48852800798397178 -0.4314993708499707 0 0.4949620447012904 -0.43079316197936862 0 0.4822199893763735 -0.43135903946625381 0 0.48852800798397178 -0.4314993708499707 0 0.48605933178714178 -0.42521348018868232 0 0.48605933178714178 -0.42521348018868232 0 0.49008941518315341 -0.42224676400075151 0 0.48763778327674129 -0.41964514956428378 0 0.48605933178714178 -0.42521348018868232 0 0.49008941518315341 -0.42224676400075151 0 0.49065500256542011 -0.42630626543395439 0 0.49008941518315341 -0.42224676400075151 0 0.49065500256542011 -0.42630626543395439 0 0.49327128498213307 -0.42177158039390711 0 0.48852800798397178 -0.4314993708499707 0 0.48605933178714178 -0.42521348018868232 0 0.49065500256542011 -0.42630626543395439 0 0.48852800798397178 -0.4314993708499707 0 0.49065500256542011 -0.42630626543395439 0 0.4949620447012904 -0.43079316197936862 0 0.4949620447012904 -0.43079316197936862 0 0.49569635853046651 -0.41870196084588451 0 0.49327128498213307 -0.42177158039390711 0 0.49065500256542011 -0.42630626543395439 0 0.4949620447012904 -0.43079316197936862 0 0.49327128498213307 -0.42177158039390711 0 0.49612849644047669 -0.44122303286033238 0 0.49106997033050093 -0.43680623077694952 0 0.4949620447012904 -0.43079316197936862 0 0.5 -0.41272548448154378 0 0.49021468928604589 -0.40809379950311081 0 0.49257586943117498 -0.40003793026540968 0 0.5 -0.41272548448154378 0 0.49342276598461532 -0.41429252486766488 0 0.49021468928604589 -0.40809379950311081 0 0.5 -0.41272548448154378 0 0.49569635853046651 -0.41870196084588451 0 0.49342276598461532 -0.41429252486766488 0 0.5 -0.41272548448154378 0 0.49921991668232718 -0.41552310632800088 0 0.49569635853046651 -0.41870196084588451 0 0.4949620447012904 -0.43079316197936862 0 0.49921991668232718 -0.41552310632800088 0 0.49569635853046651 -0.41870196084588451 0 0.49569635853046651 -0.41870196084588451 0 0.49336560687309461 -0.41825748892408599 0 0.49327128498213307 -0.42177158039390711 0 0.49336560687309461 -0.41825748892408599 0 0.49327128498213307 -0.42177158039390711 0 0.49107201799516342 -0.41826388958888772 0 0.49569635853046651 -0.41870196084588451 0 0.49336560687309461 -0.41825748892408599 0 0.49342276598461532 -0.41429252486766488 0 0.49336560687309461 -0.41825748892408599 0 0.49342276598461532 -0.41429252486766488 0 0.49107201799516342 -0.41826388958888772 0 0.49107201799516342 -0.41826388958888772 0 0.48763778327674129 -0.41964514956428378 0 0.48748563027767672 -0.41438429238537933 0 0.49342276598461532 -0.41429252486766488 0 0.49107201799516342 -0.41826388958888772 0 0.48748563027767672 -0.41438429238537933 0 0.49008941518315341 -0.42224676400075151 0 0.49327128498213307 -0.42177158039390711 0 0.49107201799516342 -0.41826388958888772 0 0.49008941518315341 -0.42224676400075151 0 0.49107201799516342 -0.41826388958888772 0 0.48763778327674129 -0.41964514956428378 0 0.48605933178714178 -0.42521348018868232 0 0.48763778327674129 -0.41964514956428378 0 0.48295092090773201 -0.41907077564603501 0 0.48763778327674129 -0.41964514956428378 0 0.48748563027767672 -0.41438429238537933 0 0.48295092090773201 -0.41907077564603501 0 0.48748563027767672 -0.41438429238537933 0 0.49021468928604589 -0.40809379950311081 0 0.48079278284326699 -0.4125236208575303 0 0.49342276598461532 -0.41429252486766488 0 0.48748563027767672 -0.41438429238537933 0 0.49021468928604589 -0.40809379950311081 0 0.49021468928604589 -0.40809379950311081 0 0.48079278284326699 -0.4125236208575303 0 0.47875519338607941 -0.40451429774415631 0 0.48079278284326699 -0.4125236208575303 0 0.47161440459133053 -0.41506227515128991 0 0.47875519338607941 -0.40451429774415631 0 0.48748563027767672 -0.41438429238537933 0 0.48079278284326699 -0.4125236208575303 0 0.48295092090773201 -0.41907077564603501 0 0.48079278284326699 -0.4125236208575303 0 0.48295092090773201 -0.41907077564603501 0 0.47726500766545099 -0.41843544654142789 0 0.47907768908477988 -0.42498987993373583 0 0.48295092090773201 -0.41907077564603501 0 0.47726500766545099 -0.41843544654142789 0 0.46583809977748009 -0.42223548109557862 0 0.47313153305470829 -0.4234960248574498 0 0.47161440459133053 -0.41506227515128991 0 0.48079278284326699 -0.4125236208575303 0 0.47726500766545099 -0.41843544654142789 0 0.47161440459133053 -0.41506227515128991 0 0.47313153305470829 -0.4234960248574498 0 0.47726500766545099 -0.41843544654142789 0 0.47161440459133053 -0.41506227515128991 0 0.46496962182176738 -0.40820504542075081 0 0.47161440459133053 -0.41506227515128991 0 0.47875519338607941 -0.40451429774415631 0 0.46927418358495709 -0.39730184481060188 0 0.48020892016262229 -0.3913828896646781 0 0.45871947237575073 -0.38925037890735859 0 0.46496962182176738 -0.40820504542075081 0 0.46927418358495709 -0.39730184481060188 0 0.47875519338607941 -0.40451429774415631 0 0.46927418358495709 -0.39730184481060188 0 0.48020892016262229 -0.3913828896646781 0 0.47875519338607941 -0.40451429774415631 0 0.48020892016262229 -0.3913828896646781 0 0.47875519338607941 -0.40451429774415631 0 0.49257586943117498 -0.40003793026540968 0 0.5 -0.41272548448154378 0 0.49257586943117498 -0.40003793026540968 0 0.5 -0.38761270593065711 0 0.48020892016262229 -0.3913828896646781 0 0.49257586943117498 -0.40003793026540968 0 0.5 -0.38761270593065711 0 0.49021468928604589 -0.40809379950311081 0 0.47875519338607941 -0.40451429774415631 0 0.49257586943117498 -0.40003793026540968 0 0.47935973618787581 -0.37439579939549439 0 0.48020892016262229 -0.3913828896646781 0 0.5 -0.38761270593065711 0 0.47935973618787581 -0.37439579939549439 0 0.48020892016262229 -0.3913828896646781 0 0.45871947237575073 -0.38925037890735859 0 0.47935973618787581 -0.37439579939549439 0 0.45871947237575073 -0.38925037890735859 0 0.47935973618787581 -0.37439579939549439 0 0.45860641197244301 -0.37187482402558342 0 0.45871947237575073 -0.38925037890735859 0 0.45860641197244301 -0.37187482402558342 0 0.45871947237575073 -0.38925037890735859 0 0.4439269704888249 -0.38643332836275313 0 0.45221745716943001 -0.41160343684072132 0 0.46496962182176738 -0.40820504542075081 0 0.45871947237575073 -0.38925037890735859 0 0.46496962182176738 -0.40820504542075081 0 0.46927418358495709 -0.39730184481060188 0 0.45871947237575073 -0.38925037890735859 0 0.45221745716943001 -0.41160343684072132 0 0.45871947237575073 -0.38925037890735859 0 0.43807920856362431 -0.40410495841922112 0 0.45871947237575073 -0.38925037890735859 0 0.43807920856362431 -0.40410495841922112 0 0.43807920856362431 -0.40410495841922112 0 0.4439269704888249 -0.38643332836275313 0 0.43669068442009901 -0.39488309475021 0 0.43807920856362431 -0.40410495841922112 0 0.4439269704888249 -0.38643332836275313 0 0.45871947237575073 -0.38925037890735859 0 0.43807920856362431 -0.40410495841922112 0 0.4439269704888249 -0.38643332836275313 0 0.44414489759694348 -0.37036699331155198 0 0.4439269704888249 -0.38643332836275313 0 0.4368988214418047 -0.37849012458599318 0 0.4439269704888249 -0.38643332836275313 0 0.4368988214418047 -0.37849012458599318 0 0.43442998891173529 -0.38606786657834719 0 0.45860641197244301 -0.37187482402558342 0 0.44414489759694348 -0.37036699331155198 0 0.4439269704888249 -0.38643332836275313 0 0.4439269704888249 -0.38643332836275313 0 0.43442998891173529 -0.38606786657834719 0 0.43669068442009901 -0.39488309475021 0 0.42683884334372441 -0.39031243911275432 0 0.4220497989149794 -0.3942836938437233 0 0.42082966987602172 -0.38620031488962703 0 0.42683884334372441 -0.39031243911275432 0 0.42839120420509302 -0.37921296774034507 0 0.42082966987602172 -0.38620031488962703 0 0.42445476644138141 -0.36802342435757729 0 0.42839120420509302 -0.37921296774034507 0 0.41918050134732188 -0.37852246208793611 0 0.42839120420509302 -0.37921296774034507 0 0.42082966987602172 -0.38620031488962703 0 0.41918050134732188 -0.37852246208793611 0 0.42839120420509302 -0.37921296774034507 0 0.4368988214418047 -0.37849012458599318 0 0.43442998891173529 -0.38606786657834719 0 0.43411103693773873 -0.37092250397252041 0 0.42839120420509302 -0.37921296774034507 0 0.4368988214418047 -0.37849012458599318 0 0.42683884334372441 -0.39031243911275432 0 0.42839120420509302 -0.37921296774034507 0 0.43442998891173529 -0.38606786657834719 0 0.42683884334372441 -0.39031243911275432 0 0.43442998891173529 -0.38606786657834719 0 0.43669068442009901 -0.39488309475021 0 0.42683884334372441 -0.39031243911275432 0 0.43669068442009901 -0.39488309475021 0 0.42687234852122852 -0.39818790379132629 0 0.43807920856362431 -0.40410495841922112 0 0.43669068442009901 -0.39488309475021 0 0.43422078145701642 -0.41576492291502559 0 0.43669068442009901 -0.39488309475021 0 0.4271766721579634 -0.40645017927817029 0 0.43422078145701642 -0.41576492291502559 0 0.43669068442009901 -0.39488309475021 0 0.43422078145701642 -0.41576492291502559 0 0.43669068442009901 -0.39488309475021 0 0.42687234852122852 -0.39818790379132629 0 0.4271766721579634 -0.40645017927817029 0 0.42687234852122852 -0.39818790379132629 0 0.42088516532358722 -0.40190754212003932 0 0.4271766721579634 -0.40645017927817029 0 0.42088516532358722 -0.40190754212003932 0 0.41939881812876878 -0.40824610874729839 0 0.4271766721579634 -0.40645017927817029 0 0.42683884334372441 -0.39031243911275432 0 0.42687234852122852 -0.39818790379132629 0 0.4220497989149794 -0.3942836938437233 0 0.42687234852122852 -0.39818790379132629 0 0.4220497989149794 -0.3942836938437233 0 0.42088516532358722 -0.40190754212003932 0 0.4220497989149794 -0.3942836938437233 0 0.41482296751033548 -0.39481026930486979 0 0.42082966987602172 -0.38620031488962703 0 0.4220497989149794 -0.3942836938437233 0 0.41482296751033548 -0.39481026930486979 0 0.42088516532358722 -0.40190754212003932 0 0.41482296751033548 -0.39481026930486979 0 0.42088516532358722 -0.40190754212003932 0 0.41269045108873492 -0.40542680011346099 0 0.42088516532358722 -0.40190754212003932 0 0.41269045108873492 -0.40542680011346099 0 0.41939881812876878 -0.40824610874729839 0 0.41482296751033548 -0.39481026930486979 0 0.41269045108873492 -0.40542680011346099 0 0.40656255307977718 -0.39965882785864087 0 0.41269045108873492 -0.40542680011346099 0 0.40656255307977718 -0.39965882785864087 0 0.40609445147503298 -0.40645765528247169 0 0.41482296751033548 -0.39481026930486979 0 0.40656255307977718 -0.39965882785864087 0 0.40524342266253088 -0.38944571298570502 0 0.41482296751033548 -0.39481026930486979 0 0.41406001601718062 -0.38601494536221032 0 0.40524342266253088 -0.38944571298570502 0 0.41406001601718062 -0.38601494536221032 0 0.4095682668783947 -0.37830497804368818 0 0.40524342266253088 -0.38944571298570502 0 0.41482296751033548 -0.39481026930486979 0 0.41406001601718062 -0.38601494536221032 0 0.42082966987602172 -0.38620031488962703 0 0.41406001601718062 -0.38601494536221032 0 0.42082966987602172 -0.38620031488962703 0 0.41918050134732188 -0.37852246208793611 0 0.41406001601718062 -0.38601494536221032 0 0.41918050134732188 -0.37852246208793611 0 0.4095682668783947 -0.37830497804368818 0 0.41368050551153013 -0.37186308396378281 0 0.41918050134732188 -0.37852246208793611 0 0.4095682668783947 -0.37830497804368818 0 0.40479298879909548 -0.37243334149499718 0 0.4095682668783947 -0.37830497804368818 0 0.40172642143194781 -0.37944721760464523 0 0.40023553439847259 -0.36555369900265772 0 0.39008502322190691 -0.39001381350173392 0 0.40023553439847259 -0.36555369900265772 0 0.40172642143194781 -0.37944721760464523 0 0.39008502322190691 -0.39001381350173392 0 0.40023553439847259 -0.36555369900265772 0 0.38845109995970079 -0.37830947830900941 0 0.39008502322190691 -0.39001381350173392 0 0.4095682668783947 -0.37830497804368818 0 0.40172642143194781 -0.37944721760464523 0 0.40524342266253088 -0.38944571298570502 0 0.40172642143194781 -0.37944721760464523 0 0.40524342266253088 -0.38944571298570502 0 0.39008502322190691 -0.39001381350173392 0 0.38684697606499452 -0.36660102178985599 0 0.38845109995970079 -0.37830947830900941 0 0.37628804874910649 -0.38761769779457628 0 0.38684697606499452 -0.36660102178985599 0 0.37628804874910649 -0.38761769779457628 0 0.38845109995970079 -0.37830947830900941 0 0.39008502322190691 -0.39001381350173392 0 0.38317468330790322 -0.38888400405946483 0 0.38845109995970079 -0.37830947830900941 0 0.38317468330790322 -0.38888400405946483 0 0.37628804874910649 -0.38761769779457628 0 0.37628804874910649 -0.38761769779457628 0 0.37681910419727299 -0.39099769295206788 0 0.37274364626375361 -0.3904275151449228 0 0.38317468330790322 -0.38888400405946483 0 0.37628804874910649 -0.38761769779457628 0 0.37681910419727299 -0.39099769295206788 0 0.39008502322190691 -0.39001381350173392 0 0.37993451204534101 -0.41447392800081001 0 0.39008502322190691 -0.39001381350173392 0 0.38163994200455942 -0.40020925479038721 0 0.37993451204534101 -0.41447392800081001 0 0.39008502322190691 -0.39001381350173392 0 0.39128638546661471 -0.40061750468968438 0 0.37993451204534101 -0.41447392800081001 0 0.37847518115820272 -0.39486699144316861 0 0.37633957382046201 -0.41286948037636212 0 0.37274364626375361 -0.3904275151449228 0 0.38163994200455942 -0.40020925479038721 0 0.37847518115820272 -0.39486699144316861 0 0.37633957382046201 -0.41286948037636212 0 0.38317468330790322 -0.38888400405946483 0 0.38163994200455942 -0.40020925479038721 0 0.37847518115820272 -0.39486699144316861 0 0.37847518115820272 -0.39486699144316861 0 0.37681910419727299 -0.39099769295206788 0 0.37274364626375361 -0.3904275151449228 0 0.38317468330790322 -0.38888400405946483 0 0.37847518115820272 -0.39486699144316861 0 0.37681910419727299 -0.39099769295206788 0 0.39008502322190691 -0.39001381350173392 0 0.38317468330790322 -0.38888400405946483 0 0.38163994200455942 -0.40020925479038721 0 0.39515457016735511 -0.40565065215037821 0 0.39876709585370712 -0.39742479939974978 0 0.40124444484216393 -0.40440489758506659 0 0.39128638546661471 -0.40061750468968438 0 0.39515457016735511 -0.40565065215037821 0 0.38932657546182892 -0.40881192143856188 0 0.39128638546661471 -0.40061750468968438 0 0.39515457016735511 -0.40565065215037821 0 0.39876709585370712 -0.39742479939974978 0 0.39008502322190691 -0.39001381350173392 0 0.39128638546661471 -0.40061750468968438 0 0.39876709585370712 -0.39742479939974978 0 0.40524342266253088 -0.38944571298570502 0 0.39008502322190691 -0.39001381350173392 0 0.39876709585370712 -0.39742479939974978 0 0.40656255307977718 -0.39965882785864087 0 0.40524342266253088 -0.38944571298570502 0 0.39876709585370712 -0.39742479939974978 0 0.40656255307977718 -0.39965882785864087 0 0.39876709585370712 -0.39742479939974978 0 0.40124444484216393 -0.40440489758506659 0 0.40656255307977718 -0.39965882785864087 0 0.40124444484216393 -0.40440489758506659 0 0.40609445147503298 -0.40645765528247169 0 0.40609445147503298 -0.40645765528247169 0 0.39959214844861313 -0.41058083881182439 0 0.40714209860659589 -0.41240922826913012 0 0.39959214844861313 -0.41058083881182439 0 0.4000189077444245 -0.41760132703884201 0 0.40714209860659589 -0.41240922826913012 0 0.39515457016735511 -0.40565065215037821 0 0.40124444484216393 -0.40440489758506659 0 0.39959214844861313 -0.41058083881182439 0 0.40124444484216393 -0.40440489758506659 0 0.40609445147503298 -0.40645765528247169 0 0.39959214844861313 -0.41058083881182439 0 0.4000189077444245 -0.41760132703884201 0 0.39501218474185018 -0.42419808853971169 0 0.40524065301200629 -0.42316305814860788 0 0.4000189077444245 -0.41760132703884201 0 0.40524065301200629 -0.42316305814860788 0 0.40714209860659589 -0.41240922826913012 0 0.3938202939765364 -0.41605784479431479 0 0.38807295850034312 -0.41842979731679059 0 0.39501218474185018 -0.42419808853971169 0 0.4000189077444245 -0.41760132703884201 0 0.3938202939765364 -0.41605784479431479 0 0.39501218474185018 -0.42419808853971169 0 0.39959214844861313 -0.41058083881182439 0 0.4000189077444245 -0.41760132703884201 0 0.3938202939765364 -0.41605784479431479 0 0.39515457016735511 -0.40565065215037821 0 0.39959214844861313 -0.41058083881182439 0 0.39300842422451931 -0.41059954298177631 0 0.39959214844861313 -0.41058083881182439 0 0.3938202939765364 -0.41605784479431479 0 0.39300842422451931 -0.41059954298177631 0 0.3938202939765364 -0.41605784479431479 0 0.39300842422451931 -0.41059954298177631 0 0.38724898540531433 -0.41271797937016069 0 0.39515457016735511 -0.40565065215037821 0 0.39300842422451931 -0.41059954298177631 0 0.38932657546182892 -0.40881192143856188 0 0.39128638546661471 -0.40061750468968438 0 0.38932657546182892 -0.40881192143856188 0 0.37993451204534101 -0.41447392800081001 0 0.38932657546182892 -0.40881192143856188 0 0.38724898540531433 -0.41271797937016069 0 0.37993451204534101 -0.41447392800081001 0 0.39300842422451931 -0.41059954298177631 0 0.38932657546182892 -0.40881192143856188 0 0.38724898540531433 -0.41271797937016069 0 0.3938202939765364 -0.41605784479431479 0 0.38724898540531433 -0.41271797937016069 0 0.38807295850034312 -0.41842979731679059 0 0.38807295850034312 -0.41842979731679059 0 0.38430975463122491 -0.41667822451964992 0 0.38198256257390112 -0.42109119339083839 0 0.38724898540531433 -0.41271797937016069 0 0.38430975463122491 -0.41667822451964992 0 0.37993451204534101 -0.41447392800081001 0 0.38724898540531433 -0.41271797937016069 0 0.38807295850034312 -0.41842979731679059 0 0.38430975463122491 -0.41667822451964992 0 0.37993451204534101 -0.41447392800081001 0 0.38198256257390112 -0.42109119339083839 0 0.37633957382046201 -0.41286948037636212 0 0.38430975463122491 -0.41667822451964992 0 0.37993451204534101 -0.41447392800081001 0 0.38198256257390112 -0.42109119339083839 0 0.38163994200455942 -0.40020925479038721 0 0.37993451204534101 -0.41447392800081001 0 0.37633957382046201 -0.41286948037636212 0 0.37633957382046201 -0.41286948037636212 0 0.37993550137717041 -0.43531144560780138 0 0.38198256257390112 -0.42109119339083839 0 0.37633957382046201 -0.41286948037636212 0 0.37993550137717041 -0.43531144560780138 0 0.38807295850034312 -0.41842979731679059 0 0.38198256257390112 -0.42109119339083839 0 0.38728583262377092 -0.42648124901243589 0 0.38198256257390112 -0.42109119339083839 0 0.37993550137717041 -0.43531144560780138 0 0.38728583262377092 -0.42648124901243589 0 0.38807295850034312 -0.41842979731679059 0 0.38728583262377092 -0.42648124901243589 0 0.39501218474185018 -0.42419808853971169 0 0.37993550137717041 -0.43531144560780138 0 0.39173658366241532 -0.43234388829806669 0 0.39502996484693481 -0.44101665257555572 0 0.37993550137717041 -0.43531144560780138 0 0.38728583262377092 -0.42648124901243589 0 0.39173658366241532 -0.43234388829806669 0 0.39173658366241532 -0.43234388829806669 0 0.40106674626006972 -0.43124274018586661 0 0.39502996484693481 -0.44101665257555572 0 0.38728583262377092 -0.42648124901243589 0 0.39173658366241532 -0.43234388829806669 0 0.39501218474185018 -0.42419808853971169 0 0.39173658366241532 -0.43234388829806669 0 0.39501218474185018 -0.42419808853971169 0 0.40106674626006972 -0.43124274018586661 0 0.40524065301200629 -0.42316305814860788 0 0.40106674626006972 -0.43124274018586661 0 0.41074377685335089 -0.42882104253457271 0 0.39501218474185018 -0.42419808853971169 0 0.40524065301200629 -0.42316305814860788 0 0.40106674626006972 -0.43124274018586661 0 0.40106674626006972 -0.43124274018586661 0 0.40687800688854919 -0.43665507028193051 0 0.41074377685335089 -0.42882104253457271 0 0.40106674626006972 -0.43124274018586661 0 0.40687800688854919 -0.43665507028193051 0 0.39502996484693481 -0.44101665257555572 0 0.40687800688854919 -0.43665507028193051 0 0.41705391545243692 -0.43657333319114222 0 0.41074377685335089 -0.42882104253457271 0 0.41705391545243692 -0.43657333319114222 0 0.42089759132713889 -0.42475556532549719 0 0.41074377685335089 -0.42882104253457271 0 0.42089759132713889 -0.42475556532549719 0 0.41074377685335089 -0.42882104253457271 0 0.41303784686731843 -0.41969851164731609 0 0.40524065301200629 -0.42316305814860788 0 0.41074377685335089 -0.42882104253457271 0 0.41303784686731843 -0.41969851164731609 0 0.40524065301200629 -0.42316305814860788 0 0.41303784686731843 -0.41969851164731609 0 0.40714209860659589 -0.41240922826913012 0 0.41303784686731843 -0.41969851164731609 0 0.40714209860659589 -0.41240922826913012 0 0.41458192279420758 -0.41231150426987162 0 0.41269045108873492 -0.40542680011346099 0 0.40609445147503298 -0.40645765528247169 0 0.40714209860659589 -0.41240922826913012 0 0.41269045108873492 -0.40542680011346099 0 0.40714209860659589 -0.41240922826913012 0 0.41458192279420758 -0.41231150426987162 0 0.41269045108873492 -0.40542680011346099 0 0.41458192279420758 -0.41231150426987162 0 0.41939881812876878 -0.40824610874729839 0 0.41458192279420758 -0.41231150426987162 0 0.41939881812876878 -0.40824610874729839 0 0.42165987927935089 -0.41513451795494982 0 0.41303784686731843 -0.41969851164731609 0 0.41458192279420758 -0.41231150426987162 0 0.42165987927935089 -0.41513451795494982 0 0.42089759132713889 -0.42475556532549719 0 0.41303784686731843 -0.41969851164731609 0 0.42165987927935089 -0.41513451795494982 0 0.42089759132713889 -0.42475556532549719 0 0.42165987927935089 -0.41513451795494982 0 0.43422078145701642 -0.41576492291502559 0 0.41939881812876878 -0.40824610874729839 0 0.42165987927935089 -0.41513451795494982 0 0.4271766721579634 -0.40645017927817029 0 0.42165987927935089 -0.41513451795494982 0 0.4271766721579634 -0.40645017927817029 0 0.43422078145701642 -0.41576492291502559 0 0.43807920856362431 -0.40410495841922112 0 0.43422078145701642 -0.41576492291502559 0 0.44420329604864622 -0.42505426368286059 0 0.43422078145701642 -0.41576492291502559 0 0.4321171012464583 -0.43355051584202192 0 0.43422078145701642 -0.41576492291502559 0 0.4321171012464583 -0.43355051584202192 0 0.43422078145701642 -0.41576492291502559 0 0.4321171012464583 -0.43355051584202192 0 0.42866934805335982 -0.4325410637099768 0 0.43422078145701642 -0.41576492291502559 0 0.42866934805335982 -0.4325410637099768 0 0.42089759132713889 -0.42475556532549719 0 0.43422078145701642 -0.41576492291502559 0 0.42866934805335982 -0.4325410637099768 0 0.41705391545243692 -0.43657333319114222 0 0.42089759132713889 -0.42475556532549719 0 0.42866934805335982 -0.4325410637099768 0 0.41705391545243692 -0.43657333319114222 0 0.42866934805335982 -0.4325410637099768 0 0.42311791464970261 -0.44931720450492768 0 0.4321171012464583 -0.43355051584202192 0 0.42866934805335982 -0.4325410637099768 0 0.42311791464970261 -0.44931720450492768 0 0.44132952392917768 -0.44365736946918582 0 0.4321171012464583 -0.43355051584202192 0 0.43001342103590079 -0.45133610876901831 0 0.4321171012464583 -0.43355051584202192 0 0.43001342103590079 -0.45133610876901831 0 0.42866934805335982 -0.4325410637099768 0 0.42311791464970261 -0.44931720450492768 0 0.4321171012464583 -0.43355051584202192 0 0.42311791464970261 -0.44931720450492768 0 0.43001342103590079 -0.45133610876901831 0 0.42311791464970261 -0.44931720450492768 0 0.43001342103590079 -0.45133610876901831 0 0.42311791464970261 -0.44931720450492768 0 0.43001342103590079 -0.45133610876901831 0 0.42729327215094198 -0.4743336444809152 0 0.43769598202098842 -0.46390443968526801 0 0.43001342103590079 -0.45133610876901831 0 0.42729327215094198 -0.4743336444809152 0 0.43001342103590079 -0.45133610876901831 0 0.42729327215094198 -0.4743336444809152 0 0.42311791464970261 -0.44931720450492768 0 0.41001519058596297 -0.45873405505391968 0 0.41497335125011581 -0.47392964824150541 0 0.42311791464970261 -0.44931720450492768 0 0.41497335125011581 -0.47392964824150541 0 0.42729327215094198 -0.4743336444809152 0 0.42311791464970261 -0.44931720450492768 0 0.41497335125011581 -0.47392964824150541 0 0.40625366531035639 -0.46777680238532499 0 0.41001519058596297 -0.45873405505391968 0 0.41497335125011581 -0.47392964824150541 0 0.41001519058596297 -0.45873405505391968 0 0.41049563102995412 -0.44562158292251541 0 0.40041569599415272 -0.45120186350910652 0 0.42311791464970261 -0.44931720450492768 0 0.41049563102995412 -0.44562158292251541 0 0.42311791464970261 -0.44931720450492768 0 0.41001519058596297 -0.45873405505391968 0 0.41049563102995412 -0.44562158292251541 0 0.41705391545243692 -0.43657333319114222 0 0.42311791464970261 -0.44931720450492768 0 0.41049563102995412 -0.44562158292251541 0 0.40687800688854919 -0.43665507028193051 0 0.41705391545243692 -0.43657333319114222 0 0.41049563102995412 -0.44562158292251541 0 0.40041569599415272 -0.45120186350910652 0 0.39502996484693481 -0.44101665257555572 0 0.38454546734101158 -0.45166860487223542 0 0.40687800688854919 -0.43665507028193051 0 0.41049563102995412 -0.44562158292251541 0 0.39502996484693481 -0.44101665257555572 0 0.41049563102995412 -0.44562158292251541 0 0.40041569599415272 -0.45120186350910652 0 0.39502996484693481 -0.44101665257555572 0 0.37993550137717041 -0.43531144560780138 0 0.38454546734101158 -0.45166860487223542 0 0.36971857969182992 -0.44200636944866328 0 0.38454546734101158 -0.45166860487223542 0 0.3749185327052556 -0.46436735610285701 0 0.36971857969182992 -0.44200636944866328 0 0.37993550137717041 -0.43531144560780138 0 0.39502996484693481 -0.44101665257555572 0 0.38454546734101158 -0.45166860487223542 0 0.38454546734101158 -0.45166860487223542 0 0.38684129660291522 -0.47186405194055719 0 0.3749185327052556 -0.46436735610285701 0 0.38454546734101158 -0.45166860487223542 0 0.39712780405371712 -0.46224425402651992 0 0.38684129660291522 -0.47186405194055719 0 0.40041569599415272 -0.45120186350910652 0 0.38454546734101158 -0.45166860487223542 0 0.39712780405371712 -0.46224425402651992 0 0.41001519058596297 -0.45873405505391968 0 0.40041569599415272 -0.45120186350910652 0 0.39712780405371712 -0.46224425402651992 0 0.40625366531035639 -0.46777680238532499 0 0.41001519058596297 -0.45873405505391968 0 0.39712780405371712 -0.46224425402651992 0 0.39712780405371712 -0.46224425402651992 0 0.3977214255770723 -0.48080695644346089 0 0.38684129660291522 -0.47186405194055719 0 0.40625366531035639 -0.46777680238532499 0 0.39712780405371712 -0.46224425402651992 0 0.3977214255770723 -0.48080695644346089 0 0.38684129660291522 -0.47186405194055719 0 0.38011848571868129 -0.48672834275705051 0 0.3749185327052556 -0.46436735610285701 0 0.38011848571868129 -0.48672834275705051 0 0.3749185327052556 -0.46436735610285701 0 0.3977214255770723 -0.48080695644346089 0 0.38684129660291522 -0.47186405194055719 0 0.38011848571868129 -0.48672834275705051 0 0.3977214255770723 -0.48080695644346089 0 0.3971832361715828 -0.5 0 0.40682878785052901 -0.49854209197808308 0 0.3977214255770723 -0.48080695644346089 0 0.38011848571868129 -0.48672834275705051 0 0.3971832361715828 -0.5 0 0.44187129846782419 -0.5 0 0.3971832361715828 -0.5 0 0.40682878785052901 -0.49854209197808308 0 0.44187129846782419 -0.5 0 0.40682878785052901 -0.49854209197808308 0 0.42165947017992961 -0.48867149874747401 0 0.40682878785052901 -0.49854209197808308 0 0.41497335125011581 -0.47392964824150541 0 0.3977214255770723 -0.48080695644346089 0 0.40682878785052901 -0.49854209197808308 0 0.41497335125011581 -0.47392964824150541 0 0.40682878785052901 -0.49854209197808308 0 0.42165947017992961 -0.48867149874747401 0 0.41497335125011581 -0.47392964824150541 0 0.40625366531035639 -0.46777680238532499 0 0.3977214255770723 -0.48080695644346089 0 0.41497335125011581 -0.47392964824150541 0 0.42165947017992961 -0.48867149874747401 0 0.41497335125011581 -0.47392964824150541 0 0.42729327215094198 -0.4743336444809152 0 0.42165947017992961 -0.48867149874747401 0 0.42729327215094198 -0.4743336444809152 0 0.43267815495306988 -0.48506983855403379 0 0.44106023269328931 -0.47672651962107199 0 0.43769598202098842 -0.46390443968526801 0 0.42729327215094198 -0.4743336444809152 0 0.44106023269328931 -0.47672651962107199 0 0.42729327215094198 -0.4743336444809152 0 0.43267815495306988 -0.48506983855403379 0 0.44187129846782419 -0.5 0 0.42165947017992961 -0.48867149874747401 0 0.43267815495306988 -0.48506983855403379 0 0.32784125032618971 -0.47942494066495872 0 0.33641583416409709 -0.49999999999999972 0 0.34847654120804539 -0.46682005655721592 0 0.32784125032618971 -0.47942494066495872 0 0.30628253897895319 -0.48013175171854078 0 0.30961552498664602 -0.5 0 0.32784125032618971 -0.47942494066495872 0 0.33641583416409709 -0.49999999999999972 0 0.30961552498664602 -0.5 0 0.32784125032618971 -0.47942494066495872 0 0.31926666648828211 -0.45884988132991772 0 0.32784125032618971 -0.47942494066495872 0 0.30705540407768478 -0.46412336326869819 0 0.30628253897895319 -0.48013175171854078 0 0.32784125032618971 -0.47942494066495872 0 0.34847654120804539 -0.46682005655721592 0 0.33221731134794807 -0.46453213565472218 0 0.32784125032618971 -0.47942494066495872 0 0.33641583416409709 -0.49999999999999972 0 0.38011848571868129 -0.48672834275705051 0 0.3971832361715828 -0.5 0 0.33641583416409709 -0.49999999999999972 0 0.33641583416409709 -0.49999999999999972 0 0.35998234844901988 -0.47947893885428078 0 0.34847654120804539 -0.46682005655721592 0 0.38011848571868129 -0.48672834275705051 0 0.33641583416409709 -0.49999999999999972 0 0.35998234844901988 -0.47947893885428078 0 0.35998234844901988 -0.47947893885428078 0 0.34847654120804539 -0.46682005655721592 0 0.3749185327052556 -0.46436735610285701 0 0.38011848571868129 -0.48672834275705051 0 0.35998234844901988 -0.47947893885428078 0 0.3749185327052556 -0.46436735610285701 0 0.34847654120804539 -0.46682005655721592 0 0.35606747288692092 -0.44902683989210762 0 0.34209557414664471 -0.44788332554916149 0 0.34847654120804539 -0.46682005655721592 0 0.3749185327052556 -0.46436735610285701 0 0.35606747288692092 -0.44902683989210762 0 0.3749185327052556 -0.46436735610285701 0 0.36971857969182992 -0.44200636944866328 0 0.3749185327052556 -0.46436735610285701 0 0.36971857969182992 -0.44200636944866328 0 0.35606747288692092 -0.44902683989210762 0 0.36971857969182992 -0.44200636944866328 0 0.35606747288692092 -0.44902683989210762 0 0.35833968651937259 -0.43410066569592082 0 0.35606747288692092 -0.44902683989210762 0 0.34663387888267511 -0.43649299703045119 0 0.35833968651937259 -0.43410066569592082 0 0.35606747288692092 -0.44902683989210762 0 0.34209557414664471 -0.44788332554916149 0 0.34663387888267511 -0.43649299703045119 0 0.3332545850894737 -0.43796617501819429 0 0.34209557414664471 -0.44788332554916149 0 0.34663387888267511 -0.43649299703045119 0 0.3332545850894737 -0.43796617501819429 0 0.34209557414664471 -0.44788332554916149 0 0.32604539266610838 -0.44911055924783883 0 0.34847654120804539 -0.46682005655721592 0 0.33221731134794807 -0.46453213565472218 0 0.32604539266610838 -0.44911055924783883 0 0.34847654120804539 -0.46682005655721592 0 0.34209557414664471 -0.44788332554916149 0 0.32604539266610838 -0.44911055924783883 0 0.34847654120804539 -0.46682005655721592 0 0.32604539266610838 -0.44911055924783883 0 0.33221731134794807 -0.46453213565472218 0 0.31926666648828211 -0.45884988132991772 0 0.32604539266610838 -0.44911055924783883 0 0.32784125032618971 -0.47942494066495872 0 0.33221731134794807 -0.46453213565472218 0 0.31926666648828211 -0.45884988132991772 0 0.32784125032618971 -0.47942494066495872 0 0.31926666648828211 -0.45884988132991772 0 0.30705540407768478 -0.46412336326869819 0 0.32604539266610838 -0.44911055924783883 0 0.30361424412417137 -0.43140106193846173 0 0.32604539266610838 -0.44911055924783883 0 0.30361424412417137 -0.43140106193846173 0 0.31069208265037451 -0.43827482199487672 0 0.31926666648828211 -0.45884988132991772 0 0.31069208265037451 -0.43827482199487672 0 0.32604539266610838 -0.44911055924783883 0 0.32103153056772787 -0.43554664659253339 0 0.30361424412417137 -0.43140106193846173 0 0.31926666648828211 -0.45884988132991772 0 0.32604539266610838 -0.44911055924783883 0 0.31069208265037451 -0.43827482199487672 0 0.3332545850894737 -0.43796617501819429 0 0.32604539266610838 -0.44911055924783883 0 0.32103153056772787 -0.43554664659253339 0 0.32103153056772787 -0.43554664659253339 0 0.31738385192459478 -0.4281473328386447 0 0.30361424412417137 -0.43140106193846173 0 0.32485957903429102 -0.43110810391952747 0 0.31738385192459478 -0.4281473328386447 0 0.32291091040994591 -0.42131067121361998 0 0.32485957903429102 -0.43110810391952747 0 0.32291091040994591 -0.42131067121361998 0 0.33311582838803028 -0.42704085145625559 0 0.3332545850894737 -0.43796617501819429 0 0.32485957903429102 -0.43110810391952747 0 0.32103153056772787 -0.43554664659253339 0 0.32485957903429102 -0.43110810391952747 0 0.32103153056772787 -0.43554664659253339 0 0.31738385192459478 -0.4281473328386447 0 0.31738385192459478 -0.4281473328386447 0 0.32291091040994591 -0.42131067121361998 0 0.31096341542092332 -0.41666393631482962 0 0.32323721160759361 -0.40584829128639899 0 0.30577768704238167 -0.39981775823168347 0 0.31096341542092332 -0.41666393631482962 0 0.32291091040994591 -0.42131067121361998 0 0.32323721160759361 -0.40584829128639899 0 0.31096341542092332 -0.41666393631482962 0 0.32291091040994591 -0.42131067121361998 0 0.3341048204200866 -0.41642269269574211 0 0.32323721160759361 -0.40584829128639899 0 0.32291091040994591 -0.42131067121361998 0 0.3341048204200866 -0.41642269269574211 0 0.33311582838803028 -0.42704085145625559 0 0.3341048204200866 -0.41642269269574211 0 0.33736623439380442 -0.40551323284846669 0 0.32323721160759361 -0.40584829128639899 0 0.3341048204200866 -0.41642269269574211 0 0.3488633232189397 -0.4123029515900003 0 0.33736623439380442 -0.40551323284846669 0 0.3341048204200866 -0.41642269269574211 0 0.34434490742347451 -0.42392413360526388 0 0.3488633232189397 -0.4123029515900003 0 0.33311582838803028 -0.42704085145625559 0 0.33933729994591338 -0.43135603927754118 0 0.34434490742347451 -0.42392413360526388 0 0.3341048204200866 -0.41642269269574211 0 0.33311582838803028 -0.42704085145625559 0 0.34434490742347451 -0.42392413360526388 0 0.3332545850894737 -0.43796617501819429 0 0.33311582838803028 -0.42704085145625559 0 0.33933729994591338 -0.43135603927754118 0 0.3332545850894737 -0.43796617501819429 0 0.32485957903429102 -0.43110810391952747 0 0.33311582838803028 -0.42704085145625559 0 0.33933729994591338 -0.43135603927754118 0 0.34663387888267511 -0.43649299703045119 0 0.34434490742347451 -0.42392413360526388 0 0.3332545850894737 -0.43796617501819429 0 0.33933729994591338 -0.43135603927754118 0 0.34663387888267511 -0.43649299703045119 0 0.34663387888267511 -0.43649299703045119 0 0.34434490742347451 -0.42392413360526388 0 0.35395091311867311 -0.42404656687561337 0 0.35395091311867311 -0.42404656687561337 0 0.35833968651937259 -0.43410066569592082 0 0.36451862667840412 -0.41964538279446978 0 0.34663387888267511 -0.43649299703045119 0 0.35395091311867311 -0.42404656687561337 0 0.35833968651937259 -0.43410066569592082 0 0.36971857969182992 -0.44200636944866328 0 0.36451862667840412 -0.41964538279446978 0 0.36971857969182992 -0.44200636944866328 0 0.35833968651937259 -0.43410066569592082 0 0.36451862667840412 -0.41964538279446978 0 0.37633957382046201 -0.41286948037636212 0 0.37993550137717041 -0.43531144560780138 0 0.36451862667840412 -0.41964538279446978 0 0.37993550137717041 -0.43531144560780138 0 0.36971857969182992 -0.44200636944866328 0 0.36451862667840412 -0.41964538279446978 0 0.36451862667840412 -0.41964538279446978 0 0.35931867366497838 -0.39728439614027639 0 0.36451862667840412 -0.41964538279446978 0 0.35931867366497838 -0.39728439614027639 0 0.36863734895040062 -0.40289880438412529 0 0.37633957382046201 -0.41286948037636212 0 0.36451862667840412 -0.41964538279446978 0 0.36863734895040062 -0.40289880438412529 0 0.35395091311867311 -0.42404656687561337 0 0.36451862667840412 -0.41964538279446978 0 0.3488633232189397 -0.4123029515900003 0 0.36451862667840412 -0.41964538279446978 0 0.3488633232189397 -0.4123029515900003 0 0.35931867366497838 -0.39728439614027639 0 0.34434490742347451 -0.42392413360526388 0 0.35395091311867311 -0.42404656687561337 0 0.3488633232189397 -0.4123029515900003 0 0.3488633232189397 -0.4123029515900003 0 0.34627212471177821 -0.39914230360397362 0 0.35931867366497838 -0.39728439614027639 0 0.3488633232189397 -0.4123029515900003 0 0.34627212471177821 -0.39914230360397362 0 0.33736623439380442 -0.40551323284846669 0 0.34627212471177821 -0.39914230360397362 0 0.35931867366497838 -0.39728439614027639 0 0.3466130325713267 -0.38587403158108158 0 0.37633957382046201 -0.41286948037636212 0 0.36863734895040062 -0.40289880438412529 0 0.37274364626375361 -0.3904275151449228 0 0.37633957382046201 -0.41286948037636212 0 0.37274364626375361 -0.3904275151449228 0 0.35931867366497838 -0.39728439614027639 0 0.36642934222809298 -0.39447401376488073 0 0.36863734895040062 -0.40289880438412529 0 0.35931867366497838 -0.39728439614027639 0 0.36642934222809298 -0.39447401376488073 0 0.36498813787853518 -0.38636203800520602 0 0.36642934222809298 -0.39447401376488073 0 0.36863734895040062 -0.40289880438412529 0 0.37274364626375361 -0.3904275151449228 0 0.35931867366497838 -0.39728439614027639 0 0.36498813787853518 -0.38636203800520602 0 0.35730130852880448 -0.38163871506246672 0 0.36498813787853518 -0.38636203800520602 0 0.35730130852880448 -0.38163871506246672 0 0.36914771870704671 -0.36798554991348331 0 0.37274364626375361 -0.3904275151449228 0 0.36498813787853518 -0.38636203800520602 0 0.36914771870704671 -0.36798554991348331 0 0.37628804874910649 -0.38761769779457628 0 0.37274364626375361 -0.3904275151449228 0 0.36914771870704671 -0.36798554991348331 0 0.37274364626375361 -0.3904275151449228 0 0.36914771870704671 -0.36798554991348331 0 0.36642934222809298 -0.39447401376488073 0 0.37274364626375361 -0.3904275151449228 0 0.36498813787853518 -0.38636203800520602 0 0.35931867366497838 -0.39728439614027639 0 0.35730130852880448 -0.38163871506246672 0 0.3466130325713267 -0.38587403158108158 0 0.35730130852880448 -0.38163871506246672 0 0.3466130325713267 -0.38587403158108158 0 0.3464094176674315 -0.3697642582872937 0 0.3466130325713267 -0.38587403158108158 0 0.3464094176674315 -0.3697642582872937 0 0.32367111662781639 -0.37154296666110409 0 0.3466130325713267 -0.38587403158108158 0 0.33294142652480269 -0.39258473395690852 0 0.32367111662781639 -0.37154296666110409 0 0.34627212471177821 -0.39914230360397362 0 0.3466130325713267 -0.38587403158108158 0 0.33294142652480269 -0.39258473395690852 0 0.34627212471177821 -0.39914230360397362 0 0.33736623439380442 -0.40551323284846669 0 0.33294142652480269 -0.39258473395690852 0 0.33736623439380442 -0.40551323284846669 0 0.33294142652480269 -0.39258473395690852 0 0.32323721160759361 -0.40584829128639899 0 0.32323721160759361 -0.40584829128639899 0 0.31781182621790949 -0.38956187309693568 0 0.30577768704238167 -0.39981775823168347 0 0.33294142652480269 -0.39258473395690852 0 0.32323721160759361 -0.40584829128639899 0 0.31781182621790949 -0.38956187309693568 0 0.31781182621790949 -0.38956187309693568 0 0.30343168928695358 -0.37801561534858352 0 0.32367111662781639 -0.37154296666110409 0 0.33294142652480269 -0.39258473395690852 0 0.31781182621790949 -0.38956187309693568 0 0.32367111662781639 -0.37154296666110409 0 0.31781182621790949 -0.38956187309693568 0 0.30343168928695358 -0.37801561534858352 0 0.30577768704238167 -0.39981775823168347 0 0.30577768704238167 -0.39981775823168347 0 0.2874102014095159 -0.39509192248758579 0 0.29778972871584541 -0.411333248720329 0 0.30343168928695358 -0.37801561534858352 0 0.30577768704238167 -0.39981775823168347 0 0.2874102014095159 -0.39509192248758579 0 0.30343168928695358 -0.37801561534858352 0 0.2874102014095159 -0.39509192248758579 0 0.28314208034892502 -0.37395607270838699 0 0.26942587705199361 -0.38493928597274168 0 0.28314208034892502 -0.37395607270838699 0 0.26638795307375829 -0.36808935902844231 0 0.2874102014095159 -0.39509192248758579 0 0.26942587705199361 -0.38493928597274168 0 0.28314208034892502 -0.37395607270838699 0 0.2543150598661002 -0.3778535733630547 0 0.25612988417059862 -0.39372739427770198 0 0.24189804913215951 -0.38644820318626322 0 0.26942587705199361 -0.38493928597274168 0 0.2543150598661002 -0.3778535733630547 0 0.26638795307375829 -0.36808935902844231 0 0.26942587705199361 -0.38493928597274168 0 0.2543150598661002 -0.3778535733630547 0 0.25612988417059862 -0.39372739427770198 0 0.26942587705199361 -0.38493928597274168 0 0.25612988417059862 -0.39372739427770198 0 0.2712592588911249 -0.4011252646882224 0 0.25612988417059862 -0.39372739427770198 0 0.25719318355777793 -0.40900766208145772 0 0.24221879831617951 -0.40374349928431241 0 0.25612988417059862 -0.39372739427770198 0 0.2712592588911249 -0.4011252646882224 0 0.25719318355777793 -0.40900766208145772 0 0.2874102014095159 -0.39509192248758579 0 0.26942587705199361 -0.38493928597274168 0 0.2712592588911249 -0.4011252646882224 0 0.2874102014095159 -0.39509192248758579 0 0.2712592588911249 -0.4011252646882224 0 0.28118309558223442 -0.41369156462908452 0 0.2712592588911249 -0.4011252646882224 0 0.28118309558223442 -0.41369156462908452 0 0.26821571575514519 -0.42313420304437038 0 0.25719318355777793 -0.40900766208145772 0 0.25131531011865732 -0.42556788371608179 0 0.26821571575514519 -0.42313420304437038 0 0.2712592588911249 -0.4011252646882224 0 0.25719318355777793 -0.40900766208145772 0 0.26821571575514519 -0.42313420304437038 0 0.25719318355777793 -0.40900766208145772 0 0.25131531011865732 -0.42556788371608179 0 0.24221879831617951 -0.40374349928431241 0 0.25131531011865732 -0.42556788371608179 0 0.26821571575514519 -0.42313420304437038 0 0.26662865591673662 -0.44001790662850621 0 0.25131531011865732 -0.42556788371608179 0 0.26662865591673662 -0.44001790662850621 0 0.25303584543133201 -0.44500039774258632 0 0.26821571575514519 -0.42313420304437038 0 0.27984215626159609 -0.43607922793080173 0 0.26662865591673662 -0.44001790662850621 0 0.28118309558223442 -0.41369156462908452 0 0.26821571575514519 -0.42313420304437038 0 0.27984215626159609 -0.43607922793080173 0 0.28118309558223442 -0.41369156462908452 0 0.29271019608452958 -0.4356623952759851 0 0.30361424412417137 -0.43140106193846173 0 0.28118309558223442 -0.41369156462908452 0 0.30361424412417137 -0.43140106193846173 0 0.28118309558223442 -0.41369156462908452 0 0.27984215626159609 -0.43607922793080173 0 0.29271019608452958 -0.4356623952759851 0 0.28118309558223442 -0.41369156462908452 0 0.29778972871584541 -0.411333248720329 0 0.30361424412417137 -0.43140106193846173 0 0.2874102014095159 -0.39509192248758579 0 0.28118309558223442 -0.41369156462908452 0 0.29778972871584541 -0.411333248720329 0 0.30577768704238167 -0.39981775823168347 0 0.29778972871584541 -0.411333248720329 0 0.31096341542092332 -0.41666393631482962 0 0.29778972871584541 -0.411333248720329 0 0.31096341542092332 -0.41666393631482962 0 0.30361424412417137 -0.43140106193846173 0 0.31738385192459478 -0.4281473328386447 0 0.31096341542092332 -0.41666393631482962 0 0.30361424412417137 -0.43140106193846173 0 0.30361424412417137 -0.43140106193846173 0 0.30305604377008721 -0.43921179745081218 0 0.31069208265037451 -0.43827482199487672 0 0.29271019608452958 -0.4356623952759851 0 0.30361424412417137 -0.43140106193846173 0 0.30305604377008721 -0.43921179745081218 0 0.31926666648828211 -0.45884988132991772 0 0.31069208265037451 -0.43827482199487672 0 0.30729819407149611 -0.4500231569609251 0 0.29954032620450799 -0.4528969526885272 0 0.29884610169420173 -0.44508345720189407 0 0.30729819407149611 -0.4500231569609251 0 0.29271019608452958 -0.4356623952759851 0 0.29884610169420173 -0.44508345720189407 0 0.30305604377008721 -0.43921179745081218 0 0.29884610169420173 -0.44508345720189407 0 0.30305604377008721 -0.43921179745081218 0 0.30729819407149611 -0.4500231569609251 0 0.30305604377008721 -0.43921179745081218 0 0.31069208265037451 -0.43827482199487672 0 0.30729819407149611 -0.4500231569609251 0 0.31926666648828211 -0.45884988132991772 0 0.30729819407149611 -0.4500231569609251 0 0.30705540407768478 -0.46412336326869819 0 0.30705540407768478 -0.46412336326869819 0 0.29236538620825531 -0.45864920993489661 0 0.29307765283222292 -0.471979661630339 0 0.29954032620450799 -0.4528969526885272 0 0.30729819407149611 -0.4500231569609251 0 0.30705540407768478 -0.46412336326869819 0 0.29954032620450799 -0.4528969526885272 0 0.30705540407768478 -0.46412336326869819 0 0.29236538620825531 -0.45864920993489661 0 0.29236538620825531 -0.45864920993489661 0 0.2798175264509013 -0.46452403569620382 0 0.29307765283222292 -0.471979661630339 0 0.29236538620825531 -0.45864920993489661 0 0.27981258058876179 -0.45119811388362502 0 0.2798175264509013 -0.46452403569620382 0 0.29236538620825531 -0.45864920993489661 0 0.29035437043956808 -0.44719443117813967 0 0.27981258058876179 -0.45119811388362502 0 0.29954032620450799 -0.4528969526885272 0 0.29884610169420173 -0.44508345720189407 0 0.29035437043956808 -0.44719443117813967 0 0.29954032620450799 -0.4528969526885272 0 0.29236538620825531 -0.45864920993489661 0 0.29035437043956808 -0.44719443117813967 0 0.29271019608452958 -0.4356623952759851 0 0.29884610169420173 -0.44508345720189407 0 0.29035437043956808 -0.44719443117813967 0 0.27984215626159609 -0.43607922793080173 0 0.29035437043956808 -0.44719443117813967 0 0.27981258058876179 -0.45119811388362502 0 0.27984215626159609 -0.43607922793080173 0 0.29271019608452958 -0.4356623952759851 0 0.29035437043956808 -0.44719443117813967 0 0.27984215626159609 -0.43607922793080173 0 0.27981258058876179 -0.45119811388362502 0 0.26662865591673662 -0.44001790662850621 0 0.27981258058876179 -0.45119811388362502 0 0.26662865591673662 -0.44001790662850621 0 0.26730665442921758 -0.45668510798449091 0 0.26662865591673662 -0.44001790662850621 0 0.25303584543133201 -0.44500039774258632 0 0.26730665442921758 -0.45668510798449091 0 0.25323457909965391 -0.45899582982650611 0 0.26531627945245911 -0.47227618861672721 0 0.25017935571247679 -0.4716569667895848 0 0.25303584543133201 -0.44500039774258632 0 0.25323457909965391 -0.45899582982650611 0 0.26730665442921758 -0.45668510798449091 0 0.25323457909965391 -0.45899582982650611 0 0.26730665442921758 -0.45668510798449091 0 0.26531627945245911 -0.47227618861672721 0 0.26730665442921758 -0.45668510798449091 0 0.2798175264509013 -0.46452403569620382 0 0.26531627945245911 -0.47227618861672721 0 0.27981258058876179 -0.45119811388362502 0 0.26730665442921758 -0.45668510798449091 0 0.2798175264509013 -0.46452403569620382 0 0.2798175264509013 -0.46452403569620382 0 0.28022492624676892 -0.4777315748953469 0 0.26531627945245911 -0.47227618861672721 0 0.28022492624676892 -0.4777315748953469 0 0.26531627945245911 -0.47227618861672721 0 0.26735269396930972 -0.48712056658273828 0 0.26531627945245911 -0.47227618861672721 0 0.25209246771951649 -0.48287927516763668 0 0.26735269396930972 -0.48712056658273828 0 0.26531627945245911 -0.47227618861672721 0 0.25209246771951649 -0.48287927516763668 0 0.25017935571247679 -0.4716569667895848 0 0.25209246771951649 -0.48287927516763668 0 0.25601490663174409 -0.500000000000001 0 0.26735269396930972 -0.48712056658273828 0 0.25601490663174409 -0.500000000000001 0 0.26735269396930972 -0.48712056658273828 0 0.28281521580919511 -0.5 0 0.28022492624676892 -0.4777315748953469 0 0.26735269396930972 -0.48712056658273828 0 0.28281521580919511 -0.5 0 0.28281521580919511 -0.5 0 0.29357882724505102 -0.48633566864615257 0 0.30961552498664602 -0.5 0 0.28022492624676892 -0.4777315748953469 0 0.28281521580919511 -0.5 0 0.29357882724505102 -0.48633566864615257 0 0.28022492624676892 -0.4777315748953469 0 0.29357882724505102 -0.48633566864615257 0 0.29307765283222292 -0.471979661630339 0 0.2798175264509013 -0.46452403569620382 0 0.28022492624676892 -0.4777315748953469 0 0.29307765283222292 -0.471979661630339 0 0.29357882724505102 -0.48633566864615257 0 0.29307765283222292 -0.471979661630339 0 0.30628253897895319 -0.48013175171854078 0 0.30705540407768478 -0.46412336326869819 0 0.29307765283222292 -0.471979661630339 0 0.30628253897895319 -0.48013175171854078 0 0.29357882724505102 -0.48633566864615257 0 0.30628253897895319 -0.48013175171854078 0 0.30961552498664602 -0.5 0 0.34034624863689639 -0.2987529838764057 0 0.32581556675226492 -0.2987675479273233 0 0.34962339836902001 -0.28699491181522863 0 0.32887536429856462 -0.28418317007526239 0 0.32581556675226492 -0.2987675479273233 0 0.34375334579970029 -0.28502703310199501 0 0.32581556675226492 -0.2987675479273233 0 0.34375334579970029 -0.28502703310199501 0 0.34962339836902001 -0.28699491181522863 0 0.32581556675226492 -0.2987675479273233 0 0.34962339836902001 -0.28699491181522863 0 0.32887536429856462 -0.28418317007526239 0 0.33669218373476412 -0.27574848135284402 0 0.34375334579970029 -0.28502703310199501 0 0.34034624863689639 -0.2987529838764057 0 0.33720075944729128 -0.31200916684126068 0 0.34647250835451199 -0.30653158147069409 0 0.33720075944729128 -0.31200916684126068 0 0.32581556675226492 -0.2987675479273233 0 0.32296409785442071 -0.31273457613968081 0 0.34034624863689639 -0.2987529838764057 0 0.33720075944729128 -0.31200916684126068 0 0.32581556675226492 -0.2987675479273233 0 0.32581556675226492 -0.2987675479273233 0 0.32296409785442071 -0.31273457613968081 0 0.30200773513550988 -0.31054018403941869 0 0.32581556675226492 -0.2987675479273233 0 0.30200773513550988 -0.31054018403941869 0 0.32581556675226492 -0.2987675479273233 0 0.3117904209853446 -0.29086708503386971 0 0.30200773513550988 -0.31054018403941869 0 0.32887536429856462 -0.28418317007526239 0 0.32038070926540341 -0.27193950746052098 0 0.3117904209853446 -0.29086708503386971 0 0.32887536429856462 -0.28418317007526239 0 0.32581556675226492 -0.2987675479273233 0 0.3117904209853446 -0.29086708503386971 0 0.32038070926540341 -0.27193950746052098 0 0.31612366293074279 -0.25382610042543741 0 0.30485867779484899 -0.26301991250112822 0 0.33095493140582899 -0.24942881102254519 0 0.32038070926540341 -0.27193950746052098 0 0.31612366293074279 -0.25382610042543741 0 0.33095493140582899 -0.24942881102254519 0 0.34783106546937281 -0.24843756050561569 0 0.34080476256852082 -0.26185238199468908 0 0.33095493140582899 -0.24942881102254519 0 0.32038070926540341 -0.27193950746052098 0 0.34080476256852082 -0.26185238199468908 0 0.32038070926540341 -0.27193950746052098 0 0.34080476256852082 -0.26185238199468908 0 0.32887536429856462 -0.28418317007526239 0 0.32038070926540341 -0.27193950746052098 0 0.33669218373476412 -0.27574848135284402 0 0.32038070926540341 -0.27193950746052098 0 0.34080476256852082 -0.26185238199468908 0 0.33669218373476412 -0.27574848135284402 0 0.34080476256852082 -0.26185238199468908 0 0.33669218373476412 -0.27574848135284402 0 0.34964673674163171 -0.27574031413175271 0 0.33669218373476412 -0.27574848135284402 0 0.34964673674163171 -0.27574031413175271 0 0.34375334579970029 -0.28502703310199501 0 0.34080476256852082 -0.26185238199468908 0 0.34964673674163171 -0.27574031413175271 0 0.36006956999646272 -0.26713728130961301 0 0.34964673674163171 -0.27574031413175271 0 0.36299176745672951 -0.28038444231866799 0 0.36006956999646272 -0.26713728130961301 0 0.34964673674163171 -0.27574031413175271 0 0.36299176745672951 -0.28038444231866799 0 0.34962339836902001 -0.28699491181522863 0 0.34783106546937281 -0.24843756050561569 0 0.34080476256852082 -0.26185238199468908 0 0.36122881587163819 -0.25176525652885728 0 0.34080476256852082 -0.26185238199468908 0 0.36122881587163819 -0.25176525652885728 0 0.34080476256852082 -0.26185238199468908 0 0.36122881587163819 -0.25176525652885728 0 0.36006956999646272 -0.26713728130961301 0 0.36157309947191812 -0.2492025193231692 0 0.37826539935337461 -0.26815653733742911 0 0.36157309947191812 -0.2492025193231692 0 0.38338999904444448 -0.23946047744273499 0 0.37826539935337461 -0.26815653733742911 0 0.37826539935337461 -0.26815653733742911 0 0.36122881587163819 -0.25176525652885728 0 0.36006956999646272 -0.26713728130961301 0 0.36157309947191812 -0.2492025193231692 0 0.37826539935337461 -0.26815653733742911 0 0.36122881587163819 -0.25176525652885728 0 0.37826539935337461 -0.26815653733742911 0 0.36299176745672951 -0.28038444231866799 0 0.36006956999646272 -0.26713728130961301 0 0.37826539935337461 -0.26815653733742911 0 0.36299176745672951 -0.28038444231866799 0 0.3782298036702354 -0.28298921229491808 0 0.37826539935337461 -0.26815653733742911 0 0.36299176745672951 -0.28038444231866799 0 0.37642082220089768 -0.2959784906342478 0 0.35336419694868032 -0.28824897859035142 0 0.35989071042328907 -0.2978165500639936 0 0.37642082220089768 -0.2959784906342478 0 0.35336419694868032 -0.28824897859035142 0 0.37642082220089768 -0.2959784906342478 0 0.36299176745672951 -0.28038444231866799 0 0.35336419694868032 -0.28824897859035142 0 0.37642082220089768 -0.2959784906342478 0 0.3782298036702354 -0.28298921229491808 0 0.36299176745672951 -0.28038444231866799 0 0.36299176745672951 -0.28038444231866799 0 0.35336419694868032 -0.28824897859035142 0 0.34962339836902001 -0.28699491181522863 0 0.36299176745672951 -0.28038444231866799 0 0.34962339836902001 -0.28699491181522863 0 0.36299176745672951 -0.28038444231866799 0 0.35336419694868032 -0.28824897859035142 0 0.35336419694868032 -0.28824897859035142 0 0.35130996944906301 -0.30042371538899548 0 0.35989071042328907 -0.2978165500639936 0 0.34034624863689639 -0.2987529838764057 0 0.35336419694868032 -0.28824897859035142 0 0.34962339836902001 -0.28699491181522863 0 0.34034624863689639 -0.2987529838764057 0 0.35336419694868032 -0.28824897859035142 0 0.35130996944906301 -0.30042371538899548 0 0.34034624863689639 -0.2987529838764057 0 0.35336419694868032 -0.28824897859035142 0 0.34375334579970029 -0.28502703310199501 0 0.34962339836902001 -0.28699491181522863 0 0.34964673674163171 -0.27574031413175271 0 0.34375334579970029 -0.28502703310199501 0 0.34962339836902001 -0.28699491181522863 0 0.35336419694868032 -0.28824897859035142 0 0.34962339836902001 -0.28699491181522863 0 0.33720075944729128 -0.31200916684126068 0 0.34647250835451199 -0.30653158147069409 0 0.35194254020963189 -0.31280730134829232 0 0.34647250835451199 -0.30653158147069409 0 0.35263159474426808 -0.30644898627182737 0 0.35194254020963189 -0.31280730134829232 0 0.34034624863689639 -0.2987529838764057 0 0.34647250835451199 -0.30653158147069409 0 0.35130996944906301 -0.30042371538899548 0 0.34647250835451199 -0.30653158147069409 0 0.35130996944906301 -0.30042371538899548 0 0.35263159474426808 -0.30644898627182737 0 0.35130996944906301 -0.30042371538899548 0 0.35626344676304422 -0.30315729893950161 0 0.35989071042328907 -0.2978165500639936 0 0.35130996944906301 -0.30042371538899548 0 0.35626344676304422 -0.30315729893950161 0 0.35263159474426808 -0.30644898627182737 0 0.35626344676304422 -0.30315729893950161 0 0.35716950894508948 -0.30932503421165358 0 0.36349239577355003 -0.30430262777600903 0 0.35626344676304422 -0.30315729893950161 0 0.35263159474426808 -0.30644898627182737 0 0.35716950894508948 -0.30932503421165358 0 0.35263159474426808 -0.30644898627182737 0 0.35716950894508948 -0.30932503421165358 0 0.35194254020963189 -0.31280730134829232 0 0.35716950894508948 -0.30932503421165358 0 0.36203859382256659 -0.31134215542509391 0 0.35761937700266672 -0.31633977079528358 0 0.36203859382256659 -0.31134215542509391 0 0.36349239577355003 -0.30430262777600903 0 0.37016932155194721 -0.30946489114149578 0 0.37642082220089768 -0.2959784906342478 0 0.35989071042328907 -0.2978165500639936 0 0.36349239577355003 -0.30430262777600903 0 0.36203859382256659 -0.31134215542509391 0 0.37016932155194721 -0.30946489114149578 0 0.3649556626548931 -0.31547898698423688 0 0.35716950894508948 -0.30932503421165358 0 0.36203859382256659 -0.31134215542509391 0 0.36349239577355003 -0.30430262777600903 0 0.35626344676304422 -0.30315729893950161 0 0.35989071042328907 -0.2978165500639936 0 0.36349239577355003 -0.30430262777600903 0 0.37642082220089768 -0.2959784906342478 0 0.36349239577355003 -0.30430262777600903 0 0.37016932155194721 -0.30946489114149578 0 0.37016932155194721 -0.30946489114149578 0 0.37336889936850559 -0.31947899961008203 0 0.3649556626548931 -0.31547898698423688 0 0.38072235236213958 -0.33278944475668432 0 0.37336889936850559 -0.31947899961008203 0 0.3620820688462717 -0.32388925875844149 0 0.37336889936850559 -0.31947899961008203 0 0.3649556626548931 -0.31547898698423688 0 0.3615821215287795 -0.32076911794922902 0 0.3649556626548931 -0.31547898698423688 0 0.3615821215287795 -0.32076911794922902 0 0.35761937700266672 -0.31633977079528358 0 0.36203859382256659 -0.31134215542509391 0 0.3649556626548931 -0.31547898698423688 0 0.35761937700266672 -0.31633977079528358 0 0.37336889936850559 -0.31947899961008203 0 0.3615821215287795 -0.32076911794922902 0 0.3620820688462717 -0.32388925875844149 0 0.3615821215287795 -0.32076911794922902 0 0.3620820688462717 -0.32388925875844149 0 0.35761937700266672 -0.31633977079528358 0 0.3615821215287795 -0.32076911794922902 0 0.3620820688462717 -0.32388925875844149 0 0.3620820688462717 -0.32388925875844149 0 0.36561489377665718 -0.34593740433596271 0 0.38072235236213958 -0.33278944475668432 0 0.3620820688462717 -0.32388925875844149 0 0.36561489377665718 -0.34593740433596271 0 0.38072235236213958 -0.33278944475668432 0 0.3620820688462717 -0.32388925875844149 0 0.3620820688462717 -0.32388925875844149 0 0.35230735887515502 -0.33760245395795591 0 0.36561489377665718 -0.34593740433596271 0 0.3620820688462717 -0.32388925875844149 0 0.35230735887515502 -0.33760245395795591 0 0.34537130078282308 -0.32694623928413952 0 0.35230735887515502 -0.33760245395795591 0 0.34980187963082399 -0.35229209744616191 0 0.33875120001000791 -0.33841037648241268 0 0.35230735887515502 -0.33760245395795591 0 0.34537130078282308 -0.32694623928413952 0 0.33875120001000791 -0.33841037648241268 0 0.33720075944729128 -0.31200916684126068 0 0.3620820688462717 -0.32388925875844149 0 0.35194254020963189 -0.31280730134829232 0 0.33720075944729128 -0.31200916684126068 0 0.3620820688462717 -0.32388925875844149 0 0.33720075944729128 -0.31200916684126068 0 0.3620820688462717 -0.32388925875844149 0 0.34537130078282308 -0.32694623928413952 0 0.3620820688462717 -0.32388925875844149 0 0.35194254020963189 -0.31280730134829232 0 0.35761937700266672 -0.31633977079528358 0 0.35716950894508948 -0.30932503421165358 0 0.35194254020963189 -0.31280730134829232 0 0.35761937700266672 -0.31633977079528358 0 0.36914771870704671 -0.36798554991348331 0 0.36561489377665718 -0.34593740433596271 0 0.34980187963082399 -0.35229209744616191 0 0.36914771870704671 -0.36798554991348331 0 0.36561489377665718 -0.34593740433596271 0 0.38238154859213408 -0.34994939341446818 0 0.36914771870704671 -0.36798554991348331 0 0.36561489377665718 -0.34593740433596271 0 0.35230735887515502 -0.33760245395795591 0 0.36561489377665718 -0.34593740433596271 0 0.34980187963082399 -0.35229209744616191 0 0.36914771870704671 -0.36798554991348331 0 0.34980187963082399 -0.35229209744616191 0 0.3464094176674315 -0.3697642582872937 0 0.36914771870704671 -0.36798554991348331 0 0.3464094176674315 -0.3697642582872937 0 0.35730130852880448 -0.38163871506246672 0 0.36914771870704671 -0.36798554991348331 0 0.3464094176674315 -0.3697642582872937 0 0.3464094176674315 -0.3697642582872937 0 0.32367111662781639 -0.37154296666110409 0 0.3464094176674315 -0.3697642582872937 0 0.32678360555858887 -0.35276399734147351 0 0.32367111662781639 -0.37154296666110409 0 0.34980187963082399 -0.35229209744616191 0 0.32678360555858887 -0.35276399734147351 0 0.33875120001000791 -0.33841037648241268 0 0.34980187963082399 -0.35229209744616191 0 0.3464094176674315 -0.3697642582872937 0 0.32678360555858887 -0.35276399734147351 0 0.32678360555858887 -0.35276399734147351 0 0.31193259427799702 -0.36016645722329771 0 0.30880961699254061 -0.34397638407080322 0 0.32678360555858887 -0.35276399734147351 0 0.32190029915925761 -0.33852763743835279 0 0.30880961699254061 -0.34397638407080322 0 0.32678360555858887 -0.35276399734147351 0 0.32367111662781639 -0.37154296666110409 0 0.31193259427799702 -0.36016645722329771 0 0.30343168928695358 -0.37801561534858352 0 0.32367111662781639 -0.37154296666110409 0 0.31193259427799702 -0.36016645722329771 0 0.33720075944729128 -0.31200916684126068 0 0.33397152390689561 -0.32406736798768099 0 0.32296409785442071 -0.31273457613968081 0 0.33720075944729128 -0.31200916684126068 0 0.34537130078282308 -0.32694623928413952 0 0.33397152390689561 -0.32406736798768099 0 0.34537130078282308 -0.32694623928413952 0 0.33397152390689561 -0.32406736798768099 0 0.33875120001000791 -0.33841037648241268 0 0.33397152390689561 -0.32406736798768099 0 0.33875120001000791 -0.33841037648241268 0 0.32190029915925761 -0.33852763743835279 0 0.32678360555858887 -0.35276399734147351 0 0.33875120001000791 -0.33841037648241268 0 0.32190029915925761 -0.33852763743835279 0 0.33397152390689561 -0.32406736798768099 0 0.32190029915925761 -0.33852763743835279 0 0.31989651317475087 -0.32521328555722517 0 0.32190029915925761 -0.33852763743835279 0 0.30826124384662562 -0.33006875962913512 0 0.30880961699254061 -0.34397638407080322 0 0.32190029915925761 -0.33852763743835279 0 0.31989651317475087 -0.32521328555722517 0 0.30826124384662562 -0.33006875962913512 0 0.31989651317475087 -0.32521328555722517 0 0.31328239750282671 -0.31963920134136492 0 0.30826124384662562 -0.33006875962913512 0 0.32296409785442071 -0.31273457613968081 0 0.31328239750282671 -0.31963920134136492 0 0.30200773513550988 -0.31054018403941869 0 0.33397152390689561 -0.32406736798768099 0 0.31989651317475087 -0.32521328555722517 0 0.32296409785442071 -0.31273457613968081 0 0.31989651317475087 -0.32521328555722517 0 0.32296409785442071 -0.31273457613968081 0 0.31328239750282671 -0.31963920134136492 0 0.31328239750282671 -0.31963920134136492 0 0.30826124384662562 -0.33006875962913512 0 0.30200773513550988 -0.31054018403941869 0 0.30826124384662562 -0.33006875962913512 0 0.29445172810447168 -0.33180657598446289 0 0.30200773513550988 -0.31054018403941869 0 0.29445172810447168 -0.33180657598446289 0 0.30880961699254061 -0.34397638407080322 0 0.2910013370105235 -0.34571590690483328 0 0.30826124384662562 -0.33006875962913512 0 0.29445172810447168 -0.33180657598446289 0 0.30880961699254061 -0.34397638407080322 0 0.29445172810447168 -0.33180657598446289 0 0.2781999035187559 -0.3223128201515158 0 0.27769878647194252 -0.34038516263014962 0 0.29445172810447168 -0.33180657598446289 0 0.2910013370105235 -0.34571590690483328 0 0.27769878647194252 -0.34038516263014962 0 0.2781999035187559 -0.3223128201515158 0 0.30200773513550988 -0.31054018403941869 0 0.29445172810447168 -0.33180657598446289 0 0.2781999035187559 -0.3223128201515158 0 0.30200773513550988 -0.31054018403941869 0 0.30343168928695358 -0.37801561534858352 0 0.31193259427799702 -0.36016645722329771 0 0.29619884037960892 -0.35925898636914111 0 0.31193259427799702 -0.36016645722329771 0 0.30880961699254061 -0.34397638407080322 0 0.29619884037960892 -0.35925898636914111 0 0.30880961699254061 -0.34397638407080322 0 0.2910013370105235 -0.34571590690483328 0 0.29619884037960892 -0.35925898636914111 0 0.2910013370105235 -0.34571590690483328 0 0.2771976694251283 -0.35845750510878338 0 0.27769878647194252 -0.34038516263014962 0 0.2910013370105235 -0.34571590690483328 0 0.29619884037960892 -0.35925898636914111 0 0.2771976694251283 -0.35845750510878338 0 0.30343168928695358 -0.37801561534858352 0 0.29619884037960892 -0.35925898636914111 0 0.28314208034892502 -0.37395607270838699 0 0.29619884037960892 -0.35925898636914111 0 0.28314208034892502 -0.37395607270838699 0 0.2771976694251283 -0.35845750510878338 0 0.28314208034892502 -0.37395607270838699 0 0.26638795307375829 -0.36808935902844231 0 0.2771976694251283 -0.35845750510878338 0 0.26638795307375829 -0.36808935902844231 0 0.2771976694251283 -0.35845750510878338 0 0.26407248276613371 -0.35048570128491008 0 0.2771976694251283 -0.35845750510878338 0 0.27769878647194252 -0.34038516263014962 0 0.2771976694251283 -0.35845750510878338 0 0.26407248276613371 -0.35048570128491008 0 0.27769878647194252 -0.34038516263014962 0 0.26407248276613371 -0.35048570128491008 0 0.25671122010134811 -0.33864206078699838 0 0.2484717095243528 -0.34901893476030699 0 0.26407248276613371 -0.35048570128491008 0 0.25221238085393388 -0.36319079487236372 0 0.2484717095243528 -0.34901893476030699 0 0.26638795307375829 -0.36808935902844231 0 0.26407248276613371 -0.35048570128491008 0 0.25221238085393388 -0.36319079487236372 0 0.2543150598661002 -0.3778535733630547 0 0.26638795307375829 -0.36808935902844231 0 0.25221238085393388 -0.36319079487236372 0 0.26649096223211699 -0.31997724831821922 0 0.2781999035187559 -0.3223128201515158 0 0.26520878238752399 -0.30617377516736971 0 0.27306735053142189 -0.32485079503383812 0 0.26649096223211699 -0.31997724831821922 0 0.2781999035187559 -0.3223128201515158 0 0.27306735053142189 -0.32485079503383812 0 0.26649096223211699 -0.31997724831821922 0 0.26207225338735968 -0.32839912620638773 0 0.27306735053142189 -0.32485079503383812 0 0.2781999035187559 -0.3223128201515158 0 0.2781999035187559 -0.3223128201515158 0 0.27769878647194252 -0.34038516263014962 0 0.27306735053142189 -0.32485079503383812 0 0.2781999035187559 -0.3223128201515158 0 0.27769878647194252 -0.34038516263014962 0 0.26407248276613371 -0.35048570128491008 0 0.27769878647194252 -0.34038516263014962 0 0.2667244186516412 -0.33655256918845677 0 0.27306735053142189 -0.32485079503383812 0 0.2667244186516412 -0.33655256918845677 0 0.26207225338735968 -0.32839912620638773 0 0.27306735053142189 -0.32485079503383812 0 0.27769878647194252 -0.34038516263014962 0 0.2667244186516412 -0.33655256918845677 0 0.2667244186516412 -0.33655256918845677 0 0.26207225338735968 -0.32839912620638773 0 0.25671122010134811 -0.33864206078699838 0 0.26407248276613371 -0.35048570128491008 0 0.2667244186516412 -0.33655256918845677 0 0.25671122010134811 -0.33864206078699838 0 0.25671122010134811 -0.33864206078699838 0 0.24571035341518249 -0.33780793009758048 0 0.2484717095243528 -0.34901893476030699 0 0.26207225338735968 -0.32839912620638773 0 0.25671122010134811 -0.33864206078699838 0 0.25119887832867221 -0.32994679665368581 0 0.25671122010134811 -0.33864206078699838 0 0.25119887832867221 -0.32994679665368581 0 0.24571035341518249 -0.33780793009758048 0 0.26207225338735968 -0.32839912620638773 0 0.25119887832867221 -0.32994679665368581 0 0.25390652133552288 -0.31814972503198452 0 0.26649096223211699 -0.31997724831821922 0 0.26207225338735968 -0.32839912620638773 0 0.25390652133552288 -0.31814972503198452 0 0.26649096223211699 -0.31997724831821922 0 0.25390652133552288 -0.31814972503198452 0 0.26520878238752399 -0.30617377516736971 0 0.25390652133552288 -0.31814972503198452 0 0.25157554889381289 -0.3029860093984339 0 0.26520878238752399 -0.30617377516736971 0 0.25157554889381289 -0.3029860093984339 0 0.26520878238752399 -0.30617377516736971 0 0.25707211178811368 -0.29070571348483792 0 0.26520878238752399 -0.30617377516736971 0 0.25707211178811368 -0.29070571348483792 0 0.26891002967316102 -0.28628744036289377 0 0.25707211178811368 -0.29070571348483792 0 0.26318291304086538 -0.2752351995270193 0 0.25184639563294198 -0.28013545519253658 0 0.25707211178811368 -0.29070571348483792 0 0.26891002967316102 -0.28628744036289377 0 0.26318291304086538 -0.2752351995270193 0 0.27903765557208671 -0.29210003430395981 0 0.27879259820055058 -0.30093781137314579 0 0.26891002967316102 -0.28628744036289377 0 0.27903765557208671 -0.29210003430395981 0 0.27879259820055058 -0.30093781137314579 0 0.26891002967316102 -0.28628744036289377 0 0.27903765557208671 -0.29210003430395981 0 0.27938529288234459 -0.27956280259477589 0 0.27903765557208671 -0.29210003430395981 0 0.27938529288234459 -0.27956280259477589 0 0.2781999035187559 -0.3223128201515158 0 0.27879259820055058 -0.30093781137314579 0 0.26520878238752399 -0.30617377516736971 0 0.26891002967316102 -0.28628744036289377 0 0.27879259820055058 -0.30093781137314579 0 0.2781999035187559 -0.3223128201515158 0 0.26520878238752399 -0.30617377516736971 0 0.27879259820055058 -0.30093781137314579 0 0.2781999035187559 -0.3223128201515158 0 0.27879259820055058 -0.30093781137314579 0 0.30200773513550988 -0.31054018403941869 0 0.27879259820055058 -0.30093781137314579 0 0.29370649449803882 -0.29774546777434019 0 0.30200773513550988 -0.31054018403941869 0 0.27903765557208671 -0.29210003430395981 0 0.27879259820055058 -0.30093781137314579 0 0.29370649449803882 -0.29774546777434019 0 0.27903765557208671 -0.29210003430395981 0 0.29995665596228588 -0.28202663292635288 0 0.27903765557208671 -0.29210003430395981 0 0.29370649449803882 -0.29774546777434019 0 0.29995665596228588 -0.28202663292635288 0 0.27903765557208671 -0.29210003430395981 0 0.29995665596228588 -0.28202663292635288 0 0.27938529288234459 -0.27956280259477589 0 0.29370649449803882 -0.29774546777434019 0 0.3117904209853446 -0.29086708503386971 0 0.29995665596228588 -0.28202663292635288 0 0.32038070926540341 -0.27193950746052098 0 0.3117904209853446 -0.29086708503386971 0 0.29995665596228588 -0.28202663292635288 0 0.29370649449803882 -0.29774546777434019 0 0.3117904209853446 -0.29086708503386971 0 0.30200773513550988 -0.31054018403941869 0 0.30485867779484899 -0.26301991250112822 0 0.2910607718375719 -0.2691908232592265 0 0.2960622489784801 -0.25367981408193813 0 0.30679468666361731 -0.249384579544184 0 0.30485867779484899 -0.26301991250112822 0 0.2960622489784801 -0.25367981408193813 0 0.30679468666361731 -0.249384579544184 0 0.31612366293074279 -0.25382610042543741 0 0.30485867779484899 -0.26301991250112822 0 0.32038070926540341 -0.27193950746052098 0 0.29995665596228588 -0.28202663292635288 0 0.30485867779484899 -0.26301991250112822 0 0.32038070926540341 -0.27193950746052098 0 0.29995665596228588 -0.28202663292635288 0 0.29995665596228588 -0.28202663292635288 0 0.30485867779484899 -0.26301991250112822 0 0.2910607718375719 -0.2691908232592265 0 0.2910607718375719 -0.2691908232592265 0 0.27997798756413422 -0.25818779381640589 0 0.27938529288234459 -0.27956280259477589 0 0.29995665596228588 -0.28202663292635288 0 0.2910607718375719 -0.2691908232592265 0 0.27938529288234459 -0.27956280259477589 0 0.2960622489784801 -0.25367981408193813 0 0.27997798756413422 -0.25818779381640589 0 0.2960622489784801 -0.25367981408193813 0 0.28004875328311768 -0.25563569083518961 0 0.27997798756413422 -0.25818779381640589 0 0.29632562921252242 -0.24084854670530759 0 0.2960622489784801 -0.25367981408193813 0 0.28004875328311768 -0.25563569083518961 0 0.2910607718375719 -0.2691908232592265 0 0.2960622489784801 -0.25367981408193813 0 0.27997798756413422 -0.25818779381640589 0 0.28004875328311768 -0.25563569083518961 0 0.2760177793832792 -0.25929773214454321 0 0.27317960725986401 -0.25147320184929878 0 0.28026885945067043 -0.24769775683955519 0 0.28004875328311768 -0.25563569083518961 0 0.27317960725986401 -0.25147320184929878 0 0.28026885945067043 -0.24769775683955519 0 0.28004875328311768 -0.25563569083518961 0 0.2760177793832792 -0.25929773214454321 0 0.27262833586398177 -0.2623769587760757 0 0.24972414706016799 -0.26666712005764648 0 0.28004875328311768 -0.25563569083518961 0 0.2760177793832792 -0.25929773214454321 0 0.28004875328311768 -0.25563569083518961 0 0.27997798756413422 -0.25818779381640589 0 0.2760177793832792 -0.25929773214454321 0 0.28004875328311768 -0.25563569083518961 0 0.27997798756413422 -0.25818779381640589 0 0.27997798756413422 -0.25818779381640589 0 0.2760177793832792 -0.25929773214454321 0 0.2760177793832792 -0.25929773214454321 0 0.27262833586398177 -0.2623769587760757 0 0.27335038973462777 -0.27015798787028561 0 0.27997798756413422 -0.25818779381640589 0 0.2760177793832792 -0.25929773214454321 0 0.27335038973462777 -0.27015798787028561 0 0.2760177793832792 -0.25929773214454321 0 0.27262833586398177 -0.2623769587760757 0 0.26624854112165408 -0.2474146548390701 0 0.27317960725986401 -0.25147320184929878 0 0.26426527685923368 -0.25743952655496583 0 0.2760177793832792 -0.25929773214454321 0 0.27317960725986401 -0.25147320184929878 0 0.26426527685923368 -0.25743952655496583 0 0.27997798756413422 -0.25818779381640589 0 0.27938529288234459 -0.27956280259477589 0 0.27335038973462777 -0.27015798787028561 0 0.26891002967316102 -0.28628744036289377 0 0.27938529288234459 -0.27956280259477589 0 0.27335038973462777 -0.27015798787028561 0 0.26891002967316102 -0.28628744036289377 0 0.27335038973462777 -0.27015798787028561 0 0.26318291304086538 -0.2752351995270193 0 0.27997798756413422 -0.25818779381640589 0 0.27938529288234459 -0.27956280259477589 0 0.27262833586398177 -0.2623769587760757 0 0.27335038973462777 -0.27015798787028561 0 0.26318291304086538 -0.2752351995270193 0 0.27262833586398177 -0.2623769587760757 0 0.26318291304086538 -0.2752351995270193 0 0.24972414706016799 -0.26666712005764648 0 0.26318291304086538 -0.2752351995270193 0 0.25184639563294198 -0.28013545519253658 0 0.24972414706016799 -0.26666712005764648 0 0.2760177793832792 -0.25929773214454321 0 0.26426527685923368 -0.25743952655496583 0 0.24972414706016799 -0.26666712005764648 0 0.26426527685923368 -0.25743952655496583 0 0.25241460081779321 -0.25043473270287703 0 0.24972414706016799 -0.26666712005764648 0 0.2760177793832792 -0.25929773214454321 0 0.24972414706016799 -0.26666712005764648 0 0.26624854112165408 -0.2474146548390701 0 0.26426527685923368 -0.25743952655496583 0 0.26624854112165408 -0.2474146548390701 0 0.26426527685923368 -0.25743952655496583 0 0.25241460081779321 -0.25043473270287703 0 0.25241460081779321 -0.25043473270287703 0 0.23901890545249649 -0.25648585442895377 0 0.24972414706016799 -0.26666712005764648 0 0.23901890545249649 -0.25648585442895377 0 0.24972414706016799 -0.26666712005764648 0 0.22343051473705711 -0.27403650797075108 0 0.24972414706016799 -0.26666712005764648 0 0.22343051473705711 -0.27403650797075108 0 0.237406410642621 -0.28793378770064282 0 0.24972414706016799 -0.26666712005764648 0 0.22343051473705711 -0.27403650797075108 0 0.25184639563294198 -0.28013545519253658 0 0.24972414706016799 -0.26666712005764648 0 0.237406410642621 -0.28793378770064282 0 0.23901890545249649 -0.25648585442895377 0 0.22343051473705711 -0.27403650797075108 0 0.22387296456393649 -0.25705860102201228 0 0.23901890545249649 -0.25648585442895377 0 0.22387296456393649 -0.25705860102201228 0 0.22865362017507851 -0.2459522529565806 0 0.22387296456393649 -0.25705860102201228 0 0.22865362017507851 -0.2459522529565806 0 0.21747070015921119 -0.24758646643530779 0 0.22343051473705711 -0.27403650797075108 0 0.22387296456393649 -0.25705860102201228 0 0.20660961767864569 -0.25912809453969349 0 0.22387296456393649 -0.25705860102201228 0 0.20660961767864569 -0.25912809453969349 0 0.21747070015921119 -0.24758646643530779 0 0.22343051473705711 -0.27403650797075108 0 0.19713688241394631 -0.28140589588385578 0 0.22343051473705711 -0.27403650797075108 0 0.20660961767864569 -0.25912809453969349 0 0.19713688241394631 -0.28140589588385578 0 0.20660961767864569 -0.25912809453969349 0 0.19713688241394631 -0.28140589588385578 0 0.18225956063703971 -0.26765793536170179 0 0.20660961767864569 -0.25912809453969349 0 0.18225956063703971 -0.26765793536170179 0 0.19136082564305021 -0.2484708756777885 0 0.1879371121335297 -0.30516471459894468 0 0.2154779256444426 -0.29955261463680588 0 0.20238621096456169 -0.32011331046633201 0 0.1879371121335297 -0.30516471459894468 0 0.19713688241394631 -0.28140589588385578 0 0.2154779256444426 -0.29955261463680588 0 0.22343051473705711 -0.27403650797075108 0 0.19713688241394631 -0.28140589588385578 0 0.2154779256444426 -0.29955261463680588 0 0.2154779256444426 -0.29955261463680588 0 0.2390209499860303 -0.30793056800992502 0 0.22277222405437661 -0.31802291345784911 0 0.2154779256444426 -0.29955261463680588 0 0.237406410642621 -0.28793378770064282 0 0.2390209499860303 -0.30793056800992502 0 0.22343051473705711 -0.27403650797075108 0 0.2154779256444426 -0.29955261463680588 0 0.237406410642621 -0.28793378770064282 0 0.25157554889381289 -0.3029860093984339 0 0.25707211178811368 -0.29070571348483792 0 0.237406410642621 -0.28793378770064282 0 0.25707211178811368 -0.29070571348483792 0 0.25184639563294198 -0.28013545519253658 0 0.237406410642621 -0.28793378770064282 0 0.25157554889381289 -0.3029860093984339 0 0.237406410642621 -0.28793378770064282 0 0.2390209499860303 -0.30793056800992502 0 0.25390652133552288 -0.31814972503198452 0 0.25157554889381289 -0.3029860093984339 0 0.2390209499860303 -0.30793056800992502 0 0.25390652133552288 -0.31814972503198452 0 0.2390209499860303 -0.30793056800992502 0 0.23849683290192711 -0.32655354001661863 0 0.25119887832867221 -0.32994679665368581 0 0.25390652133552288 -0.31814972503198452 0 0.23849683290192711 -0.32655354001661863 0 0.23849683290192711 -0.32655354001661863 0 0.24571035341518249 -0.33780793009758048 0 0.23547870521557071 -0.34451511601257462 0 0.25119887832867221 -0.32994679665368581 0 0.23849683290192711 -0.32655354001661863 0 0.24571035341518249 -0.33780793009758048 0 0.23849683290192711 -0.32655354001661863 0 0.23547870521557071 -0.34451511601257462 0 0.2184792007749215 -0.33596453415956401 0 0.23849683290192711 -0.32655354001661863 0 0.22277222405437661 -0.31802291345784911 0 0.2184792007749215 -0.33596453415956401 0 0.2390209499860303 -0.30793056800992502 0 0.23849683290192711 -0.32655354001661863 0 0.22277222405437661 -0.31802291345784911 0 0.2543150598661002 -0.3778535733630547 0 0.25221238085393388 -0.36319079487236372 0 0.24107760733654909 -0.37212755537095499 0 0.25221238085393388 -0.36319079487236372 0 0.24107760733654909 -0.37212755537095499 0 0.23845439992224229 -0.35772245663765329 0 0.24107760733654909 -0.37212755537095499 0 0.23845439992224229 -0.35772245663765329 0 0.22953788506097331 -0.36625024908291398 0 0.25221238085393388 -0.36319079487236372 0 0.23845439992224229 -0.35772245663765329 0 0.2484717095243528 -0.34901893476030699 0 0.24571035341518249 -0.33780793009758048 0 0.2484717095243528 -0.34901893476030699 0 0.23547870521557071 -0.34451511601257462 0 0.23845439992224229 -0.35772245663765329 0 0.2484717095243528 -0.34901893476030699 0 0.23547870521557071 -0.34451511601257462 0 0.23547870521557071 -0.34451511601257462 0 0.22431707106900151 -0.35393553033387209 0 0.2184792007749215 -0.33596453415956401 0 0.23845439992224229 -0.35772245663765329 0 0.22431707106900151 -0.35393553033387209 0 0.22953788506097331 -0.36625024908291398 0 0.23845439992224229 -0.35772245663765329 0 0.23547870521557071 -0.34451511601257462 0 0.22431707106900151 -0.35393553033387209 0 0.22953788506097331 -0.36625024908291398 0 0.21374372850296319 -0.36751946088175869 0 0.227573924272679 -0.38046950699598492 0 0.22431707106900151 -0.35393553033387209 0 0.22953788506097331 -0.36625024908291398 0 0.21374372850296319 -0.36751946088175869 0 0.24107760733654909 -0.37212755537095499 0 0.22953788506097331 -0.36625024908291398 0 0.227573924272679 -0.38046950699598492 0 0.21374372850296319 -0.36751946088175869 0 0.210208506937338 -0.3516413652287681 0 0.19361168085718991 -0.36466350037132261 0 0.21374372850296319 -0.36751946088175869 0 0.19361168085718991 -0.36466350037132261 0 0.20204223939295729 -0.38049764053701662 0 0.22431707106900151 -0.35393553033387209 0 0.210208506937338 -0.3516413652287681 0 0.2184792007749215 -0.33596453415956401 0 0.22431707106900151 -0.35393553033387209 0 0.21374372850296319 -0.36751946088175869 0 0.210208506937338 -0.3516413652287681 0 0.210208506937338 -0.3516413652287681 0 0.19361168085718991 -0.36466350037132261 0 0.19534214130791189 -0.34151242765146722 0 0.22277222405437661 -0.31802291345784911 0 0.2184792007749215 -0.33596453415956401 0 0.20238621096456169 -0.32011331046633201 0 0.2154779256444426 -0.29955261463680588 0 0.22277222405437661 -0.31802291345784911 0 0.20238621096456169 -0.32011331046633201 0 0.210208506937338 -0.3516413652287681 0 0.2184792007749215 -0.33596453415956401 0 0.19534214130791189 -0.34151242765146722 0 0.2184792007749215 -0.33596453415956401 0 0.19534214130791189 -0.34151242765146722 0 0.20238621096456169 -0.32011331046633201 0 0.19534214130791189 -0.34151242765146722 0 0.20238621096456169 -0.32011331046633201 0 0.1800596041559033 -0.32727582332231731 0 0.1879371121335297 -0.30516471459894468 0 0.20238621096456169 -0.32011331046633201 0 0.1800596041559033 -0.32727582332231731 0 0.1879371121335297 -0.30516471459894468 0 0.1800596041559033 -0.32727582332231731 0 0.16171879953148921 -0.31386535948739752 0 0.19534214130791189 -0.34151242765146722 0 0.1800596041559033 -0.32727582332231731 0 0.1727991882107478 -0.34948988670936437 0 0.1800596041559033 -0.32727582332231731 0 0.163762493002265 -0.33212527150976479 0 0.1727991882107478 -0.34948988670936437 0 0.163762493002265 -0.33212527150976479 0 0.1727991882107478 -0.34948988670936437 0 0.1556435196492226 -0.34395183875876562 0 0.163762493002265 -0.33212527150976479 0 0.16171879953148921 -0.31386535948739752 0 0.14859135346396191 -0.32604344927097889 0 0.1800596041559033 -0.32727582332231731 0 0.163762493002265 -0.33212527150976479 0 0.16171879953148921 -0.31386535948739752 0 0.19361168085718991 -0.36466350037132261 0 0.1727991882107478 -0.34948988670936437 0 0.17049377456838291 -0.37686463166009099 0 0.19361168085718991 -0.36466350037132261 0 0.19534214130791189 -0.34151242765146722 0 0.1727991882107478 -0.34948988670936437 0 0.1727991882107478 -0.34948988670936437 0 0.1546376167929463 -0.36112284535454958 0 0.1556435196492226 -0.34395183875876562 0 0.15413229712703261 -0.36972141921677998 0 0.1546376167929463 -0.36112284535454958 0 0.17049377456838291 -0.37686463166009099 0 0.1546376167929463 -0.36112284535454958 0 0.17049377456838291 -0.37686463166009099 0 0.1727991882107478 -0.34948988670936437 0 0.1546376167929463 -0.36112284535454958 0 0.17049377456838291 -0.37686463166009099 0 0.15413229712703261 -0.36972141921677998 0 0.14037100614140821 -0.36353594437070591 0 0.1416549905892609 -0.3770066299824667 0 0.15413229712703261 -0.36972141921677998 0 0.1546376167929463 -0.36112284535454958 0 0.15413229712703261 -0.36972141921677998 0 0.1546376167929463 -0.36112284535454958 0 0.14037100614140821 -0.36353594437070591 0 0.1546376167929463 -0.36112284535454958 0 0.1393590267621648 -0.34595446076095221 0 0.14037100614140821 -0.36353594437070591 0 0.1546376167929463 -0.36112284535454958 0 0.1556435196492226 -0.34395183875876562 0 0.1546376167929463 -0.36112284535454958 0 0.1556435196492226 -0.34395183875876562 0 0.1393590267621648 -0.34595446076095221 0 0.1546376167929463 -0.36112284535454958 0 0.1393590267621648 -0.34595446076095221 0 0.12745085933380329 -0.35423090476633268 0 0.1393590267621648 -0.34595446076095221 0 0.14037100614140821 -0.36353594437070591 0 0.14037100614140821 -0.36353594437070591 0 0.1416549905892609 -0.3770066299824667 0 0.1240614338456624 -0.37194020949616052 0 0.12745085933380329 -0.35423090476633268 0 0.14037100614140821 -0.36353594437070591 0 0.1240614338456624 -0.37194020949616052 0 0.16171879953148921 -0.31386535948739752 0 0.14859135346396191 -0.32604344927097889 0 0.14107823628748209 -0.31518516712568873 0 0.1556435196492226 -0.34395183875876562 0 0.1393590267621648 -0.34595446076095221 0 0.14859135346396191 -0.32604344927097889 0 0.1393590267621648 -0.34595446076095221 0 0.14859135346396191 -0.32604344927097889 0 0.1367622824663563 -0.33061842442775041 0 0.163762493002265 -0.33212527150976479 0 0.1556435196492226 -0.34395183875876562 0 0.14859135346396191 -0.32604344927097889 0 0.1393590267621648 -0.34595446076095221 0 0.1367622824663563 -0.33061842442775041 0 0.12408043673138271 -0.3307860761673555 0 0.12745085933380329 -0.35423090476633268 0 0.1393590267621648 -0.34595446076095221 0 0.12408043673138271 -0.3307860761673555 0 0.1393590267621648 -0.34595446076095221 0 0.12408043673138271 -0.3307860761673555 0 0.14107823628748209 -0.31518516712568873 0 0.12869660008228251 -0.32083057042236668 0 0.12542803600290769 -0.30672450909944321 0 0.14859135346396191 -0.32604344927097889 0 0.1367622824663563 -0.33061842442775041 0 0.12869660008228251 -0.32083057042236668 0 0.14859135346396191 -0.32604344927097889 0 0.12869660008228251 -0.32083057042236668 0 0.1367622824663563 -0.33061842442775041 0 0.12869660008228251 -0.32083057042236668 0 0.12408043673138271 -0.3307860761673555 0 0.14859135346396191 -0.32604344927097889 0 0.14107823628748209 -0.31518516712568873 0 0.12869660008228251 -0.32083057042236668 0 0.14107823628748209 -0.31518516712568873 0 0.12542803600290769 -0.30672450909944321 0 0.14405887867116879 -0.3016058229718791 0 0.12542803600290769 -0.30672450909944321 0 0.14405887867116879 -0.3016058229718791 0 0.12376173592536011 -0.28709211698794412 0 0.16171879953148921 -0.31386535948739752 0 0.14107823628748209 -0.31518516712568873 0 0.14405887867116879 -0.3016058229718791 0 0.14405887867116879 -0.3016058229718791 0 0.14630263048980091 -0.28200880560337649 0 0.1708432500908354 -0.28877528379696038 0 0.14405887867116879 -0.3016058229718791 0 0.14630263048980091 -0.28200880560337649 0 0.12376173592536011 -0.28709211698794412 0 0.14630263048980091 -0.28200880560337649 0 0.1346905799108257 -0.26249869470809373 0 0.12376173592536011 -0.28709211698794412 0 0.1346905799108257 -0.26249869470809373 0 0.1630257027769379 -0.25548478519294121 0 0.15584797221889829 -0.2390394655459922 0 0.1346905799108257 -0.26249869470809373 0 0.15942434478108791 -0.27128510093261471 0 0.1630257027769379 -0.25548478519294121 0 0.1346905799108257 -0.26249869470809373 0 0.1630257027769379 -0.25548478519294121 0 0.14630263048980091 -0.28200880560337649 0 0.1346905799108257 -0.26249869470809373 0 0.15942434478108791 -0.27128510093261471 0 0.14630263048980091 -0.28200880560337649 0 0.15942434478108791 -0.27128510093261471 0 0.1708432500908354 -0.28877528379696038 0 0.15942434478108791 -0.27128510093261471 0 0.18225956063703971 -0.26765793536170179 0 0.1708432500908354 -0.28877528379696038 0 0.15942434478108791 -0.27128510093261471 0 0.1630257027769379 -0.25548478519294121 0 0.18225956063703971 -0.26765793536170179 0 0.1630257027769379 -0.25548478519294121 0 0.19136082564305021 -0.2484708756777885 0 0.1630257027769379 -0.25548478519294121 0 0.18225956063703971 -0.26765793536170179 0 0.19136082564305021 -0.2484708756777885 0 0.19713688241394631 -0.28140589588385578 0 0.18225956063703971 -0.26765793536170179 0 0.1708432500908354 -0.28877528379696038 0 0.1879371121335297 -0.30516471459894468 0 0.19713688241394631 -0.28140589588385578 0 0.1708432500908354 -0.28877528379696038 0 0.19713688241394631 -0.28140589588385578 0 0.1708432500908354 -0.28877528379696038 0 0.1879371121335297 -0.30516471459894468 0 0.16171879953148921 -0.31386535948739752 0 0.1708432500908354 -0.28877528379696038 0 0.16171879953148921 -0.31386535948739752 0 0.14405887867116879 -0.3016058229718791 0 0.1708432500908354 -0.28877528379696038 0 0.20246822923601351 -0.5 0 0.2035702784650246 -0.48501554053491719 0 0.1821928608305631 -0.48386688462243571 0 0.19349524034772159 -0.47239383428813081 0 0.2035702784650246 -0.48501554053491719 0 0.1821928608305631 -0.48386688462243571 0 0.19349524034772159 -0.47239383428813081 0 0.21798864921746791 -0.47944804331191199 0 0.19349524034772159 -0.47239383428813081 0 0.21798864921746791 -0.47944804331191199 0 0.2035702784650246 -0.48501554053491719 0 0.19349524034772159 -0.47239383428813081 0 0.20916536920477069 -0.46933122108016673 0 0.21798864921746791 -0.47944804331191199 0 0.21798864921746791 -0.47944804331191199 0 0.21717177255412839 -0.48982583887738268 0 0.2035702784650246 -0.48501554053491719 0 0.20246822923601351 -0.5 0 0.21717177255412839 -0.48982583887738268 0 0.22924156793387879 -0.5 0 0.20246822923601351 -0.5 0 0.21717177255412839 -0.48982583887738268 0 0.2035702784650246 -0.48501554053491719 0 0.21798864921746791 -0.47944804331191199 0 0.21717177255412839 -0.48982583887738268 0 0.23259013791825711 -0.48466561054008422 0 0.21717177255412839 -0.48982583887738268 0 0.23259013791825711 -0.48466561054008422 0 0.22924156793387879 -0.5 0 0.25209246771951649 -0.48287927516763668 0 0.25601490663174409 -0.500000000000001 0 0.23259013791825711 -0.48466561054008422 0 0.25601490663174409 -0.500000000000001 0 0.23259013791825711 -0.48466561054008422 0 0.22924156793387879 -0.5 0 0.25601490663174409 -0.500000000000001 0 0.23259013791825711 -0.48466561054008422 0 0.25209246771951649 -0.48287927516763668 0 0.23259013791825711 -0.48466561054008422 0 0.24038221506437699 -0.475038412315131 0 0.25017935571247679 -0.4716569667895848 0 0.24038221506437699 -0.475038412315131 0 0.23955977406574441 -0.46565668986936398 0 0.25209246771951649 -0.48287927516763668 0 0.25017935571247679 -0.4716569667895848 0 0.24038221506437699 -0.475038412315131 0 0.24038221506437699 -0.475038412315131 0 0.22718966591902551 -0.46761772497500448 0 0.23955977406574441 -0.46565668986936398 0 0.20916536920477069 -0.46933122108016673 0 0.23259013791825711 -0.48466561054008422 0 0.20916536920477069 -0.46933122108016673 0 0.23259013791825711 -0.48466561054008422 0 0.22718966591902551 -0.46761772497500448 0 0.20916536920477069 -0.46933122108016673 0 0.21798864921746791 -0.47944804331191199 0 0.23259013791825711 -0.48466561054008422 0 0.23259013791825711 -0.48466561054008422 0 0.24038221506437699 -0.475038412315131 0 0.22718966591902551 -0.46761772497500448 0 0.22718966591902551 -0.46761772497500448 0 0.2251013862804882 -0.45266514194928847 0 0.21667017382501111 -0.45917926063764719 0 0.2251013862804882 -0.45266514194928847 0 0.2147669957297387 -0.4481177367223913 0 0.21667017382501111 -0.45917926063764719 0 0.22718966591902551 -0.46761772497500448 0 0.2375932146816426 -0.45302731729310891 0 0.2251013862804882 -0.45266514194928847 0 0.25323457909965391 -0.45899582982650611 0 0.23955977406574441 -0.46565668986936398 0 0.2375932146816426 -0.45302731729310891 0 0.22718966591902551 -0.46761772497500448 0 0.23955977406574441 -0.46565668986936398 0 0.2375932146816426 -0.45302731729310891 0 0.25323457909965391 -0.45899582982650611 0 0.25017935571247679 -0.4716569667895848 0 0.23955977406574441 -0.46565668986936398 0 0.25303584543133201 -0.44500039774258632 0 0.25323457909965391 -0.45899582982650611 0 0.2375932146816426 -0.45302731729310891 0 0.25303584543133201 -0.44500039774258632 0 0.2375932146816426 -0.45302731729310891 0 0.2409960332753161 -0.44067852758097148 0 0.2375932146816426 -0.45302731729310891 0 0.2409960332753161 -0.44067852758097148 0 0.22777217943939679 -0.43980782914091238 0 0.2375932146816426 -0.45302731729310891 0 0.22777217943939679 -0.43980782914091238 0 0.2251013862804882 -0.45266514194928847 0 0.22777217943939679 -0.43980782914091238 0 0.2251013862804882 -0.45266514194928847 0 0.2147669957297387 -0.4481177367223913 0 0.22777217943939679 -0.43980782914091238 0 0.2147669957297387 -0.4481177367223913 0 0.20994323711454341 -0.43598935344663442 0 0.20355646182275611 -0.44383059742948522 0 0.1968047875090663 -0.43575617974728698 0 0.20994323711454341 -0.43598935344663442 0 0.20355646182275611 -0.44383059742948522 0 0.2147669957297387 -0.4481177367223913 0 0.20994323711454341 -0.43598935344663442 0 0.20355646182275611 -0.44383059742948522 0 0.2147669957297387 -0.4481177367223913 0 0.20378560162072651 -0.45367987557382078 0 0.2147669957297387 -0.4481177367223913 0 0.21667017382501111 -0.45917926063764719 0 0.20378560162072651 -0.45367987557382078 0 0.20916536920477069 -0.46933122108016673 0 0.21667017382501111 -0.45917926063764719 0 0.20378560162072651 -0.45367987557382078 0 0.20916536920477069 -0.46933122108016673 0 0.22718966591902551 -0.46761772497500448 0 0.21667017382501111 -0.45917926063764719 0 0.19349524034772159 -0.47239383428813081 0 0.20916536920477069 -0.46933122108016673 0 0.18574060049128421 -0.45399683162024917 0 0.20916536920477069 -0.46933122108016673 0 0.20378560162072651 -0.45367987557382078 0 0.18574060049128421 -0.45399683162024917 0 0.20916536920477069 -0.46933122108016673 0 0.18574060049128421 -0.45399683162024917 0 0.19504386268320509 -0.44494598328280838 0 0.18533186197219251 -0.43746643204319979 0 0.18574060049128421 -0.45399683162024917 0 0.20378560162072651 -0.45367987557382078 0 0.19504386268320509 -0.44494598328280838 0 0.18574060049128421 -0.45399683162024917 0 0.19504386268320509 -0.44494598328280838 0 0.1968047875090663 -0.43575617974728698 0 0.18533186197219251 -0.43746643204319979 0 0.20355646182275611 -0.44383059742948522 0 0.19504386268320509 -0.44494598328280838 0 0.1968047875090663 -0.43575617974728698 0 0.20355646182275611 -0.44383059742948522 0 0.20378560162072651 -0.45367987557382078 0 0.19504386268320509 -0.44494598328280838 0 0.20292368860853641 -0.42645227295317961 0 0.1968047875090663 -0.43575617974728698 0 0.18991391803794269 -0.42608536489372129 0 0.20292368860853641 -0.42645227295317961 0 0.18991391803794269 -0.42608536489372129 0 0.19444813673790831 -0.41992438955333761 0 0.1968047875090663 -0.43575617974728698 0 0.18991391803794269 -0.42608536489372129 0 0.18533186197219251 -0.43746643204319979 0 0.20294732582755179 -0.40908409339938062 0 0.20355209256633569 -0.41551731887076521 0 0.18140284773881871 -0.41164260149568421 0 0.20355209256633569 -0.41551731887076521 0 0.18140284773881871 -0.41164260149568421 0 0.19444813673790831 -0.41992438955333761 0 0.20355209256633569 -0.41551731887076521 0 0.18140284773881871 -0.41164260149568421 0 0.18991391803794269 -0.42608536489372129 0 0.19444813673790831 -0.41992438955333761 0 0.18140284773881871 -0.41164260149568421 0 0.20292368860853641 -0.42645227295317961 0 0.19444813673790831 -0.41992438955333761 0 0.20355209256633569 -0.41551731887076521 0 0.20294732582755179 -0.40908409339938062 0 0.219008384707057 -0.41113413727500059 0 0.21277486735505949 -0.40031853854498062 0 0.20294732582755179 -0.40908409339938062 0 0.20355209256633569 -0.41551731887076521 0 0.21954471931128469 -0.42556176883312791 0 0.20294732582755179 -0.40908409339938062 0 0.21954471931128469 -0.42556176883312791 0 0.219008384707057 -0.41113413727500059 0 0.20294732582755179 -0.40908409339938062 0 0.21954471931128469 -0.42556176883312791 0 0.20292368860853641 -0.42645227295317961 0 0.20994323711454341 -0.43598935344663442 0 0.21954471931128469 -0.42556176883312791 0 0.20292368860853641 -0.42645227295317961 0 0.20355209256633569 -0.41551731887076521 0 0.21954471931128469 -0.42556176883312791 0 0.20292368860853641 -0.42645227295317961 0 0.1968047875090663 -0.43575617974728698 0 0.20994323711454341 -0.43598935344663442 0 0.22777217943939679 -0.43980782914091238 0 0.20994323711454341 -0.43598935344663442 0 0.21954471931128469 -0.42556176883312791 0 0.21954471931128469 -0.42556176883312791 0 0.23609120334416039 -0.42969348131811569 0 0.232485629748028 -0.41650457027465582 0 0.22777217943939679 -0.43980782914091238 0 0.21954471931128469 -0.42556176883312791 0 0.23609120334416039 -0.42969348131811569 0 0.2409960332753161 -0.44067852758097148 0 0.22777217943939679 -0.43980782914091238 0 0.23609120334416039 -0.42969348131811569 0 0.25131531011865732 -0.42556788371608179 0 0.23609120334416039 -0.42969348131811569 0 0.232485629748028 -0.41650457027465582 0 0.25131531011865732 -0.42556788371608179 0 0.25303584543133201 -0.44500039774258632 0 0.2409960332753161 -0.44067852758097148 0 0.25131531011865732 -0.42556788371608179 0 0.2409960332753161 -0.44067852758097148 0 0.23609120334416039 -0.42969348131811569 0 0.25131531011865732 -0.42556788371608179 0 0.232485629748028 -0.41650457027465582 0 0.24221879831617951 -0.40374349928431241 0 0.232485629748028 -0.41650457027465582 0 0.22577869470595349 -0.4032868774776236 0 0.24221879831617951 -0.40374349928431241 0 0.21954471931128469 -0.42556176883312791 0 0.232485629748028 -0.41650457027465582 0 0.219008384707057 -0.41113413727500059 0 0.232485629748028 -0.41650457027465582 0 0.219008384707057 -0.41113413727500059 0 0.22577869470595349 -0.4032868774776236 0 0.219008384707057 -0.41113413727500059 0 0.22577869470595349 -0.4032868774776236 0 0.21277486735505949 -0.40031853854498062 0 0.22577869470595349 -0.4032868774776236 0 0.23167783066997891 -0.39324009660807691 0 0.24221879831617951 -0.40374349928431241 0 0.22577869470595349 -0.4032868774776236 0 0.22138883410814431 -0.39257737471180959 0 0.21277486735505949 -0.40031853854498062 0 0.22577869470595349 -0.4032868774776236 0 0.22138883410814431 -0.39257737471180959 0 0.23167783066997891 -0.39324009660807691 0 0.23167783066997891 -0.39324009660807691 0 0.24221879831617951 -0.40374349928431241 0 0.24189804913215951 -0.38644820318626322 0 0.25612988417059862 -0.39372739427770198 0 0.24221879831617951 -0.40374349928431241 0 0.24189804913215951 -0.38644820318626322 0 0.2543150598661002 -0.3778535733630547 0 0.24107760733654909 -0.37212755537095499 0 0.24189804913215951 -0.38644820318626322 0 0.24107760733654909 -0.37212755537095499 0 0.24189804913215951 -0.38644820318626322 0 0.227573924272679 -0.38046950699598492 0 0.22138883410814431 -0.39257737471180959 0 0.23167783066997891 -0.39324009660807691 0 0.227573924272679 -0.38046950699598492 0 0.23167783066997891 -0.39324009660807691 0 0.24189804913215951 -0.38644820318626322 0 0.227573924272679 -0.38046950699598492 0 0.22138883410814431 -0.39257737471180959 0 0.227573924272679 -0.38046950699598492 0 0.2134689833107786 -0.38461784172670338 0 0.21374372850296319 -0.36751946088175869 0 0.227573924272679 -0.38046950699598492 0 0.2134689833107786 -0.38461784172670338 0 0.21374372850296319 -0.36751946088175869 0 0.2134689833107786 -0.38461784172670338 0 0.20204223939295729 -0.38049764053701662 0 0.2134689833107786 -0.38461784172670338 0 0.20303687195003611 -0.39308098173966521 0 0.20204223939295729 -0.38049764053701662 0 0.20294732582755179 -0.40908409339938062 0 0.21277486735505949 -0.40031853854498062 0 0.20303687195003611 -0.39308098173966521 0 0.22138883410814431 -0.39257737471180959 0 0.2134689833107786 -0.38461784172670338 0 0.21277486735505949 -0.40031853854498062 0 0.2134689833107786 -0.38461784172670338 0 0.21277486735505949 -0.40031853854498062 0 0.20303687195003611 -0.39308098173966521 0 0.20294732582755179 -0.40908409339938062 0 0.18634993234381861 -0.39260641796563323 0 0.18140284773881871 -0.41164260149568421 0 0.20294732582755179 -0.40908409339938062 0 0.18634993234381861 -0.39260641796563323 0 0.20294732582755179 -0.40908409339938062 0 0.20303687195003611 -0.39308098173966521 0 0.18634993234381861 -0.39260641796563323 0 0.19361168085718991 -0.36466350037132261 0 0.20204223939295729 -0.38049764053701662 0 0.18634993234381861 -0.39260641796563323 0 0.20303687195003611 -0.39308098173966521 0 0.20204223939295729 -0.38049764053701662 0 0.18634993234381861 -0.39260641796563323 0 0.19361168085718991 -0.36466350037132261 0 0.18634993234381861 -0.39260641796563323 0 0.19361168085718991 -0.36466350037132261 0 0.18634993234381861 -0.39260641796563323 0 0.17049377456838291 -0.37686463166009099 0 0.18634993234381861 -0.39260641796563323 0 0.16716431517526981 -0.39249838037769003 0 0.17049377456838291 -0.37686463166009099 0 0.18634993234381861 -0.39260641796563323 0 0.17049377456838291 -0.37686463166009099 0 0.18634993234381861 -0.39260641796563323 0 0.18140284773881871 -0.41164260149568421 0 0.18634993234381861 -0.39260641796563323 0 0.16716431517526981 -0.39249838037769003 0 0.18140284773881871 -0.41164260149568421 0 0.16716431517526981 -0.39249838037769003 0 0.1519796258298404 -0.40649539805604529 0 0.18140284773881871 -0.41164260149568421 0 0.16716431517526981 -0.39249838037769003 0 0.15305676001047561 -0.38810845541559558 0 0.1519796258298404 -0.40649539805604529 0 0.16716431517526981 -0.39249838037769003 0 0.16121218598630979 -0.38179824505713073 0 0.15305676001047561 -0.38810845541559558 0 0.16716431517526981 -0.39249838037769003 0 0.17049377456838291 -0.37686463166009099 0 0.16121218598630979 -0.38179824505713073 0 0.15413229712703261 -0.36972141921677998 0 0.17049377456838291 -0.37686463166009099 0 0.16121218598630979 -0.38179824505713073 0 0.15413229712703261 -0.36972141921677998 0 0.15305676001047561 -0.38810845541559558 0 0.1416549905892609 -0.3770066299824667 0 0.15413229712703261 -0.36972141921677998 0 0.16121218598630979 -0.38179824505713073 0 0.15305676001047561 -0.38810845541559558 0 0.15305676001047561 -0.38810845541559558 0 0.1416549905892609 -0.3770066299824667 0 0.13445006248531879 -0.38819738382057911 0 0.15413229712703261 -0.36972141921677998 0 0.15305676001047561 -0.38810845541559558 0 0.1416549905892609 -0.3770066299824667 0 0.13445006248531879 -0.38819738382057911 0 0.1240614338456624 -0.37194020949616052 0 0.13445006248531879 -0.38819738382057911 0 0.12633245043332411 -0.40200876400127378 0 0.15017061324618319 -0.40617893523556481 0 0.13445006248531879 -0.38819738382057911 0 0.12633245043332411 -0.40200876400127378 0 0.1142794042482875 -0.385064390666364 0 0.12633245043332411 -0.40200876400127378 0 0.15017061324618319 -0.40617893523556481 0 0.15305676001047561 -0.38810845541559558 0 0.1519796258298404 -0.40649539805604529 0 0.15305676001047561 -0.38810845541559558 0 0.13445006248531879 -0.38819738382057911 0 0.15017061324618319 -0.40617893523556481 0 0.15305676001047561 -0.38810845541559558 0 0.15017061324618319 -0.40617893523556481 0 0.1519796258298404 -0.40649539805604529 0 0.15305676001047561 -0.38810845541559558 0 0.15017061324618319 -0.40617893523556481 0 0.1519796258298404 -0.40649539805604529 0 0.15056300821491761 -0.43067740555085959 0 0.1573917659000586 -0.4196552577956445 0 0.15017061324618319 -0.40617893523556481 0 0.14378540410595711 -0.41806944684715291 0 0.14733951792721059 -0.43223217573806699 0 0.15017061324618319 -0.40617893523556481 0 0.1519796258298404 -0.40649539805604529 0 0.15056300821491761 -0.43067740555085959 0 0.15017061324618319 -0.40617893523556481 0 0.14733951792721059 -0.43223217573806699 0 0.1519796258298404 -0.40649539805604529 0 0.15056300821491761 -0.43067740555085959 0 0.15017061324618319 -0.40617893523556481 0 0.1519796258298404 -0.40649539805604529 0 0.12633245043332411 -0.40200876400127378 0 0.15017061324618319 -0.40617893523556481 0 0.14378540410595711 -0.41806944684715291 0 0.12633245043332411 -0.40200876400127378 0 0.14378540410595711 -0.41806944684715291 0 0.13075679836288739 -0.42083843834367368 0 0.13075679836288739 -0.42083843834367368 0 0.1307916906839037 -0.43302805660599952 0 0.11908545041115649 -0.42814124882652799 0 0.13075679836288739 -0.42083843834367368 0 0.1307916906839037 -0.43302805660599952 0 0.13865991143110731 -0.4277477526299388 0 0.14378540410595711 -0.41806944684715291 0 0.13075679836288739 -0.42083843834367368 0 0.13865991143110731 -0.4277477526299388 0 0.1307916906839037 -0.43302805660599952 0 0.13865991143110731 -0.4277477526299388 0 0.13931159332373699 -0.43763974777888082 0 0.13865991143110731 -0.4277477526299388 0 0.14311309651446749 -0.43437845892511628 0 0.13931159332373699 -0.43763974777888082 0 0.14311309651446749 -0.43437845892511628 0 0.14412569696214131 -0.43861578499750009 0 0.13931159332373699 -0.43763974777888082 0 0.15017061324618319 -0.40617893523556481 0 0.14733951792721059 -0.43223217573806699 0 0.15056300821491761 -0.43067740555085959 0 0.13865991143110731 -0.4277477526299388 0 0.14311309651446749 -0.43437845892511628 0 0.14304312697572699 -0.42990593963007112 0 0.14311309651446749 -0.43437845892511628 0 0.14304312697572699 -0.42990593963007112 0 0.14733951792721059 -0.43223217573806699 0 0.14311309651446749 -0.43437845892511628 0 0.14733951792721059 -0.43223217573806699 0 0.14412569696214131 -0.43861578499750009 0 0.14378540410595711 -0.41806944684715291 0 0.14304312697572699 -0.42990593963007112 0 0.14733951792721059 -0.43223217573806699 0 0.14378540410595711 -0.41806944684715291 0 0.13865991143110731 -0.4277477526299388 0 0.14304312697572699 -0.42990593963007112 0 0.15056300821491761 -0.43067740555085959 0 0.1582081900808229 -0.42884516016255148 0 0.1573917659000586 -0.4196552577956445 0 0.15056300821491761 -0.43067740555085959 0 0.1554014456506011 -0.43768038693307898 0 0.15419501571203911 -0.44309167928524168 0 0.15056300821491761 -0.43067740555085959 0 0.15538326954749959 -0.43369054688032482 0 0.1582081900808229 -0.42884516016255148 0 0.15056300821491761 -0.43067740555085959 0 0.15538326954749959 -0.43369054688032482 0 0.1554014456506011 -0.43768038693307898 0 0.15538326954749959 -0.43369054688032482 0 0.158999600402601 -0.43588190317046888 0 0.1554014456506011 -0.43768038693307898 0 0.158999600402601 -0.43588190317046888 0 0.16694505296178791 -0.4321168048127178 0 0.1582081900808229 -0.42884516016255148 0 0.158999600402601 -0.43588190317046888 0 0.16694505296178791 -0.4321168048127178 0 0.1653820023977863 -0.4397218712161276 0 0.15538326954749959 -0.43369054688032482 0 0.158999600402601 -0.43588190317046888 0 0.1582081900808229 -0.42884516016255148 0 0.16694505296178791 -0.4321168048127178 0 0.1582081900808229 -0.42884516016255148 0 0.16839049834616851 -0.42050565764566677 0 0.16694505296178791 -0.4321168048127178 0 0.16839049834616851 -0.42050565764566677 0 0.17749146629906609 -0.42669344070467857 0 0.1582081900808229 -0.42884516016255148 0 0.1573917659000586 -0.4196552577956445 0 0.16839049834616851 -0.42050565764566677 0 0.1519796258298404 -0.40649539805604529 0 0.1573917659000586 -0.4196552577956445 0 0.16839049834616851 -0.42050565764566677 0 0.1519796258298404 -0.40649539805604529 0 0.18140284773881871 -0.41164260149568421 0 0.1519796258298404 -0.40649539805604529 0 0.16839049834616851 -0.42050565764566677 0 0.18140284773881871 -0.41164260149568421 0 0.16839049834616851 -0.42050565764566677 0 0.18140284773881871 -0.41164260149568421 0 0.17749146629906609 -0.42669344070467857 0 0.18140284773881871 -0.41164260149568421 0 0.17749146629906609 -0.42669344070467857 0 0.18991391803794269 -0.42608536489372129 0 0.18140284773881871 -0.41164260149568421 0 0.17749146629906609 -0.42669344070467857 0 0.18991391803794269 -0.42608536489372129 0 0.18533186197219251 -0.43746643204319979 0 0.17749146629906609 -0.42669344070467857 0 0.17749146629906609 -0.42669344070467857 0 0.17358008485931409 -0.44174427991367299 0 0.16694505296178791 -0.4321168048127178 0 0.17749146629906609 -0.42669344070467857 0 0.17358008485931409 -0.44174427991367299 0 0.18533186197219251 -0.43746643204319979 0 0.17749146629906609 -0.42669344070467857 0 0.17358008485931409 -0.44174427991367299 0 0.17358008485931409 -0.44174427991367299 0 0.18574060049128421 -0.45399683162024917 0 0.16670236282121581 -0.44965488509530421 0 0.18533186197219251 -0.43746643204319979 0 0.17358008485931409 -0.44174427991367299 0 0.18574060049128421 -0.45399683162024917 0 0.18574060049128421 -0.45399683162024917 0 0.16900183147797521 -0.46533962526434958 0 0.16670236282121581 -0.44965488509530421 0 0.19349524034772159 -0.47239383428813081 0 0.18574060049128421 -0.45399683162024917 0 0.16900183147797521 -0.46533962526434958 0 0.16900183147797521 -0.46533962526434958 0 0.1569751416728393 -0.4553338494547533 0 0.16670236282121581 -0.44965488509530421 0 0.16900183147797521 -0.46533962526434958 0 0.14450842260822891 -0.45828541624056812 0 0.16900183147797521 -0.46533962526434958 0 0.1569751416728393 -0.4553338494547533 0 0.14450842260822891 -0.45828541624056812 0 0.1569751416728393 -0.4553338494547533 0 0.15697001797289051 -0.44922113485475212 0 0.16670236282121581 -0.44965488509530421 0 0.15697001797289051 -0.44922113485475212 0 0.16670236282121581 -0.44965488509530421 0 0.15889421612179161 -0.44302005604184341 0 0.17358008485931409 -0.44174427991367299 0 0.16670236282121581 -0.44965488509530421 0 0.1653820023977863 -0.4397218712161276 0 0.16694505296178791 -0.4321168048127178 0 0.17358008485931409 -0.44174427991367299 0 0.1653820023977863 -0.4397218712161276 0 0.158999600402601 -0.43588190317046888 0 0.1653820023977863 -0.4397218712161276 0 0.15889421612179161 -0.44302005604184341 0 0.16670236282121581 -0.44965488509530421 0 0.1653820023977863 -0.4397218712161276 0 0.15889421612179161 -0.44302005604184341 0 0.15697001797289051 -0.44922113485475212 0 0.15889421612179161 -0.44302005604184341 0 0.15419501571203911 -0.44309167928524168 0 0.158999600402601 -0.43588190317046888 0 0.15889421612179161 -0.44302005604184341 0 0.1554014456506011 -0.43768038693307898 0 0.15889421612179161 -0.44302005604184341 0 0.1554014456506011 -0.43768038693307898 0 0.15419501571203911 -0.44309167928524168 0 0.14733951792721059 -0.43223217573806699 0 0.14592849538731861 -0.44521715343902241 0 0.14914639059999471 -0.45485941304567379 0 0.15056300821491761 -0.43067740555085959 0 0.15419501571203911 -0.44309167928524168 0 0.14914639059999471 -0.45485941304567379 0 0.14733951792721059 -0.43223217573806699 0 0.15056300821491761 -0.43067740555085959 0 0.14914639059999471 -0.45485941304567379 0 0.15056300821491761 -0.43067740555085959 0 0.14914639059999471 -0.45485941304567379 0 0.15697001797289051 -0.44922113485475212 0 0.15419501571203911 -0.44309167928524168 0 0.14914639059999471 -0.45485941304567379 0 0.14592849538731861 -0.44521715343902241 0 0.14450842260822891 -0.45828541624056812 0 0.14914639059999471 -0.45485941304567379 0 0.14592849538731861 -0.44521715343902241 0 0.14450842260822891 -0.45828541624056812 0 0.1445862521973777 -0.45169311597546058 0 0.14592849538731861 -0.44521715343902241 0 0.14450842260822891 -0.45828541624056812 0 0.1445862521973777 -0.45169311597546058 0 0.1432596737356458 -0.44829692634805213 0 0.14592849538731861 -0.44521715343902241 0 0.1432596737356458 -0.44829692634805213 0 0.14592849538731861 -0.44521715343902241 0 0.14230024186937459 -0.44519977754075007 0 0.1432596737356458 -0.44829692634805213 0 0.14230024186937459 -0.44519977754075007 0 0.14026103118920041 -0.44717086800711131 0 0.1432596737356458 -0.44829692634805213 0 0.1417870512249933 -0.45032914159453302 0 0.14026103118920041 -0.44717086800711131 0 0.1417870512249933 -0.45032914159453302 0 0.1378214081247438 -0.45104261688270308 0 0.14243714731742421 -0.45314234777256679 0 0.1445862521973777 -0.45169311597546058 0 0.1432596737356458 -0.44829692634805213 0 0.1417870512249933 -0.45032914159453302 0 0.1445862521973777 -0.45169311597546058 0 0.1417870512249933 -0.45032914159453302 0 0.14243714731742421 -0.45314234777256679 0 0.14733951792721059 -0.43223217573806699 0 0.14592849538731861 -0.44521715343902241 0 0.14733951792721059 -0.43223217573806699 0 0.14592849538731861 -0.44521715343902241 0 0.14412569696214131 -0.43861578499750009 0 0.14592849538731861 -0.44521715343902241 0 0.14272110813160321 -0.44219866902525012 0 0.14412569696214131 -0.43861578499750009 0 0.14230024186937459 -0.44519977754075007 0 0.14018250516949279 -0.44320781111369439 0 0.14026103118920041 -0.44717086800711131 0 0.14592849538731861 -0.44521715343902241 0 0.14272110813160321 -0.44219866902525012 0 0.14230024186937459 -0.44519977754075007 0 0.14272110813160321 -0.44219866902525012 0 0.14230024186937459 -0.44519977754075007 0 0.14018250516949279 -0.44320781111369439 0 0.14272110813160321 -0.44219866902525012 0 0.14412569696214131 -0.43861578499750009 0 0.13931159332373699 -0.43763974777888082 0 0.14272110813160321 -0.44219866902525012 0 0.13931159332373699 -0.43763974777888082 0 0.14018250516949279 -0.44320781111369439 0 0.1307916906839037 -0.43302805660599952 0 0.13931159332373699 -0.43763974777888082 0 0.13428440599745581 -0.44354826792874602 0 0.13931159332373699 -0.43763974777888082 0 0.13428440599745581 -0.44354826792874602 0 0.14018250516949279 -0.44320781111369439 0 0.13428440599745581 -0.44354826792874602 0 0.14018250516949279 -0.44320781111369439 0 0.14026103118920041 -0.44717086800711131 0 0.1378214081247438 -0.45104261688270308 0 0.1291094907257139 -0.45077389279619351 0 0.1354228208180987 -0.45552704079612533 0 0.13428440599745581 -0.44354826792874602 0 0.14026103118920041 -0.44717086800711131 0 0.1378214081247438 -0.45104261688270308 0 0.13428440599745581 -0.44354826792874602 0 0.1378214081247438 -0.45104261688270308 0 0.1291094907257139 -0.45077389279619351 0 0.1378214081247438 -0.45104261688270308 0 0.14076253737432301 -0.45483609759156779 0 0.14243714731742421 -0.45314234777256679 0 0.1417870512249933 -0.45032914159453302 0 0.14026103118920041 -0.44717086800711131 0 0.1378214081247438 -0.45104261688270308 0 0.1307916906839037 -0.43302805660599952 0 0.13428440599745581 -0.44354826792874602 0 0.12264244298150601 -0.44010220238610748 0 0.13428440599745581 -0.44354826792874602 0 0.1291094907257139 -0.45077389279619351 0 0.12264244298150601 -0.44010220238610748 0 0.12862723201416651 -0.46112107162065102 0 0.13375472260828131 -0.46696634759844352 0 0.12923593963923441 -0.47347319412060462 0 0.1291094907257139 -0.45077389279619351 0 0.12862723201416651 -0.46112107162065102 0 0.1354228208180987 -0.45552704079612533 0 0.12862723201416651 -0.46112107162065102 0 0.13640150729247619 -0.46045553513073512 0 0.1354228208180987 -0.45552704079612533 0 0.1354228208180987 -0.45552704079612533 0 0.1395826486283655 -0.45800957085022131 0 0.14076253737432301 -0.45483609759156779 0 0.1378214081247438 -0.45104261688270308 0 0.1354228208180987 -0.45552704079612533 0 0.14076253737432301 -0.45483609759156779 0 0.13640150729247619 -0.46045553513073512 0 0.1354228208180987 -0.45552704079612533 0 0.1395826486283655 -0.45800957085022131 0 0.13640150729247619 -0.46045553513073512 0 0.1395826486283655 -0.45800957085022131 0 0.140001965294315 -0.46109701161400102 0 0.13640150729247619 -0.46045553513073512 0 0.140001965294315 -0.46109701161400102 0 0.13860951234206939 -0.46487913842024331 0 0.140001965294315 -0.46109701161400102 0 0.13860951234206939 -0.46487913842024331 0 0.14257437032293299 -0.46360440948183501 0 0.13640150729247619 -0.46045553513073512 0 0.13375472260828131 -0.46696634759844352 0 0.13860951234206939 -0.46487913842024331 0 0.12862723201416651 -0.46112107162065102 0 0.13640150729247619 -0.46045553513073512 0 0.13375472260828131 -0.46696634759844352 0 0.13375472260828131 -0.46696634759844352 0 0.13860951234206939 -0.46487913842024331 0 0.14080382316854351 -0.46981657196628751 0 0.13860951234206939 -0.46487913842024331 0 0.14257437032293299 -0.46360440948183501 0 0.14080382316854351 -0.46981657196628751 0 0.1478602023122213 -0.46663635834385853 0 0.14450842260822891 -0.45828541624056812 0 0.14435058835421899 -0.4597378907481246 0 0.14257437032293299 -0.46360440948183501 0 0.1478602023122213 -0.46663635834385853 0 0.14080382316854351 -0.46981657196628751 0 0.16900183147797521 -0.46533962526434958 0 0.14450842260822891 -0.45828541624056812 0 0.15516123007073049 -0.46920564598308512 0 0.140001965294315 -0.46109701161400102 0 0.14257437032293299 -0.46360440948183501 0 0.1425089985272481 -0.45925536394492222 0 0.14257437032293299 -0.46360440948183501 0 0.1478602023122213 -0.46663635834385853 0 0.14435058835421899 -0.4597378907481246 0 0.1445862521973777 -0.45169311597546058 0 0.14389308305414639 -0.45503747073667078 0 0.14450842260822891 -0.45828541624056812 0 0.1445862521973777 -0.45169311597546058 0 0.14389308305414639 -0.45503747073667078 0 0.14243714731742421 -0.45314234777256679 0 0.14389308305414639 -0.45503747073667078 0 0.14076253737432301 -0.45483609759156779 0 0.14243714731742421 -0.45314234777256679 0 0.14389308305414639 -0.45503747073667078 0 0.14076253737432301 -0.45483609759156779 0 0.14238444919721549 -0.45706682249165448 0 0.1395826486283655 -0.45800957085022131 0 0.14076253737432301 -0.45483609759156779 0 0.14238444919721549 -0.45706682249165448 0 0.14389308305414639 -0.45503747073667078 0 0.14383428963840239 -0.45660872682113768 0 0.14238444919721549 -0.45706682249165448 0 0.14389308305414639 -0.45503747073667078 0 0.14383428963840239 -0.45660872682113768 0 0.14450842260822891 -0.45828541624056812 0 0.14257437032293299 -0.46360440948183501 0 0.1425089985272481 -0.45925536394492222 0 0.14435058835421899 -0.4597378907481246 0 0.14383428963840239 -0.45660872682113768 0 0.14450842260822891 -0.45828541624056812 0 0.14238444919721549 -0.45706682249165448 0 0.14450842260822891 -0.45828541624056812 0 0.14238444919721549 -0.45706682249165448 0 0.1425089985272481 -0.45925536394492222 0 0.1395826486283655 -0.45800957085022131 0 0.14238444919721549 -0.45706682249165448 0 0.1425089985272481 -0.45925536394492222 0 0.1395826486283655 -0.45800957085022131 0 0.140001965294315 -0.46109701161400102 0 0.1425089985272481 -0.45925536394492222 0 0.14450842260822891 -0.45828541624056812 0 0.1425089985272481 -0.45925536394492222 0 0.14435058835421899 -0.4597378907481246 0 0.14450842260822891 -0.45828541624056812 0 0.14435058835421899 -0.4597378907481246 0 0.1569751416728393 -0.4553338494547533 0 0.14450842260822891 -0.45828541624056812 0 0.14914639059999471 -0.45485941304567379 0 0.1569751416728393 -0.4553338494547533 0 0.15697001797289051 -0.44922113485475212 0 0.14914639059999471 -0.45485941304567379 0 0.1478602023122213 -0.46663635834385853 0 0.14450842260822891 -0.45828541624056812 0 0.15516123007073049 -0.46920564598308512 0 0.15516123007073049 -0.46920564598308512 0 0.14437332914122189 -0.47948864208060582 0 0.1625576156498203 -0.48298346632507932 0 0.1478602023122213 -0.46663635834385853 0 0.15516123007073049 -0.46920564598308512 0 0.14437332914122189 -0.47948864208060582 0 0.1478602023122213 -0.46663635834385853 0 0.14437332914122189 -0.47948864208060582 0 0.14080382316854351 -0.46981657196628751 0 0.13375472260828131 -0.46696634759844352 0 0.14080382316854351 -0.46981657196628751 0 0.12923593963923441 -0.47347319412060462 0 0.14437332914122189 -0.47948864208060582 0 0.14080382316854351 -0.46981657196628751 0 0.12923593963923441 -0.47347319412060462 0 0.14437332914122189 -0.47948864208060582 0 0.12923593963923441 -0.47347319412060462 0 0.13091811481241089 -0.4868238427256712 0 0.13091811481241089 -0.4868238427256712 0 0.14892155184028291 -0.5 0 0.1221482131424175 -0.49999999999999861 0 0.14437332914122189 -0.47948864208060582 0 0.14892155184028291 -0.5 0 0.1625576156498203 -0.48298346632507932 0 0.14437332914122189 -0.47948864208060582 0 0.13091811481241089 -0.4868238427256712 0 0.14892155184028291 -0.5 0 0.14892155184028291 -0.5 0 0.1625576156498203 -0.48298346632507932 0 0.1756948905381481 -0.5 0 0.16900183147797521 -0.46533962526434958 0 0.15516123007073049 -0.46920564598308512 0 0.1625576156498203 -0.48298346632507932 0 0.16900183147797521 -0.46533962526434958 0 0.1625576156498203 -0.48298346632507932 0 0.1821928608305631 -0.48386688462243571 0 0.19349524034772159 -0.47239383428813081 0 0.16900183147797521 -0.46533962526434958 0 0.19349524034772159 -0.47239383428813081 0 0.16900183147797521 -0.46533962526434958 0 0.1821928608305631 -0.48386688462243571 0 0.1625576156498203 -0.48298346632507932 0 0.1821928608305631 -0.48386688462243571 0 0.1756948905381481 -0.5 0 0.20246822923601351 -0.5 0 0.1821928608305631 -0.48386688462243571 0 0.1756948905381481 -0.5 0 0.070497214854466916 -0.5 0 0.075175961192974108 -0.4829669329906886 0 0.059052513578249768 -0.48415459239490799 0 0.070497214854466916 -0.5 0 0.075175961192974108 -0.4829669329906886 0 0.087923458301642277 -0.48744414093662841 0 0.06833921180433046 -0.47112136683426759 0 0.059052513578249768 -0.48415459239490799 0 0.06833921180433046 -0.47112136683426759 0 0.075175961192974108 -0.4829669329906886 0 0.087709861163430436 -0.47309639426530781 0 0.06833921180433046 -0.47112136683426759 0 0.075175961192974108 -0.4829669329906886 0 0.059052513578249768 -0.48415459239490799 0 0.06833921180433046 -0.47112136683426759 0 0.087709861163430436 -0.47309639426530781 0 0.082558476327306535 -0.46471530944265799 0 0.075175961192974108 -0.4829669329906886 0 0.087709861163430436 -0.47309639426530781 0 0.087923458301642277 -0.48744414093662841 0 0.070497214854466916 -0.5 0 0.087923458301642277 -0.48744414093662841 0 0.096322713998442278 -0.5 0 0.087923458301642277 -0.48744414093662841 0 0.096322713998442278 -0.5 0 0.1099115402988976 -0.48115737742714593 0 0.096322713998442278 -0.5 0 0.1221482131424175 -0.49999999999999861 0 0.1099115402988976 -0.48115737742714593 0 0.1221482131424175 -0.49999999999999861 0 0.1099115402988976 -0.48115737742714593 0 0.13091811481241089 -0.4868238427256712 0 0.1221482131424175 -0.49999999999999861 0 0.1099115402988976 -0.48115737742714593 0 0.12923593963923441 -0.47347319412060462 0 0.1099115402988976 -0.48115737742714593 0 0.1169040238681895 -0.46682596607294652 0 0.12923593963923441 -0.47347319412060462 0 0.13091811481241089 -0.4868238427256712 0 0.1099115402988976 -0.48115737742714593 0 0.1099115402988976 -0.48115737742714593 0 0.097674867455377096 -0.46231475485429369 0 0.1169040238681895 -0.46682596607294652 0 0.1099115402988976 -0.48115737742714593 0 0.097674867455377096 -0.46231475485429369 0 0.087709861163430436 -0.47309639426530781 0 0.1099115402988976 -0.48115737742714593 0 0.097674867455377096 -0.46231475485429369 0 0.087709861163430436 -0.47309639426530781 0 0.087923458301642277 -0.48744414093662841 0 0.1099115402988976 -0.48115737742714593 0 0.097674867455377096 -0.46231475485429369 0 0.1158354795562235 -0.45333192188838439 0 0.095343160784426451 -0.45101193727388761 0 0.097674867455377096 -0.46231475485429369 0 0.095343160784426451 -0.45101193727388761 0 0.089219038721278579 -0.46151923395839739 0 0.097674867455377096 -0.46231475485429369 0 0.1169040238681895 -0.46682596607294652 0 0.1158354795562235 -0.45333192188838439 0 0.12862723201416651 -0.46112107162065102 0 0.1169040238681895 -0.46682596607294652 0 0.1158354795562235 -0.45333192188838439 0 0.1291094907257139 -0.45077389279619351 0 0.12862723201416651 -0.46112107162065102 0 0.1158354795562235 -0.45333192188838439 0 0.12862723201416651 -0.46112107162065102 0 0.12923593963923441 -0.47347319412060462 0 0.1169040238681895 -0.46682596607294652 0 0.1158354795562235 -0.45333192188838439 0 0.12264244298150601 -0.44010220238610748 0 0.11145713139585831 -0.43506809958531162 0 0.1291094907257139 -0.45077389279619351 0 0.1158354795562235 -0.45333192188838439 0 0.12264244298150601 -0.44010220238610748 0 0.1158354795562235 -0.45333192188838439 0 0.094576881488232428 -0.43429864913084198 0 0.1158354795562235 -0.45333192188838439 0 0.094576881488232428 -0.43429864913084198 0 0.11145713139585831 -0.43506809958531162 0 0.1158354795562235 -0.45333192188838439 0 0.095343160784426451 -0.45101193727388761 0 0.094576881488232428 -0.43429864913084198 0 0.077625910030409584 -0.45808814127362613 0 0.094576881488232428 -0.43429864913084198 0 0.080051520573090187 -0.44188261542645391 0 0.077625910030409584 -0.45808814127362613 0 0.094576881488232428 -0.43429864913084198 0 0.08280882787585242 -0.45645777395583981 0 0.077625910030409584 -0.45808814127362613 0 0.094576881488232428 -0.43429864913084198 0 0.095343160784426451 -0.45101193727388761 0 0.08280882787585242 -0.45645777395583981 0 0.094576881488232428 -0.43429864913084198 0 0.095343160784426451 -0.45101193727388761 0 0.089219038721278579 -0.46151923395839739 0 0.08280882787585242 -0.45645777395583981 0 0.087709861163430436 -0.47309639426530781 0 0.097674867455377096 -0.46231475485429369 0 0.089219038721278579 -0.46151923395839739 0 0.087709861163430436 -0.47309639426530781 0 0.089219038721278579 -0.46151923395839739 0 0.082558476327306535 -0.46471530944265799 0 0.082558476327306535 -0.46471530944265799 0 0.08280882787585242 -0.45645777395583981 0 0.077625910030409584 -0.45808814127362613 0 0.089219038721278579 -0.46151923395839739 0 0.082558476327306535 -0.46471530944265799 0 0.08280882787585242 -0.45645777395583981 0 0.08280882787585242 -0.45645777395583981 0 0.077625910030409584 -0.45808814127362613 0 0.077625910030409584 -0.45808814127362613 0 0.060851720230301373 -0.46336472323921751 0 0.06833921180433046 -0.47112136683426759 0 0.077625910030409584 -0.45808814127362613 0 0.060851720230301373 -0.46336472323921751 0 0.077625910030409584 -0.45808814127362613 0 0.067271612203057482 -0.45390157704404333 0 0.060851720230301373 -0.46336472323921751 0 0.077625910030409584 -0.45808814127362613 0 0.067271612203057482 -0.45390157704404333 0 0.072166286971328888 -0.44926053450321318 0 0.06833921180433046 -0.47112136683426759 0 0.077625910030409584 -0.45808814127362613 0 0.06833921180433046 -0.47112136683426759 0 0.082558476327306535 -0.46471530944265799 0 0.077625910030409584 -0.45808814127362613 0 0.067271612203057482 -0.45390157704404333 0 0.060459971928924848 -0.45375260900138797 0 0.060851720230301373 -0.46336472323921751 0 0.080051520573090187 -0.44188261542645391 0 0.063716105078758287 -0.44316980426872993 0 0.072166286971328888 -0.44926053450321318 0 0.067271612203057482 -0.45390157704404333 0 0.063716105078758287 -0.44316980426872993 0 0.060459971928924848 -0.45375260900138797 0 0.080051520573090187 -0.44188261542645391 0 0.077625910030409584 -0.45808814127362613 0 0.072166286971328888 -0.44926053450321318 0 0.080051520573090187 -0.44188261542645391 0 0.063716105078758287 -0.44316980426872993 0 0.071036985036272413 -0.43177931448789281 0 0.067271612203057482 -0.45390157704404333 0 0.063716105078758287 -0.44316980426872993 0 0.072166286971328888 -0.44926053450321318 0 0.063716105078758287 -0.44316980426872993 0 0.071036985036272413 -0.43177931448789281 0 0.054390818821292868 -0.4355912502071223 0 0.071036985036272413 -0.43177931448789281 0 0.073922142761436382 -0.41580602442127518 0 0.060735723662262243 -0.42299167800792831 0 0.073922142761436382 -0.41580602442127518 0 0.056040759424869427 -0.41188534234209823 0 0.060735723662262243 -0.42299167800792831 0 0.073922142761436382 -0.41580602442127518 0 0.053267404034640371 -0.39731339971170843 0 0.073922142761436382 -0.41580602442127518 0 0.09095896784398258 -0.41221563270929712 0 0.078656124807606143 -0.39366842153269049 0 0.073922142761436382 -0.41580602442127518 0 0.09095896784398258 -0.41221563270929712 0 0.094576881488232428 -0.43429864913084198 0 0.080051520573090187 -0.44188261542645391 0 0.071036985036272413 -0.43177931448789281 0 0.094576881488232428 -0.43429864913084198 0 0.073922142761436382 -0.41580602442127518 0 0.094576881488232428 -0.43429864913084198 0 0.071036985036272413 -0.43177931448789281 0 0.073922142761436382 -0.41580602442127518 0 0.094576881488232428 -0.43429864913084198 0 0.09095896784398258 -0.41221563270929712 0 0.094576881488232428 -0.43429864913084198 0 0.10514540254217281 -0.4194664756946957 0 0.094576881488232428 -0.43429864913084198 0 0.11145713139585831 -0.43506809958531162 0 0.10514540254217281 -0.4194664756946957 0 0.094576881488232428 -0.43429864913084198 0 0.10514540254217281 -0.4194664756946957 0 0.11145713139585831 -0.43506809958531162 0 0.11908545041115649 -0.42814124882652799 0 0.10514540254217281 -0.4194664756946957 0 0.12264244298150601 -0.44010220238610748 0 0.11145713139585831 -0.43506809958531162 0 0.11908545041115649 -0.42814124882652799 0 0.1307916906839037 -0.43302805660599952 0 0.12264244298150601 -0.44010220238610748 0 0.11908545041115649 -0.42814124882652799 0 0.12633245043332411 -0.40200876400127378 0 0.13075679836288739 -0.42083843834367368 0 0.11676287787400121 -0.41365870392663062 0 0.13075679836288739 -0.42083843834367368 0 0.11908545041115649 -0.42814124882652799 0 0.11676287787400121 -0.41365870392663062 0 0.11908545041115649 -0.42814124882652799 0 0.11676287787400121 -0.41365870392663062 0 0.10514540254217281 -0.4194664756946957 0 0.09095896784398258 -0.41221563270929712 0 0.10514540254217281 -0.4194664756946957 0 0.1024942876204651 -0.39783859276698208 0 0.11676287787400121 -0.41365870392663062 0 0.10514540254217281 -0.4194664756946957 0 0.1024942876204651 -0.39783859276698208 0 0.12633245043332411 -0.40200876400127378 0 0.1024942876204651 -0.39783859276698208 0 0.1142794042482875 -0.385064390666364 0 0.12633245043332411 -0.40200876400127378 0 0.11676287787400121 -0.41365870392663062 0 0.1024942876204651 -0.39783859276698208 0 0.12633245043332411 -0.40200876400127378 0 0.1024942876204651 -0.39783859276698208 0 0.1142794042482875 -0.385064390666364 0 0.1240614338456624 -0.37194020949616052 0 0.1010625482549421 -0.37375009137591142 0 0.13445006248531879 -0.38819738382057911 0 0.1142794042482875 -0.385064390666364 0 0.1240614338456624 -0.37194020949616052 0 0.1024942876204651 -0.39783859276698208 0 0.1142794042482875 -0.385064390666364 0 0.1010625482549421 -0.37375009137591142 0 0.1024942876204651 -0.39783859276698208 0 0.078656124807606143 -0.39366842153269049 0 0.1010625482549421 -0.37375009137591142 0 0.078656124807606143 -0.39366842153269049 0 0.1010625482549421 -0.37375009137591142 0 0.084113257283456436 -0.36663025146129802 0 0.09095896784398258 -0.41221563270929712 0 0.1024942876204651 -0.39783859276698208 0 0.078656124807606143 -0.39366842153269049 0 0.1024942876204651 -0.39783859276698208 0 0.078656124807606143 -0.39366842153269049 0 0.078656124807606143 -0.39366842153269049 0 0.065165908399607481 -0.39907152399101831 0 0.054817961994747068 -0.38949825029839902 0 0.073922142761436382 -0.41580602442127518 0 0.078656124807606143 -0.39366842153269049 0 0.065165908399607481 -0.39907152399101831 0 0.078656124807606143 -0.39366842153269049 0 0.054817961994747068 -0.38949825029839902 0 0.073922142761436382 -0.41580602442127518 0 0.065165908399607481 -0.39907152399101831 0 0.053267404034640371 -0.39731339971170843 0 0.078656124807606143 -0.39366842153269049 0 0.084113257283456436 -0.36663025146129802 0 0.068136500090328261 -0.36870028083988621 0 0.078656124807606143 -0.39366842153269049 0 0.054817961994747068 -0.38949825029839902 0 0.068136500090328261 -0.36870028083988621 0 0.054817961994747068 -0.38949825029839902 0 0.0430823884606591 -0.37564809549167338 0 0.05190150139418466 -0.36290454825085428 0 0.065165908399607481 -0.39907152399101831 0 0.054817961994747068 -0.38949825029839902 0 0.053267404034640371 -0.39731339971170843 0 0.053267404034640371 -0.39731339971170843 0 0.046920472803650783 -0.40679253823424733 0 0.056040759424869427 -0.41188534234209823 0 0.053267404034640371 -0.39731339971170843 0 0.041816782243088907 -0.39930371256898001 0 0.046920472803650783 -0.40679253823424733 0 0.054817961994747068 -0.38949825029839902 0 0.053267404034640371 -0.39731339971170843 0 0.041816782243088907 -0.39930371256898001 0 0.041816782243088907 -0.39930371256898001 0 0.030979799181887559 -0.38532807906411037 0 0.026795690990309231 -0.40795284289229972 0 0.054817961994747068 -0.38949825029839902 0 0.041816782243088907 -0.39930371256898001 0 0.030979799181887559 -0.38532807906411037 0 0.041816782243088907 -0.39930371256898001 0 0.037907072548050133 -0.4097223587620345 0 0.046920472803650783 -0.40679253823424733 0 0.041816782243088907 -0.39930371256898001 0 0.026795690990309231 -0.40795284289229972 0 0.037907072548050133 -0.4097223587620345 0 0.054817961994747068 -0.38949825029839902 0 0.0430823884606591 -0.37564809549167338 0 0.030979799181887559 -0.38532807906411037 0 0.054817961994747068 -0.38949825029839902 0 0.030979799181887559 -0.38532807906411037 0 0.030979799181887559 -0.38532807906411037 0 0.0023783755119446211 -0.38032463835499941 0 0.02049775264505449 -0.37122929675444838 0 0.030979799181887559 -0.38532807906411037 0 0.010058650619435139 -0.39081765262868567 0 0.020860459317554279 -0.3951559357740792 0 0.030979799181887559 -0.38532807906411037 0 0.0023783755119446211 -0.38032463835499941 0 0.030979799181887559 -0.38532807906411037 0 0.0023783755119446211 -0.38032463835499941 0 0.010058650619435139 -0.39081765262868567 0 0.00014117791405256379 -0.38472310531667142 0 0.0023783755119446211 -0.38032463835499941 0 0.010058650619435139 -0.39081765262868567 0 -0.0024102202140195059 -0.37948693688002788 0 0.00014117791405256379 -0.38472310531667142 0 0.0023783755119446211 -0.38032463835499941 0 0.00014117791405256379 -0.38472310531667142 0 0.0023783755119446211 -0.38032463835499941 0 0.00014117791405256379 -0.38472310531667142 0 0.008746661229666261 -0.40238391631414139 0 -0.0083598813377065428 -0.40143670642789148 0 0.008746661229666261 -0.40238391631414139 0 0.001888367606252044 -0.41113361882236621 0 0.00014117791405256379 -0.38472310531667142 0 0.010058650619435139 -0.39081765262868567 0 0.008746661229666261 -0.40238391631414139 0 -0.0083598813377065428 -0.40143670642789148 0 0.00014117791405256379 -0.38472310531667142 0 0.008746661229666261 -0.40238391631414139 0 0.010058650619435139 -0.39081765262868567 0 0.008746661229666261 -0.40238391631414139 0 0.020860459317554279 -0.3951559357740792 0 0.030979799181887559 -0.38532807906411037 0 0.020860459317554279 -0.3951559357740792 0 0.026795690990309231 -0.40795284289229972 0 0.008746661229666261 -0.40238391631414139 0 0.020860459317554279 -0.3951559357740792 0 0.026795690990309231 -0.40795284289229972 0 0.030979799181887559 -0.38532807906411037 0 0.026795690990309231 -0.40795284289229972 0 0.008746661229666261 -0.40238391631414139 0 0.026795690990309231 -0.40795284289229972 0 0.017352144545279721 -0.42004472731161158 0 0.026795690990309231 -0.40795284289229972 0 0.030842721240167199 -0.41691745542588948 0 0.02398101347426481 -0.41816712864734618 0 0.027567344055459759 -0.42176436023476138 0 0.030842721240167199 -0.41691745542588948 0 0.032782059411678693 -0.4233215755862082 0 0.027567344055459759 -0.42176436023476138 0 0.030842721240167199 -0.41691745542588948 0 0.02398101347426481 -0.41816712864734618 0 0.027567344055459759 -0.42176436023476138 0 0.02398101347426481 -0.41816712864734618 0 0.021759285953287629 -0.4227606387216471 0 0.026795690990309231 -0.40795284289229972 0 0.02398101347426481 -0.41816712864734618 0 0.017352144545279721 -0.42004472731161158 0 0.02398101347426481 -0.41816712864734618 0 0.020218430235396701 -0.42024698175096881 0 0.017352144545279721 -0.42004472731161158 0 0.02398101347426481 -0.41816712864734618 0 0.020218430235396701 -0.42024698175096881 0 0.021759285953287629 -0.4227606387216471 0 0.020218430235396701 -0.42024698175096881 0 0.017352144545279721 -0.42004472731161158 0 0.021759285953287629 -0.4227606387216471 0 0.008746661229666261 -0.40238391631414139 0 0.017352144545279721 -0.42004472731161158 0 0.0085909741252602166 -0.41485924995590262 0 0.008746661229666261 -0.40238391631414139 0 0.017352144545279721 -0.42004472731161158 0 0.017352144545279721 -0.42004472731161158 0 0.0085909741252602166 -0.41485924995590262 0 0.0071116905236185031 -0.4228872269951654 0 0.0085909741252602166 -0.41485924995590262 0 0.0037417901428385579 -0.41882230129761472 0 0.001888367606252044 -0.41113361882236621 0 0.0085909741252602166 -0.41485924995590262 0 0.0037417901428385579 -0.41882230129761472 0 0.0071116905236185031 -0.4228872269951654 0 0.008746661229666261 -0.40238391631414139 0 0.0085909741252602166 -0.41485924995590262 0 0.001888367606252044 -0.41113361882236621 0 -0.0050022394068944898 -0.43208469912744968 0 0.0044305844222376489 -0.43482972146128068 0 0.0014429593824763661 -0.42588013494941718 0 0.0044305844222376489 -0.43482972146128068 0 0.0014429593824763661 -0.42588013494941718 0 0.0071116905236185031 -0.4228872269951654 0 0.0037417901428385579 -0.41882230129761472 0 0.0014429593824763661 -0.42588013494941718 0 0.0071116905236185031 -0.4228872269951654 0 0.017352144545279721 -0.42004472731161158 0 0.0044305844222376489 -0.43482972146128068 0 0.01507163335785406 -0.43109063101212991 0 0.017352144545279721 -0.42004472731161158 0 0.0044305844222376489 -0.43482972146128068 0 0.0071116905236185031 -0.4228872269951654 0 0.017352144545279721 -0.42004472731161158 0 0.0044305844222376489 -0.43482972146128068 0 0.0044305844222376489 -0.43482972146128068 0 0.01507163335785406 -0.43109063101212991 0 0.011994324991526801 -0.43640229309841377 0 0.0044305844222376489 -0.43482972146128068 0 0.011994324991526801 -0.43640229309841377 0 0.0086914243696431526 -0.44039147253878058 0 0.017352144545279721 -0.42004472731161158 0 0.025399486883567558 -0.43658120299126801 0 0.01507163335785406 -0.43109063101212991 0 0.011994324991526801 -0.43640229309841377 0 0.025399486883567558 -0.43658120299126801 0 0.017352144545279721 -0.42004472731161158 0 0.021759285953287629 -0.4227606387216471 0 0.025399486883567558 -0.43658120299126801 0 0.017352144545279721 -0.42004472731161158 0 0.01507163335785406 -0.43109063101212991 0 0.025399486883567558 -0.43658120299126801 0 0.021759285953287629 -0.4227606387216471 0 0.028471640197900432 -0.42765500279271618 0 0.025399486883567558 -0.43658120299126801 0 0.027567344055459759 -0.42176436023476138 0 0.021759285953287629 -0.4227606387216471 0 0.028471640197900432 -0.42765500279271618 0 0.027567344055459759 -0.42176436023476138 0 0.028471640197900432 -0.42765500279271618 0 0.032782059411678693 -0.4233215755862082 0 0.025399486883567558 -0.43658120299126801 0 0.035208719399173458 -0.43280879193422572 0 0.028471640197900432 -0.42765500279271618 0 0.025399486883567558 -0.43658120299126801 0 0.035208719399173458 -0.43280879193422572 0 0.035208719399173458 -0.43280879193422572 0 0.04315969546303456 -0.41764524468875602 0 0.060735723662262243 -0.42299167800792831 0 0.035208719399173458 -0.43280879193422572 0 0.054390818821292868 -0.4355912502071223 0 0.043534928125700062 -0.44000495114804911 0 0.028471640197900432 -0.42765500279271618 0 0.035208719399173458 -0.43280879193422572 0 0.032782059411678693 -0.4233215755862082 0 0.035208719399173458 -0.43280879193422572 0 0.032782059411678693 -0.4233215755862082 0 0.04315969546303456 -0.41764524468875602 0 0.030842721240167199 -0.41691745542588948 0 0.032782059411678693 -0.4233215755862082 0 0.04315969546303456 -0.41764524468875602 0 0.030842721240167199 -0.41691745542588948 0 0.037907072548050133 -0.4097223587620345 0 0.04315969546303456 -0.41764524468875602 0 0.026795690990309231 -0.40795284289229972 0 0.030842721240167199 -0.41691745542588948 0 0.037907072548050133 -0.4097223587620345 0 0.037907072548050133 -0.4097223587620345 0 0.04315969546303456 -0.41764524468875602 0 0.046920472803650783 -0.40679253823424733 0 0.073922142761436382 -0.41580602442127518 0 0.053267404034640371 -0.39731339971170843 0 0.056040759424869427 -0.41188534234209823 0 0.04315969546303456 -0.41764524468875602 0 0.056040759424869427 -0.41188534234209823 0 0.060735723662262243 -0.42299167800792831 0 0.04315969546303456 -0.41764524468875602 0 0.046920472803650783 -0.40679253823424733 0 0.056040759424869427 -0.41188534234209823 0 0.035208719399173458 -0.43280879193422572 0 0.060735723662262243 -0.42299167800792831 0 0.054390818821292868 -0.4355912502071223 0 0.071036985036272413 -0.43177931448789281 0 0.060735723662262243 -0.42299167800792831 0 0.054390818821292868 -0.4355912502071223 0 0.035208719399173458 -0.43280879193422572 0 0.060735723662262243 -0.42299167800792831 0 0.052022108047738269 -0.45181176112598748 0 0.052451773364653058 -0.44275430049721098 0 0.043534928125700062 -0.44000495114804911 0 0.054390818821292868 -0.4355912502071223 0 0.052451773364653058 -0.44275430049721098 0 0.043534928125700062 -0.44000495114804911 0 0.063716105078758287 -0.44316980426872993 0 0.054390818821292868 -0.4355912502071223 0 0.052451773364653058 -0.44275430049721098 0 0.063716105078758287 -0.44316980426872993 0 0.052022108047738269 -0.45181176112598748 0 0.052451773364653058 -0.44275430049721098 0 0.063716105078758287 -0.44316980426872993 0 0.052022108047738269 -0.45181176112598748 0 0.060459971928924848 -0.45375260900138797 0 0.060851720230301373 -0.46336472323921751 0 0.044077530430193787 -0.4686413052048109 0 0.052022108047738269 -0.45181176112598748 0 0.060459971928924848 -0.45375260900138797 0 0.060851720230301373 -0.46336472323921751 0 0.052022108047738269 -0.45181176112598748 0 0.060851720230301373 -0.46336472323921751 0 0.044077530430193787 -0.4686413052048109 0 0.044077530430193787 -0.4686413052048109 0 0.043534928125700062 -0.44000495114804911 0 0.044077530430193787 -0.4686413052048109 0 0.036260806081792683 -0.45443085270449379 0 0.043534928125700062 -0.44000495114804911 0 0.052022108047738269 -0.45181176112598748 0 0.044077530430193787 -0.4686413052048109 0 0.043534928125700062 -0.44000495114804911 0 0.044077530430193787 -0.4686413052048109 0 0.036260806081792683 -0.45443085270449379 0 0.030847291442153781 -0.4639488026833577 0 0.036260806081792683 -0.45443085270449379 0 0.027665499963449091 -0.45515789371177318 0 0.030847291442153781 -0.4639488026833577 0 0.036260806081792683 -0.45443085270449379 0 0.03411071450737263 -0.44315912183413952 0 0.027665499963449091 -0.45515789371177318 0 0.036260806081792683 -0.45443085270449379 0 0.043534928125700062 -0.44000495114804911 0 0.03411071450737263 -0.44315912183413952 0 0.035208719399173458 -0.43280879193422572 0 0.03411071450737263 -0.44315912183413952 0 0.025121878233054371 -0.44574843042834422 0 0.035208719399173458 -0.43280879193422572 0 0.043534928125700062 -0.44000495114804911 0 0.03411071450737263 -0.44315912183413952 0 0.011994324991526801 -0.43640229309841377 0 0.025399486883567558 -0.43658120299126801 0 0.0096817151360844341 -0.44262590586052292 0 0.025399486883567558 -0.43658120299126801 0 0.025121878233054371 -0.44574843042834422 0 0.0096817151360844341 -0.44262590586052292 0 0.025121878233054371 -0.44574843042834422 0 0.0096817151360844341 -0.44262590586052292 0 0.01684555826369686 -0.45878997639264968 0 0.025399486883567558 -0.43658120299126801 0 0.0096817151360844341 -0.44262590586052292 0 0.025399486883567558 -0.43658120299126801 0 0.035208719399173458 -0.43280879193422572 0 0.025121878233054371 -0.44574843042834422 0 0.03411071450737263 -0.44315912183413952 0 0.025121878233054371 -0.44574843042834422 0 0.027665499963449091 -0.45515789371177318 0 -0.008490975700803146 -0.4496147156109509 0 0.0086914243696431526 -0.44039147253878058 0 0.0096817151360844341 -0.44262590586052292 0 0.0096817151360844341 -0.44262590586052292 0 0.0031161620136742289 -0.45530284170723789 0 0.01684555826369686 -0.45878997639264968 0 -0.008490975700803146 -0.4496147156109509 0 0.0044305844222376489 -0.43482972146128068 0 0.0086914243696431526 -0.44039147253878058 0 -0.008490975700803146 -0.4496147156109509 0 0.0096817151360844341 -0.44262590586052292 0 -0.008490975700803146 -0.4496147156109509 0 0.0096817151360844341 -0.44262590586052292 0 0.0031161620136742289 -0.45530284170723789 0 0.0096817151360844341 -0.44262590586052292 0 0.01684555826369686 -0.45878997639264968 0 0.011994324991526801 -0.43640229309841377 0 0.0086914243696431526 -0.44039147253878058 0 0.0096817151360844341 -0.44262590586052292 0 0.0086914243696431526 -0.44039147253878058 0 0.0096817151360844341 -0.44262590586052292 0 0.0041693236073766524 -0.4638961273049339 0 0.01684555826369686 -0.45878997639264968 0 0.024009401391311049 -0.47495404692477577 0 0.0041693236073766524 -0.4638961273049339 0 0.0031161620136742289 -0.45530284170723789 0 0.01684555826369686 -0.45878997639264968 0 0.01684555826369686 -0.45878997639264968 0 0.024009401391311049 -0.47495404692477577 0 0.01684555826369686 -0.45878997639264968 0 0.030847291442153781 -0.4639488026833577 0 0.024009401391311049 -0.47495404692477577 0 0.025121878233054371 -0.44574843042834422 0 0.01684555826369686 -0.45878997639264968 0 0.027665499963449091 -0.45515789371177318 0 0.01684555826369686 -0.45878997639264968 0 0.027665499963449091 -0.45515789371177318 0 0.030847291442153781 -0.4639488026833577 0 0.0041693236073766524 -0.4638961273049339 0 0.024009401391311049 -0.47495404692477577 0 0.001367869583954965 -0.48207629245983707 0 0.024009401391311049 -0.47495404692477577 0 0.001367869583954965 -0.48207629245983707 0 0.024009401391311049 -0.47495404692477577 0 0.001367869583954965 -0.48207629245983707 0 0.0094427674154289355 -0.49999999999999828 0 0.001367869583954965 -0.48207629245983707 0 0.0094427674154289355 -0.49999999999999828 0 0.024009401391311049 -0.47495404692477577 0 0.0094427674154289355 -0.49999999999999828 0 0.035109654787001232 -0.50000000000000022 0 0.024009401391311049 -0.47495404692477577 0 0.035109654787001232 -0.50000000000000022 0 0.044671715710491652 -0.500000000000001 0 0.044374623070343872 -0.48432065260240592 0 0.035109654787001232 -0.50000000000000022 0 0.044671715710491652 -0.500000000000001 0 0.044374623070343872 -0.48432065260240592 0 0.024009401391311049 -0.47495404692477577 0 0.035109654787001232 -0.50000000000000022 0 0.044374623070343872 -0.48432065260240592 0 0.044077530430193787 -0.4686413052048109 0 0.024009401391311049 -0.47495404692477577 0 0.044077530430193787 -0.4686413052048109 0 0.024009401391311049 -0.47495404692477577 0 0.044374623070343872 -0.48432065260240592 0 0.044077530430193787 -0.4686413052048109 0 0.030847291442153781 -0.4639488026833577 0 0.024009401391311049 -0.47495404692477577 0 0.044077530430193787 -0.4686413052048109 0 0.044374623070343872 -0.48432065260240592 0 0.044374623070343872 -0.48432065260240592 0 0.055339119822683802 -0.47432052805512193 0 0.059052513578249768 -0.48415459239490799 0 0.044077530430193787 -0.4686413052048109 0 0.044374623070343872 -0.48432065260240592 0 0.055339119822683802 -0.47432052805512193 0 0.060851720230301373 -0.46336472323921751 0 0.044077530430193787 -0.4686413052048109 0 0.055339119822683802 -0.47432052805512193 0 0.06833921180433046 -0.47112136683426759 0 0.060851720230301373 -0.46336472323921751 0 0.055339119822683802 -0.47432052805512193 0 0.06833921180433046 -0.47112136683426759 0 0.055339119822683802 -0.47432052805512193 0 0.059052513578249768 -0.48415459239490799 0 0.070497214854466916 -0.5 0 0.059052513578249768 -0.48415459239490799 0 0.054649016803388052 -0.49211881124932838 0 0.044671715710491652 -0.500000000000001 0 0.044374623070343872 -0.48432065260240592 0 0.054649016803388052 -0.49211881124932838 0 0.070497214854466916 -0.5 0 0.044671715710491652 -0.500000000000001 0 0.054649016803388052 -0.49211881124932838 0 0.044374623070343872 -0.48432065260240592 0 0.059052513578249768 -0.48415459239490799 0 0.054649016803388052 -0.49211881124932838 0 0.083908104088682045 -0.28580478682991672 0 0.089487987162395616 -0.28988053698625699 0 0.1002373724423981 -0.28596328712036112 0 0.083908104088682045 -0.28580478682991672 0 0.078020334178601186 -0.27652651373839893 0 0.1002373724423981 -0.28596328712036112 0 0.079603699178801418 -0.28663015213858062 0 0.081556018810072975 -0.29926310429093622 0 0.075789503991602961 -0.29163922791277569 0 0.079603699178801418 -0.28663015213858062 0 0.081556018810072975 -0.29926310429093622 0 0.094202772939700918 -0.30112392185616971 0 0.079603699178801418 -0.28663015213858062 0 0.083908104088682045 -0.28580478682991672 0 0.089487987162395616 -0.28988053698625699 0 0.079603699178801418 -0.28663015213858062 0 0.094202772939700918 -0.30112392185616971 0 0.079603699178801418 -0.28663015213858062 0 0.089487987162395616 -0.28988053698625699 0 0.094202772939700918 -0.30112392185616971 0 0.08815876356063454 -0.31020873327173393 0 0.081556018810072975 -0.29926310429093622 0 0.094202772939700918 -0.30112392185616971 0 0.08815876356063454 -0.31020873327173393 0 0.081556018810072975 -0.29926310429093622 0 0.067515680420665997 -0.30479977496971328 0 0.08815876356063454 -0.31020873327173393 0 0.067515680420665997 -0.30479977496971328 0 0.074948788349293721 -0.32052355399385057 0 0.081556018810072975 -0.29926310429093622 0 0.067515680420665997 -0.30479977496971328 0 0.07150670688525107 -0.29434880980831257 0 0.08815876356063454 -0.31020873327173393 0 0.067515680420665997 -0.30479977496971328 0 0.067515680420665997 -0.30479977496971328 0 0.07150670688525107 -0.29434880980831257 0 0.060706597660698691 -0.29500461165137021 0 0.079603699178801418 -0.28663015213858062 0 0.070491591092286393 -0.28631484541327329 0 0.061014065371659418 -0.2709357474175999 0 0.07150670688525107 -0.29434880980831257 0 0.062091523628428069 -0.28635158634339303 0 0.060706597660698691 -0.29500461165137021 0 0.081556018810072975 -0.29926310429093622 0 0.075789503991602961 -0.29163922791277569 0 0.07150670688525107 -0.29434880980831257 0 0.075789503991602961 -0.29163922791277569 0 0.07150670688525107 -0.29434880980831257 0 0.070491591092286393 -0.28631484541327329 0 0.079603699178801418 -0.28663015213858062 0 0.075789503991602961 -0.29163922791277569 0 0.070491591092286393 -0.28631484541327329 0 0.07150670688525107 -0.29434880980831257 0 0.070491591092286393 -0.28631484541327329 0 0.062091523628428069 -0.28635158634339303 0 0.083908104088682045 -0.28580478682991672 0 0.078020334178601186 -0.27652651373839893 0 0.061014065371659418 -0.2709357474175999 0 0.083908104088682045 -0.28580478682991672 0 0.061014065371659418 -0.2709357474175999 0 0.079603699178801418 -0.28663015213858062 0 0.083908104088682045 -0.28580478682991672 0 0.061014065371659418 -0.2709357474175999 0 0.070491591092286393 -0.28631484541327329 0 0.062091523628428069 -0.28635158634339303 0 0.061014065371659418 -0.2709357474175999 0 0.078020334178601186 -0.27652651373839893 0 0.073643214167236876 -0.26118041644916262 0 0.061014065371659418 -0.2709357474175999 0 0.068670900169069571 -0.25170484312657088 0 0.062537389150411099 -0.25798261247412158 0 0.073643214167236876 -0.26118041644916262 0 0.068670900169069571 -0.25170484312657088 0 0.062537389150411099 -0.25798261247412158 0 0.060643709716919861 -0.24915130951748629 0 0.062537389150411099 -0.25798261247412158 0 0.073643214167236876 -0.26118041644916262 0 0.061014065371659418 -0.2709357474175999 0 0.068670900169069571 -0.25170484312657088 0 0.073643214167236876 -0.26118041644916262 0 0.078732715016248386 -0.2465985142875933 0 0.08630462784978804 -0.26006394322370091 0 0.078732715016248386 -0.2465985142875933 0 0.09477141884214027 -0.24650166742010321 0 0.073643214167236876 -0.26118041644916262 0 0.08630462784978804 -0.26006394322370091 0 0.078732715016248386 -0.2465985142875933 0 0.078020334178601186 -0.27652651373839893 0 0.08630462784978804 -0.26006394322370091 0 0.1063554570447135 -0.2695126042232463 0 0.078020334178601186 -0.27652651373839893 0 0.073643214167236876 -0.26118041644916262 0 0.08630462784978804 -0.26006394322370091 0 0.078020334178601186 -0.27652651373839893 0 0.1063554570447135 -0.2695126042232463 0 0.078020334178601186 -0.27652651373839893 0 0.1063554570447135 -0.2695126042232463 0 0.1002373724423981 -0.28596328712036112 0 0.08630462784978804 -0.26006394322370091 0 0.1063554570447135 -0.2695126042232463 0 0.09477141884214027 -0.24650166742010321 0 0.1063554570447135 -0.2695126042232463 0 0.1124148736483154 -0.24934285577144161 0 0.09477141884214027 -0.24650166742010321 0 0.1346905799108257 -0.26249869470809373 0 0.1063554570447135 -0.2695126042232463 0 0.1124148736483154 -0.24934285577144161 0 0.1063554570447135 -0.2695126042232463 0 0.12376173592536011 -0.28709211698794412 0 0.1002373724423981 -0.28596328712036112 0 0.1346905799108257 -0.26249869470809373 0 0.1063554570447135 -0.2695126042232463 0 0.1346905799108257 -0.26249869470809373 0 0.1063554570447135 -0.2695126042232463 0 0.12376173592536011 -0.28709211698794412 0 0.12376173592536011 -0.28709211698794412 0 0.1002373724423981 -0.28596328712036112 0 0.11075170882743469 -0.29897165815681243 0 0.1002373724423981 -0.28596328712036112 0 0.094202772939700918 -0.30112392185616971 0 0.11075170882743469 -0.29897165815681243 0 0.089487987162395616 -0.28988053698625699 0 0.1002373724423981 -0.28596328712036112 0 0.094202772939700918 -0.30112392185616971 0 0.08815876356063454 -0.31020873327173393 0 0.094202772939700918 -0.30112392185616971 0 0.1088018467006025 -0.31561769157375669 0 0.094202772939700918 -0.30112392185616971 0 0.11075170882743469 -0.29897165815681243 0 0.1088018467006025 -0.31561769157375669 0 0.094202772939700918 -0.30112392185616971 0 0.1088018467006025 -0.31561769157375669 0 0.12542803600290769 -0.30672450909944321 0 0.11075170882743469 -0.29897165815681243 0 0.1088018467006025 -0.31561769157375669 0 0.12542803600290769 -0.30672450909944321 0 0.12376173592536011 -0.28709211698794412 0 0.11075170882743469 -0.29897165815681243 0 0.12869660008228251 -0.32083057042236668 0 0.12408043673138271 -0.3307860761673555 0 0.1088018467006025 -0.31561769157375669 0 0.12408043673138271 -0.3307860761673555 0 0.1068930145444638 -0.33468881875944612 0 0.1088018467006025 -0.31561769157375669 0 0.12869660008228251 -0.32083057042236668 0 0.12542803600290769 -0.30672450909944321 0 0.1088018467006025 -0.31561769157375669 0 0.12869660008228251 -0.32083057042236668 0 0.1088018467006025 -0.31561769157375669 0 0.12408043673138271 -0.3307860761673555 0 0.1088018467006025 -0.31561769157375669 0 0.12408043673138271 -0.3307860761673555 0 0.1068930145444638 -0.33468881875944612 0 0.1126185818878445 -0.35135785471741088 0 0.1068930145444638 -0.33468881875944612 0 0.093164720728689671 -0.35071572267500312 0 0.088564196847221277 -0.3307128635708515 0 0.1068930145444638 -0.33468881875944612 0 0.1088018467006025 -0.31561769157375669 0 0.088564196847221277 -0.3307128635708515 0 0.08815876356063454 -0.31020873327173393 0 0.1088018467006025 -0.31561769157375669 0 0.08815876356063454 -0.31020873327173393 0 0.1088018467006025 -0.31561769157375669 0 0.088564196847221277 -0.3307128635708515 0 0.1240614338456624 -0.37194020949616052 0 0.1126185818878445 -0.35135785471741088 0 0.1010625482549421 -0.37375009137591142 0 0.12745085933380329 -0.35423090476633268 0 0.1240614338456624 -0.37194020949616052 0 0.1126185818878445 -0.35135785471741088 0 0.12745085933380329 -0.35423090476633268 0 0.12408043673138271 -0.3307860761673555 0 0.1126185818878445 -0.35135785471741088 0 0.1126185818878445 -0.35135785471741088 0 0.1010625482549421 -0.37375009137591142 0 0.093164720728689671 -0.35071572267500312 0 0.1068930145444638 -0.33468881875944612 0 0.1126185818878445 -0.35135785471741088 0 0.093164720728689671 -0.35071572267500312 0 0.1010625482549421 -0.37375009137591142 0 0.084113257283456436 -0.36663025146129802 0 0.093164720728689671 -0.35071572267500312 0 0.084113257283456436 -0.36663025146129802 0 0.093164720728689671 -0.35071572267500312 0 0.077289850623643491 -0.34955992594572688 0 0.077289850623643491 -0.34955992594572688 0 0.068136500090328261 -0.36870028083988621 0 0.062188135968238127 -0.34991115203252721 0 0.077289850623643491 -0.34955992594572688 0 0.070556471152670788 -0.33503054794377229 0 0.062188135968238127 -0.34991115203252721 0 0.084113257283456436 -0.36663025146129802 0 0.077289850623643491 -0.34955992594572688 0 0.068136500090328261 -0.36870028083988621 0 0.08815876356063454 -0.31020873327173393 0 0.088564196847221277 -0.3307128635708515 0 0.074948788349293721 -0.32052355399385057 0 0.093164720728689671 -0.35071572267500312 0 0.077289850623643491 -0.34955992594572688 0 0.088564196847221277 -0.3307128635708515 0 0.077289850623643491 -0.34955992594572688 0 0.088564196847221277 -0.3307128635708515 0 0.070556471152670788 -0.33503054794377229 0 0.088564196847221277 -0.3307128635708515 0 0.070556471152670788 -0.33503054794377229 0 0.074948788349293721 -0.32052355399385057 0 0.070556471152670788 -0.33503054794377229 0 0.05994882976527599 -0.3218658502131817 0 0.057561578642685789 -0.33783305944186232 0 0.070556471152670788 -0.33503054794377229 0 0.057561578642685789 -0.33783305944186232 0 0.062188135968238127 -0.34991115203252721 0 0.070556471152670788 -0.33503054794377229 0 0.074948788349293721 -0.32052355399385057 0 0.05994882976527599 -0.3218658502131817 0 0.067515680420665997 -0.30479977496971328 0 0.074948788349293721 -0.32052355399385057 0 0.05994882976527599 -0.3218658502131817 0 0.05994882976527599 -0.3218658502131817 0 0.046346652556273397 -0.33171561870375299 0 0.04376698356965486 -0.3161838281140375 0 0.05994882976527599 -0.3218658502131817 0 0.04376698356965486 -0.3161838281140375 0 0.054526022759073693 -0.31056006749115622 0 0.05994882976527599 -0.3218658502131817 0 0.057561578642685789 -0.33783305944186232 0 0.046346652556273397 -0.33171561870375299 0 0.057561578642685789 -0.33783305944186232 0 0.046346652556273397 -0.33171561870375299 0 0.048926321542892247 -0.34724740929346842 0 0.046346652556273397 -0.33171561870375299 0 0.048926321542892247 -0.34724740929346842 0 0.039504588773732613 -0.33923191176406192 0 0.029469237185336051 -0.34709687945899781 0 0.028532450423909821 -0.32890413150214792 0 0.046346652556273397 -0.33171561870375299 0 0.039504588773732613 -0.33923191176406192 0 0.04376698356965486 -0.3161838281140375 0 0.046346652556273397 -0.33171561870375299 0 0.039504588773732613 -0.33923191176406192 0 0.048926321542892247 -0.34724740929346842 0 0.04376698356965486 -0.3161838281140375 0 0.028532450423909821 -0.32890413150214792 0 0.041609487879893957 -0.30319387807572268 0 0.028532450423909821 -0.32890413150214792 0 0.041609487879893957 -0.30319387807572268 0 0.039504588773732613 -0.33923191176406192 0 0.04376698356965486 -0.3161838281140375 0 0.039504588773732613 -0.33923191176406192 0 0.04376698356965486 -0.3161838281140375 0 0.028532450423909821 -0.32890413150214792 0 0.046346652556273397 -0.33171561870375299 0 0.04376698356965486 -0.3161838281140375 0 0.054817961994747068 -0.38949825029839902 0 0.068136500090328261 -0.36870028083988621 0 0.05190150139418466 -0.36290454825085428 0 0.068136500090328261 -0.36870028083988621 0 0.05190150139418466 -0.36290454825085428 0 0.062188135968238127 -0.34991115203252721 0 0.05190150139418466 -0.36290454825085428 0 0.062188135968238127 -0.34991115203252721 0 0.048926321542892247 -0.34724740929346842 0 0.057561578642685789 -0.33783305944186232 0 0.062188135968238127 -0.34991115203252721 0 0.048926321542892247 -0.34724740929346842 0 0.05190150139418466 -0.36290454825085428 0 0.048926321542892247 -0.34724740929346842 0 0.035242193977810088 -0.36227999541408618 0 0.039504588773732613 -0.33923191176406192 0 0.035242193977810088 -0.36227999541408618 0 0.029469237185336051 -0.34709687945899781 0 0.039504588773732613 -0.33923191176406192 0 0.035242193977810088 -0.36227999541408618 0 0.039504588773732613 -0.33923191176406192 0 0.048926321542892247 -0.34724740929346842 0 0.035242193977810088 -0.36227999541408618 0 0.0430823884606591 -0.37564809549167338 0 0.030979799181887559 -0.38532807906411037 0 0.035242193977810088 -0.36227999541408618 0 0.0430823884606591 -0.37564809549167338 0 0.05190150139418466 -0.36290454825085428 0 0.035242193977810088 -0.36227999541408618 0 0.030979799181887559 -0.38532807906411037 0 0.035242193977810088 -0.36227999541408618 0 0.030979799181887559 -0.38532807906411037 0 0.035242193977810088 -0.36227999541408618 0 0.02049775264505449 -0.37122929675444838 0 0.035242193977810088 -0.36227999541408618 0 0.02049775264505449 -0.37122929675444838 0 0.01545541296792622 -0.35461438492857311 0 0.035242193977810088 -0.36227999541408618 0 0.029469237185336051 -0.34709687945899781 0 0.01545541296792622 -0.35461438492857311 0 0.01545541296792622 -0.35461438492857311 0 0.001736735560337046 -0.34458920157877498 0 0.010600705189761901 -0.33370115742334272 0 -0.01318778385321114 -0.35736842157253651 0 0.01545541296792622 -0.35461438492857311 0 0.001736735560337046 -0.34458920157877498 0 0.0023783755119446211 -0.38032463835499941 0 0.02049775264505449 -0.37122929675444838 0 0.01545541296792622 -0.35461438492857311 0 -0.0024102202140195059 -0.37948693688002788 0 0.0023783755119446211 -0.38032463835499941 0 0.01545541296792622 -0.35461438492857311 0 0.0023783755119446211 -0.38032463835499941 0 0.01545541296792622 -0.35461438492857311 0 0.028532450423909821 -0.32890413150214792 0 0.010600705189761901 -0.33370115742334272 0 0.0079812764457104952 -0.31559530161391047 0 0.028532450423909821 -0.32890413150214792 0 0.0079812764457104952 -0.31559530161391047 0 0.025810578876557751 -0.3049833178412894 0 0.029469237185336051 -0.34709687945899781 0 0.01545541296792622 -0.35461438492857311 0 0.028532450423909821 -0.32890413150214792 0 0.01545541296792622 -0.35461438492857311 0 0.028532450423909821 -0.32890413150214792 0 0.01545541296792622 -0.35461438492857311 0 0.028532450423909821 -0.32890413150214792 0 0.010600705189761901 -0.33370115742334272 0 -0.0039872347153526583 -0.32859099620149618 0 0.001736735560337046 -0.34458920157877498 0 0.010600705189761901 -0.33370115742334272 0 -0.0039872347153526583 -0.32859099620149618 0 0.010600705189761901 -0.33370115742334272 0 0.0079812764457104952 -0.31559530161391047 0 -0.009642070915086105 -0.30556822425034719 0 0.0079812764457104952 -0.31559530161391047 0 0.01399382855829426 -0.29077582985417127 0 -0.0127219740500978 -0.28377568063547148 0 0.01399382855829426 -0.29077582985417127 0 0.01399382855829426 -0.29077582985417127 0 0.028301614850650119 -0.28302912104469558 0 0.022595716860811129 -0.27470289768924988 0 0.01399382855829426 -0.29077582985417127 0 0.028301614850650119 -0.28302912104469558 0 0.040709631166686508 -0.29777597907287062 0 0.01399382855829426 -0.29077582985417127 0 0.040709631166686508 -0.29777597907287062 0 0.0079812764457104952 -0.31559530161391047 0 0.01399382855829426 -0.29077582985417127 0 0.025810578876557751 -0.3049833178412894 0 0.01399382855829426 -0.29077582985417127 0 0.025810578876557751 -0.3049833178412894 0 0.040709631166686508 -0.29777597907287062 0 0.04376698356965486 -0.3161838281140375 0 0.046872597280697578 -0.29939081666769218 0 0.041609487879893957 -0.30319387807572268 0 0.04376698356965486 -0.3161838281140375 0 0.046872597280697578 -0.29939081666769218 0 0.028532450423909821 -0.32890413150214792 0 0.025810578876557751 -0.3049833178412894 0 0.041609487879893957 -0.30319387807572268 0 0.025810578876557751 -0.3049833178412894 0 0.041609487879893957 -0.30319387807572268 0 0.040709631166686508 -0.29777597907287062 0 0.04376698356965486 -0.3161838281140375 0 0.041609487879893957 -0.30319387807572268 0 0.043935305263347907 -0.29862117920922809 0 0.046872597280697578 -0.29939081666769218 0 0.046244439134701602 -0.29408128114531329 0 0.043935305263347907 -0.29862117920922809 0 0.046872597280697578 -0.29939081666769218 0 0.041609487879893957 -0.30319387807572268 0 0.043935305263347907 -0.29862117920922809 0 0.046872597280697578 -0.29939081666769218 0 0.043935305263347907 -0.29862117920922809 0 0.041609487879893957 -0.30319387807572268 0 0.041609487879893957 -0.30319387807572268 0 0.040709631166686508 -0.29777597907287062 0 0.043935305263347907 -0.29862117920922809 0 0.041609487879893957 -0.30319387807572268 0 0.040709631166686508 -0.29777597907287062 0 0.043935305263347907 -0.29862117920922809 0 0.040709631166686508 -0.29777597907287062 0 0.040709631166686508 -0.29777597907287062 0 0.035907282816808418 -0.26886177756249069 0 0.040709631166686508 -0.29777597907287062 0 0.046244439134701602 -0.29408128114531329 0 0.035907282816808418 -0.26886177756249069 0 0.028301614850650119 -0.28302912104469558 0 0.040709631166686508 -0.29777597907287062 0 0.035907282816808418 -0.26886177756249069 0 0.043935305263347907 -0.29862117920922809 0 0.046244439134701602 -0.29408128114531329 0 0.043935305263347907 -0.29862117920922809 0 0.040709631166686508 -0.29777597907287062 0 0.046244439134701602 -0.29408128114531329 0 0.046872597280697578 -0.29939081666769218 0 0.055546480088450853 -0.29013207046773959 0 0.060706597660698691 -0.29500461165137021 0 0.046872597280697578 -0.29939081666769218 0 0.050312550107290827 -0.28078993047683481 0 0.046872597280697578 -0.29939081666769218 0 0.055546480088450853 -0.29013207046773959 0 0.050312550107290827 -0.28078993047683481 0 0.046872597280697578 -0.29939081666769218 0 0.046244439134701602 -0.29408128114531329 0 0.050312550107290827 -0.28078993047683481 0 0.062091523628428069 -0.28635158634339303 0 0.055546480088450853 -0.29013207046773959 0 0.050312550107290827 -0.28078993047683481 0 0.062091523628428069 -0.28635158634339303 0 0.055546480088450853 -0.29013207046773959 0 0.060706597660698691 -0.29500461165137021 0 0.04376698356965486 -0.3161838281140375 0 0.046872597280697578 -0.29939081666769218 0 0.054526022759073693 -0.31056006749115622 0 0.067515680420665997 -0.30479977496971328 0 0.05994882976527599 -0.3218658502131817 0 0.054526022759073693 -0.31056006749115622 0 0.067515680420665997 -0.30479977496971328 0 0.046872597280697578 -0.29939081666769218 0 0.060706597660698691 -0.29500461165137021 0 0.067515680420665997 -0.30479977496971328 0 0.046872597280697578 -0.29939081666769218 0 0.067515680420665997 -0.30479977496971328 0 0.046872597280697578 -0.29939081666769218 0 0.054526022759073693 -0.31056006749115622 0 0.051635158109353638 -0.2522929185582275 0 0.061014065371659418 -0.2709357474175999 0 0.038120026654636888 -0.25606670800528319 0 0.061014065371659418 -0.2709357474175999 0 0.038120026654636888 -0.25606670800528319 0 0.062537389150411099 -0.25798261247412158 0 0.051635158109353638 -0.2522929185582275 0 0.061014065371659418 -0.2709357474175999 0 0.062537389150411099 -0.25798261247412158 0 0.051635158109353638 -0.2522929185582275 0 0.060643709716919861 -0.24915130951748629 0 0.061014065371659418 -0.2709357474175999 0 0.050312550107290827 -0.28078993047683481 0 0.035907282816808418 -0.26886177756249069 0 0.062091523628428069 -0.28635158634339303 0 0.061014065371659418 -0.2709357474175999 0 0.050312550107290827 -0.28078993047683481 0 0.046244439134701602 -0.29408128114531329 0 0.050312550107290827 -0.28078993047683481 0 0.035907282816808418 -0.26886177756249069 0 0.061014065371659418 -0.2709357474175999 0 0.035907282816808418 -0.26886177756249069 0 0.038120026654636888 -0.25606670800528319 0 0.035907282816808418 -0.26886177756249069 0 0.038120026654636888 -0.25606670800528319 0 0.023652067762056962 -0.26122582845696363 0 0.038120026654636888 -0.25606670800528319 0 0.023652067762056962 -0.26122582845696363 0 0.01522598793761438 -0.2411976685929664 0 0.023652067762056962 -0.26122582845696363 0 0.022595716860811129 -0.27470289768924988 0 0.0064113245404139908 -0.26530009043482788 0 0.028301614850650119 -0.28302912104469558 0 0.035907282816808418 -0.26886177756249069 0 0.022595716860811129 -0.27470289768924988 0 0.035907282816808418 -0.26886177756249069 0 0.023652067762056962 -0.26122582845696363 0 0.022595716860811129 -0.27470289768924988 0 -0.0127219740500978 -0.28377568063547148 0 0.01399382855829426 -0.29077582985417127 0 0.0064113245404139908 -0.26530009043482788 0 0.01399382855829426 -0.29077582985417127 0 0.022595716860811129 -0.27470289768924988 0 0.0064113245404139908 -0.26530009043482788 0 0.023652067762056962 -0.26122582845696363 0 0.0064113245404139908 -0.26530009043482788 0 0.01522598793761438 -0.2411976685929664 0 -0.0042469490959310546 -0.24105588206608369 0 0.01522598793761438 -0.2411976685929664 0 0.0080886019295227304 -0.22334361936230621 0 -0.0042469490959310546 -0.24105588206608369 0 0.0064113245404139908 -0.26530009043482788 0 0.01522598793761438 -0.2411976685929664 0 0.01522598793761438 -0.2411976685929664 0 0.0080886019295227304 -0.22334361936230621 0 0.029848785966222549 -0.22467218689454249 0 0.01522598793761438 -0.2411976685929664 0 0.029848785966222549 -0.22467218689454249 0 0.040049149458647862 -0.2402072910848079 0 0.038120026654636888 -0.25606670800528319 0 0.01522598793761438 -0.2411976685929664 0 0.040049149458647862 -0.2402072910848079 0 0.038120026654636888 -0.25606670800528319 0 0.01522598793761438 -0.2411976685929664 0 -0.011684435195542121 -0.19235029798179959 0 0.015886187675048211 -0.20297840504938719 0 -0.001950199932115194 -0.2097495786964387 0 -0.011684435195542121 -0.19235029798179959 0 0.015886187675048211 -0.20297840504938719 0 -0.011684435195542121 -0.19235029798179959 0 0.015886187675048211 -0.20297840504938719 0 0.0089288639899517616 -0.1799517076714372 0 -0.001950199932115194 -0.2097495786964387 0 0.0080886019295227304 -0.22334361936230621 0 0.015886187675048211 -0.20297840504938719 0 0.0080886019295227304 -0.22334361936230621 0 0.029848785966222549 -0.22467218689454249 0 0.015886187675048211 -0.20297840504938719 0 0.029848785966222549 -0.22467218689454249 0 0.015886187675048211 -0.20297840504938719 0 0.042834745918904973 -0.20937539307532829 0 0.015886187675048211 -0.20297840504938719 0 0.036582469344693197 -0.19011752362393319 0 0.0089288639899517616 -0.1799517076714372 0 0.036582469344693197 -0.19011752362393319 0 0.042834745918904973 -0.20937539307532829 0 0.059517719286908369 -0.1959707505161723 0 0.015886187675048211 -0.20297840504938719 0 0.036582469344693197 -0.19011752362393319 0 0.042834745918904973 -0.20937539307532829 0 0.042834745918904973 -0.20937539307532829 0 0.059517719286908369 -0.1959707505161723 0 0.063232013994969749 -0.21493004671985691 0 0.042834745918904973 -0.20937539307532829 0 0.051941299245587769 -0.22758344564807789 0 0.063232013994969749 -0.21493004671985691 0 0.051635158109353638 -0.2522929185582275 0 0.038120026654636888 -0.25606670800528319 0 0.040049149458647862 -0.2402072910848079 0 0.029848785966222549 -0.22467218689454249 0 0.042834745918904973 -0.20937539307532829 0 0.051941299245587769 -0.22758344564807789 0 0.029848785966222549 -0.22467218689454249 0 0.040049149458647862 -0.2402072910848079 0 0.051941299245587769 -0.22758344564807789 0 0.051941299245587769 -0.22758344564807789 0 0.070610386738899161 -0.2301857030121148 0 0.063232013994969749 -0.21493004671985691 0 0.051941299245587769 -0.22758344564807789 0 0.056413142465954282 -0.2393987625308939 0 0.070610386738899161 -0.2301857030121148 0 0.040049149458647862 -0.2402072910848079 0 0.051941299245587769 -0.22758344564807789 0 0.056413142465954282 -0.2393987625308939 0 0.051635158109353638 -0.2522929185582275 0 0.040049149458647862 -0.2402072910848079 0 0.056413142465954282 -0.2393987625308939 0 0.056413142465954282 -0.2393987625308939 0 0.060643709716919861 -0.24915130951748629 0 0.067092989881396378 -0.24301997764314451 0 0.051635158109353638 -0.2522929185582275 0 0.056413142465954282 -0.2393987625308939 0 0.060643709716919861 -0.24915130951748629 0 0.067092989881396378 -0.24301997764314451 0 0.078732715016248386 -0.2465985142875933 0 0.070610386738899161 -0.2301857030121148 0 0.068670900169069571 -0.25170484312657088 0 0.060643709716919861 -0.24915130951748629 0 0.067092989881396378 -0.24301997764314451 0 0.056413142465954282 -0.2393987625308939 0 0.067092989881396378 -0.24301997764314451 0 0.070610386738899161 -0.2301857030121148 0 0.068670900169069571 -0.25170484312657088 0 0.067092989881396378 -0.24301997764314451 0 0.078732715016248386 -0.2465985142875933 0 0.078732715016248386 -0.2465985142875933 0 0.086555561221717842 -0.2320598547149956 0 0.070610386738899161 -0.2301857030121148 0 0.078732715016248386 -0.2465985142875933 0 0.086555561221717842 -0.2320598547149956 0 0.09477141884214027 -0.24650166742010321 0 0.086555561221717842 -0.2320598547149956 0 0.070610386738899161 -0.2301857030121148 0 0.080140549614657636 -0.2167707802342009 0 0.092657077553068901 -0.2206050850423481 0 0.086555561221717842 -0.2320598547149956 0 0.080140549614657636 -0.2167707802342009 0 0.070610386738899161 -0.2301857030121148 0 0.063232013994969749 -0.21493004671985691 0 0.080140549614657636 -0.2167707802342009 0 0.063232013994969749 -0.21493004671985691 0 0.07427292814946003 -0.20484205992450019 0 0.080140549614657636 -0.2167707802342009 0 0.059517719286908369 -0.1959707505161723 0 0.063232013994969749 -0.21493004671985691 0 0.07427292814946003 -0.20484205992450019 0 0.059517719286908369 -0.1959707505161723 0 0.07427292814946003 -0.20484205992450019 0 0.082232275079004102 -0.1897000104048249 0 0.059517719286908369 -0.1959707505161723 0 0.082232275079004102 -0.1897000104048249 0 0.069325445922192405 -0.17750942562424529 0 0.07427292814946003 -0.20484205992450019 0 0.082232275079004102 -0.1897000104048249 0 0.089089015676835942 -0.20581539299170951 0 0.082232275079004102 -0.1897000104048249 0 0.1001142501218981 -0.19439065134516639 0 0.097849487588856643 -0.18000544609910499 0 0.082232275079004102 -0.1897000104048249 0 0.089089015676835942 -0.20581539299170951 0 0.1001142501218981 -0.19439065134516639 0 0.07427292814946003 -0.20484205992450019 0 0.080140549614657636 -0.2167707802342009 0 0.089089015676835942 -0.20581539299170951 0 0.092657077553068901 -0.2206050850423481 0 0.080140549614657636 -0.2167707802342009 0 0.089089015676835942 -0.20581539299170951 0 0.092657077553068901 -0.2206050850423481 0 0.089089015676835942 -0.20581539299170951 0 0.10344538258092879 -0.21237831716195441 0 0.089089015676835942 -0.20581539299170951 0 0.10344538258092879 -0.21237831716195441 0 0.1001142501218981 -0.19439065134516639 0 0.10344538258092879 -0.21237831716195441 0 0.1001142501218981 -0.19439065134516639 0 0.11700156928509001 -0.19724393022828909 0 0.1001142501218981 -0.19439065134516639 0 0.11700156928509001 -0.19724393022828909 0 0.11318159998109049 -0.1820736988617109 0 0.11700156928509001 -0.19724393022828909 0 0.11318159998109049 -0.1820736988617109 0 0.13015836463603331 -0.18680420016310481 0 0.10344538258092879 -0.21237831716195441 0 0.12139850008723869 -0.21231032922883719 0 0.11429638767800571 -0.22298099667505331 0 0.10344538258092879 -0.21237831716195441 0 0.11700156928509001 -0.19724393022828909 0 0.12139850008723869 -0.21231032922883719 0 0.11700156928509001 -0.19724393022828909 0 0.12139850008723869 -0.21231032922883719 0 0.12924144026734499 -0.20162071726484609 0 0.11429638767800571 -0.22298099667505331 0 0.1236491410850933 -0.23584551251244881 0 0.10260777135880431 -0.23235579999331599 0 0.12139850008723869 -0.21231032922883719 0 0.11429638767800571 -0.22298099667505331 0 0.12946969481637269 -0.22342477506286221 0 0.11429638767800571 -0.22298099667505331 0 0.1236491410850933 -0.23584551251244881 0 0.12946969481637269 -0.22342477506286221 0 0.1346905799108257 -0.26249869470809373 0 0.1236491410850933 -0.23584551251244881 0 0.1124148736483154 -0.24934285577144161 0 0.1236491410850933 -0.23584551251244881 0 0.1124148736483154 -0.24934285577144161 0 0.10260777135880431 -0.23235579999331599 0 0.1124148736483154 -0.24934285577144161 0 0.09477141884214027 -0.24650166742010321 0 0.10260777135880431 -0.23235579999331599 0 0.086555561221717842 -0.2320598547149956 0 0.09477141884214027 -0.24650166742010321 0 0.10260777135880431 -0.23235579999331599 0 0.092657077553068901 -0.2206050850423481 0 0.086555561221717842 -0.2320598547149956 0 0.10260777135880431 -0.23235579999331599 0 0.10344538258092879 -0.21237831716195441 0 0.11429638767800571 -0.22298099667505331 0 0.10260777135880431 -0.23235579999331599 0 0.092657077553068901 -0.2206050850423481 0 0.10344538258092879 -0.21237831716195441 0 0.10260777135880431 -0.23235579999331599 0 0.10831380337559469 -0.16372601897955061 0 0.089573919338718402 -0.14817286918041181 0 0.1118226011198238 -0.14956625326078021 0 0.10831380337559469 -0.16372601897955061 0 0.089573919338718402 -0.14817286918041181 0 0.1101135778644796 -0.13522139959251109 0 0.1118226011198238 -0.14956625326078021 0 0.089573919338718402 -0.14817286918041181 0 0.1101135778644796 -0.13522139959251109 0 0.092807760148714641 -0.12454407421679781 0 0.11151991775603259 -0.1177426262654688 0 0.1101135778644796 -0.13522139959251109 0 0.089573919338718402 -0.14817286918041181 0 0.092807760148714641 -0.12454407421679781 0 0.1101135778644796 -0.13522139959251109 0 0.11151991775603259 -0.1177426262654688 0 0.1276075298871012 -0.12854147022919951 0 0.1101135778644796 -0.13522139959251109 0 0.12344333801129979 -0.1423247201707728 0 0.1276075298871012 -0.12854147022919951 0 0.1101135778644796 -0.13522139959251109 0 0.12344333801129979 -0.1423247201707728 0 0.1118226011198238 -0.14956625326078021 0 0.12344333801129979 -0.1423247201707728 0 0.1118226011198238 -0.14956625326078021 0 0.1253326927526357 -0.15756249646372869 0 0.12495480361634211 -0.17202637998491629 0 0.10831380337559469 -0.16372601897955061 0 0.1253326927526357 -0.15756249646372869 0 0.1118226011198238 -0.14956625326078021 0 0.10831380337559469 -0.16372601897955061 0 0.1253326927526357 -0.15756249646372869 0 0.12495480361634211 -0.17202637998491629 0 0.11318159998109049 -0.1820736988617109 0 0.10831380337559469 -0.16372601897955061 0 0.12495480361634211 -0.17202637998491629 0 0.11318159998109049 -0.1820736988617109 0 0.13015836463603331 -0.18680420016310481 0 0.11318159998109049 -0.1820736988617109 0 0.097849487588856643 -0.18000544609910499 0 0.10831380337559469 -0.16372601897955061 0 0.1001142501218981 -0.19439065134516639 0 0.11318159998109049 -0.1820736988617109 0 0.097849487588856643 -0.18000544609910499 0 0.097849487588856643 -0.18000544609910499 0 0.10831380337559469 -0.16372601897955061 0 0.085405509386695916 -0.170136850904272 0 0.10831380337559469 -0.16372601897955061 0 0.085405509386695916 -0.170136850904272 0 0.089573919338718402 -0.14817286918041181 0 0.085405509386695916 -0.170136850904272 0 0.068849785435589866 -0.15810227599569049 0 0.089573919338718402 -0.14817286918041181 0 0.082232275079004102 -0.1897000104048249 0 0.085405509386695916 -0.170136850904272 0 0.069325445922192405 -0.17750942562424529 0 0.082232275079004102 -0.1897000104048249 0 0.097849487588856643 -0.18000544609910499 0 0.085405509386695916 -0.170136850904272 0 0.069325445922192405 -0.17750942562424529 0 0.068849785435589866 -0.15810227599569049 0 0.050621940422763807 -0.17363724030026681 0 0.085405509386695916 -0.170136850904272 0 0.069325445922192405 -0.17750942562424529 0 0.068849785435589866 -0.15810227599569049 0 0.068849785435589866 -0.15810227599569049 0 0.070834035301842097 -0.1326197193812729 0 0.047849771554059138 -0.14427102859448629 0 0.068849785435589866 -0.15810227599569049 0 0.089573919338718402 -0.14817286918041181 0 0.070834035301842097 -0.1326197193812729 0 0.089573919338718402 -0.14817286918041181 0 0.070834035301842097 -0.1326197193812729 0 0.092807760148714641 -0.12454407421679781 0 0.089573919338718402 -0.14817286918041181 0 0.070834035301842097 -0.1326197193812729 0 0.070834035301842097 -0.1326197193812729 0 0.047849771554059138 -0.14427102859448629 0 0.052094151264965853 -0.117066569582134 0 0.047849771554059138 -0.14427102859448629 0 0.02846052564263012 -0.1656166140771802 0 0.027719859759277848 -0.13838118604550931 0 0.047849771554059138 -0.14427102859448629 0 0.052094151264965853 -0.117066569582134 0 0.036195463480279369 -0.1242765086694947 0 0.047849771554059138 -0.14427102859448629 0 0.027719859759277848 -0.13838118604550931 0 0.036195463480279369 -0.1242765086694947 0 0.059517719286908369 -0.1959707505161723 0 0.069325445922192405 -0.17750942562424529 0 0.050621940422763807 -0.17363724030026681 0 0.036582469344693197 -0.19011752362393319 0 0.059517719286908369 -0.1959707505161723 0 0.050621940422763807 -0.17363724030026681 0 0.068849785435589866 -0.15810227599569049 0 0.047849771554059138 -0.14427102859448629 0 0.050621940422763807 -0.17363724030026681 0 0.047849771554059138 -0.14427102859448629 0 0.050621940422763807 -0.17363724030026681 0 0.02846052564263012 -0.1656166140771802 0 0.036582469344693197 -0.19011752362393319 0 0.050621940422763807 -0.17363724030026681 0 0.02846052564263012 -0.1656166140771802 0 0.036582469344693197 -0.19011752362393319 0 0.02846052564263012 -0.1656166140771802 0 0.0089288639899517616 -0.1799517076714372 0 0.02846052564263012 -0.1656166140771802 0 0.0064191928339507407 -0.164292436503471 0 0.01388665011250549 -0.15105611253131351 0 0.02846052564263012 -0.1656166140771802 0 0.0064191928339507407 -0.164292436503471 0 0.0089288639899517616 -0.1799517076714372 0 -0.0065904008473937452 -0.17748729088198689 0 0.0064191928339507407 -0.164292436503471 0 0.0089288639899517616 -0.1799517076714372 0 0.027719859759277848 -0.13838118604550931 0 0.0090665138201122611 -0.13458367275464961 0 0.019959267595004292 -0.12015033934234839 0 0.027719859759277848 -0.13838118604550931 0 0.019959267595004292 -0.12015033934234839 0 0.036195463480279369 -0.1242765086694947 0 0.027719859759277848 -0.13838118604550931 0 0.01388665011250549 -0.15105611253131351 0 0.0090665138201122611 -0.13458367275464961 0 0.02846052564263012 -0.1656166140771802 0 0.027719859759277848 -0.13838118604550931 0 0.01388665011250549 -0.15105611253131351 0 -0.0016517895909729759 -0.14913519766653521 0 0.01388665011250549 -0.15105611253131351 0 0.0090665138201122611 -0.13458367275464961 0 -0.0016517895909729759 -0.14913519766653521 0 0.0064191928339507407 -0.164292436503471 0 0.01388665011250549 -0.15105611253131351 0 -0.0095636458269275949 -0.13064788567915631 0 0.0090665138201122611 -0.13458367275464961 0 0.0038204708684723399 -0.1199975449956384 0 0.0090665138201122611 -0.13458367275464961 0 0.0038204708684723399 -0.1199975449956384 0 0.019959267595004292 -0.12015033934234839 0 -0.0088475822703880137 -0.1121173624287804 0 0.0038204708684723399 -0.1199975449956384 0 0.0080312610179324 -0.1062209242384643 0 0.0038204708684723399 -0.1199975449956384 0 0.019959267595004292 -0.12015033934234839 0 0.0080312610179324 -0.1062209242384643 0 0.019959267595004292 -0.12015033934234839 0 0.036195463480279369 -0.1242765086694947 0 0.0333542672280897 -0.1015134197829953 0 0.0080312610179324 -0.1062209242384643 0 0.0086630023115394222 -0.091407271345933974 0 0.0333542672280897 -0.1015134197829953 0 0.019959267595004292 -0.12015033934234839 0 0.0080312610179324 -0.1062209242384643 0 0.0333542672280897 -0.1015134197829953 0 -0.0064178238754883671 -0.095728903008746299 0 0.0080312610179324 -0.1062209242384643 0 0.0086630023115394222 -0.091407271345933974 0 -0.0057488126967492458 -0.077864854612590587 0 0.0086630023115394222 -0.091407271345933974 0 0.016982405517875311 -0.078732047633354951 0 -0.0057488126967492458 -0.077864854612590587 0 0.0056488667538581293 -0.065527085463935736 0 0.016982405517875311 -0.078732047633354951 0 0.0056488667538581293 -0.065527085463935736 0 0.02528901194599387 -0.063760969999624093 0 0.016982405517875311 -0.078732047633354951 0 0.02528901194599387 -0.063760969999624093 0 0.016982405517875311 -0.078732047633354951 0 0.036907621996869963 -0.079528566818166321 0 0.0086630023115394222 -0.091407271345933974 0 0.016982405517875311 -0.078732047633354951 0 0.0333542672280897 -0.1015134197829953 0 0.016982405517875311 -0.078732047633354951 0 0.036907621996869963 -0.079528566818166321 0 0.0333542672280897 -0.1015134197829953 0 0.036907621996869963 -0.079528566818166321 0 0.055247786237107917 -0.085162011768038975 0 0.0333542672280897 -0.1015134197829953 0 0.02528901194599387 -0.063760969999624093 0 0.036907621996869963 -0.079528566818166321 0 0.048476402025037307 -0.062371887328239402 0 0.036907621996869963 -0.079528566818166321 0 0.055247786237107917 -0.085162011768038975 0 0.048476402025037307 -0.062371887328239402 0 0.048476402025037307 -0.062371887328239402 0 0.06267030802572876 -0.058323116598696573 0 0.067437890707656462 -0.072291998706719734 0 0.055247786237107917 -0.085162011768038975 0 0.048476402025037307 -0.062371887328239402 0 0.067437890707656462 -0.072291998706719734 0 0.061153297897108883 -0.1020948325032475 0 0.052094151264965853 -0.117066569582134 0 0.0333542672280897 -0.1015134197829953 0 0.055247786237107917 -0.085162011768038975 0 0.061153297897108883 -0.1020948325032475 0 0.0333542672280897 -0.1015134197829953 0 0.070834035301842097 -0.1326197193812729 0 0.052094151264965853 -0.117066569582134 0 0.052094151264965853 -0.117066569582134 0 0.036195463480279369 -0.1242765086694947 0 0.0333542672280897 -0.1015134197829953 0 0.052094151264965853 -0.117066569582134 0 0.0333542672280897 -0.1015134197829953 0 0.026737685234225459 -0.01031165401823585 0 0.01514139729703496 -0.0013759143423081031 0 0.0068720610923031717 -0.0055029179110838711 0 0.023710047616364659 0.0069156477976223402 0 0.038337861133160352 0.00060673527080243631 0 0.026737685234225459 -0.01031165401823585 0 0.023710047616364659 0.0069156477976223402 0 0.026737685234225459 -0.01031165401823585 0 0.01514139729703496 -0.0013759143423081031 0 -0.002902715634884295 -0.015629490120933679 0 0.026737685234225459 -0.01031165401823585 0 0.0068720610923031717 -0.0055029179110838711 0 -0.002902715634884295 -0.015629490120933679 0 0.026737685234225459 -0.01031165401823585 0 0.005475147787082555 0.0053164928731475134 0 0.01514139729703496 -0.0013759143423081031 0 0.0068720610923031717 -0.0055029179110838711 0 -0.0056325041382708106 -0.001671571725724148 0 0.005475147787082555 0.0053164928731475134 0 0.0068720610923031717 -0.0055029179110838711 0 -0.002902715634884295 -0.015629490120933679 0 0.026737685234225459 -0.01031165401823585 0 0.0031290989705711758 -0.029797021315310531 0 0.0031290989705711758 -0.029797021315310531 0 0.027050882253834101 -0.025908481724470821 0 0.026737685234225459 -0.01031165401823585 0 0.0031290989705711758 -0.029797021315310531 0 0.027050882253834101 -0.025908481724470821 0 0.026737685234225459 -0.01031165401823585 0 0.027050882253834101 -0.025908481724470821 0 0.03905885044271757 -0.01124814351383316 0 0.027050882253834101 -0.025908481724470821 0 0.018114609006209609 -0.038178346744099062 0 0.032150591662299492 -0.047438354896985953 0 0.018114609006209609 -0.038178346744099062 0 0.010127863138133689 -0.049569529039628912 0 0.032150591662299492 -0.047438354896985953 0 0.0031290989705711758 -0.029797021315310531 0 0.027050882253834101 -0.025908481724470821 0 0.018114609006209609 -0.038178346744099062 0 0.0031290989705711758 -0.029797021315310531 0 0.018114609006209609 -0.038178346744099062 0 0.010127863138133689 -0.049569529039628912 0 -0.0078170970257354904 -0.042035043314792367 0 0.0031290989705711758 -0.029797021315310531 0 0.010127863138133689 -0.049569529039628912 0 0.0056488667538581293 -0.065527085463935736 0 0.02528901194599387 -0.063760969999624093 0 0.010127863138133689 -0.049569529039628912 0 0.02528901194599387 -0.063760969999624093 0 0.010127863138133689 -0.049569529039628912 0 0.032150591662299492 -0.047438354896985953 0 0.02528901194599387 -0.063760969999624093 0 0.032150591662299492 -0.047438354896985953 0 0.048476402025037307 -0.062371887328239402 0 0.032150591662299492 -0.047438354896985953 0 0.048476402025037307 -0.062371887328239402 0 0.057752750538034817 -0.042189227022471007 0 0.048476402025037307 -0.062371887328239402 0 0.057752750538034817 -0.042189227022471007 0 0.06267030802572876 -0.058323116598696573 0 0.057752750538034817 -0.042189227022471007 0 0.041981722497816377 -0.034389001444389722 0 0.050972665537097103 -0.02201994213363111 0 0.032150591662299492 -0.047438354896985953 0 0.057752750538034817 -0.042189227022471007 0 0.041981722497816377 -0.034389001444389722 0 0.027050882253834101 -0.025908481724470821 0 0.032150591662299492 -0.047438354896985953 0 0.041981722497816377 -0.034389001444389722 0 0.027050882253834101 -0.025908481724470821 0 0.050972665537097103 -0.02201994213363111 0 0.027050882253834101 -0.025908481724470821 0 0.050972665537097103 -0.02201994213363111 0 0.03905885044271757 -0.01124814351383316 0 0.027050882253834101 -0.025908481724470821 0 0.041981722497816377 -0.034389001444389722 0 0.050972665537097103 -0.02201994213363111 0 0.057752750538034817 -0.042189227022471007 0 0.050972665537097103 -0.02201994213363111 0 0.074894448820360032 -0.0181314025427914 0 0.052195158055270842 0.001392625036369546 0 0.050972665537097103 -0.02201994213363111 0 0.067305906500593371 -0.0035502476455594621 0 0.052195158055270842 0.001392625036369546 0 0.050972665537097103 -0.02201994213363111 0 0.03905885044271757 -0.01124814351383316 0 0.038337861133160352 0.00060673527080243631 0 0.052195158055270842 0.001392625036369546 0 0.03905885044271757 -0.01124814351383316 0 0.038337861133160352 0.00060673527080243631 0 0.026737685234225459 -0.01031165401823585 0 0.03905885044271757 -0.01124814351383316 0 0.074894448820360032 -0.0181314025427914 0 0.098816232103622836 -0.01424286295195171 0 0.096288827351058495 -0.00076293681715209455 0 0.083713321977171906 0.0049096628315781782 0 0.074894448820360032 -0.0181314025427914 0 0.096288827351058495 -0.00076293681715209455 0 0.083713321977171906 0.0049096628315781782 0 0.067305906500593371 -0.0035502476455594621 0 0.074894448820360032 -0.0181314025427914 0 0.050972665537097103 -0.02201994213363111 0 0.067305906500593371 -0.0035502476455594621 0 0.074894448820360032 -0.0181314025427914 0 0.050972665537097103 -0.02201994213363111 0 0.074894448820360032 -0.0181314025427914 0 0.074894448820360032 -0.0181314025427914 0 0.095585103926693643 -0.024262574202455971 0 0.098816232103622836 -0.01424286295195171 0 0.074894448820360032 -0.0181314025427914 0 0.091594125676936311 -0.035546409113755839 0 0.076255787482962745 -0.039999030863263778 0 0.074894448820360032 -0.0181314025427914 0 0.091594125676936311 -0.035546409113755839 0 0.095585103926693643 -0.024262574202455971 0 0.074894448820360032 -0.0181314025427914 0 0.098816232103622836 -0.01424286295195171 0 0.091594125676936311 -0.035546409113755839 0 0.076255787482962745 -0.039999030863263778 0 0.090659853664900841 -0.052760749527366022 0 0.057752750538034817 -0.042189227022471007 0 0.074894448820360032 -0.0181314025427914 0 0.076255787482962745 -0.039999030863263778 0 0.057752750538034817 -0.042189227022471007 0 0.076255787482962745 -0.039999030863263778 0 0.077189512406841451 -0.05566751570316554 0 0.06267030802572876 -0.058323116598696573 0 0.077189512406841451 -0.05566751570316554 0 0.067437890707656462 -0.072291998706719734 0 0.057752750538034817 -0.042189227022471007 0 0.06267030802572876 -0.058323116598696573 0 0.077189512406841451 -0.05566751570316554 0 0.076255787482962745 -0.039999030863263778 0 0.077189512406841451 -0.05566751570316554 0 0.090659853664900841 -0.052760749527366022 0 0.077189512406841451 -0.05566751570316554 0 0.090659853664900841 -0.052760749527366022 0 0.082775138669651624 -0.069669026404960477 0 0.10457614893576971 -0.044742157754011719 0 0.098279404960291306 -0.067607676606864855 0 0.1232536941432458 -0.068580322652224857 0 0.090659853664900841 -0.052760749527366022 0 0.10457614893576971 -0.044742157754011719 0 0.098279404960291306 -0.067607676606864855 0 0.1205668018519495 -0.046829363648314533 0 0.1232536941432458 -0.068580322652224857 0 0.1205668018519495 -0.046829363648314533 0 0.10457614893576971 -0.044742157754011719 0 0.1232536941432458 -0.068580322652224857 0 0.10457614893576971 -0.044742157754011719 0 0.1232536941432458 -0.068580322652224857 0 0.1205668018519495 -0.046829363648314533 0 0.11787990956065381 -0.025078404644404181 0 0.12943648009662481 -0.035689994552709131 0 0.1205668018519495 -0.046829363648314533 0 0.1061856743616382 -0.032805211139475307 0 0.10457614893576971 -0.044742157754011719 0 0.1205668018519495 -0.046829363648314533 0 0.11787990956065381 -0.025078404644404181 0 0.1205668018519495 -0.046829363648314533 0 0.1061856743616382 -0.032805211139475307 0 0.11787990956065381 -0.025078404644404181 0 0.091594125676936311 -0.035546409113755839 0 0.090659853664900841 -0.052760749527366022 0 0.10457614893576971 -0.044742157754011719 0 0.091594125676936311 -0.035546409113755839 0 0.1061856743616382 -0.032805211139475307 0 0.10457614893576971 -0.044742157754011719 0 0.091594125676936311 -0.035546409113755839 0 0.1061856743616382 -0.032805211139475307 0 0.095585103926693643 -0.024262574202455971 0 0.095585103926693643 -0.024262574202455971 0 0.1069119562178263 -0.02037235747390968 0 0.098816232103622836 -0.01424286295195171 0 0.1061856743616382 -0.032805211139475307 0 0.095585103926693643 -0.024262574202455971 0 0.1069119562178263 -0.02037235747390968 0 0.1061856743616382 -0.032805211139475307 0 0.1069119562178263 -0.02037235747390968 0 0.11787990956065381 -0.025078404644404181 0 0.11787990956065381 -0.025078404644404181 0 0.1180015385767916 -0.01779982850072075 0 0.129260913998334 -0.02301310654192764 0 0.1069119562178263 -0.02037235747390968 0 0.11787990956065381 -0.025078404644404181 0 0.1180015385767916 -0.01779982850072075 0 0.1069119562178263 -0.02037235747390968 0 0.1180015385767916 -0.01779982850072075 0 0.1061515757922892 -0.01029301428629891 0 0.1180015385767916 -0.01779982850072075 0 0.1061515757922892 -0.01029301428629891 0 0.12980333731485461 -0.010242259557063369 0 0.1061515757922892 -0.01029301428629891 0 0.12980333731485461 -0.010242259557063369 0 0.1167036944564606 -0.0033909693209686429 0 0.1061515757922892 -0.01029301428629891 0 0.12980333731485461 -0.010242259557063369 0 0.1167036944564606 -0.0033909693209686429 0 0.1254970565252467 -0.00055485016598096602 0 0.12980333731485461 -0.010242259557063369 0 0.11501839911308701 0.003750665338283013 0 0.1167036944564606 -0.0033909693209686429 0 0.1254970565252467 -0.00055485016598096602 0 0.1070481035368254 0.00038461206621701738 0 0.1167036944564606 -0.0033909693209686429 0 0.1061515757922892 -0.01029301428629891 0 0.1070481035368254 0.00038461206621701738 0 0.1061515757922892 -0.01029301428629891 0 0.096288827351058495 -0.00076293681715209455 0 0.1069119562178263 -0.02037235747390968 0 0.1061515757922892 -0.01029301428629891 0 0.098816232103622836 -0.01424286295195171 0 0.1061515757922892 -0.01029301428629891 0 0.098816232103622836 -0.01424286295195171 0 0.096288827351058495 -0.00076293681715209455 0 0.077290060388793685 -0.1095273622853211 0 0.081908663777065779 -0.08567790117374946 0 0.097886196055260083 -0.1040236682843273 0 0.070834035301842097 -0.1326197193812729 0 0.092807760148714641 -0.12454407421679781 0 0.077290060388793685 -0.1095273622853211 0 0.092807760148714641 -0.12454407421679781 0 0.077290060388793685 -0.1095273622853211 0 0.097886196055260083 -0.1040236682843273 0 0.061153297897108883 -0.1020948325032475 0 0.052094151264965853 -0.117066569582134 0 0.077290060388793685 -0.1095273622853211 0 0.070834035301842097 -0.1326197193812729 0 0.052094151264965853 -0.117066569582134 0 0.077290060388793685 -0.1095273622853211 0 0.061153297897108883 -0.1020948325032475 0 0.077290060388793685 -0.1095273622853211 0 0.081908663777065779 -0.08567790117374946 0 0.055247786237107917 -0.085162011768038975 0 0.061153297897108883 -0.1020948325032475 0 0.081908663777065779 -0.08567790117374946 0 0.055247786237107917 -0.085162011768038975 0 0.067437890707656462 -0.072291998706719734 0 0.081908663777065779 -0.08567790117374946 0 0.077189512406841451 -0.05566751570316554 0 0.067437890707656462 -0.072291998706719734 0 0.082775138669651624 -0.069669026404960477 0 0.067437890707656462 -0.072291998706719734 0 0.082775138669651624 -0.069669026404960477 0 0.081908663777065779 -0.08567790117374946 0 0.082775138669651624 -0.069669026404960477 0 0.081908663777065779 -0.08567790117374946 0 0.098279404960291306 -0.067607676606864855 0 0.090659853664900841 -0.052760749527366022 0 0.082775138669651624 -0.069669026404960477 0 0.098279404960291306 -0.067607676606864855 0 0.081908663777065779 -0.08567790117374946 0 0.10736658550644319 -0.086478535805763382 0 0.097886196055260083 -0.1040236682843273 0 0.081908663777065779 -0.08567790117374946 0 0.10736658550644319 -0.086478535805763382 0 0.098279404960291306 -0.067607676606864855 0 0.10736658550644319 -0.086478535805763382 0 0.098279404960291306 -0.067607676606864855 0 0.1232536941432458 -0.068580322652224857 0 0.10736658550644319 -0.086478535805763382 0 0.1141987329646776 -0.1021619623395351 0 0.12594860182057871 -0.090396167894289101 0 0.10736658550644319 -0.086478535805763382 0 0.1232536941432458 -0.068580322652224857 0 0.12594860182057871 -0.090396167894289101 0 0.1232536941432458 -0.068580322652224857 0 0.12594860182057871 -0.090396167894289101 0 0.1141987329646776 -0.1021619623395351 0 0.12864350949791209 -0.1122120131363533 0 0.12594860182057871 -0.090396167894289101 0 0.10736658550644319 -0.086478535805763382 0 0.1141987329646776 -0.1021619623395351 0 0.097886196055260083 -0.1040236682843273 0 0.1141987329646776 -0.1021619623395351 0 0.097886196055260083 -0.1040236682843273 0 0.11151991775603259 -0.1177426262654688 0 0.092807760148714641 -0.12454407421679781 0 0.097886196055260083 -0.1040236682843273 0 0.11151991775603259 -0.1177426262654688 0 0.11151991775603259 -0.1177426262654688 0 0.12864350949791209 -0.1122120131363533 0 0.1276075298871012 -0.12854147022919951 0 0.1141987329646776 -0.1021619623395351 0 0.11151991775603259 -0.1177426262654688 0 0.12864350949791209 -0.1122120131363533 0 0.12864350949791209 -0.1122120131363533 0 0.1423623471684026 -0.1196490635848497 0 0.1276075298871012 -0.12854147022919951 0 0.12864350949791209 -0.1122120131363533 0 0.1423623471684026 -0.1196490635848497 0 0.13810886892529819 -0.10390186341898 0 0.1423623471684026 -0.1196490635848497 0 0.15464202604531629 -0.10864127410219709 0 0.1593478841122811 -0.1239014661515604 0 0.1423623471684026 -0.1196490635848497 0 0.15464202604531629 -0.10864127410219709 0 0.13810886892529819 -0.10390186341898 0 0.15464202604531629 -0.10864127410219709 0 0.13810886892529819 -0.10390186341898 0 0.13894786009428131 -0.08861079837721085 0 0.15464202604531629 -0.10864127410219709 0 0.13894786009428131 -0.08861079837721085 0 0.15464202604531629 -0.10864127410219709 0 0.13894786009428131 -0.08861079837721085 0 0.1603012410704415 -0.088043657412734483 0 0.12864350949791209 -0.1122120131363533 0 0.13810886892529819 -0.10390186341898 0 0.12594860182057871 -0.090396167894289101 0 0.13810886892529819 -0.10390186341898 0 0.12594860182057871 -0.090396167894289101 0 0.13894786009428131 -0.08861079837721085 0 0.12864350949791209 -0.1122120131363533 0 0.12594860182057871 -0.090396167894289101 0 0.1232536941432458 -0.068580322652224857 0 0.13894786009428131 -0.08861079837721085 0 0.1232536941432458 -0.068580322652224857 0 0.12594860182057871 -0.090396167894289101 0 0.13894786009428131 -0.08861079837721085 0 0.1232536941432458 -0.068580322652224857 0 0.1451842396632361 -0.070526050641113336 0 0.139005165063535 -0.050604130127596611 0 0.1232536941432458 -0.068580322652224857 0 0.13894786009428131 -0.08861079837721085 0 0.1451842396632361 -0.070526050641113336 0 0.1451842396632361 -0.070526050641113336 0 0.1591352996973163 -0.073698337809496681 0 0.1594106490228866 -0.057737000342595809 0 0.1451842396632361 -0.070526050641113336 0 0.15089216013131879 -0.080219711060138837 0 0.1591352996973163 -0.073698337809496681 0 0.13894786009428131 -0.08861079837721085 0 0.15089216013131879 -0.080219711060138837 0 0.1603012410704415 -0.088043657412734483 0 0.13894786009428131 -0.08861079837721085 0 0.1451842396632361 -0.070526050641113336 0 0.15089216013131879 -0.080219711060138837 0 0.1603012410704415 -0.088043657412734483 0 0.1591352996973163 -0.073698337809496681 0 0.1763868622474066 -0.07398871809099411 0 0.1603012410704415 -0.088043657412734483 0 0.1763868622474066 -0.07398871809099411 0 0.17676201444458259 -0.090349522097625812 0 0.15089216013131879 -0.080219711060138837 0 0.1603012410704415 -0.088043657412734483 0 0.1591352996973163 -0.073698337809496681 0 0.1763868622474066 -0.07398871809099411 0 0.1594106490228866 -0.057737000342595809 0 0.1591352996973163 -0.073698337809496681 0 0.1763868622474066 -0.07398871809099411 0 0.1594106490228866 -0.057737000342595809 0 0.1763868622474066 -0.07398871809099411 0 0.1594106490228866 -0.057737000342595809 0 0.18115934250380181 -0.056304033873956702 0 0.1763868622474066 -0.07398871809099411 0 0.1933630754719266 -0.090240435839392341 0 0.19260408318655009 -0.068940558013675074 0 0.1763868622474066 -0.07398871809099411 0 0.18115934250380181 -0.056304033873956702 0 0.19260408318655009 -0.068940558013675074 0 0.1763868622474066 -0.07398871809099411 0 0.1933630754719266 -0.090240435839392341 0 0.1763868622474066 -0.07398871809099411 0 0.17676201444458259 -0.090349522097625812 0 0.1933630754719266 -0.090240435839392341 0 0.17635547979210381 -0.10707095099547639 0 0.1933630754719266 -0.090240435839392341 0 0.17676201444458259 -0.090349522097625812 0 0.17635547979210381 -0.10707095099547639 0 0.1933630754719266 -0.090240435839392341 0 0.17635547979210381 -0.10707095099547639 0 0.183510899382961 -0.12283076088752461 0 0.1593478841122811 -0.1239014661515604 0 0.17635547979210381 -0.10707095099547639 0 0.183510899382961 -0.12283076088752461 0 0.19361066172105951 -0.1118482306470357 0 0.15464202604531629 -0.10864127410219709 0 0.17635547979210381 -0.10707095099547639 0 0.1593478841122811 -0.1239014661515604 0 0.17635547979210381 -0.10707095099547639 0 0.1593478841122811 -0.1239014661515604 0 0.1603012410704415 -0.088043657412734483 0 0.17676201444458259 -0.090349522097625812 0 0.17635547979210381 -0.10707095099547639 0 0.15464202604531629 -0.10864127410219709 0 0.1603012410704415 -0.088043657412734483 0 0.17635547979210381 -0.10707095099547639 0 0.15345509883742009 -0.01019150482782784 0 0.12980333731485461 -0.010242259557063369 0 0.15345509883742009 -0.01019150482782784 0 0.14024072943406241 -0.0075194032431784574 0 0.12980333731485461 -0.010242259557063369 0 0.15345509883742009 -0.01019150482782784 0 0.12980333731485461 -0.010242259557063369 0 0.14177888940141689 -0.01976160701819973 0 0.16086610818027189 0.00088494390851339051 0 0.15345509883742009 -0.01019150482782784 0 0.14833042641046409 -0.002631935689413961 0 0.1419667591125528 0.002147773280953317 0 0.14833042641046409 -0.002631935689413961 0 0.14024072943406241 -0.0075194032431784574 0 0.15345509883742009 -0.01019150482782784 0 0.14833042641046409 -0.002631935689413961 0 0.14024072943406241 -0.0075194032431784574 0 0.13299307729309279 0.006441163532843899 0 0.14024072943406241 -0.0075194032431784574 0 0.13299307729309279 0.006441163532843899 0 0.14024072943406241 -0.0075194032431784574 0 0.1254970565252467 -0.00055485016598096602 0 0.14024072943406241 -0.0075194032431784574 0 0.1254970565252467 -0.00055485016598096602 0 0.12980333731485461 -0.010242259557063369 0 0.12980333731485461 -0.010242259557063369 0 0.129260913998334 -0.02301310654192764 0 0.14177888940141689 -0.01976160701819973 0 0.1180015385767916 -0.01779982850072075 0 0.12980333731485461 -0.010242259557063369 0 0.129260913998334 -0.02301310654192764 0 0.11787990956065381 -0.025078404644404181 0 0.129260913998334 -0.02301310654192764 0 0.12943648009662481 -0.035689994552709131 0 0.129260913998334 -0.02301310654192764 0 0.1416759485151696 -0.03199331990542565 0 0.12943648009662481 -0.035689994552709131 0 0.129260913998334 -0.02301310654192764 0 0.14177888940141689 -0.01976160701819973 0 0.1416759485151696 -0.03199331990542565 0 0.14177888940141689 -0.01976160701819973 0 0.1416759485151696 -0.03199331990542565 0 0.15662286383900831 -0.02399585998432982 0 0.15345509883742009 -0.01019150482782784 0 0.14177888940141689 -0.01976160701819973 0 0.15662286383900831 -0.02399585998432982 0 0.1416759485151696 -0.03199331990542565 0 0.15627343730448839 -0.039923833386935177 0 0.15662286383900831 -0.02399585998432982 0 0.1416759485151696 -0.03199331990542565 0 0.139005165063535 -0.050604130127596611 0 0.15627343730448839 -0.039923833386935177 0 0.1416759485151696 -0.03199331990542565 0 0.12943648009662481 -0.035689994552709131 0 0.139005165063535 -0.050604130127596611 0 0.1205668018519495 -0.046829363648314533 0 0.12943648009662481 -0.035689994552709131 0 0.139005165063535 -0.050604130127596611 0 0.1205668018519495 -0.046829363648314533 0 0.1232536941432458 -0.068580322652224857 0 0.139005165063535 -0.050604130127596611 0 0.139005165063535 -0.050604130127596611 0 0.1594106490228866 -0.057737000342595809 0 0.15627343730448839 -0.039923833386935177 0 0.1451842396632361 -0.070526050641113336 0 0.139005165063535 -0.050604130127596611 0 0.1594106490228866 -0.057737000342595809 0 0.1594106490228866 -0.057737000342595809 0 0.16974452465772169 -0.04529012027482035 0 0.15627343730448839 -0.039923833386935177 0 0.1594106490228866 -0.057737000342595809 0 0.18115934250380181 -0.056304033873956702 0 0.16974452465772169 -0.04529012027482035 0 0.18115934250380181 -0.056304033873956702 0 0.18634284452566099 -0.036730156863417518 0 0.16974452465772169 -0.04529012027482035 0 0.18634284452566099 -0.036730156863417518 0 0.16974452465772169 -0.04529012027482035 0 0.1716088745151659 -0.02948094285307892 0 0.16974452465772169 -0.04529012027482035 0 0.15627343730448839 -0.039923833386935177 0 0.1716088745151659 -0.02948094285307892 0 0.15627343730448839 -0.039923833386935177 0 0.1716088745151659 -0.02948094285307892 0 0.15662286383900831 -0.02399585998432982 0 0.1716088745151659 -0.02948094285307892 0 0.15662286383900831 -0.02399585998432982 0 0.1771068603599856 -0.0101407500985923 0 0.18634284452566099 -0.036730156863417518 0 0.1716088745151659 -0.02948094285307892 0 0.18750885460937911 -0.02171815949838956 0 0.1716088745151659 -0.02948094285307892 0 0.1771068603599856 -0.0101407500985923 0 0.18750885460937911 -0.02171815949838956 0 0.18521698577699611 0.0080719676923715084 0 0.1771068603599856 -0.0101407500985923 0 0.19333238575284159 -0.001624579554046546 0 0.16086610818027189 0.00088494390851339051 0 0.15345509883742009 -0.01019150482782784 0 0.1771068603599856 -0.0101407500985923 0 0.15345509883742009 -0.01019150482782784 0 0.1771068603599856 -0.0101407500985923 0 0.15345509883742009 -0.01019150482782784 0 0.15662286383900831 -0.02399585998432982 0 0.1771068603599856 -0.0101407500985923 0 0.21703109114326871 -0.0031006257221327408 0 0.20722302021076999 -0.01007612330378117 0 0.2202246071738376 -0.01501935769985575 0 0.20722302021076999 -0.01007612330378117 0 0.20075862180993179 -0.010089961528708001 0 0.21703109114326871 -0.0031006257221327408 0 0.20722302021076999 -0.01007612330378117 0 0.2049739318777517 -0.0019828991504563451 0 0.20722302021076999 -0.01007612330378117 0 0.2049739318777517 -0.0019828991504563451 0 0.20075862180993179 -0.010089961528708001 0 0.1771068603599856 -0.0101407500985923 0 0.20075862180993179 -0.010089961528708001 0 0.18750885460937911 -0.02171815949838956 0 0.1771068603599856 -0.0101407500985923 0 0.19333238575284159 -0.001624579554046546 0 0.20075862180993179 -0.010089961528708001 0 0.1771068603599856 -0.0101407500985923 0 0.20075862180993179 -0.010089961528708001 0 0.2049739318777517 -0.0019828991504563451 0 0.19333238575284159 -0.001624579554046546 0 0.20075862180993179 -0.010089961528708001 0 0.20075862180993179 -0.010089961528708001 0 0.18750885460937911 -0.02171815949838956 0 0.1988445202303398 -0.0291584996867441 0 0.18634284452566099 -0.036730156863417518 0 0.18750885460937911 -0.02171815949838956 0 0.1988445202303398 -0.0291584996867441 0 0.20075862180993179 -0.010089961528708001 0 0.1988445202303398 -0.0291584996867441 0 0.21567637915938109 -0.030745604210910011 0 0.20722302021076999 -0.01007612330378117 0 0.21567637915938109 -0.030745604210910011 0 0.2202246071738376 -0.01501935769985575 0 0.20075862180993179 -0.010089961528708001 0 0.21567637915938109 -0.030745604210910011 0 0.20722302021076999 -0.01007612330378117 0 0.20075862180993179 -0.010089961528708001 0 0.21567637915938109 -0.030745604210910011 0 0.1988445202303398 -0.0291584996867441 0 0.21567637915938109 -0.030745604210910011 0 0.20249462524444009 -0.050013373101591901 0 0.21567637915938109 -0.030745604210910011 0 0.2170593825987191 -0.046824245489526843 0 0.20249462524444009 -0.050013373101591901 0 0.18634284452566099 -0.036730156863417518 0 0.1988445202303398 -0.0291584996867441 0 0.20249462524444009 -0.050013373101591901 0 0.18115934250380181 -0.056304033873956702 0 0.18634284452566099 -0.036730156863417518 0 0.20249462524444009 -0.050013373101591901 0 0.18115934250380181 -0.056304033873956702 0 0.20249462524444009 -0.050013373101591901 0 0.19260408318655009 -0.068940558013675074 0 0.20249462524444009 -0.050013373101591901 0 0.2138060654875521 -0.057826439439151542 0 0.2096165104651754 -0.074156229162440301 0 0.2170593825987191 -0.046824245489526843 0 0.20249462524444009 -0.050013373101591901 0 0.2138060654875521 -0.057826439439151542 0 0.22586994545842429 -0.058072022485488338 0 0.2305941365088304 -0.05140124689311211 0 0.24551189385827979 -0.07205688957531417 0 0.2170593825987191 -0.046824245489526843 0 0.2138060654875521 -0.057826439439151542 0 0.22586994545842429 -0.058072022485488338 0 0.2170593825987191 -0.046824245489526843 0 0.22586994545842429 -0.058072022485488338 0 0.2305941365088304 -0.05140124689311211 0 0.25074953979106701 -0.057391721610124569 0 0.2417312498522074 -0.052498977024630078 0 0.24551189385827979 -0.07205688957531417 0 0.2305941365088304 -0.05140124689311211 0 0.24551189385827979 -0.07205688957531417 0 0.2305941365088304 -0.05140124689311211 0 0.2417312498522074 -0.052498977024630078 0 0.24551189385827979 -0.07205688957531417 0 0.2417312498522074 -0.052498977024630078 0 0.2389135976964287 -0.041534991498874609 0 0.24997138218959711 -0.046602097251877819 0 0.25074953979106701 -0.057391721610124569 0 0.2417312498522074 -0.052498977024630078 0 0.24997138218959711 -0.046602097251877819 0 0.2305941365088304 -0.05140124689311211 0 0.2417312498522074 -0.052498977024630078 0 0.2389135976964287 -0.041534991498874609 0 0.2389135976964287 -0.041534991498874609 0 0.24997138218959711 -0.046602097251877819 0 0.24741741088909919 -0.03711588908773511 0 0.25254148323653008 -0.028052360621987089 0 0.24741741088909919 -0.03711588908773511 0 0.24040728284069759 -0.030311605845318172 0 0.2389135976964287 -0.041534991498874609 0 0.24741741088909919 -0.03711588908773511 0 0.24040728284069759 -0.030311605845318172 0 0.2389135976964287 -0.041534991498874609 0 0.2310283664757804 -0.035338208954513499 0 0.24040728284069759 -0.030311605845318172 0 0.21567637915938109 -0.030745604210910011 0 0.2170593825987191 -0.046824245489526843 0 0.2305941365088304 -0.05140124689311211 0 0.21567637915938109 -0.030745604210910011 0 0.2305941365088304 -0.05140124689311211 0 0.21567637915938109 -0.030745604210910011 0 0.2305941365088304 -0.05140124689311211 0 0.2310283664757804 -0.035338208954513499 0 0.2305941365088304 -0.05140124689311211 0 0.2389135976964287 -0.041534991498874609 0 0.2310283664757804 -0.035338208954513499 0 0.21567637915938109 -0.030745604210910011 0 0.2295504361735641 -0.02269759632435258 0 0.2202246071738376 -0.01501935769985575 0 0.21567637915938109 -0.030745604210910011 0 0.2310283664757804 -0.035338208954513499 0 0.2295504361735641 -0.02269759632435258 0 0.2310283664757804 -0.035338208954513499 0 0.2295504361735641 -0.02269759632435258 0 0.24040728284069759 -0.030311605845318172 0 0.25254148323653008 -0.028052360621987089 0 0.25507115673211361 -0.0045350410014435294 0 0.24207895432854279 -0.018814286748831292 0 0.2295504361735641 -0.02269759632435258 0 0.24040728284069759 -0.030311605845318172 0 0.24207895432854279 -0.018814286748831292 0 0.25254148323653008 -0.028052360621987089 0 0.24040728284069759 -0.030311605845318172 0 0.24207895432854279 -0.018814286748831292 0 0.2295504361735641 -0.02269759632435258 0 0.24207895432854279 -0.018814286748831292 0 0.2328244126598088 -0.0084748299510550764 0 0.25507115673211361 -0.0045350410014435294 0 0.24207895432854279 -0.018814286748831292 0 0.2328244126598088 -0.0084748299510550764 0 0.2307010633220338 0.0065947605314399501 0 0.25507115673211361 -0.0045350410014435294 0 0.2328244126598088 -0.0084748299510550764 0 0.2307010633220338 0.0065947605314399501 0 0.21703109114326871 -0.0031006257221327408 0 0.2328244126598088 -0.0084748299510550764 0 0.21703109114326871 -0.0031006257221327408 0 0.2328244126598088 -0.0084748299510550764 0 0.2202246071738376 -0.01501935769985575 0 0.2295504361735641 -0.02269759632435258 0 0.2328244126598088 -0.0084748299510550764 0 0.2202246071738376 -0.01501935769985575 0 0.20544485604847629 -0.1018066011102528 0 0.21752663662502589 -0.11337276638111329 0 0.2271954885265246 -0.096617454553157303 0 0.20544485604847629 -0.1018066011102528 0 0.21386897549316469 -0.088937683097296966 0 0.2271954885265246 -0.096617454553157303 0 0.20544485604847629 -0.1018066011102528 0 0.21752663662502589 -0.11337276638111329 0 0.20544485604847629 -0.1018066011102528 0 0.21752663662502589 -0.11337276638111329 0 0.20640180209918491 -0.1209577599355635 0 0.21752663662502589 -0.11337276638111329 0 0.20640180209918491 -0.1209577599355635 0 0.22384141129844609 -0.13014377648995429 0 0.183510899382961 -0.12283076088752461 0 0.19361066172105951 -0.1118482306470357 0 0.1957748641751485 -0.12874000259693119 0 0.20640180209918491 -0.1209577599355635 0 0.19361066172105951 -0.1118482306470357 0 0.1957748641751485 -0.12874000259693119 0 0.20544485604847629 -0.1018066011102528 0 0.20640180209918491 -0.1209577599355635 0 0.19361066172105951 -0.1118482306470357 0 0.17635547979210381 -0.10707095099547639 0 0.19361066172105951 -0.1118482306470357 0 0.1933630754719266 -0.090240435839392341 0 0.20544485604847629 -0.1018066011102528 0 0.19361066172105951 -0.1118482306470357 0 0.1933630754719266 -0.090240435839392341 0 0.20544485604847629 -0.1018066011102528 0 0.1933630754719266 -0.090240435839392341 0 0.1933630754719266 -0.090240435839392341 0 0.2096165104651754 -0.074156229162440301 0 0.20249462524444009 -0.050013373101591901 0 0.19260408318655009 -0.068940558013675074 0 0.2096165104651754 -0.074156229162440301 0 0.1933630754719266 -0.090240435839392341 0 0.19260408318655009 -0.068940558013675074 0 0.2096165104651754 -0.074156229162440301 0 0.22586994545842429 -0.058072022485488338 0 0.2096165104651754 -0.074156229162440301 0 0.2138060654875521 -0.057826439439151542 0 0.22586994545842429 -0.058072022485488338 0 0.2096165104651754 -0.074156229162440301 0 0.2096165104651754 -0.074156229162440301 0 0.21386897549316469 -0.088937683097296966 0 0.22766648933194869 -0.079387843441363154 0 0.20544485604847629 -0.1018066011102528 0 0.1933630754719266 -0.090240435839392341 0 0.21386897549316469 -0.088937683097296966 0 0.1933630754719266 -0.090240435839392341 0 0.2096165104651754 -0.074156229162440301 0 0.21386897549316469 -0.088937683097296966 0 0.22766648933194869 -0.079387843441363154 0 0.24287672884378531 -0.093222622253899892 0 0.2271954885265246 -0.096617454553157303 0 0.21386897549316469 -0.088937683097296966 0 0.22766648933194869 -0.079387843441363154 0 0.2271954885265246 -0.096617454553157303 0 0.22586994545842429 -0.058072022485488338 0 0.2096165104651754 -0.074156229162440301 0 0.22766648933194869 -0.079387843441363154 0 0.22586994545842429 -0.058072022485488338 0 0.22766648933194869 -0.079387843441363154 0 0.24551189385827979 -0.07205688957531417 0 0.22766648933194869 -0.079387843441363154 0 0.24551189385827979 -0.07205688957531417 0 0.24287672884378531 -0.093222622253899892 0 0.2604296512077291 -0.092712532257516259 0 0.24551189385827979 -0.07205688957531417 0 0.24287672884378531 -0.093222622253899892 0 0.24287672884378531 -0.093222622253899892 0 0.2271954885265246 -0.096617454553157303 0 0.2391389157583155 -0.1101791528518366 0 0.25731793437991413 -0.10838186084421191 0 0.24287672884378531 -0.093222622253899892 0 0.2391389157583155 -0.1101791528518366 0 0.21752663662502589 -0.11337276638111329 0 0.2271954885265246 -0.096617454553157303 0 0.2391389157583155 -0.1101791528518366 0 0.2271954885265246 -0.096617454553157303 0 0.2391389157583155 -0.1101791528518366 0 0.21752663662502589 -0.11337276638111329 0 0.23150821048146461 -0.12162489286282981 0 0.2391389157583155 -0.1101791528518366 0 0.21752663662502589 -0.11337276638111329 0 0.23150821048146461 -0.12162489286282981 0 0.22384141129844609 -0.13014377648995429 0 0.25108234299010679 -0.1237408511505155 0 0.2391389157583155 -0.1101791528518366 0 0.24255838249171349 -0.1273846196801762 0 0.25731793437991413 -0.10838186084421191 0 0.25108234299010679 -0.1237408511505155 0 0.2391389157583155 -0.1101791528518366 0 0.23150821048146461 -0.12162489286282981 0 0.2391389157583155 -0.1101791528518366 0 0.24255838249171349 -0.1273846196801762 0 0.25108234299010679 -0.1237408511505155 0 0.2391389157583155 -0.1101791528518366 0 0.25108234299010679 -0.1237408511505155 0 0.24255838249171349 -0.1273846196801762 0 0.25108234299010679 -0.1237408511505155 0 0.24255838249171349 -0.1273846196801762 0 0.2478804031781367 -0.1395639772109625 0 0.24255838249171349 -0.1273846196801762 0 0.2478804031781367 -0.1395639772109625 0 0.23501799576963461 -0.13786653464280499 0 0.23150821048146461 -0.12162489286282981 0 0.24255838249171349 -0.1273846196801762 0 0.23392475755722489 -0.12912696502898199 0 0.24255838249171349 -0.1273846196801762 0 0.23501799576963461 -0.13786653464280499 0 0.23392475755722489 -0.12912696502898199 0 0.25269095186966017 -0.156165935810328 0 0.2478804031781367 -0.1395639772109625 0 0.23784880614643211 -0.14935287852957149 0 0.25269095186966017 -0.156165935810328 0 0.23784880614643211 -0.14935287852957149 0 0.2361286825347646 -0.16269622414384011 0 0.2478804031781367 -0.1395639772109625 0 0.23501799576963461 -0.13786653464280499 0 0.23784880614643211 -0.14935287852957149 0 0.23784880614643211 -0.14935287852957149 0 0.22589589649235131 -0.1538985103745231 0 0.2361286825347646 -0.16269622414384011 0 0.23501799576963461 -0.13786653464280499 0 0.23784880614643211 -0.14935287852957149 0 0.22473582217524701 -0.14182547515137089 0 0.23784880614643211 -0.14935287852957149 0 0.22473582217524701 -0.14182547515137089 0 0.22589589649235131 -0.1538985103745231 0 0.22473582217524701 -0.14182547515137089 0 0.22589589649235131 -0.1538985103745231 0 0.21507350179878759 -0.14712036596404579 0 0.22589589649235131 -0.1538985103745231 0 0.21507350179878759 -0.14712036596404579 0 0.21641984022350749 -0.15720511265075229 0 0.23150821048146461 -0.12162489286282981 0 0.23392475755722489 -0.12912696502898199 0 0.22384141129844609 -0.13014377648995429 0 0.23501799576963461 -0.13786653464280499 0 0.23392475755722489 -0.12912696502898199 0 0.22384141129844609 -0.13014377648995429 0 0.23501799576963461 -0.13786653464280499 0 0.22473582217524701 -0.14182547515137089 0 0.22384141129844609 -0.13014377648995429 0 0.22473582217524701 -0.14182547515137089 0 0.22384141129844609 -0.13014377648995429 0 0.21092697363618079 -0.13506654708186011 0 0.20640180209918491 -0.1209577599355635 0 0.22384141129844609 -0.13014377648995429 0 0.21092697363618079 -0.13506654708186011 0 0.20640180209918491 -0.1209577599355635 0 0.21092697363618079 -0.13506654708186011 0 0.1957748641751485 -0.12874000259693119 0 0.22473582217524701 -0.14182547515137089 0 0.21092697363618079 -0.13506654708186011 0 0.21507350179878759 -0.14712036596404579 0 0.21507350179878759 -0.14712036596404579 0 0.20736833270214899 -0.15340814811288889 0 0.21641984022350749 -0.15720511265075229 0 0.21092697363618079 -0.13506654708186011 0 0.21507350179878759 -0.14712036596404579 0 0.20096010460739411 -0.14462780566848929 0 0.21507350179878759 -0.14712036596404579 0 0.20736833270214899 -0.15340814811288889 0 0.20096010460739411 -0.14462780566848929 0 0.20096010460739411 -0.14462780566848929 0 0.19106002678109771 -0.1510902306329627 0 0.1990178037641904 -0.15880949068815881 0 0.20736833270214899 -0.15340814811288889 0 0.20096010460739411 -0.14462780566848929 0 0.1990178037641904 -0.15880949068815881 0 0.20096010460739411 -0.14462780566848929 0 0.19106002678109771 -0.1510902306329627 0 0.18772865668091171 -0.1386706449095195 0 0.20096010460739411 -0.14462780566848929 0 0.18772865668091171 -0.1386706449095195 0 0.1957748641751485 -0.12874000259693119 0 0.21092697363618079 -0.13506654708186011 0 0.20096010460739411 -0.14462780566848929 0 0.1957748641751485 -0.12874000259693119 0 0.183510899382961 -0.12283076088752461 0 0.18772865668091171 -0.1386706449095195 0 0.1957748641751485 -0.12874000259693119 0 0.19118354035547691 -0.18220502536237981 0 0.1970950036361209 -0.17015971023003421 0 0.18539760644748021 -0.166309604958434 0 0.19118354035547691 -0.18220502536237981 0 0.1970950036361209 -0.17015971023003421 0 0.20316812466392059 -0.17902670494844489 0 0.20316812466392059 -0.17902670494844489 0 0.2069680952892356 -0.19094031247203261 0 0.19591439584512901 -0.1917576027263585 0 0.19118354035547691 -0.18220502536237981 0 0.20316812466392059 -0.17902670494844489 0 0.19591439584512901 -0.1917576027263585 0 0.1990178037641904 -0.15880949068815881 0 0.1970950036361209 -0.17015971023003421 0 0.18539760644748021 -0.166309604958434 0 0.19106002678109771 -0.1510902306329627 0 0.1990178037641904 -0.15880949068815881 0 0.18539760644748021 -0.166309604958434 0 0.1990178037641904 -0.15880949068815881 0 0.1970950036361209 -0.17015971023003421 0 0.20947857048981011 -0.16595369253358869 0 0.1970950036361209 -0.17015971023003421 0 0.20947857048981011 -0.16595369253358869 0 0.20316812466392059 -0.17902670494844489 0 0.20736833270214899 -0.15340814811288889 0 0.1990178037641904 -0.15880949068815881 0 0.20947857048981011 -0.16595369253358869 0 0.20947857048981011 -0.16595369253358869 0 0.21641984022350749 -0.15720511265075229 0 0.2242828996344392 -0.16564484626871481 0 0.20736833270214899 -0.15340814811288889 0 0.20947857048981011 -0.16595369253358869 0 0.21641984022350749 -0.15720511265075229 0 0.20947857048981011 -0.16595369253358869 0 0.21812399937369159 -0.1744576396590298 0 0.2242828996344392 -0.16564484626871481 0 0.21812399937369159 -0.1744576396590298 0 0.20316812466392059 -0.17902670494844489 0 0.2175084867670434 -0.18519162885192891 0 0.20947857048981011 -0.16595369253358869 0 0.21812399937369159 -0.1744576396590298 0 0.20316812466392059 -0.17902670494844489 0 0.20316812466392059 -0.17902670494844489 0 0.2175084867670434 -0.18519162885192891 0 0.2069680952892356 -0.19094031247203261 0 0.2175084867670434 -0.18519162885192891 0 0.23042054747848301 -0.17855456918805249 0 0.22539813731825939 -0.19231982118191859 0 0.21812399937369159 -0.1744576396590298 0 0.23042054747848301 -0.17855456918805249 0 0.2242828996344392 -0.16564484626871481 0 0.21812399937369159 -0.1744576396590298 0 0.2175084867670434 -0.18519162885192891 0 0.23042054747848301 -0.17855456918805249 0 0.23042054747848301 -0.17855456918805249 0 0.2242828996344392 -0.16564484626871481 0 0.2361286825347646 -0.16269622414384011 0 0.22589589649235131 -0.1538985103745231 0 0.21641984022350749 -0.15720511265075229 0 0.2242828996344392 -0.16564484626871481 0 0.22589589649235131 -0.1538985103745231 0 0.2242828996344392 -0.16564484626871481 0 0.2361286825347646 -0.16269622414384011 0 0.23042054747848301 -0.17855456918805249 0 0.2361286825347646 -0.16269622414384011 0 0.24563299358722171 -0.17256060469185061 0 0.25269095186966017 -0.156165935810328 0 0.2361286825347646 -0.16269622414384011 0 0.24563299358722171 -0.17256060469185061 0 0.23042054747848301 -0.17855456918805249 0 0.24143901157077299 -0.1832258004221573 0 0.23487469713800449 -0.19220565346234941 0 0.23042054747848301 -0.17855456918805249 0 0.24143901157077299 -0.1832258004221573 0 0.24563299358722171 -0.17256060469185061 0 0.25509373551380121 -0.17893097573479161 0 0.24143901157077299 -0.1832258004221573 0 0.24563299358722171 -0.17256060469185061 0 0.25042149449415368 -0.18865724081545401 0 0.25509373551380121 -0.17893097573479161 0 0.24143901157077299 -0.1832258004221573 0 0.25042149449415368 -0.18865724081545401 0 0.24143901157077299 -0.1832258004221573 0 0.244227286666265 -0.1964905043982611 0 0.2520260174112951 -0.19611349652224269 0 0.25042149449415368 -0.18865724081545401 0 0.244227286666265 -0.1964905043982611 0 0.24143901157077299 -0.1832258004221573 0 0.23487469713800449 -0.19220565346234941 0 0.244227286666265 -0.1964905043982611 0 0.23487469713800449 -0.19220565346234941 0 0.23737781191870391 -0.19916549351526361 0 0.244227286666265 -0.1964905043982611 0 0.23737781191870391 -0.19916549351526361 0 0.24159546907531479 -0.203944085811055 0 0.23516494882901551 -0.20397214479712281 0 0.23737781191870391 -0.19916549351526361 0 0.23516494882901551 -0.20397214479712281 0 0.23102665788491991 -0.19921507910752981 0 0.23487469713800449 -0.19220565346234941 0 0.23737781191870391 -0.19916549351526361 0 0.23102665788491991 -0.19921507910752981 0 0.23737781191870391 -0.19916549351526361 0 0.244227286666265 -0.1964905043982611 0 0.24159546907531479 -0.203944085811055 0 0.244227286666265 -0.1964905043982611 0 0.24806112304804151 -0.20079628444228459 0 0.24159546907531479 -0.203944085811055 0 0.2520260174112951 -0.19611349652224269 0 0.244227286666265 -0.1964905043982611 0 0.24806112304804151 -0.20079628444228459 0 0.25396624877084079 -0.20952651608544151 0 0.2260276794089226 -0.21827517038042399 0 0.25396624877084079 -0.20952651608544151 0 0.25215667626286681 -0.2053611499286197 0 0.22807950025187471 -0.21378072883296281 0 0.25215667626286681 -0.2053611499286197 0 0.22807950025187471 -0.21378072883296281 0 0.25396624877084079 -0.20952651608544151 0 0.22807950025187471 -0.21378072883296281 0 0.2260276794089226 -0.21827517038042399 0 0.25396624877084079 -0.20952651608544151 0 0.2260276794089226 -0.21827517038042399 0 0.2333205401169135 -0.2189145902706475 0 0.25396624877084079 -0.20952651608544151 0 0.24251107481173559 -0.2191062869323693 0 0.2333205401169135 -0.2189145902706475 0 0.25215667626286681 -0.2053611499286197 0 0.24159546907531479 -0.203944085811055 0 0.22807950025187471 -0.21378072883296281 0 0.25215667626286681 -0.2053611499286197 0 0.24806112304804151 -0.20079628444228459 0 0.24159546907531479 -0.203944085811055 0 0.25396624877084079 -0.20952651608544151 0 0.2476196529828556 -0.21837733181959809 0 0.24251107481173559 -0.2191062869323693 0 0.24159546907531479 -0.203944085811055 0 0.23516494882901551 -0.20397214479712281 0 0.22807950025187471 -0.21378072883296281 0 0.23516494882901551 -0.20397214479712281 0 0.22776668181760629 -0.20542310255649199 0 0.22807950025187471 -0.21378072883296281 0 0.22807950025187471 -0.21378072883296281 0 0.2260276794089226 -0.21827517038042399 0 0.20400232424088249 -0.22220030773730601 0 0.22776668181760629 -0.20542310255649199 0 0.22807950025187471 -0.21378072883296281 0 0.22246581780540989 -0.2073250853275567 0 0.22807950025187471 -0.21378072883296281 0 0.22246581780540989 -0.2073250853275567 0 0.21476740616046039 -0.21130348794532461 0 0.22776668181760629 -0.20542310255649199 0 0.22246581780540989 -0.2073250853275567 0 0.22347941803740851 -0.2008320377215855 0 0.22246581780540989 -0.2073250853275567 0 0.22347941803740851 -0.2008320377215855 0 0.2162747590664284 -0.20339259458632589 0 0.22347941803740851 -0.2008320377215855 0 0.22539813731825939 -0.19231982118191859 0 0.21684618825313781 -0.19470599532712229 0 0.22347941803740851 -0.2008320377215855 0 0.21684618825313781 -0.19470599532712229 0 0.2162747590664284 -0.20339259458632589 0 0.2175084867670434 -0.18519162885192891 0 0.22539813731825939 -0.19231982118191859 0 0.21684618825313781 -0.19470599532712229 0 0.23487469713800449 -0.19220565346234941 0 0.22539813731825939 -0.19231982118191859 0 0.23102665788491991 -0.19921507910752981 0 0.23042054747848301 -0.17855456918805249 0 0.23487469713800449 -0.19220565346234941 0 0.22539813731825939 -0.19231982118191859 0 0.22347941803740851 -0.2008320377215855 0 0.22539813731825939 -0.19231982118191859 0 0.23102665788491991 -0.19921507910752981 0 0.23516494882901551 -0.20397214479712281 0 0.22776668181760629 -0.20542310255649199 0 0.23102665788491991 -0.19921507910752981 0 0.22776668181760629 -0.20542310255649199 0 0.22347941803740851 -0.2008320377215855 0 0.23102665788491991 -0.19921507910752981 0 0.23901890545249649 -0.25648585442895377 0 0.23962034154339609 -0.24253617465164209 0 0.22865362017507851 -0.2459522529565806 0 0.25241460081779321 -0.25043473270287703 0 0.23962034154339609 -0.24253617465164209 0 0.24829625608795741 -0.2383585599429115 0 0.25241460081779321 -0.25043473270287703 0 0.23901890545249649 -0.25648585442895377 0 0.23962034154339609 -0.24253617465164209 0 0.23962034154339609 -0.24253617465164209 0 0.24829625608795741 -0.2383585599429115 0 0.23884350605880481 -0.23204823181049711 0 0.23962034154339609 -0.24253617465164209 0 0.23884350605880481 -0.23204823181049711 0 0.22966346140410959 -0.23362581329919449 0 0.23884350605880481 -0.23204823181049711 0 0.2430627975064063 -0.22454247348489331 0 0.23493460767829491 -0.22508502658547999 0 0.23884350605880481 -0.23204823181049711 0 0.23493460767829491 -0.22508502658547999 0 0.22966346140410959 -0.23362581329919449 0 0.24829625608795741 -0.2383585599429115 0 0.23884350605880481 -0.23204823181049711 0 0.2461409648831353 -0.22952784983332991 0 0.25238674146233819 -0.23044019217813061 0 0.24829625608795741 -0.2383585599429115 0 0.2461409648831353 -0.22952784983332991 0 0.25238674146233819 -0.23044019217813061 0 0.25011186226830828 -0.22413328924172579 0 0.2461409648831353 -0.22952784983332991 0 0.23884350605880481 -0.23204823181049711 0 0.2461409648831353 -0.22952784983332991 0 0.2430627975064063 -0.22454247348489331 0 0.25011186226830828 -0.22413328924172579 0 0.2461409648831353 -0.22952784983332991 0 0.2430627975064063 -0.22454247348489331 0 0.25011186226830828 -0.22413328924172579 0 0.2476196529828556 -0.21837733181959809 0 0.2430627975064063 -0.22454247348489331 0 0.2476196529828556 -0.21837733181959809 0 0.2430627975064063 -0.22454247348489331 0 0.24251107481173559 -0.2191062869323693 0 0.2430627975064063 -0.22454247348489331 0 0.24251107481173559 -0.2191062869323693 0 0.23493460767829491 -0.22508502658547999 0 0.24251107481173559 -0.2191062869323693 0 0.23493460767829491 -0.22508502658547999 0 0.2333205401169135 -0.2189145902706475 0 0.23493460767829491 -0.22508502658547999 0 0.2333205401169135 -0.2189145902706475 0 0.22888611519387411 -0.22408542468771389 0 0.2260276794089226 -0.21827517038042399 0 0.2333205401169135 -0.2189145902706475 0 0.22888611519387411 -0.22408542468771389 0 0.2260276794089226 -0.21827517038042399 0 0.22888611519387411 -0.22408542468771389 0 0.2239606534057865 -0.22830235497955001 0 0.2260276794089226 -0.21827517038042399 0 0.2239606534057865 -0.22830235497955001 0 0.21428225938889731 -0.22975134370746439 0 0.2239606534057865 -0.22830235497955001 0 0.22966346140410959 -0.23362581329919449 0 0.22018461561872441 -0.2373686935129857 0 0.2239606534057865 -0.22830235497955001 0 0.22018461561872441 -0.2373686935129857 0 0.21428225938889731 -0.22975134370746439 0 0.23493460767829491 -0.22508502658547999 0 0.22888611519387411 -0.22408542468771389 0 0.22966346140410959 -0.23362581329919449 0 0.22888611519387411 -0.22408542468771389 0 0.2239606534057865 -0.22830235497955001 0 0.22966346140410959 -0.23362581329919449 0 0.23962034154339609 -0.24253617465164209 0 0.22966346140410959 -0.23362581329919449 0 0.22865362017507851 -0.2459522529565806 0 0.22966346140410959 -0.23362581329919449 0 0.22018461561872441 -0.2373686935129857 0 0.22865362017507851 -0.2459522529565806 0 0.22018461561872441 -0.2373686935129857 0 0.22865362017507851 -0.2459522529565806 0 0.21747070015921119 -0.24758646643530779 0 0.20660961767864569 -0.25912809453969349 0 0.21747070015921119 -0.24758646643530779 0 0.20600726265971631 -0.2407190343615617 0 0.22018461561872441 -0.2373686935129857 0 0.21747070015921119 -0.24758646643530779 0 0.20600726265971631 -0.2407190343615617 0 0.22018461561872441 -0.2373686935129857 0 0.20600726265971631 -0.2407190343615617 0 0.21428225938889731 -0.22975134370746439 0 0.2260276794089226 -0.21827517038042399 0 0.21428225938889731 -0.22975134370746439 0 0.19808911004700419 -0.22702382467540669 0 0.2260276794089226 -0.21827517038042399 0 0.20400232424088249 -0.22220030773730601 0 0.19808911004700419 -0.22702382467540669 0 0.2260276794089226 -0.21827517038042399 0 0.19808911004700419 -0.22702382467540669 0 0.20600726265971631 -0.2407190343615617 0 0.21428225938889731 -0.22975134370746439 0 0.19808911004700419 -0.22702382467540669 0 0.20400232424088249 -0.22220030773730601 0 0.18972212895776011 -0.22002239288791631 0 0.17992514822989039 -0.23061988664164909 0 0.20400232424088249 -0.22220030773730601 0 0.17992514822989039 -0.23061988664164909 0 0.20400232424088249 -0.22220030773730601 0 0.19808911004700419 -0.22702382467540669 0 0.17992514822989039 -0.23061988664164909 0 0.20400232424088249 -0.22220030773730601 0 0.18972212895776011 -0.22002239288791631 0 0.19793645885559441 -0.2152826256200257 0 0.20660961767864569 -0.25912809453969349 0 0.20600726265971631 -0.2407190343615617 0 0.19136082564305021 -0.2484708756777885 0 0.19808911004700419 -0.22702382467540669 0 0.19422137094202169 -0.23930298909821329 0 0.18193360210940959 -0.24105360720622321 0 0.20600726265971631 -0.2407190343615617 0 0.19808911004700419 -0.22702382467540669 0 0.19422137094202169 -0.23930298909821329 0 0.19422137094202169 -0.23930298909821329 0 0.19136082564305021 -0.2484708756777885 0 0.18193360210940959 -0.24105360720622321 0 0.20600726265971631 -0.2407190343615617 0 0.19422137094202169 -0.23930298909821329 0 0.19136082564305021 -0.2484708756777885 0 0.20996617938305601 -0.1991745805754162 0 0.2069680952892356 -0.19094031247203261 0 0.2020556913634653 -0.20011187399429151 0 0.20996617938305601 -0.1991745805754162 0 0.20801726729303471 -0.20600302752314939 0 0.2020556913634653 -0.20011187399429151 0 0.20996617938305601 -0.1991745805754162 0 0.2069680952892356 -0.19094031247203261 0 0.21684618825313781 -0.19470599532712229 0 0.2175084867670434 -0.18519162885192891 0 0.2069680952892356 -0.19094031247203261 0 0.21684618825313781 -0.19470599532712229 0 0.20996617938305601 -0.1991745805754162 0 0.21684618825313781 -0.19470599532712229 0 0.2162747590664284 -0.20339259458632589 0 0.20996617938305601 -0.1991745805754162 0 0.2162747590664284 -0.20339259458632589 0 0.20801726729303471 -0.20600302752314939 0 0.2162747590664284 -0.20339259458632589 0 0.21476740616046039 -0.21130348794532461 0 0.20801726729303471 -0.20600302752314939 0 0.22807950025187471 -0.21378072883296281 0 0.20400232424088249 -0.22220030773730601 0 0.21476740616046039 -0.21130348794532461 0 0.22246581780540989 -0.2073250853275567 0 0.2162747590664284 -0.20339259458632589 0 0.21476740616046039 -0.21130348794532461 0 0.22807950025187471 -0.21378072883296281 0 0.20400232424088249 -0.22220030773730601 0 0.20400232424088249 -0.22220030773730601 0 0.21476740616046039 -0.21130348794532461 0 0.20523302970371521 -0.21328226168125769 0 0.20801726729303471 -0.20600302752314939 0 0.19980653808108259 -0.20875336635628061 0 0.2020556913634653 -0.20011187399429151 0 0.20523302970371521 -0.21328226168125769 0 0.20801726729303471 -0.20600302752314939 0 0.19980653808108259 -0.20875336635628061 0 0.21476740616046039 -0.21130348794532461 0 0.20523302970371521 -0.21328226168125769 0 0.20801726729303471 -0.20600302752314939 0 0.19980653808108259 -0.20875336635628061 0 0.19276879340225081 -0.2022612590148575 0 0.2020556913634653 -0.20011187399429151 0 0.19980653808108259 -0.20875336635628061 0 0.19793645885559441 -0.2152826256200257 0 0.1913799089873964 -0.21160107784428761 0 0.20400232424088249 -0.22220030773730601 0 0.20523302970371521 -0.21328226168125769 0 0.19793645885559441 -0.2152826256200257 0 0.20523302970371521 -0.21328226168125769 0 0.19980653808108259 -0.20875336635628061 0 0.19793645885559441 -0.2152826256200257 0 0.18972212895776011 -0.22002239288791631 0 0.1913799089873964 -0.21160107784428761 0 0.18272685369954991 -0.214059932041401 0 0.18972212895776011 -0.22002239288791631 0 0.19793645885559441 -0.2152826256200257 0 0.1913799089873964 -0.21160107784428761 0 0.1913799089873964 -0.21160107784428761 0 0.19276879340225081 -0.2022612590148575 0 0.18514638543939829 -0.20604944908697401 0 0.19980653808108259 -0.20875336635628061 0 0.1913799089873964 -0.21160107784428761 0 0.19276879340225081 -0.2022612590148575 0 0.19276879340225081 -0.2022612590148575 0 0.19591439584512901 -0.1917576027263585 0 0.1823098406970334 -0.19529418408095289 0 0.19276879340225081 -0.2022612590148575 0 0.2020556913634653 -0.20011187399429151 0 0.19591439584512901 -0.1917576027263585 0 0.2069680952892356 -0.19094031247203261 0 0.2020556913634653 -0.20011187399429151 0 0.19591439584512901 -0.1917576027263585 0 0.19118354035547691 -0.18220502536237981 0 0.19591439584512901 -0.1917576027263585 0 0.1823098406970334 -0.19529418408095289 0 0.1823098406970334 -0.19529418408095289 0 0.17074150828312071 -0.1895104413716176 0 0.16767263313934549 -0.19961519786021131 0 0.1823098406970334 -0.19529418408095289 0 0.17074150828312071 -0.1895104413716176 0 0.17954735311401551 -0.1828074877440021 0 0.1823098406970334 -0.19529418408095289 0 0.1755993549683347 -0.2076357169799336 0 0.16767263313934549 -0.19961519786021131 0 0.19276879340225081 -0.2022612590148575 0 0.1823098406970334 -0.19529418408095289 0 0.18514638543939829 -0.20604944908697401 0 0.1823098406970334 -0.19529418408095289 0 0.18514638543939829 -0.20604944908697401 0 0.1755993549683347 -0.2076357169799336 0 0.1913799089873964 -0.21160107784428761 0 0.18514638543939829 -0.20604944908697401 0 0.18272685369954991 -0.214059932041401 0 0.18514638543939829 -0.20604944908697401 0 0.18272685369954991 -0.214059932041401 0 0.1755993549683347 -0.2076357169799336 0 0.18972212895776011 -0.22002239288791631 0 0.18272685369954991 -0.214059932041401 0 0.18006467808428969 -0.2218573253394226 0 0.18272685369954991 -0.214059932041401 0 0.1744486657601203 -0.21719363010987219 0 0.1755993549683347 -0.2076357169799336 0 0.18272685369954991 -0.214059932041401 0 0.1744486657601203 -0.21719363010987219 0 0.18006467808428969 -0.2218573253394226 0 0.1755993549683347 -0.2076357169799336 0 0.16383573386833811 -0.2133312773351439 0 0.16767263313934549 -0.19961519786021131 0 0.1744486657601203 -0.21719363010987219 0 0.16383573386833811 -0.2133312773351439 0 0.1684157320558225 -0.22452332198201669 0 0.1744486657601203 -0.21719363010987219 0 0.1755993549683347 -0.2076357169799336 0 0.16383573386833811 -0.2133312773351439 0 0.16383573386833811 -0.2133312773351439 0 0.15636464967582711 -0.2031969614753828 0 0.16767263313934549 -0.19961519786021131 0 0.16383573386833811 -0.2133312773351439 0 0.15636464967582711 -0.2031969614753828 0 0.14891547606809999 -0.2125691313187999 0 0.15636464967582711 -0.2031969614753828 0 0.15771775242258329 -0.19028853955587841 0 0.16767263313934549 -0.19961519786021131 0 0.15771775242258329 -0.19028853955587841 0 0.17074150828312071 -0.1895104413716176 0 0.16767263313934549 -0.19961519786021131 0 0.1630257027769379 -0.25548478519294121 0 0.19136082564305021 -0.2484708756777885 0 0.18193360210940959 -0.24105360720622321 0 0.19808911004700419 -0.22702382467540669 0 0.18193360210940959 -0.24105360720622321 0 0.17015054068508581 -0.2357724789703893 0 0.19808911004700419 -0.22702382467540669 0 0.17015054068508581 -0.2357724789703893 0 0.19808911004700419 -0.22702382467540669 0 0.17992514822989039 -0.23061988664164909 0 0.17015054068508581 -0.2357724789703893 0 0.18972212895776011 -0.22002239288791631 0 0.17992514822989039 -0.23061988664164909 0 0.18006467808428969 -0.2218573253394226 0 0.17992514822989039 -0.23061988664164909 0 0.18006467808428969 -0.2218573253394226 0 0.1684157320558225 -0.22452332198201669 0 0.1744486657601203 -0.21719363010987219 0 0.18006467808428969 -0.2218573253394226 0 0.1684157320558225 -0.22452332198201669 0 0.17992514822989039 -0.23061988664164909 0 0.1684157320558225 -0.22452332198201669 0 0.15584797221889829 -0.2390394655459922 0 0.16383573386833811 -0.2133312773351439 0 0.1684157320558225 -0.22452332198201669 0 0.15388370142865551 -0.22450456684186751 0 0.1684157320558225 -0.22452332198201669 0 0.15584797221889829 -0.2390394655459922 0 0.15388370142865551 -0.22450456684186751 0 0.17992514822989039 -0.23061988664164909 0 0.17015054068508581 -0.2357724789703893 0 0.15584797221889829 -0.2390394655459922 0 0.1630257027769379 -0.25548478519294121 0 0.18193360210940959 -0.24105360720622321 0 0.17015054068508581 -0.2357724789703893 0 0.1630257027769379 -0.25548478519294121 0 0.17015054068508581 -0.2357724789703893 0 0.15584797221889829 -0.2390394655459922 0 0.17992514822989039 -0.23061988664164909 0 0.15584797221889829 -0.2390394655459922 0 0.1346905799108257 -0.26249869470809373 0 0.15584797221889829 -0.2390394655459922 0 0.14004842935149961 -0.2347384676055409 0 0.15584797221889829 -0.2390394655459922 0 0.15388370142865551 -0.22450456684186751 0 0.14004842935149961 -0.2347384676055409 0 0.15388370142865551 -0.22450456684186751 0 0.14176000410741649 -0.2226368555564063 0 0.14004842935149961 -0.2347384676055409 0 0.15388370142865551 -0.22450456684186751 0 0.14176000410741649 -0.2226368555564063 0 0.14891547606809999 -0.2125691313187999 0 0.1236491410850933 -0.23584551251244881 0 0.12946969481637269 -0.22342477506286221 0 0.14004842935149961 -0.2347384676055409 0 0.14176000410741649 -0.2226368555564063 0 0.12946969481637269 -0.22342477506286221 0 0.135665706588983 -0.2120364887988867 0 0.14176000410741649 -0.2226368555564063 0 0.12946969481637269 -0.22342477506286221 0 0.14004842935149961 -0.2347384676055409 0 0.1346905799108257 -0.26249869470809373 0 0.1236491410850933 -0.23584551251244881 0 0.14004842935149961 -0.2347384676055409 0 0.15771775242258329 -0.19028853955587841 0 0.1428534335924917 -0.19900484638381291 0 0.14530481109102461 -0.18437521111275831 0 0.15636464967582711 -0.2031969614753828 0 0.15771775242258329 -0.19028853955587841 0 0.1428534335924917 -0.19900484638381291 0 0.15636464967582711 -0.2031969614753828 0 0.1428534335924917 -0.19900484638381291 0 0.14891547606809999 -0.2125691313187999 0 0.16383573386833811 -0.2133312773351439 0 0.15388370142865551 -0.22450456684186751 0 0.14891547606809999 -0.2125691313187999 0 0.14176000410741649 -0.2226368555564063 0 0.14891547606809999 -0.2125691313187999 0 0.135665706588983 -0.2120364887988867 0 0.1428534335924917 -0.19900484638381291 0 0.14891547606809999 -0.2125691313187999 0 0.135665706588983 -0.2120364887988867 0 0.1428534335924917 -0.19900484638381291 0 0.135665706588983 -0.2120364887988867 0 0.12924144026734499 -0.20162071726484609 0 0.12139850008723869 -0.21231032922883719 0 0.12946969481637269 -0.22342477506286221 0 0.135665706588983 -0.2120364887988867 0 0.12139850008723869 -0.21231032922883719 0 0.135665706588983 -0.2120364887988867 0 0.12924144026734499 -0.20162071726484609 0 0.1428534335924917 -0.19900484638381291 0 0.12924144026734499 -0.20162071726484609 0 0.13015836463603331 -0.18680420016310481 0 0.1428534335924917 -0.19900484638381291 0 0.13015836463603331 -0.18680420016310481 0 0.14530481109102461 -0.18437521111275831 0 0.11700156928509001 -0.19724393022828909 0 0.12924144026734499 -0.20162071726484609 0 0.13015836463603331 -0.18680420016310481 0 0.12495480361634211 -0.17202637998491629 0 0.13015836463603331 -0.18680420016310481 0 0.14170539834193011 -0.16949130119297739 0 0.13015836463603331 -0.18680420016310481 0 0.14530481109102461 -0.18437521111275831 0 0.14170539834193011 -0.16949130119297739 0 0.14530481109102461 -0.18437521111275831 0 0.15419910106813081 -0.17743189462062989 0 0.14170539834193011 -0.16949130119297739 0 0.15771775242258329 -0.19028853955587841 0 0.14530481109102461 -0.18437521111275831 0 0.15419910106813081 -0.17743189462062989 0 0.15419910106813081 -0.17743189462062989 0 0.14170539834193011 -0.16949130119297739 0 0.1602968410269589 -0.16587117556729619 0 0.14170539834193011 -0.16949130119297739 0 0.14641388713171219 -0.15615243610945331 0 0.1602968410269589 -0.16587117556729619 0 0.14170539834193011 -0.16949130119297739 0 0.1253326927526357 -0.15756249646372869 0 0.14641388713171219 -0.15615243610945331 0 0.12495480361634211 -0.17202637998491629 0 0.14170539834193011 -0.16949130119297739 0 0.1253326927526357 -0.15756249646372869 0 0.1253326927526357 -0.15756249646372869 0 0.14234028843245841 -0.14073198130764461 0 0.12344333801129979 -0.1423247201707728 0 0.1253326927526357 -0.15756249646372869 0 0.14234028843245841 -0.14073198130764461 0 0.1253326927526357 -0.15756249646372869 0 0.14234028843245841 -0.14073198130764461 0 0.14641388713171219 -0.15615243610945331 0 0.12344333801129979 -0.1423247201707728 0 0.1276075298871012 -0.12854147022919951 0 0.14234028843245841 -0.14073198130764461 0 0.1423623471684026 -0.1196490635848497 0 0.1276075298871012 -0.12854147022919951 0 0.14234028843245841 -0.14073198130764461 0 0.1423623471684026 -0.1196490635848497 0 0.1593478841122811 -0.1239014661515604 0 0.14234028843245841 -0.14073198130764461 0 0.1593478841122811 -0.1239014661515604 0 0.14234028843245841 -0.14073198130764461 0 0.16239421510457799 -0.14710522601561979 0 0.1593478841122811 -0.1239014661515604 0 0.14234028843245841 -0.14073198130764461 0 0.14234028843245841 -0.14073198130764461 0 0.14641388713171219 -0.15615243610945331 0 0.16239421510457799 -0.14710522601561979 0 0.16239421510457799 -0.14710522601561979 0 0.17925337431180341 -0.149568157832493 0 0.17249930551707049 -0.16029510266610339 0 0.1593478841122811 -0.1239014661515604 0 0.16239421510457799 -0.14710522601561979 0 0.17438663828431991 -0.1362520707575352 0 0.183510899382961 -0.12283076088752461 0 0.18772865668091171 -0.1386706449095195 0 0.17438663828431991 -0.1362520707575352 0 0.183510899382961 -0.12283076088752461 0 0.1593478841122811 -0.1239014661515604 0 0.17438663828431991 -0.1362520707575352 0 0.19106002678109771 -0.1510902306329627 0 0.17925337431180341 -0.149568157832493 0 0.18539760644748021 -0.166309604958434 0 0.16239421510457799 -0.14710522601561979 0 0.17438663828431991 -0.1362520707575352 0 0.17925337431180341 -0.149568157832493 0 0.18772865668091171 -0.1386706449095195 0 0.17438663828431991 -0.1362520707575352 0 0.17925337431180341 -0.149568157832493 0 0.19106002678109771 -0.1510902306329627 0 0.18772865668091171 -0.1386706449095195 0 0.17925337431180341 -0.149568157832493 0 0.17925337431180341 -0.149568157832493 0 0.17249930551707049 -0.16029510266610339 0 0.18539760644748021 -0.166309604958434 0 0.17249930551707049 -0.16029510266610339 0 0.1727863595551547 -0.1709412138630598 0 0.18539760644748021 -0.166309604958434 0 0.1727863595551547 -0.1709412138630598 0 0.18539760644748021 -0.166309604958434 0 0.17954735311401551 -0.1828074877440021 0 0.19118354035547691 -0.18220502536237981 0 0.18539760644748021 -0.166309604958434 0 0.17954735311401551 -0.1828074877440021 0 0.19118354035547691 -0.18220502536237981 0 0.1823098406970334 -0.19529418408095289 0 0.17954735311401551 -0.1828074877440021 0 0.17074150828312071 -0.1895104413716176 0 0.17954735311401551 -0.1828074877440021 0 0.16619069167024841 -0.17942269837946309 0 0.1727863595551547 -0.1709412138630598 0 0.17954735311401551 -0.1828074877440021 0 0.16619069167024841 -0.17942269837946309 0 0.1727863595551547 -0.1709412138630598 0 0.16619069167024841 -0.17942269837946309 0 0.1602968410269589 -0.16587117556729619 0 0.15771775242258329 -0.19028853955587841 0 0.17074150828312071 -0.1895104413716176 0 0.16619069167024841 -0.17942269837946309 0 0.15771775242258329 -0.19028853955587841 0 0.15419910106813081 -0.17743189462062989 0 0.16619069167024841 -0.17942269837946309 0 0.15419910106813081 -0.17743189462062989 0 0.16619069167024841 -0.17942269837946309 0 0.1602968410269589 -0.16587117556729619 0 0.14641388713171219 -0.15615243610945331 0 0.16239421510457799 -0.14710522601561979 0 0.1602968410269589 -0.16587117556729619 0 0.16239421510457799 -0.14710522601561979 0 0.17249930551707049 -0.16029510266610339 0 0.1602968410269589 -0.16587117556729619 0 0.17249930551707049 -0.16029510266610339 0 0.1727863595551547 -0.1709412138630598 0 0.1602968410269589 -0.16587117556729619 0 
</DataArray>
</Points>
<Cells>
<DataArray type="UInt32" Name="connectivity" format="ascii">
0 1 2 3 4 5 6 7 8 9 10 11 12 13 14 15 16 17 18 19 20 21 22 23 24 25 26 27 28 29 30 31 32 33 34 35 36 37 38 39 40 41 42 43 44 45 46 47 48 49 50 51 52 53 54 55 56 57 58 59 60 61 62 63 64 65 66 67 68 69 70 71 72 73 74 75 76 77 78 79 80 81 82 83 84 85 86 87 88 89 90 91 92 93 94 95 96 97 98 99 100 101 102 103 104 105 106 107 108 109 110 111 112 113 114 115 116 117 118 119 120 121 122 123 124 125 126 127 128 129 130 131 132 133 134 135 136 137 138 139 140 141 142 143 144 145 146 147 148 149 150 151 152 153 154 155 156 157 158 159 160 161 162 163 164 165 166 167 168 169 170 171 172 173 174 175 176 177 178 179 180 181 182 183 184 185 186 187 188 189 190 191 192 193 194 195 196 197 198 199 200 201 202 203 204 205 206 207 208 209 210 211 212 213 214 215 216 217 218 219 220 221 222 223 224 225 226 227 228 229 230 231 232 233 234 235 236 237 238 239 240 241 242 243 244 245 246 247 248 249 250 251 252 253 254 255 256 257 258 259 260 261 262 263 264 265 266 267 268 269 270 271 272 273 274 275 276 277 278 279 280 281 282 283 284 285 286 287 288 289 290 291 292 293 294 295 296 297 298 299 300 301 302 303 304 305 306 307 308 309 310 311 312 313 314 315 316 317 318 319 320 321 322 323 324 325 326 327 328 329 330 331 332 333 334 335 336 337 338 339 340 341 342 343 344 345 346 347 348 349 350 351 352 353 354 355 356 357 358 359 360 361 362 363 364 365 366 367 368 369 370 371 372 373 374 375 376 377 378 379 380 381 382 383 384 385 386 387 388 389 390 391 392 393 394 395 396 397 398 399 400 401 402 403 404 405 406 407 408 409 410 411 412 413 414 415 416 417 418 419 420 421 422 423 424 425 426 427 428 429 430 431 432 433 434 435 436 437 438 439 440 441 442 443 444 445 446 447 448 449 450 451 452 453 454 455 456 457 458 459 460 461 462 463 464 465 466 467 468 469 470 471 472 473 474 475 476 477 478 479 480 481 482 483 484 485 486 487 488 489 490 491 492 493 494 495 496 497 498 499 500 501 502 503 504 505 506 507 508 509 510 511 512 513 514 515 516 517 518 519 520 521 522 523 524 525 526 527 528 529 530 531 532 533 534 535 536 537 538 539 540 541 542 543 544 545 546 547 548 549 550 551 552 553 554 555 556 557 558 559 560 561 562 563 564 565 566 567 568 569 570 571 572 573 574 575 576 577 578 579 580 581 582 583 584 585 586 587 588 589 590 591 592 593 594 595 596 597 598 599 600 601 602 603 604 605 606 607 608 609 610 611 612 613 614 615 616 617 618 619 620 621 622 623 624 625 626 627 628 629 630 631 632 633 634 635 636 637 638 639 640 641 642 643 644 645 646 647 648 649 650 651 652 653 654 655 656 657 658 659 660 661 662 663 664 665 666 667 668 669 670 671 672 673 674 675 676 677 678 679 680 681 682 683 684 685 686 687 688 689 690 691 692 693 694 695 696 697 698 699 700 701 702 703 704 705 706 707 708 709 710 711 712 713 714 715 716 717 718 719 720 721 722 723 724 725 726 727 728 729 730 731 732 733 734 735 736 737 738 739 740 741 742 743 744 745 746 747 748 749 750 751 752 753 754 755 756 757 758 759 760 761 762 763 764 765 766 767 768 769 770 771 772 773 774 775 776 777 778 779 780 781 782 783 784 785 786 787 788 789 790 791 792 793 794 795 796 797 798 799 800 801 802 803 804 805 806 807 808 809 810 811 812 813 814 815 816 817 818 819 820 821 822 823 824 825 826 827 828 829 830 831 832 833 834 835 836 837 838 839 840 841 842 843 844 845 846 847 848 849 850 851 852 853 854 855 856 857 858 859 860 861 862 863 864 865 866 867 868 869 870 871 872 873 874 875 876 877 878 879 880 881 882 883 884 885 886 887 888 889 890 891 892 893 894 895 896 897 898 899 900 901 902 903 904 905 906 907 908 909 910 911 912 913 914 915 916 917 918 919 920 921 922 923 924 925 926 927 928 929 930 931 932 933 934 935 936 937 938 939 940 941 942 943 944 945 946 947 948 949 950 951 952 953 954 955 956 957 958 959 960 961 962 963 964 965 966 967 968 969 970 971 972 973 974 975 976 977 978 979 980 981 982 983 984 985 986 987 988 989 990 991 992 993 994 995 996 997 998 999 1000 1001 1002 1003 1004 1005 1006 1007 1008 1009 1010 1011 1012 1013 1014 1015 1016 1017 1018 1019 1020 1021 1022 1023 1024 1025 1026 1027 1028 1029 1030 1031 1032 1033 1034 1035 1036 1037 1038 1039 1040 1041 1042 1043 1044 1045 1046 1047 1048 1049 1050 1051 1052 1053 1054 1055 1056 1057 1058 1059 1060 1061 1062 1063 1064 1065 1066 1067 1068 1069 1070 1071 1072 1073 1074 1075 1076 1077 1078 1079 1080 1081 1082 1083 1084 1085 1086 1087 1088 1089 1090 1091 1092 1093 1094 1095 1096 1097 1098 1099 1100 1101 1102 1103 1104 1105 1106 1107 1108 1109 1110 1111 1112 1113 1114 1115 1116 1117 1118 1119 1120 1121 1122 1123 1124 1125 1126 1127 1128 1129 1130 1131 1132 1133 1134 1135 1136 1137 1138 1139 1140 1141 1142 1143 1144 1145 1146 1147 1148 1149 1150 1151 1152 1153 1154 1155 1156 1157 1158 1159 1160 1161 1162 1163 1164 1165 1166 1167 1168 1169 1170 1171 1172 1173 1174 1175 1176 1177 1178 1179 1180 1181 1182 1183 1184 1185 1186 1187 1188 1189 1190 1191 1192 1193 1194 1195 1196 1197 1198 1199 1200 1201 1202 1203 1204 1205 1206 1207 1208 1209 1210 1211 1212 1213 1214 1215 1216 1217 1218 1219 1220 1221 1222 1223 1224 1225 1226 1227 1228 1229 1230 1231 1232 1233 1234 1235 1236 1237 1238 1239 1240 1241 1242 1243 1244 1245 1246 1247 1248 1249 1250 1251 1252 1253 1254 1255 1256 1257 1258 1259 1260 1261 1262 1263 1264 1265 1266 1267 1268 1269 1270 1271 1272 1273 1274 1275 1276 1277 1278 1279 1280 1281 1282 1283 1284 1285 1286 1287 1288 1289 1290 1291 1292 1293 1294 1295 1296 1297 1298 1299 1300 1301 1302 1303 1304 1305 1306 1307 1308 1309 1310 1311 1312 1313 1314 1315 1316 1317 1318 1319 1320 1321 1322 1323 1324 1325 1326 1327 1328 1329 1330 1331 1332 1333 1334 1335 1336 1337 1338 1339 1340 1341 1342 1343 1344 1345 1346 1347 1348 1349 1350 1351 1352 1353 1354 1355 1356 1357 1358 1359 1360 1361 1362 1363 1364 1365 1366 1367 1368 1369 1370 1371 1372 1373 1374 1375 1376 1377 1378 1379 1380 1381 1382 1383 1384 1385 1386 1387 1388 1389 1390 1391 1392 1393 1394 1395 1396 1397 1398 1399 1400 1401 1402 1403 1404 1405 1406 1407 1408 1409 1410 1411 1412 1413 1414 1415 1416 1417 1418 1419 1420 1421 1422 1423 1424 1425 1426 1427 1428 1429 1430 1431 1432 1433 1434 1435 1436 1437 1438 1439 1440 1441 1442 1443 1444 1445 1446 1447 1448 1449 1450 1451 1452 1453 1454 1455 1456 1457 1458 1459 1460 1461 1462 1463 1464 1465 1466 1467 1468 1469 1470 1471 1472 1473 1474 1475 1476 1477 1478 1479 1480 1481 1482 1483 1484 1485 1486 1487 1488 1489 1490 1491 1492 1493 1494 1495 1496 1497 1498 1499 1500 1501 1502 1503 1504 1505 1506 1507 1508 1509 1510 1511 1512 1513 1514 1515 1516 1517 1518 1519 1520 1521 1522 1523 1524 1525 1526 1527 1528 1529 1530 1531 1532 1533 1534 1535 1536 1537 1538 1539 1540 1541 1542 1543 1544 1545 1546 1547 1548 1549 1550 1551 1552 1553 1554 1555 1556 1557 1558 1559 1560 1561 1562 1563 1564 1565 1566 1567 1568 1569 1570 1571 1572 1573 1574 1575 1576 1577 1578 1579 1580 1581 1582 1583 1584 1585 1586 1587 1588 1589 1590 1591 1592 1593 1594 1595 1596 1597 1598 1599 1600 1601 1602 1603 1604 1605 1606 1607 1608 1609 1610 1611 1612 1613 1614 1615 1616 1617 1618 1619 1620 1621 1622 1623 1624 1625 1626 1627 1628 1629 1630 1631 1632 1633 1634 1635 1636 1637 1638 1639 1640 1641 1642 1643 1644 1645 1646 1647 1648 1649 1650 1651 1652 1653 1654 1655 1656 1657 1658 1659 1660 1661 1662 1663 1664 1665 1666 1667 1668 1669 1670 1671 1672 1673 1674 1675 1676 1677 1678 1679 1680 1681 1682 1683 1684 1685 1686 1687 1688 1689 1690 1691 1692 1693 1694 1695 1696 1697 1698 1699 1700 1701 1702 1703 1704 1705 1706 1707 1708 1709 1710 1711 1712 1713 1714 1715 1716 1717 1718 1719 1720 1721 1722 1723 1724 1725 1726 1727 1728 1729 1730 1731 1732 1733 1734 1735 1736 1737 1738 1739 1740 1741 1742 1743 1744 1745 1746 1747 1748 1749 1750 1751 1752 1753 1754 1755 1756 1757 1758 1759 1760 1761 1762 1763 1764 1765 1766 1767 1768 1769 1770 1771 1772 1773 1774 1775 1776 1777 1778 1779 1780 1781 1782 1783 1784 1785 1786 1787 1788 1789 1790 1791 1792 1793 1794 1795 1796 1797 1798 1799 1800 1801 1802 1803 1804 1805 1806 1807 1808 1809 1810 1811 1812 1813 1814 1815 1816 1817 1818 1819 1820 1821 1822 1823 1824 1825 1826 1827 1828 1829 1830 1831 1832 1833 1834 1835 1836 1837 1838 1839 1840 1841 1842 1843 1844 1845 1846 1847 1848 1849 1850 1851 1852 1853 1854 1855 1856 1857 1858 1859 1860 1861 1862 1863 1864 1865 1866 1867 1868 1869 1870 1871 1872 1873 1874 1875 1876 1877 1878 1879 1880 1881 1882 1883 1884 1885 1886 1887 1888 1889 1890 1891 1892 1893 1894 1895 1896 1897 1898 1899 1900 1901 1902 1903 1904 1905 1906 1907 1908 1909 1910 1911 1912 1913 1914 1915 1916 1917 1918 1919 1920 1921 1922 1923 1924 1925 1926 1927 1928 1929 1930 1931 1932 1933 1934 1935 1936 1937 1938 1939 1940 1941 1942 1943 1944 1945 1946 1947 1948 1949 1950 1951 1952 1953 1954 1955 1956 1957 1958 1959 1960 1961 1962 1963 1964 1965 1966 1967 1968 1969 1970 1971 1972 1973 1974 1975 1976 1977 1978 1979 1980 1981 1982 1983 1984 1985 1986 1987 1988 1989 1990 1991 1992 1993 1994 1995 1996 1997 1998 1999 2000 2001 2002 2003 2004 2005 2006 2007 2008 2009 2010 2011 2012 2013 2014 2015 2016 2017 2018 2019 2020 2021 2022 2023 2024 2025 2026 2027 2028 2029 2030 2031 2032 2033 2034 2035 2036 2037 2038 2039 2040 2041 2042 2043 2044 2045 2046 2047 2048 2049 2050 2051 2052 2053 2054 2055 2056 2057 2058 2059 2060 2061 2062 2063 2064 2065 2066 2067 2068 2069 2070 2071 2072 2073 2074 2075 2076 2077 2078 2079 2080 2081 2082 2083 2084 2085 2086 2087 2088 2089 2090 2091 2092 2093 2094 2095 2096 2097 2098 2099 2100 2101 2102 2103 2104 2105 2106 2107 2108 2109 2110 2111 2112 2113 2114 2115 2116 2117 2118 2119 2120 2121 2122 2123 2124 2125 2126 2127 2128 2129 2130 2131 2132 2133 2134 2135 2136 2137 2138 2139 2140 2141 2142 2143 2144 2145 2146 2147 2148 2149 2150 2151 2152 2153 2154 2155 2156 2157 2158 2159 2160 2161 2162 2163 2164 2165 2166 2167 2168 2169 2170 2171 2172 2173 2174 2175 2176 2177 2178 2179 2180 2181 2182 2183 2184 2185 2186 2187 2188 2189 2190 2191 2192 2193 2194 2195 2196 2197 2198 2199 2200 2201 2202 2203 2204 2205 2206 2207 2208 2209 2210 2211 2212 2213 2214 2215 2216 2217 2218 2219 2220 2221 2222 2223 2224 2225 2226 2227 2228 2229 2230 2231 2232 2233 2234 2235 2236 2237 2238 2239 2240 2241 2242 2243 2244 2245 2246 2247 2248 2249 2250 2251 2252 2253 2254 2255 2256 2257 2258 2259 2260 2261 2262 2263 2264 2265 2266 2267 2268 2269 2270 2271 2272 2273 2274 2275 2276 2277 2278 2279 2280 2281 2282 2283 2284 2285 2286 2287 2288 2289 2290 2291 2292 2293 2294 2295 2296 2297 2298 2299 2300 2301 2302 2303 2304 2305 2306 2307 2308 2309 2310 2311 2312 2313 2314 2315 2316 2317 2318 2319 2320 2321 2322 2323 2324 2325 2326 2327 2328 2329 2330 2331 2332 2333 2334 2335 2336 2337 2338 2339 2340 2341 2342 2343 2344 2345 2346 2347 2348 2349 2350 2351 2352 2353 2354 2355 2356 2357 2358 2359 2360 2361 2362 2363 2364 2365 2366 2367 2368 2369 2370 2371 2372 2373 2374 2375 2376 2377 2378 2379 2380 2381 2382 2383 2384 2385 2386 2387 2388 2389 2390 2391 2392 2393 2394 2395 2396 2397 2398 2399 2400 2401 2402 2403 2404 2405 2406 2407 2408 2409 2410 2411 2412 2413 2414 2415 2416 2417 2418 2419 2420 2421 2422 2423 2424 2425 2426 2427 2428 2429 2430 2431 2432 2433 2434 2435 2436 2437 2438 2439 2440 2441 2442 2443 2444 2445 2446 2447 2448 2449 2450 2451 2452 2453 2454 2455 2456 2457 2458 2459 2460 2461 2462 2463 2464 2465 2466 2467 2468 2469 2470 2471 2472 2473 2474 2475 2476 2477 2478 2479 2480 2481 2482 2483 2484 2485 2486 2487 2488 2489 2490 2491 2492 2493 2494 2495 2496 2497 2498 2499 2500 2501 2502 2503 2504 2505 2506 2507 2508 2509 2510 2511 2512 2513 2514 2515 2516 2517 2518 2519 2520 2521 2522 2523 2524 2525 2526 2527 2528 2529 2530 2531 2532 2533 2534 2535 2536 2537 2538 2539 2540 2541 2542 2543 2544 2545 2546 2547 2548 2549 2550 2551 2552 2553 2554 2555 2556 2557 2558 2559 2560 2561 2562 2563 2564 2565 2566 2567 2568 2569 2570 2571 2572 2573 2574 2575 2576 2577 2578 2579 2580 2581 2582 2583 2584 2585 2586 2587 2588 2589 2590 2591 2592 2593 2594 2595 2596 2597 2598 2599 2600 2601 2602 2603 2604 2605 2606 2607 2608 2609 2610 2611 2612 2613 2614 2615 2616 2617 2618 2619 2620 2621 2622 2623 2624 2625 2626 2627 2628 2629 2630 2631 2632 2633 2634 2635 2636 2637 2638 2639 2640 2641 2642 2643 2644 2645 2646 2647 2648 2649 2650 2651 2652 2653 2654 2655 2656 2657 2658 2659 2660 2661 2662 2663 2664 2665 2666 2667 2668 2669 2670 2671 2672 2673 2674 2675 2676 2677 2678 2679 2680 2681 2682 2683 2684 2685 2686 2687 2688 2689 2690 2691 2692 2693 2694 2695 2696 2697 2698 2699 2700 2701 2702 2703 2704 2705 2706 2707 2708 2709 2710 2711 2712 2713 2714 2715 2716 2717 2718 2719 2720 2721 2722 2723 2724 2725 2726 2727 2728 2729 2730 2731 2732 2733 2734 2735 2736 2737 2738 2739 2740 2741 2742 2743 2744 2745 2746 2747 2748 2749 2750 2751 2752 2753 2754 2755 2756 2757 2758 2759 2760 2761 2762 2763 2764 2765 2766 2767 2768 2769 2770 2771 2772 2773 2774 2775 2776 2777 2778 2779 2780 2781 2782 2783 2784 2785 2786 2787 2788 2789 2790 2791 2792 2793 2794 2795 2796 2797 2798 2799 2800 2801 2802 2803 2804 2805 2806 2807 2808 2809 2810 2811 2812 2813 2814 2815 2816 2817 2818 2819 2820 2821 2822 2823 2824 2825 2826 2827 2828 2829 2830 2831 2832 2833 2834 2835 2836 2837 2838 2839 2840 2841 2842 2843 2844 2845 2846 2847 2848 2849 2850 2851 2852 2853 2854 2855 2856 2857 2858 2859 2860 2861 2862 2863 2864 2865 2866 2867 2868 2869 2870 2871 2872 2873 2874 2875 2876 2877 2878 2879 2880 2881 2882 2883 2884 2885 2886 2887 2888 2889 2890 2891 2892 2893 2894 2895 2896 2897 2898 2899 2900 2901 2902 2903 2904 2905 2906 2907 2908 2909 2910 2911 2912 2913 2914 2915 2916 2917 2918 2919 2920 2921 2922 2923 2924 2925 2926 2927 2928 2929 2930 2931 2932 2933 2934 2935 2936 2937 2938 2939 2940 2941 2942 2943 2944 2945 2946 2947 2948 2949 2950 2951 2952 2953 2954 2955 2956 2957 2958 2959 2960 2961 2962 2963 2964 2965 2966 2967 2968 2969 2970 2971 2972 2973 2974 2975 2976 2977 2978 2979 2980 2981 2982 2983 2984 2985 2986 2987 2988 2989 2990 2991 2992 2993 2994 2995 2996 2997 2998 2999 3000 3001 3002 3003 3004 3005 3006 3007 3008 3009 3010 3011 3012 3013 3014 3015 3016 3017 3018 3019 3020 3021 3022 3023 3024 3025 3026 3027 3028 3029 3030 3031 3032 3033 3034 3035 3036 3037 3038 3039 3040 3041 3042 3043 3044 3045 3046 3047 3048 3049 3050 3051 3052 3053 3054 3055 3056 3057 3058 3059 3060 3061 3062 3063 3064 3065 3066 3067 3068 3069 3070 3071 3072 3073 3074 3075 3076 3077 3078 3079 3080 3081 3082 3083 3084 3085 3086 3087 3088 3089 3090 3091 3092 3093 3094 3095 3096 3097 3098 3099 3100 3101 3102 3103 3104 3105 3106 3107 3108 3109 3110 3111 3112 3113 3114 3115 3116 3117 3118 3119 3120 3121 3122 3123 3124 3125 3126 3127 3128 3129 3130 3131 3132 3133 3134 3135 3136 3137 3138 3139 3140 3141 3142 3143 3144 3145 3146 3147 3148 3149 3150 3151 3152 3153 3154 3155 3156 3157 3158 3159 3160 3161 3162 3163 3164 3165 3166 3167 3168 3169 3170 3171 3172 3173 3174 3175 3176 3177 3178 3179 3180 3181 3182 3183 3184 3185 3186 3187 3188 3189 3190 3191 3192 3193 3194 3195 3196 3197 3198 3199 3200 3201 3202 3203 3204 3205 3206 3207 3208 3209 3210 3211 3212 3213 3214 3215 3216 3217 3218 3219 3220 3221 3222 3223 3224 3225 3226 3227 3228 3229 3230 3231 3232 3233 3234 3235 3236 3237 3238 3239 3240 3241 3242 3243 3244 3245 3246 3247 3248 3249 3250 3251 3252 3253 3254 3255 3256 3257 3258 3259 3260 3261 3262 3263 3264 3265 3266 3267 3268 3269 3270 3271 3272 3273 3274 3275 3276 3277 3278 3279 3280 3281 3282 3283 3284 3285 3286 3287 3288 3289 3290 3291 3292 3293 3294 3295 3296 3297 3298 3299 3300 3301 3302 3303 3304 3305 3306 3307 3308 3309 3310 3311 3312 3313 3314 3315 3316 3317 3318 3319 3320 3321 3322 3323 3324 3325 3326 3327 3328 3329 3330 3331 3332 3333 3334 3335 3336 3337 3338 3339 3340 3341 3342 3343 3344 3345 3346 3347 3348 3349 3350 3351 3352 3353 3354 3355 3356 3357 3358 3359 3360 3361 3362 3363 3364 3365 3366 3367 3368 3369 3370 3371 3372 3373 3374 3375 3376 3377 3378 3379 3380 3381 3382 3383 3384 3385 3386 3387 3388 3389 3390 3391 3392 3393 3394 3395 3396 3397 3398 3399 3400 3401 3402 3403 3404 3405 3406 3407 3408 3409 3410 3411 3412 3413 3414 3415 3416 3417 3418 3419 3420 3421 3422 3423 3424 3425 3426 3427 3428 3429 3430 3431 3432 3433 3434 3435 3436 3437 3438 3439 3440 3441 3442 3443 3444 3445 3446 3447 3448 3449 3450 3451 3452 3453 3454 3455 3456 3457 3458 3459 3460 3461 3462 3463 3464 3465 3466 3467 3468 3469 3470 3471 3472 3473 3474 3475 3476 3477 3478 3479 3480 3481 3482 3483 3484 3485 3486 3487 3488 3489 3490 3491 3492 3493 3494 3495 3496 3497 3498 3499 3500 3501 3502 3503 3504 3505 3506 3507 3508 3509 3510 3511 3512 3513 3514 3515 3516 3517 3518 3519 3520 3521 3522 3523 3524 3525 3526 3527 3528 3529 3530 3531 3532 3533 3534 3535 3536 3537 3538 3539 3540 3541 3542 3543 3544 3545 3546 3547 3548 3549 3550 3551 3552 3553 3554 3555 3556 3557 3558 3559 3560 3561 3562 3563 3564 3565 3566 3567 3568 3569 3570 3571 3572 3573 3574 3575 3576 3577 3578 3579 3580 3581 3582 3583 3584 3585 3586 3587 3588 3589 3590 3591 3592 3593 3594 3595 3596 3597 3598 3599 3600 3601 3602 3603 3604 3605 3606 3607 3608 3609 3610 3611 3612 3613 3614 3615 3616 3617 3618 3619 3620 3621 3622 3623 3624 3625 3626 3627 3628 3629 3630 3631 3632 3633 3634 3635 3636 3637 3638 3639 3640 3641 3642 3643 3644 3645 3646 3647 3648 3649 3650 3651 3652 3653 3654 3655 3656 3657 3658 3659 3660 3661 3662 3663 3664 3665 3666 3667 3668 3669 3670 3671 3672 3673 3674 3675 3676 3677 3678 3679 3680 3681 3682 3683 3684 3685 3686 3687 3688 3689 3690 3691 3692 3693 3694 3695 3696 3697 3698 3699 3700 3701 3702 3703 3704 3705 3706 3707 3708 3709 3710 3711 3712 3713 3714 3715 3716 3717 3718 3719 3720 3721 3722 3723 3724 3725 3726 3727 3728 3729 3730 3731 3732 3733 3734 3735 3736 3737 3738 3739 3740 3741 3742 3743 3744 3745 3746 3747 3748 3749 3750 3751 3752 3753 3754 3755 3756 3757 3758 3759 3760 3761 3762 3763 3764 3765 3766 3767 3768 3769 3770 3771 3772 3773 3774 3775 3776 3777 3778 3779 3780 3781 3782 3783 3784 3785 3786 3787 3788 3789 3790 3791 3792 3793 3794 3795 3796 3797 3798 3799 3800 3801 3802 3803 3804 3805 3806 3807 3808 3809 3810 3811 3812 3813 3814 3815 3816 3817 3818 3819 3820 3821 3822 3823 3824 3825 3826 3827 3828 3829 3830 3831 3832 3833 3834 3835 3836 3837 3838 3839 3840 3841 3842 3843 3844 3845 3846 3847 3848 3849 3850 3851 3852 3853 3854 3855 3856 3857 3858 3859 3860 3861 3862 3863 3864 3865 3866 3867 3868 3869 3870 3871 3872 3873 3874 3875 3876 3877 3878 3879 3880 3881 3882 3883 3884 3885 3886 3887 3888 3889 3890 3891 3892 3893 3894 3895 3896 3897 3898 3899 3900 3901 3902 3903 3904 3905 3906 3907 3908 3909 3910 3911 3912 3913 3914 3915 3916 3917 3918 3919 3920 3921 3922 3923 3924 3925 3926 3927 3928 3929 3930 3931 3932 3933 3934 3935 3936 3937 3938 3939 3940 3941 3942 3943 3944 3945 3946 3947 3948 3949 3950 3951 3952 3953 3954 3955 3956 3957 3958 3959 3960 3961 3962 3963 3964 3965 3966 3967 3968 3969 3970 3971 3972 3973 3974 3975 3976 3977 3978 3979 3980 3981 3982 3983 3984 3985 3986 3987 3988 3989 3990 3991 3992 3993 3994 3995 3996 3997 3998 3999 4000 4001 4002 4003 4004 4005 4006 4007 4008 4009 4010 4011 4012 4013 4014 4015 4016 4017 4018 4019 4020 4021 4022 4023 4024 4025 4026 4027 4028 4029 4030 4031 4032 4033 4034 4035 4036 4037 4038 4039 4040 4041 4042 4043 4044 4045 4046 4047 4048 4049 4050 4051 4052 4053 4054 4055 4056 4057 4058 4059 4060 4061 4062 4063 4064 4065 4066 4067 4068 4069 4070 4071 4072 4073 4074 4075 4076 4077 4078 4079 4080 4081 4082 4083 4084 4085 4086 4087 4088 4089 4090 4091 4092 4093 4094 4095 4096 4097 4098 4099 4100 4101 4102 4103 4104 4105 4106 4107 4108 4109 4110 4111 4112 4113 4114 4115 4116 4117 4118 4119 4120 4121 4122 4123 4124 4125 4126 4127 4128 4129 4130 4131 4132 4133 4134 4135 4136 4137 4138 4139 4140 4141 4142 4143 4144 4145 4146 4147 4148 4149 4150 4151 4152 4153 4154 4155 4156 4157 4158 4159 4160 4161 4162 4163 4164 4165 4166 4167 4168 4169 4170 4171 4172 4173 4174 4175 4176 4177 4178 4179 4180 4181 4182 4183 4184 4185 4186 4187 4188 4189 4190 4191 4192 4193 4194 4195 4196 4197 4198 4199 4200 4201 4202 4203 4204 4205 4206 4207 4208 4209 4210 4211 4212 4213 4214 4215 4216 4217 4218 4219 4220 4221 4222 4223 4224 4225 4226 4227 4228 4229 4230 4231 4232 4233 4234 4235 4236 4237 4238 4239 4240 4241 4242 4243 4244 4245 4246 4247 4248 4249 4250 4251 4252 4253 4254 4255 4256 4257 4258 4259 4260 4261 4262 4263 4264 4265 4266 4267 4268 4269 4270 4271 4272 4273 4274 4275 4276 4277 4278 4279 4280 4281 4282 4283 4284 4285 4286 4287 4288 4289 4290 4291 4292 4293 4294 4295 4296 4297 4298 4299 4300 4301 4302 4303 4304 4305 4306 4307 4308 4309 4310 4311 4312 4313 4314 4315 4316 4317 4318 4319 4320 4321 4322 4323 4324 4325 4326 4327 4328 4329 4330 4331 4332 4333 4334 4335 4336 4337 4338 4339 4340 4341 4342 4343 4344 4345 4346 4347 4348 4349 4350 4351 4352 4353 4354 4355 4356 4357 4358 4359 4360 4361 4362 4363 4364 4365 4366 4367 4368 4369 4370 4371 4372 4373 4374 4375 4376 4377 4378 4379 4380 4381 4382 4383 4384 4385 4386 4387 4388 4389 4390 4391 4392 4393 4394 4395 4396 4397 4398 4399 4400 4401 4402 4403 4404 4405 4406 4407 4408 4409 4410 4411 4412 4413 4414 4415 4416 4417 4418 4419 4420 4421 4422 4423 4424 4425 4426 4427 4428 4429 4430 4431 4432 4433 4434 4435 4436 4437 4438 4439 4440 4441 4442 4443 4444 4445 4446 4447 4448 4449 4450 4451 4452 4453 4454 4455 4456 4457 4458 4459 4460 4461 4462 4463 4464 4465 4466 4467 4468 4469 4470 4471 4472 4473 4474 4475 4476 4477 4478 4479 4480 4481 4482 4483 4484 4485 4486 4487 4488 4489 4490 4491 4492 4493 4494 4495 4496 4497 4498 4499 4500 4501 4502 4503 4504 4505 4506 4507 4508 4509 4510 4511 4512 4513 4514 4515 4516 4517 4518 4519 4520 4521 4522 4523 4524 4525 4526 4527 4528 4529 4530 4531 4532 4533 4534 4535 4536 4537 4538 4539 4540 4541 4542 4543 4544 4545 4546 4547 4548 4549 4550 4551 4552 4553 4554 4555 4556 4557 4558 4559 4560 4561 4562 4563 4564 4565 4566 4567 4568 4569 4570 4571 4572 4573 4574 4575 4576 4577 4578 4579 4580 4581 4582 4583 4584 4585 4586 4587 4588 4589 4590 4591 4592 4593 4594 4595 4596 4597 4598 4599 4600 4601 4602 4603 4604 4605 4606 4607 4608 4609 4610 4611 4612 4613 4614 4615 4616 4617 4618 4619 4620 4621 4622 4623 4624 4625 4626 4627 4628 4629 4630 4631 4632 4633 4634 4635 4636 4637 4638 4639 4640 4641 4642 4643 4644 4645 4646 4647 4648 4649 4650 4651 4652 4653 4654 4655 4656 4657 4658 4659 4660 4661 4662 4663 4664 4665 4666 4667 4668 4669 4670 4671 4672 4673 4674 4675 4676 4677 4678 4679 4680 4681 4682 4683 4684 4685 4686 4687 4688 4689 4690 4691 4692 4693 4694 4695 4696 4697 4698 4699 4700 4701 4702 4703 4704 4705 4706 4707 4708 4709 4710 4711 4712 4713 4714 4715 4716 4717 4718 4719 4720 4721 4722 4723 4724 4725 4726 4727 4728 4729 4730 4731 4732 4733 4734 4735 4736 4737 4738 4739 4740 4741 4742 4743 4744 4745 4746 4747 4748 4749 4750 4751 4752 4753 4754 4755 4756 4757 4758 4759 4760 4761 4762 4763 4764 4765 4766 4767 4768 4769 4770 4771 4772 4773 4774 4775 4776 4777 4778 4779 4780 4781 4782 4783 4784 4785 4786 4787 4788 4789 4790 4791 4792 4793 4794 4795 4796 4797 4798 4799 4800 4801 4802 4803 4804 4805 4806 4807 4808 4809 4810 4811 4812 4813 4814 4815 4816 4817 4818 4819 4820 4821 4822 4823 4824 4825 4826 4827 4828 4829 4830 4831 4832 4833 4834 4835 4836 4837 4838 4839 4840 4841 4842 4843 4844 4845 4846 4847 4848 4849 4850 4851 4852 4853 4854 4855 4856 4857 4858 4859 4860 4861 4862 4863 4864 4865 4866 4867 4868 4869 4870 4871 4872 4873 4874 4875 4876 4877 4878 4879 4880 4881 4882 4883 4884 4885 4886 4887 4888 4889 4890 4891 4892 4893 4894 4895 4896 4897 4898 4899 4900 4901 4902 4903 4904 4905 4906 4907 4908 4909 4910 4911 4912 4913 4914 4915 4916 4917 4918 4919 4920 4921 4922 4923 4924 4925 4926 4927 4928 4929 4930 4931 4932 4933 4934 4935 4936 4937 4938 4939 4940 4941 4942 4943 4944 4945 4946 4947 4948 4949 4950 4951 4952 4953 4954 4955 4956 4957 4958 4959 4960 4961 4962 4963 4964 4965 4966 4967 4968 4969 4970 4971 4972 4973 4974 4975 4976 4977 4978 4979 4980 4981 4982 4983 4984 4985 4986 4987 4988 4989 4990 4991 4992 4993 4994 4995 4996 4997 4998 4999 5000 5001 5002 5003 5004 5005 5006 5007 5008 5009 5010 5011 5012 5013 5014 5015 5016 5017 5018 5019 5020 5021 5022 5023 5024 5025 5026 5027 5028 5029 5030 5031 5032 5033 5034 5035 5036 5037 5038 5039 5040 5041 5042 5043 5044 5045 5046 5047 5048 5049 5050 5051 5052 5053 5054 5055 5056 5057 5058 5059 5060 5061 5062 5063 5064 5065 5066 5067 5068 5069 5070 5071 5072 5073 5074 5075 5076 5077 5078 5079 5080 5081 5082 5083 5084 5085 5086 5087 5088 5089 5090 5091 5092 5093 5094 5095 5096 5097 5098 5099 5100 5101 5102 5103 5104 5105 5106 5107 5108 5109 5110 5111 5112 5113 5114 5115 5116 5117 5118 5119 5120 5121 5122 5123 5124 5125 5126 5127 5128 5129 5130 5131 5132 5133 5134 5135 5136 5137 5138 5139 5140 5141 5142 5143 5144 5145 5146 5147 5148 5149 5150 5151 5152 5153 5154 5155 5156 5157 5158 5159 5160 5161 5162 5163 5164 5165 5166 5167 5168 5169 5170 5171 5172 5173 5174 5175 5176 5177 5178 5179 5180 5181 5182 5183 5184 5185 5186 5187 5188 5189 5190 5191 5192 5193 5194 5195 5196 5197 5198 5199 5200 5201 5202 5203 5204 5205 5206 5207 5208 5209 5210 5211 5212 5213 5214 5215 5216 5217 5218 5219 5220 5221 5222 5223 5224 5225 5226 5227 5228 5229 5230 5231 5232 5233 5234 5235 5236 5237 5238 5239 5240 5241 5242 5243 5244 5245 5246 5247 5248 5249 5250 5251 5252 5253 5254 5255 5256 5257 5258 5259 5260 5261 5262 5263 5264 5265 5266 5267 5268 5269 5270 5271 5272 5273 5274 5275 5276 5277 5278 5279 5280 5281 5282 5283 5284 5285 5286 5287 5288 5289 5290 5291 5292 5293 5294 5295 5296 5297 5298 5299 5300 5301 5302 5303 5304 5305 5306 5307 5308 5309 5310 5311 5312 5313 5314 5315 5316 5317 5318 5319 5320 5321 5322 5323 5324 5325 5326 5327 5328 5329 5330 5331 5332 5333 5334 5335 5336 5337 5338 5339 5340 5341 5342 5343 5344 5345 5346 5347 5348 5349 5350 5351 5352 5353 5354 5355 5356 5357 5358 5359 5360 5361 5362 5363 5364 5365 5366 5367 5368 5369 5370 5371 5372 5373 5374 5375 5376 5377 5378 5379 5380 5381 5382 5383 5384 5385 5386 5387 5388 5389 5390 5391 5392 5393 5394 5395 5396 5397 5398 5399 5400 5401 5402 5403 5404 5405 5406 5407 5408 5409 5410 5411 5412 5413 5414 5415 5416 5417 5418 5419 5420 5421 5422 5423 5424 5425 5426 5427 5428 5429 5430 5431 5432 5433 5434 5435 5436 5437 5438 5439 5440 5441 5442 5443 5444 5445 5446 5447 5448 5449 5450 5451 5452 5453 5454 5455 5456 5457 5458 5459 5460 5461 5462 5463 5464 5465 5466 5467 5468 5469 5470 5471 5472 5473 5474 5475 5476 5477 5478 5479 5480 5481 5482 5483 5484 5485 5486 5487 5488 5489 5490 5491 5492 5493 5494 5495 5496 5497 5498 5499 5500 5501 5502 5503 5504 5505 5506 5507 5508 5509 5510 5511 5512 5513 5514 5515 5516 5517 5518 5519 5520 5521 5522 5523 5524 5525 5526 5527 5528 5529 5530 5531 5532 5533 5534 5535 5536 5537 5538 5539 5540 5541 5542 5543 5544 5545 5546 5547 5548 5549 5550 5551 5552 5553 5554 5555 5556 5557 5558 5559 5560 5561 5562 5563 5564 5565 5566 5567 5568 5569 5570 5571 5572 5573 5574 5575 5576 5577 5578 5579 5580 5581 5582 5583 5584 5585 5586 5587 5588 5589 5590 5591 5592 5593 5594 5595 5596 5597 5598 5599 5600 5601 5602 5603 5604 5605 5606 5607 5608 5609 5610 5611 5612 5613 5614 5615 5616 5617 5618 5619 5620 5621 5622 5623 5624 5625 5626 5627 5628 5629 5630 5631 5632 5633 5634 5635 5636 5637 5638 5639 5640 5641 5642 5643 5644 5645 5646 5647 5648 5649 5650 5651 5652 5653 5654 5655 5656 5657 5658 5659 5660 5661 5662 5663 5664 5665 5666 5667 5668 5669 5670 5671 5672 5673 5674 5675 5676 5677 5678 5679 5680 5681 5682 5683 5684 5685 5686 5687 5688 5689 5690 5691 5692 5693 5694 5695 5696 5697 5698 5699 5700 5701 5702 5703 5704 5705 5706 5707 5708 5709 5710 5711 5712 5713 5714 5715 5716 5717 5718 5719 5720 5721 5722 5723 5724 5725 5726 5727 5728 5729 5730 5731 5732 5733 5734 5735 5736 5737 5738 5739 5740 5741 5742 5743 5744 5745 5746 5747 5748 5749 5750 5751 5752 5753 5754 5755 5756 5757 5758 5759 5760 5761 5762 5763 5764 5765 5766 5767 5768 5769 5770 5771 5772 5773 5774 5775 5776 5777 5778 5779 5780 5781 5782 5783 5784 5785 5786 5787 5788 5789 5790 5791 5792 5793 5794 5795 5796 5797 5798 5799 5800 5801 5802 5803 5804 5805 5806 5807 5808 5809 5810 5811 5812 5813 5814 5815 5816 5817 5818 5819 5820 5821 5822 5823 5824 5825 5826 5827 5828 5829 5830 5831 5832 5833 5834 5835 5836 5837 5838 5839 5840 5841 5842 5843 5844 5845 5846 5847 5848 5849 5850 5851 5852 5853 5854 5855 5856 5857 5858 5859 5860 5861 5862 5863 5864 5865 5866 5867 5868 5869 5870 5871 5872 5873 5874 5875 5876 5877 5878 5879 5880 5881 5882 5883 5884 5885 5886 5887 5888 5889 5890 5891 5892 5893 5894 5895 5896 5897 5898 5899 5900 5901 5902 5903 5904 5905 5906 5907 5908 5909 5910 5911 5912 5913 5914 5915 5916 5917 5918 5919 5920 5921 5922 5923 5924 5925 5926 5927 5928 5929 5930 5931 5932 5933 5934 5935 5936 5937 5938 5939 5940 5941 5942 5943 5944 5945 5946 5947 5948 5949 5950 5951 5952 5953 5954 5955 5956 5957 5958 5959 5960 5961 5962 5963 5964 5965 5966 5967 5968 5969 5970 5971 5972 5973 5974 5975 5976 5977 5978 5979 5980 5981 5982 5983 5984 5985 5986 5987 5988 5989 5990 5991 5992 5993 5994 5995 5996 5997 5998 5999 6000 6001 6002 6003 6004 6005 6006 6007 6008 6009 6010 6011 6012 6013 6014 6015 6016 6017 6018 6019 6020 6021 6022 6023 6024 6025 6026 6027 6028 6029 6030 6031 6032 6033 6034 6035 6036 6037 6038 6039 6040 6041 6042 6043 6044 6045 6046 6047 6048 6049 6050 6051 6052 6053 6054 6055 6056 6057 6058 6059 6060 6061 6062 6063 6064 6065 6066 6067 6068 6069 6070 6071 6072 6073 6074 6075 6076 6077 6078 6079 6080 6081 6082 6083 6084 6085 6086 6087 6088 6089 6090 6091 6092 6093 6094 6095 6096 6097 6098 6099 6100 6101 6102 6103 6104 6105 6106 6107 6108 6109 6110 6111 6112 6113 6114 6115 6116 6117 6118 6119 6120 6121 6122 6123 6124 6125 6126 6127 6128 6129 6130 6131 6132 6133 6134 6135 6136 6137 6138 6139 6140 6141 6142 6143 6144 6145 6146 6147 6148 6149 6150 6151 6152 6153 6154 6155 6156 6157 6158 6159 6160 6161 6162 6163 6164 6165 6166 6167 6168 6169 6170 6171 6172 6173 6174 6175 6176 6177 6178 6179 6180 6181 6182 6183 6184 6185 6186 6187 6188 6189 6190 6191 6192 6193 6194 6195 6196 6197 6198 6199 6200 6201 6202 6203 6204 6205 6206 6207 6208 6209 6210 6211 6212 6213 6214 6215 6216 6217 6218 6219 6220 6221 6222 6223 6224 6225 6226 6227 6228 6229 6230 6231 6232 6233 6234 6235 6236 6237 6238 6239 6240 6241 6242 6243 6244 6245 6246 6247 6248 6249 6250 6251 6252 6253 6254 6255 6256 6257 6258 6259 6260 6261 6262 6263 6264 6265 6266 6267 6268 6269 6270 6271 6272 6273 6274 6275 6276 6277 6278 6279 6280 6281 6282 6283 6284 6285 6286 6287 6288 6289 6290 6291 6292 6293 6294 6295 6296 6297 6298 6299 6300 6301 6302 6303 6304 6305 6306 6307 6308 6309 6310 6311 6312 6313 6314 6315 6316 6317 6318 6319 6320 6321 6322 6323 6324 6325 6326 6327 6328 6329 6330 6331 6332 6333 6334 6335 6336 6337 6338 6339 6340 6341 6342 6343 6344 6345 6346 6347 6348 6349 6350 6351 6352 6353 6354 6355 6356 6357 6358 6359 6360 6361 6362 6363 6364 6365 6366 6367 6368 6369 6370 6371 6372 6373 6374 6375 6376 6377 6378 6379 6380 6381 6382 6383 6384 6385 6386 6387 6388 6389 6390 6391 6392 6393 6394 6395 6396 6397 6398 6399 6400 6401 6402 6403 6404 6405 6406 6407 6408 6409 6410 6411 6412 6413 6414 6415 6416 6417 6418 6419 6420 6421 6422 6423 6424 6425 6426 6427 6428 6429 6430 6431 6432 6433 6434 6435 6436 6437 6438 6439 6440 6441 6442 6443 6444 6445 6446 6447 6448 6449 6450 6451 6452 6453 6454 6455 6456 6457 6458 6459 6460 6461 6462 6463 6464 6465 6466 6467 6468 6469 6470 6471 6472 6473 6474 6475 6476 6477 6478 6479 6480 6481 6482 6483 6484 6485 6486 6487 6488 6489 6490 6491 6492 6493 6494 6495 6496 6497 6498 6499 6500 6501 6502 6503 6504 6505 6506 6507 6508 6509 6510 6511 6512 6513 6514 6515 6516 6517 6518 6519 6520 6521 6522 6523 6524 6525 6526 6527 6528 6529 6530 6531 6532 6533 6534 6535 6536 6537 6538 6539 6540 6541 6542 6543 6544 6545 6546 6547 6548 6549 6550 6551 6552 6553 6554 6555 6556 6557 6558 6559 6560 6561 6562 6563 6564 6565 6566 6567 6568 6569 6570 6571 6572 6573 6574 6575 6576 6577 6578 6579 6580 6581 6582 6583 6584 6585 6586 6587 6588 6589 6590 6591 6592 6593 6594 6595 6596 6597 6598 6599 6600 6601 6602 6603 6604 6605 6606 6607 6608 6609 6610 6611 6612 6613 6614 6615 6616 6617 6618 6619 6620 6621 6622 6623 6624 6625 6626 6627 6628 6629 6630 6631 6632 6633 6634 6635 6636 6637 6638 6639 6640 6641 6642 6643 6644 6645 6646 6647 6648 6649 6650 6651 6652 6653 6654 6655 6656 6657 6658 6659 6660 6661 6662 6663 6664 6665 6666 6667 6668 6669 6670 6671 6672 6673 6674 6675 6676 6677 6678 6679 6680 6681 6682 6683 6684 6685 6686 6687 6688 6689 6690 6691 6692 6693 6694 6695 6696 6697 6698 6699 6700 6701 6702 6703 6704 6705 6706 6707 6708 6709 6710 6711 6712 6713 6714 6715 6716 6717 6718 6719 6720 6721 6722 6723 6724 6725 6726 6727 6728 6729 6730 6731 6732 6733 6734 6735 6736 6737 6738 6739 6740 6741 6742 6743 6744 6745 6746 6747 6748 6749 6750 6751 6752 6753 6754 6755 6756 6757 6758 6759 6760 6761 6762 6763 6764 6765 6766 6767 6768 6769 6770 6771 6772 6773 6774 6775 6776 6777 6778 6779 6780 6781 6782 6783 6784 6785 6786 6787 6788 6789 6790 6791 6792 6793 6794 6795 6796 6797 6798 6799 6800 6801 6802 6803 6804 6805 6806 6807 6808 6809 6810 6811 6812 6813 6814 6815 6816 6817 6818 6819 6820 6821 6822 6823 6824 6825 6826 6827 6828 6829 6830 6831 6832 6833 6834 6835 6836 6837 6838 6839 6840 6841 6842 6843 6844 6845 6846 6847 6848 6849 6850 6851 6852 6853 6854 6855 6856 6857 6858 6859 6860 6861 6862 6863 6864 6865 6866 6867 6868 6869 6870 6871 6872 6873 6874 6875 6876 6877 6878 6879 6880 6881 6882 6883 6884 6885 6886 6887 6888 6889 6890 6891 6892 6893 6894 6895 6896 6897 6898 6899 6900 6901 6902 6903 6904 6905 6906 6907 6908 6909 6910 6911 6912 6913 6914 6915 6916 6917 6918 6919 6920 6921 6922 6923 6924 6925 6926 6927 6928 6929 6930 6931 6932 6933 6934 6935 6936 6937 6938 6939 6940 6941 6942 6943 6944 6945 6946 6947 6948 6949 6950 6951 6952 6953 6954 6955 6956 6957 6958 6959 6960 6961 6962 6963 6964 6965 6966 6967 6968 6969 6970 6971 6972 6973 6974 6975 6976 6977 6978 6979 6980 6981 6982 6983 6984 6985 6986 6987 6988 6989 6990 6991 6992 6993 6994 6995 6996 6997 6998 6999 7000 7001 7002 7003 7004 7005 7006 7007 7008 7009 7010 7011 7012 7013 7014 7015 7016 7017 7018 7019 7020 7021 7022 7023 7024 7025 7026 7027 7028 7029 7030 7031 7032 7033 7034 7035 7036 7037 7038 7039 7040 7041 7042 7043 7044 7045 7046 7047 7048 7049 7050 7051 7052 7053 7054 7055 7056 7057 7058 7059 7060 7061 7062 7063 7064 7065 7066 7067 7068 7069 7070 7071 7072 7073 7074 7075 7076 7077 7078 7079 7080 7081 7082 7083 7084 7085 7086 7087 7088 7089 7090 7091 7092 7093 7094 7095 7096 7097 7098 7099 7100 7101 7102 7103 7104 7105 7106 7107 7108 7109 7110 7111 7112 7113 7114 7115 7116 7117 7118 7119 7120 7121 7122 7123 7124 7125 7126 7127 7128 7129 7130 7131 7132 7133 7134 7135 7136 7137 7138 7139 7140 7141 7142 7143 7144 7145 7146 7147 7148 7149 7150 7151 7152 7153 7154 7155 7156 7157 7158 7159 7160 7161 7162 7163 7164 7165 7166 7167 7168 7169 7170 7171 7172 7173 7174 7175 7176 7177 7178 7179 7180 7181 7182 7183 7184 7185 7186 7187 7188 7189 7190 7191 7192 7193 7194 7195 7196 7197 7198 7199 7200 7201 7202 7203 7204 7205 7206 7207 7208 7209 7210 7211 7212 7213 7214 7215 7216 7217 7218 7219 7220 7221 7222 7223 7224 7225 7226 7227 7228 7229 7230 7231 7232 7233 7234 7235 7236 7237 7238 7239 7240 7241 7242 7243 7244 7245 7246 7247 7248 7249 7250 7251 7252 7253 7254 7255 7256 7257 7258 7259 7260 7261 7262 7263 7264 7265 7266 7267 7268 7269 7270 7271 7272 7273 7274 7275 7276 7277 7278 7279 7280 7281 7282 7283 7284 7285 7286 7287 7288 7289 7290 7291 7292 7293 7294 7295 7296 7297 7298 7299 7300 7301 7302 7303 7304 7305 7306 7307 7308 7309 7310 7311 7312 7313 7314 7315 7316 7317 7318 7319 7320 7321 7322 7323 7324 7325 7326 7327 7328 7329 7330 7331 7332 7333 7334 7335 7336 7337 7338 7339 7340 7341 7342 7343 7344 7345 7346 7347 7348 7349 7350 7351 7352 7353 7354 7355 7356 7357 7358 7359 7360 7361 7362 7363 7364 7365 7366 7367 7368 7369 7370 7371 7372 7373 7374 7375 7376 7377 7378 7379 7380 7381 7382 7383 7384 7385 7386 7387 7388 7389 7390 7391 7392 7393 7394 7395 7396 7397 7398 7399 7400 7401 7402 7403 7404 7405 7406 7407 7408 7409 7410 7411 7412 7413 7414 7415 7416 7417 7418 7419 7420 7421 7422 7423 7424 7425 7426 7427 7428 7429 7430 7431 7432 7433 7434 7435 7436 7437 7438 7439 7440 7441 7442 7443 7444 7445 7446 7447 7448 7449 7450 7451 7452 7453 7454 7455 7456 7457 7458 7459 7460 7461 7462 7463 7464 7465 7466 7467 7468 7469 7470 7471 7472 7473 7474 7475 7476 7477 7478 7479 7480 7481 7482 7483 7484 7485 7486 7487 7488 7489 7490 7491 7492 7493 7494 7495 7496 7497 7498 7499 7500 7501 7502 7503 7504 7505 7506 7507 7508 7509 7510 7511 7512 7513 7514 7515 7516 7517 7518 7519 7520 7521 7522 7523 7524 7525 7526 7527 7528 7529 7530 7531 7532 7533 7534 7535 7536 7537 7538 7539 7540 7541 7542 7543 7544 7545 7546 7547 7548 7549 7550 7551 7552 7553 7554 7555 7556 7557 7558 7559 7560 7561 7562 7563 7564 7565 7566 7567 7568 7569 7570 7571 7572 7573 7574 7575 7576 7577 7578 7579 7580 7581 7582 7583 7584 7585 7586 7587 7588 7589 7590 7591 7592 7593 7594 7595 7596 7597 7598 7599 7600 7601 7602 7603 7604 7605 7606 7607 7608 7609 7610 7611 7612 7613 7614 7615 7616 7617 7618 7619 7620 7621 7622 7623 7624 7625 7626 7627 7628 7629 7630 7631 7632 7633 7634 7635 7636 7637 7638 7639 7640 7641 7642 7643 7644 7645 7646 7647 7648 7649 7650 7651 7652 7653 7654 7655 7656 7657 7658 7659 7660 7661 7662 7663 7664 7665 7666 7667 7668 7669 7670 7671 7672 7673 7674 7675 7676 7677 7678 7679 7680 7681 7682 7683 7684 7685 7686 7687 7688 7689 7690 7691 7692 7693 7694 7695 7696 7697 7698 7699 7700 7701 7702 7703 7704 7705 7706 7707 7708 7709 7710 7711 7712 7713 7714 7715 7716 7717 7718 7719 7720 7721 7722 7723 7724 7725 7726 7727 7728 7729 7730 7731 7732 7733 7734 7735 7736 7737 7738 7739 7740 7741 7742 7743 7744 7745 7746 7747 7748 7749 7750 7751 7752 7753 7754 7755 7756 7757 7758 7759 7760 7761 7762 7763 7764 7765 7766 7767 7768 7769 7770 7771 7772 7773 7774 7775 7776 7777 7778 7779 7780 7781 7782 7783 7784 7785 7786 7787 7788 7789 7790 7791 7792 7793 7794 7795 7796 7797 7798 7799 7800 7801 7802 7803 7804 7805 7806 7807 7808 7809 7810 7811 7812 7813 7814 7815 7816 7817 7818 7819 7820 7821 7822 7823 7824 7825 7826 7827 7828 7829 7830 7831 7832 7833 7834 7835 7836 7837 7838 7839 7840 7841 7842 7843 7844 7845 7846 7847 7848 7849 7850 7851 7852 7853 7854 7855 7856 7857 7858 7859 7860 7861 7862 7863 7864 7865 7866 7867 7868 7869 7870 7871 7872 7873 7874 7875 7876 7877 7878 7879 7880 7881 7882 7883 7884 7885 7886 7887 7888 7889 7890 7891 7892 7893 7894 7895 7896 7897 7898 7899 7900 7901 7902 7903 7904 7905 7906 7907 7908 7909 7910 7911 7912 7913 7914 7915 7916 7917 7918 7919 7920 7921 7922 7923 7924 7925 7926 7927 7928 7929 7930 7931 7932 7933 7934 7935 7936 7937 7938 7939 7940 7941 7942 7943 7944 7945 7946 7947 7948 7949 7950 7951 7952 7953 7954 7955 7956 7957 7958 7959 7960 7961 7962 7963 7964 7965 7966 7967 7968 7969 7970 7971 7972 7973 7974 7975 7976 7977 7978 7979 7980 7981 7982 7983 7984 7985 7986 7987 7988 7989 7990 7991 7992 7993 7994 7995 7996 7997 7998 7999 8000 8001 8002 8003 8004 8005 8006 8007 8008 8009 8010 8011 8012 8013 8014 8015 8016 8017 8018 8019 8020 8021 8022 8023 8024 8025 8026 8027 8028 8029 8030 8031 8032 8033 8034 8035 8036 8037 8038 8039 8040 8041 8042 8043 8044 8045 8046 8047 8048 8049 8050 8051 8052 8053 8054 8055 8056 8057 8058 8059 8060 8061 8062 8063 8064 8065 8066 8067 8068 8069 8070 8071 8072 8073 8074 8075 8076 8077 8078 8079 8080 8081 8082 8083 8084 8085 8086 8087 8088 8089 8090 8091 8092 8093 8094 8095 8096 8097 8098 8099 8100 8101 8102 8103 8104 8105 8106 8107 8108 8109 8110 8111 8112 8113 8114 8115 8116 8117 8118 8119 8120 8121 8122 8123 8124 8125 8126 8127 8128 8129 8130 8131 8132 8133 8134 8135 8136 8137 8138 8139 8140 8141 8142 8143 8144 8145 8146 8147 8148 8149 8150 8151 8152 8153 8154 8155 8156 8157 8158 8159 8160 8161 8162 8163 8164 8165 8166 8167 8168 8169 8170 8171 8172 8173 8174 8175 8176 8177 8178 8179 8180 8181 8182 8183 8184 8185 8186 8187 8188 8189 8190 8191 8192 8193 8194 8195 8196 8197 8198 8199 8200 8201 8202 8203 8204 8205 8206 8207 8208 8209 8210 8211 8212 8213 8214 8215 8216 8217 8218 8219 8220 8221 8222 8223 8224 8225 8226 8227 8228 8229 8230 8231 8232 8233 8234 8235 8236 8237 8238 8239 8240 8241 8242 8243 8244 8245 8246 8247 8248 8249 8250 8251 8252 8253 8254 8255 8256 8257 8258 8259 8260 8261 8262 8263 8264 8265 8266 8267 8268 8269 8270 8271 8272 8273 8274 8275 8276 8277 8278 8279 8280 8281 8282 8283 8284 8285 8286 8287 8288 8289 8290 8291 8292 8293 8294 8295 8296 8297 8298 8299 8300 8301 8302 8303 8304 8305 8306 8307 8308 8309 8310 8311 8312 8313 8314 8315 8316 8317 8318 8319 8320 8321 8322 8323 8324 8325 8326 8327 8328 8329 8330 8331 8332 8333 8334 8335 8336 8337 8338 8339 8340 8341 8342 8343 8344 8345 8346 8347 8348 8349 8350 8351 8352 8353 8354 8355 8356 8357 8358 8359 8360 8361 8362 8363 8364 8365 8366 8367 8368 8369 8370 8371 8372 8373 8374 8375 8376 8377 8378 8379 8380 8381 8382 8383 8384 8385 8386 8387 8388 8389 8390 8391 8392 8393 8394 8395 8396 8397 8398 8399 8400 8401 8402 8403 8404 8405 8406 8407 8408 8409 8410 8411 8412 8413 8414 8415 8416 8417 8418 8419 8420 8421 8422 8423 8424 8425 8426 8427 8428 8429 8430 8431 8432 8433 8434 8435 8436 8437 8438 8439 8440 8441 8442 8443 8444 8445 8446 8447 8448 8449 8450 8451 8452 8453 8454 8455 8456 8457 8458 8459 8460 8461 8462 8463 8464 8465 8466 8467 8468 8469 8470 8471 8472 8473 8474 8475 8476 8477 8478 8479 8480 8481 8482 8483 8484 8485 8486 8487 8488 8489 8490 8491 8492 8493 8494 8495 8496 8497 8498 8499 8500 8501 8502 8503 8504 8505 8506 8507 8508 8509 8510 8511 8512 8513 8514 8515 8516 8517 8518 8519 8520 8521 8522 8523 8524 8525 8526 8527 8528 8529 8530 8531 8532 8533 8534 8535 8536 8537 8538 8539 8540 8541 8542 8543 8544 8545 8546 8547 8548 8549 8550 8551 8552 8553 8554 8555 8556 8557 8558 8559 8560 8561 8562 8563 8564 8565 8566 8567 8568 8569 8570 8571 8572 8573 8574 8575 8576 8577 8578 8579 8580 8581 8582 8583 8584 8585 8586 8587 8588 8589 8590 8591 8592 8593 8594 8595 8596 8597 8598 8599 8600 8601 8602 8603 8604 8605 8606 8607 8608 8609 8610 8611 8612 8613 8614 8615 8616 8617 8618 8619 8620 8621 8622 8623 8624 8625 8626 8627 8628 8629 8630 8631 8632 8633 8634 8635 8636 8637 8638 8639 8640 8641 8642 8643 8644 8645 8646 8647 8648 8649 8650 8651 8652 8653 8654 8655 8656 8657 8658 8659 8660 8661 8662 8663 8664 8665 8666 8667 8668 8669 8670 8671 8672 8673 8674 8675 8676 8677 8678 8679 8680 8681 8682 8683 8684 8685 8686 8687 8688 8689 8690 8691 8692 8693 8694 8695 8696 8697 8698 8699 8700 8701 8702 8703 8704 8705 8706 8707 8708 8709 8710 8711 8712 8713 8714 8715 8716 8717 8718 8719 8720 8721 8722 8723 8724 8725 8726 8727 8728 8729 8730 8731 8732 8733 8734 8735 8736 8737 8738 8739 8740 8741 8742 8743 8744 8745 8746 8747 8748 8749 8750 8751 8752 8753 8754 8755 8756 8757 8758 8759 8760 8761 8762 8763 8764 8765 8766 8767 8768 8769 8770 8771 8772 8773 8774 8775 8776 8777 8778 8779 8780 8781 8782 8783 8784 8785 8786 8787 8788 8789 8790 8791 8792 8793 8794 8795 8796 8797 8798 8799 8800 8801 8802 8803 8804 8805 8806 8807 8808 8809 8810 8811 8812 8813 8814 8815 8816 8817 8818 8819 8820 8821 8822 8823 8824 8825 8826 8827 8828 8829 8830 8831 8832 8833 8834 8835 8836 8837 8838 8839 8840 8841 8842 8843 8844 8845 8846 8847 8848 8849 8850 8851 8852 8853 8854 8855 8856 8857 8858 8859 8860 8861 8862 8863 8864 8865 8866 8867 8868 8869 8870 8871 8872 8873 8874 8875 8876 8877 8878 8879 8880 8881 8882 8883 8884 8885 8886 8887 8888 8889 8890 8891 8892 8893 8894 8895 8896 8897 8898 8899 8900 8901 8902 8903 8904 8905 8906 8907 8908 8909 8910 8911 8912 8913 8914 8915 8916 8917 8918 8919 8920 8921 8922 8923 8924 8925 8926 8927 8928 8929 8930 8931 8932 8933 8934 8935 8936 8937 8938 8939 8940 8941 8942 8943 8944 8945 8946 8947 8948 8949 8950 8951 8952 8953 8954 8955 8956 8957 8958 8959 8960 8961 8962 8963 8964 8965 8966 8967 8968 8969 8970 8971 8972 8973 8974 8975 8976 8977 8978 8979 8980 8981 8982 8983 8984 8985 8986 8987 8988 8989 8990 8991 8992 8993 8994 8995 8996 8997 8998 8999 9000 9001 9002 9003 9004 9005 9006 9007 9008 9009 9010 9011 9012 9013 9014 9015 9016 9017 9018 9019 9020 9021 9022 9023 9024 9025 9026 9027 9028 9029 9030 9031 9032 9033 9034 9035 9036 9037 9038 9039 9040 9041 9042 9043 9044 9045 9046 9047 9048 9049 9050 9051 9052 9053 9054 9055 9056 9057 9058 9059 9060 9061 9062 9063 9064 9065 9066 9067 9068 9069 9070 9071 9072 9073 9074 9075 9076 9077 9078 9079 9080 9081 9082 9083 9084 9085 9086 9087 9088 9089 9090 9091 9092 9093 9094 9095 9096 9097 9098 9099 9100 9101 9102 9103 9104 9105 9106 9107 9108 9109 9110 9111 9112 9113 9114 9115 9116 9117 9118 9119 9120 9121 9122 9123 9124 9125 9126 9127 9128 9129 9130 9131 9132 9133 9134 9135 9136 9137 9138 9139 9140 9141 9142 9143 9144 9145 9146 9147 9148 9149 9150 9151 9152 9153 9154 9155 9156 9157 9158 9159 9160 9161 9162 9163 9164 9165 9166 9167 9168 9169 9170 9171 9172 9173 9174 9175 9176 9177 9178 9179 9180 9181 9182 9183 9184 9185 9186 9187 9188 9189 9190 9191 9192 9193 9194 9195 9196 9197 9198 9199 9200 9201 9202 9203 9204 9205 9206 9207 9208 9209 9210 9211 9212 9213 9214 9215 9216 9217 9218 9219 9220 9221 9222 9223 9224 9225 9226 9227 9228 9229 9230 9231 9232 9233 9234 9235 9236 9237 9238 9239 9240 9241 9242 9243 9244 9245 9246 9247 9248 9249 9250 9251 9252 9253 9254 9255 9256 9257 9258 9259 9260 9261 9262 9263 9264 9265 9266 9267 9268 9269 9270 9271 9272 9273 9274 9275 9276 9277 9278 9279 9280 9281 9282 9283 9284 9285 9286 9287 9288 9289 9290 9291 9292 9293 9294 9295 9296 9297 9298 9299 9300 9301 9302 9303 9304 9305 9306 9307 9308 9309 9310 9311 9312 9313 9314 9315 9316 9317 9318 9319 9320 9321 9322 9323 9324 9325 9326 9327 9328 9329 9330 9331 9332 9333 9334 9335 9336 9337 9338 9339 9340 9341 9342 9343 9344 9345 9346 9347 9348 9349 9350 9351 9352 9353 9354 9355 9356 9357 9358 9359 9360 9361 9362 9363 9364 9365 9366 9367 9368 9369 9370 9371 9372 9373 9374 9375 9376 9377 9378 9379 9380 9381 9382 9383 9384 9385 9386 9387 9388 9389 9390 9391 9392 9393 9394 9395 9396 9397 9398 9399 9400 9401 9402 9403 9404 9405 9406 9407 9408 9409 9410 9411 9412 9413 9414 9415 9416 9417 9418 9419 9420 9421 9422 9423 9424 9425 9426 9427 9428 9429 9430 9431 9432 9433 9434 9435 9436 9437 9438 9439 9440 9441 9442 9443 9444 9445 9446 9447 9448 9449 9450 9451 9452 9453 9454 9455 9456 9457 9458 9459 9460 9461 9462 9463 9464 9465 9466 9467 9468 9469 9470 9471 9472 9473 9474 9475 9476 9477 9478 9479 9480 9481 9482 9483 9484 9485 9486 9487 9488 9489 9490 9491 9492 9493 9494 9495 9496 9497 9498 9499 9500 9501 9502 9503 9504 9505 9506 9507 9508 9509 9510 9511 9512 9513 9514 9515 9516 9517 9518 9519 9520 9521 9522 9523 9524 9525 9526 9527 9528 9529 9530 9531 9532 9533 9534 9535 9536 9537 9538 9539 9540 9541 9542 9543 9544 9545 9546 9547 9548 9549 9550 9551 9552 9553 9554 9555 9556 9557 9558 9559 9560 9561 9562 9563 9564 9565 9566 9567 9568 9569 9570 9571 9572 9573 9574 9575 9576 9577 9578 9579 9580 9581 9582 9583 9584 9585 9586 9587 9588 9589 9590 9591 9592 9593 9594 9595 9596 9597 9598 9599 9600 9601 9602 9603 9604 9605 9606 9607 9608 9609 9610 9611 9612 9613 9614 9615 9616 9617 9618 9619 9620 9621 9622 9623 9624 9625 9626 9627 9628 9629 9630 9631 9632 9633 9634 9635 9636 9637 9638 9639 9640 9641 9642 9643 9644 9645 9646 9647 9648 9649 9650 9651 9652 9653 9654 9655 9656 9657 9658 9659 9660 9661 9662 9663 9664 9665 9666 9667 9668 9669 9670 9671 9672 9673 9674 9675 9676 9677 9678 9679 9680 9681 9682 9683 9684 9685 9686 9687 9688 9689 9690 9691 9692 9693 9694 9695 9696 9697 9698 9699 9700 9701 9702 9703 9704 9705 9706 9707 9708 9709 9710 9711 9712 9713 9714 9715 9716 9717 9718 9719 9720 9721 9722 9723 9724 9725 9726 9727 9728 9729 9730 9731 9732 9733 9734 9735 9736 9737 9738 9739 9740 9741 9742 9743 9744 9745 9746 9747 9748 9749 9750 9751 9752 9753 9754 9755 9756 9757 9758 9759 9760 9761 9762 9763 9764 9765 9766 9767 9768 9769 9770 9771 9772 9773 9774 9775 9776 9777 9778 9779 9780 9781 9782 9783 9784 9785 9786 9787 9788 9789 9790 9791 9792 9793 9794 9795 9796 9797 9798 9799 9800 9801 9802 9803 9804 9805 9806 9807 9808 9809 9810 9811 9812 9813 9814 9815 9816 9817 9818 9819 9820 9821 9822 9823 9824 9825 9826 9827 9828 9829 9830 9831 9832 9833 9834 9835 9836 9837 9838 9839 9840 9841 9842 9843 9844 9845 9846 9847 9848 9849 9850 9851 9852 9853 9854 9855 9856 9857 9858 9859 9860 9861 9862 9863 9864 9865 9866 9867 9868 9869 9870 9871 9872 9873 9874 9875 9876 9877 9878 9879 9880 9881 9882 9883 9884 9885 9886 9887 9888 9889 9890 9891 9892 9893 9894 9895 9896 9897 9898 9899 9900 9901 9902 9903 9904 9905 9906 9907 9908 9909 9910 9911 9912 9913 9914 9915 9916 9917 9918 9919 9920 9921 9922 9923 9924 9925 9926 9927 9928 9929 9930 9931 9932 9933 9934 9935 9936 9937 9938 9939 9940 9941 9942 9943 9944 9945 9946 9947 9948 9949 9950 9951 9952 9953 9954 9955 9956 9957 9958 9959 9960 9961 9962 9963 9964 9965 9966 9967 9968 9969 9970 9971 9972 9973 9974 9975 9976 9977 9978 9979 9980 9981 9982 9983 9984 9985 9986 9987 9988 9989 9990 9991 9992 9993 9994 9995 9996 9997 9998 9999 10000 10001 10002 10003 10004 10005 10006 10007 10008 10009 10010 10011 10012 10013 10014 10015 10016 10017 10018 10019 10020 10021 10022 10023 10024 10025 10026 10027 10028 10029 10030 10031 10032 10033 10034 10035 10036 10037 10038 10039 10040 10041 10042 10043 10044 10045 10046 10047 10048 10049 10050 10051 10052 10053 10054 10055 10056 10057 10058 10059 10060 10061 10062 10063 10064 10065 10066 10067 10068 10069 10070 10071 10072 10073 10074 10075 10076 10077 10078 10079 10080 10081 10082 10083 10084 10085 10086 10087 10088 10089 10090 10091 10092 10093 10094 10095 10096 10097 10098 10099 10100 10101 10102 10103 10104 10105 10106 10107 10108 10109 10110 10111 10112 10113 10114 10115 10116 10117 10118 10119 10120 10121 10122 10123 10124 10125 10126 10127 10128 10129 10130 10131 10132 10133 10134 10135 10136 10137 10138 10139 10140 10141 10142 10143 10144 10145 10146 10147 10148 10149 10150 10151 10152 10153 10154 10155 10156 10157 10158 10159 10160 10161 10162 10163 10164 10165 10166 10167 10168 10169 10170 10171 10172 10173 10174 10175 10176 10177 10178 10179 10180 10181 10182 10183 10184 10185 10186 10187 10188 10189 10190 10191 10192 10193 10194 10195 10196 10197 10198 10199 10200 10201 10202 10203 10204 10205 10206 10207 10208 10209 10210 10211 10212 10213 10214 10215 10216 10217 10218 10219 10220 10221 10222 10223 10224 10225 10226 10227 10228 10229 10230 10231 10232 10233 10234 10235 10236 10237 10238 10239 10240 10241 10242 10243 10244 10245 10246 10247 10248 10249 10250 10251 10252 10253 10254 10255 10256 10257 10258 10259 10260 10261 10262 10263 10264 10265 10266 10267 10268 10269 10270 10271 10272 10273 10274 10275 10276 10277 10278 10279 10280 10281 10282 10283 10284 10285 10286 10287 10288 10289 10290 10291 10292 10293 10294 10295 10296 10297 10298 10299 10300 10301 10302 10303 10304 10305 10306 10307 10308 10309 10310 10311 10312 10313 10314 10315 10316 10317 10318 10319 10320 10321 10322 10323 10324 10325 10326 10327 10328 10329 10330 10331 10332 10333 10334 10335 10336 10337 10338 10339 10340 10341 10342 10343 10344 10345 10346 10347 10348 10349 10350 10351 10352 10353 10354 10355 10356 10357 10358 10359 10360 10361 10362 10363 10364 10365 10366 10367 10368 10369 10370 10371 10372 10373 10374 10375 10376 10377 10378 10379 10380 10381 10382 10383 10384 10385 10386 10387 10388 10389 10390 10391 10392 10393 10394 10395 10396 10397 10398 10399 10400 10401 10402 10403 10404 10405 10406 10407 10408 10409 10410 10411 10412 10413 10414 10415 10416 10417 10418 10419 10420 10421 10422 10423 10424 10425 10426 10427 10428 10429 10430 10431 10432 10433 10434 10435 10436 10437 10438 10439 10440 10441 10442 10443 10444 10445 10446 10447 10448 10449 10450 10451 10452 10453 10454 10455 10456 10457 10458 10459 10460 10461 10462 10463 10464 10465 10466 10467 10468 10469 10470 10471 10472 10473 10474 10475 10476 10477 10478 10479 10480 10481 10482 10483 10484 10485 10486 10487 10488 10489 10490 10491 10492 10493 10494 10495 10496 10497 10498 10499 10500 10501 10502 10503 10504 10505 10506 10507 10508 10509 10510 10511 10512 10513 10514 10515 10516 10517 10518 10519 10520 10521 10522 10523 10524 10525 10526 10527 10528 10529 10530 10531 10532 10533 10534 10535 10536 10537 10538 10539 10540 10541 10542 10543 10544 10545 10546 10547 10548 10549 10550 10551 10552 10553 10554 10555 10556 10557 10558 10559 10560 10561 10562 10563 10564 10565 10566 10567 10568 10569 10570 10571 10572 10573 10574 10575 10576 10577 10578 10579 10580 10581 10582 10583 10584 10585 10586 10587 10588 10589 10590 10591 10592 10593 10594 10595 10596 10597 10598 10599 10600 10601 10602 10603 10604 10605 10606 10607 10608 10609 10610 10611 10612 10613 10614 10615 10616 10617 10618 10619 10620 10621 10622 10623 10624 10625 10626 10627 10628 10629 10630 10631 10632 10633 10634 10635 10636 10637 10638 10639 10640 10641 10642 10643 10644 10645 10646 10647 10648 10649 10650 10651 10652 10653 10654 10655 10656 10657 10658 10659 10660 10661 10662 10663 10664 10665 10666 10667 10668 10669 10670 10671 10672 10673 10674 10675 10676 10677 10678 10679 10680 10681 10682 10683 10684 10685 10686 10687 10688 10689 10690 10691 10692 10693 10694 10695 10696 10697 10698 10699 10700 10701 10702 10703 10704 10705 10706 10707 10708 10709 10710 10711 10712 10713 10714 10715 10716 10717 10718 10719 10720 10721 10722 10723 10724 10725 10726 10727 10728 10729 10730 10731 10732 10733 10734 10735 10736 10737 10738 10739 10740 10741 10742 10743 10744 10745 10746 10747 10748 10749 10750 10751 10752 10753 10754 10755 10756 10757 10758 10759 10760 10761 10762 10763 10764 10765 10766 10767 10768 10769 10770 10771 10772 10773 10774 10775 10776 10777 10778 10779 10780 10781 10782 10783 10784 10785 10786 10787 10788 10789 10790 10791 10792 10793 10794 10795 10796 10797 10798 10799 10800 10801 10802 10803 10804 10805 10806 10807 10808 10809 10810 10811 10812 10813 10814 10815 10816 10817 10818 10819 10820 10821 10822 10823 10824 10825 10826 10827 10828 10829 10830 10831 10832 10833 10834 10835 10836 10837 10838 10839 10840 10841 10842 10843 10844 10845 10846 10847 10848 10849 10850 10851 10852 10853 10854 10855 10856 10857 10858 10859 10860 10861 10862 10863 10864 10865 10866 10867 10868 10869 10870 10871 10872 10873 10874 10875 10876 10877 10878 10879 10880 10881 10882 10883 10884 10885 10886 10887 10888 10889 10890 10891 10892 10893 10894 10895 10896 10897 10898 10899 10900 10901 10902 10903 10904 10905 10906 10907 10908 10909 10910 10911 10912 10913 10914 10915 10916 10917 10918 10919 10920 10921 10922 10923 10924 10925 10926 10927 10928 10929 10930 10931 10932 10933 10934 10935 10936 10937 10938 10939 10940 10941 10942 10943 10944 10945 10946 10947 10948 10949 10950 10951 10952 10953 10954 10955 10956 10957 10958 10959 10960 10961 10962 10963 10964 10965 10966 10967 10968 10969 10970 10971 10972 10973 10974 10975 10976 10977 10978 10979 10980 10981 10982 10983 10984 10985 10986 10987 10988 10989 10990 10991 10992 10993 10994 10995 10996 10997 10998 10999 11000 11001 11002 11003 11004 11005 11006 11007 11008 11009 11010 11011 11012 11013 11014 11015 11016 11017 11018 11019 11020 11021 11022 11023 11024 11025 11026 11027 11028 11029 11030 11031 11032 11033 11034 11035 11036 11037 11038 11039 11040 11041 11042 11043 11044 11045 11046 11047 11048 11049 11050 11051 11052 11053 11054 11055 11056 11057 11058 11059 11060 11061 11062 11063 11064 11065 11066 11067 11068 11069 11070 11071 11072 11073 11074 11075 11076 11077 11078 11079 11080 11081 11082 11083 11084 11085 11086 11087 11088 11089 11090 11091 11092 11093 11094 11095 11096 11097 11098 11099 11100 11101 11102 11103 11104 11105 11106 11107 11108 11109 11110 11111 11112 11113 11114 11115 11116 11117 11118 11119 11120 11121 11122 11123 11124 11125 11126 11127 11128 11129 11130 11131 11132 11133 11134 11135 11136 11137 11138 11139 11140 11141 11142 11143 11144 11145 11146 11147 11148 11149 11150 11151 11152 11153 11154 11155 11156 11157 11158 11159 11160 11161 11162 11163 11164 11165 11166 11167 11168 11169 11170 11171 11172 11173 11174 11175 11176 11177 11178 11179 11180 11181 11182 11183 11184 11185 11186 11187 11188 11189 11190 11191 11192 11193 11194 11195 11196 11197 11198 11199 11200 11201 11202 11203 11204 11205 11206 11207 11208 11209 11210 11211 11212 11213 11214 11215 11216 11217 11218 11219 11220 11221 11222 11223 11224 11225 11226 11227 11228 11229 11230 11231 11232 11233 11234 11235 11236 11237 11238 11239 11240 11241 11242 11243 11244 11245 11246 11247 11248 11249 11250 11251 11252 11253 11254 11255 11256 11257 11258 11259 11260 11261 11262 11263 11264 11265 11266 11267 11268 11269 11270 11271 11272 11273 11274 11275 11276 11277 11278 11279 11280 11281 11282 11283 11284 11285 11286 11287 11288 11289 11290 11291 11292 11293 11294 11295 11296 11297 11298 11299 11300 11301 11302 11303 11304 11305 11306 11307 11308 11309 11310 11311 11312 11313 11314 11315 11316 11317 11318 11319 11320 11321 11322 11323 11324 11325 11326 11327 11328 11329 11330 11331 11332 11333 11334 11335 11336 11337 11338 11339 11340 11341 11342 11343 11344 11345 11346 11347 11348 11349 11350 11351 11352 11353 11354 11355 11356 11357 11358 11359 11360 11361 11362 11363 11364 11365 11366 11367 11368 11369 11370 11371 11372 11373 11374 11375 11376 11377 11378 11379 11380 11381 11382 11383 11384 11385 11386 11387 11388 11389 11390 11391 11392 11393 11394 11395 11396 11397 11398 11399 11400 11401 11402 11403 11404 11405 11406 11407 11408 11409 11410 11411 11412 11413 11414 11415 11416 11417 11418 11419 11420 11421 11422 11423 11424 11425 11426 11427 11428 11429 11430 11431 11432 11433 11434 11435 11436 11437 11438 11439 11440 11441 11442 11443 11444 11445 11446 11447 11448 11449 11450 11451 11452 11453 11454 11455 11456 11457 11458 11459 11460 11461 11462 11463 11464 11465 11466 11467 11468 11469 11470 11471 11472 11473 11474 11475 11476 11477 11478 11479 11480 11481 11482 11483 11484 11485 11486 11487 11488 11489 11490 11491 11492 11493 11494 11495 11496 11497 11498 11499 11500 11501 11502 11503 11504 11505 11506 11507 11508 11509 11510 11511 11512 11513 11514 11515 11516 11517 11518 11519 11520 11521 11522 11523 11524 11525 11526 11527 11528 11529 11530 11531 11532 11533 11534 11535 11536 11537 11538 11539 11540 11541 11542 11543 11544 11545 11546 11547 11548 11549 11550 11551 11552 11553 11554 11555 11556 11557 11558 11559 11560 11561 11562 11563 11564 11565 11566 11567 11568 11569 11570 11571 11572 11573 11574 11575 11576 11577 11578 11579 11580 11581 11582 11583 11584 11585 11586 11587 11588 11589 11590 11591 11592 11593 11594 11595 11596 11597 11598 11599 11600 11601 11602 11603 11604 11605 11606 11607 11608 11609 11610 11611 11612 11613 11614 11615 11616 11617 11618 11619 11620 11621 11622 11623 11624 11625 11626 11627 11628 11629 11630 11631 11632 11633 11634 11635 11636 11637 11638 11639 11640 11641 11642 11643 11644 11645 11646 11647 11648 11649 11650 11651 11652 11653 11654 11655 11656 11657 11658 11659 11660 11661 11662 11663 11664 11665 11666 11667 11668 11669 11670 11671 11672 11673 11674 11675 11676 11677 11678 11679 11680 11681 11682 11683 11684 11685 11686 11687 11688 11689 11690 11691 11692 11693 11694 11695 11696 11697 11698 11699 11700 11701 11702 11703 11704 11705 11706 11707 11708 11709 11710 11711 11712 11713 11714 11715 11716 11717 11718 11719 11720 11721 11722 11723 11724 11725 11726 11727 11728 11729 11730 11731 11732 11733 11734 11735 11736 11737 11738 11739 11740 11741 11742 11743 11744 11745 11746 11747 11748 11749 11750 11751 11752 11753 11754 11755 11756 11757 11758 11759 11760 11761 11762 11763 11764 11765 11766 11767 11768 11769 11770 11771 11772 11773 11774 11775 11776 11777 11778 11779 11780 11781 11782 11783 11784 11785 11786 11787 11788 11789 11790 11791 11792 11793 11794 11795 11796 11797 11798 11799 11800 11801 11802 11803 11804 11805 11806 11807 11808 11809 11810 11811 11812 11813 11814 11815 11816 11817 11818 11819 11820 11821 11822 11823 11824 11825 11826 11827 11828 11829 11830 11831 11832 11833 11834 11835 11836 11837 11838 11839 11840 11841 11842 11843 11844 11845 11846 11847 11848 11849 11850 11851 11852 11853 11854 11855 11856 11857 11858 11859 11860 11861 11862 11863 11864 11865 11866 11867 11868 11869 11870 11871 11872 11873 11874 11875 11876 11877 11878 11879 11880 11881 11882 11883 11884 11885 11886 11887 11888 11889 11890 11891 11892 11893 11894 11895 11896 11897 11898 11899 11900 11901 11902 11903 11904 11905 11906 11907 11908 11909 11910 11911 11912 11913 11914 11915 11916 11917 11918 11919 11920 11921 11922 11923 11924 11925 11926 11927 11928 11929 11930 11931 11932 11933 11934 11935 11936 11937 11938 11939 11940 11941 11942 11943 11944 11945 11946 11947 11948 11949 11950 11951 11952 11953 11954 11955 11956 11957 11958 11959 11960 11961 11962 11963 11964 11965 11966 11967 11968 11969 11970 11971 11972 11973 11974 11975 11976 11977 11978 11979 11980 11981 11982 11983 11984 11985 11986 11987 11988 11989 11990 11991 11992 11993 11994 11995 11996 11997 11998 11999 12000 12001 12002 12003 12004 12005 12006 12007 12008 12009 12010 12011 12012 12013 12014 12015 12016 12017 12018 12019 12020 12021 12022 12023 12024 12025 12026 12027 12028 12029 12030 12031 12032 12033 12034 12035 12036 12037 12038 12039 12040 12041 12042 12043 12044 12045 12046 12047 12048 12049 12050 12051 12052 12053 12054 12055 12056 12057 12058 12059 12060 12061 12062 12063 12064 12065 12066 12067 12068 12069 12070 12071 12072 12073 12074 12075 12076 12077 12078 12079 12080 12081 12082 12083 12084 12085 12086 12087 12088 12089 12090 12091 12092 12093 12094 12095 12096 12097 12098 12099 12100 12101 12102 12103 12104 12105 12106 12107 12108 12109 12110 12111 12112 12113 12114 12115 12116 12117 12118 12119 12120 12121 12122 12123 12124 12125 12126 12127 12128 12129 12130 12131 12132 12133 12134 12135 12136 12137 12138 12139 12140 12141 12142 12143 12144 12145 12146 12147 12148 12149 12150 12151 12152 12153 12154 12155 12156 12157 12158 12159 12160 12161 12162 12163 12164 12165 12166 12167 12168 12169 12170 12171 12172 12173 12174 12175 12176 12177 12178 12179 12180 12181 12182 12183 12184 12185 12186 12187 12188 12189 12190 12191 12192 12193 12194 12195 12196 12197 12198 12199 12200 12201 12202 12203 12204 12205 12206 12207 12208 12209 12210 12211 12212 12213 12214 12215 12216 12217 12218 12219 12220 12221 12222 12223 12224 12225 12226 12227 12228 12229 12230 12231 12232 12233 12234 12235 12236 12237 12238 12239 12240 12241 12242 12243 12244 12245 12246 12247 12248 12249 12250 12251 12252 12253 12254 12255 12256 12257 12258 12259 12260 12261 12262 12263 12264 12265 12266 12267 12268 12269 12270 12271 12272 12273 12274 12275 12276 12277 12278 12279 12280 12281 12282 12283 12284 12285 12286 12287 12288 12289 12290 12291 12292 12293 12294 12295 12296 12297 12298 12299 12300 12301 12302 12303 12304 12305 12306 12307 12308 12309 12310 12311 12312 12313 12314 12315 12316 12317 12318 12319 12320 12321 12322 12323 12324 12325 12326 12327 12328 12329 12330 12331 12332 12333 12334 12335 12336 12337 12338 12339 12340 12341 12342 12343 12344 12345 12346 12347 12348 12349 12350 12351 12352 12353 12354 12355 12356 12357 12358 12359 12360 12361 12362 12363 12364 12365 12366 12367 12368 12369 12370 12371 12372 12373 12374 12375 12376 12377 12378 12379 12380 12381 12382 12383 12384 12385 12386 12387 12388 12389 12390 12391 12392 12393 12394 12395 12396 12397 12398 12399 12400 12401 12402 12403 12404 12405 12406 12407 12408 12409 12410 12411 12412 12413 12414 12415 12416 12417 12418 12419 12420 12421 12422 12423 12424 12425 12426 12427 12428 12429 12430 12431 12432 12433 12434 12435 12436 12437 12438 12439 12440 12441 12442 12443 12444 12445 12446 12447 12448 12449 12450 12451 12452 12453 12454 12455 12456 12457 12458 12459 12460 12461 12462 12463 12464 12465 12466 12467 12468 12469 12470 12471 12472 12473 12474 12475 12476 12477 12478 12479 12480 12481 12482 12483 12484 12485 12486 12487 12488 12489 12490 12491 12492 12493 12494 12495 12496 12497 12498 12499 12500 12501 12502 12503 12504 12505 12506 12507 12508 12509 12510 12511 12512 12513 12514 12515 12516 12517 12518 12519 12520 12521 12522 12523 12524 12525 12526 12527 12528 12529 12530 12531 12532 12533 12534 12535 12536 12537 12538 12539 12540 12541 12542 12543 12544 12545 12546 12547 12548 12549 12550 12551 12552 12553 12554 12555 12556 12557 12558 12559 12560 12561 12562 12563 12564 12565 12566 12567 12568 12569 12570 12571 12572 12573 12574 12575 12576 12577 12578 12579 12580 12581 12582 12583 12584 12585 12586 12587 12588 12589 12590 12591 12592 12593 12594 12595 12596 12597 12598 12599 12600 12601 12602 12603 12604 12605 12606 12607 12608 12609 12610 12611 12612 12613 12614 12615 12616 12617 12618 12619 12620 12621 12622 12623 12624 12625 12626 12627 12628 12629 12630 12631 12632 12633 12634 12635 12636 12637 12638 12639 12640 12641 12642 12643 12644 12645 12646 12647 12648 12649 12650 12651 12652 12653 12654 12655 12656 12657 12658 12659 12660 12661 12662 12663 12664 12665 12666 12667 12668 12669 12670 12671 12672 12673 12674 12675 12676 12677 12678 12679 12680 12681 12682 12683 12684 12685 12686 12687 12688 12689 12690 12691 12692 12693 12694 12695 12696 12697 12698 12699 12700 12701 12702 12703 12704 12705 12706 12707 12708 12709 12710 12711 12712 12713 12714 12715 12716 12717 12718 12719 12720 12721 12722 12723 12724 12725 12726 12727 12728 12729 12730 12731 12732 12733 12734 12735 12736 12737 12738 12739 12740 12741 12742 12743 12744 12745 12746 12747 12748 12749 12750 12751 12752 12753 12754 12755 12756 12757 12758 12759 12760 12761 12762 12763 12764 12765 12766 12767 12768 12769 12770 12771 12772 12773 12774 12775 12776 12777 12778 12779 12780 12781 12782 12783 12784 12785 12786 12787 12788 12789 12790 12791 12792 12793 12794 12795 12796 12797 12798 12799 12800 12801 12802 12803 12804 12805 12806 12807 12808 12809 12810 12811 12812 12813 12814 12815 12816 12817 12818 12819 12820 12821 12822 12823 12824 12825 12826 12827 12828 12829 12830 12831 12832 12833 12834 12835 12836 12837 12838 12839 12840 12841 12842 12843 12844 12845 12846 12847 12848 12849 12850 12851 12852 12853 12854 12855 12856 12857 12858 12859 12860 12861 12862 12863 12864 12865 12866 12867 12868 12869 12870 12871 12872 12873 12874 12875 12876 12877 12878 12879 12880 12881 12882 12883 12884 12885 12886 12887 12888 12889 12890 12891 12892 12893 12894 12895 12896 12897 12898 12899 12900 12901 12902 12903 12904 12905 12906 12907 12908 12909 12910 12911 12912 12913 12914 12915 12916 12917 12918 12919 12920 12921 12922 12923 12924 12925 12926 12927 12928 12929 12930 12931 12932 12933 12934 12935 12936 12937 12938 12939 12940 12941 12942 12943 12944 12945 12946 12947 12948 12949 12950 12951 12952 12953 12954 12955 12956 12957 12958 12959 12960 12961 12962 12963 12964 12965 12966 12967 12968 12969 12970 12971 12972 12973 12974 12975 12976 12977 12978 12979 12980 12981 12982 12983 12984 12985 12986 12987 12988 12989 12990 12991 12992 12993 12994 12995 12996 12997 12998 12999 13000 13001 13002 13003 13004 13005 13006 13007 13008 13009 13010 13011 13012 13013 13014 13015 13016 13017 13018 13019 13020 13021 13022 13023 13024 13025 13026 13027 13028 13029 13030 13031 13032 13033 13034 13035 13036 13037 13038 13039 13040 13041 13042 13043 13044 13045 13046 13047 13048 13049 13050 13051 13052 13053 13054 13055 13056 13057 13058 13059 13060 13061 13062 13063 13064 13065 13066 13067 13068 13069 13070 13071 13072 13073 13074 13075 13076 13077 13078 13079 13080 13081 13082 13083 13084 13085 13086 13087 13088 13089 13090 13091 13092 13093 13094 13095 13096 13097 13098 13099 13100 13101 13102 13103 13104 13105 13106 13107 13108 13109 13110 13111 13112 13113 13114 13115 13116 13117 13118 13119 13120 13121 13122 13123 13124 13125 13126 13127 13128 13129 13130 13131 13132 13133 13134 13135 13136 13137 13138 13139 13140 13141 13142 13143 13144 13145 13146 13147 13148 13149 13150 13151 13152 13153 13154 13155 13156 13157 13158 13159 13160 13161 13162 13163 13164 13165 13166 13167 13168 13169 13170 13171 13172 13173 13174 13175 13176 13177 13178 13179 13180 13181 13182 13183 13184 13185 13186 13187 13188 13189 13190 13191 13192 13193 13194 13195 13196 13197 13198 13199 13200 13201 13202 13203 13204 13205 13206 13207 13208 13209 13210 13211 13212 13213 13214 13215 13216 13217 13218 13219 13220 13221 13222 13223 13224 13225 13226 13227 13228 13229 13230 13231 13232 13233 13234 13235 13236 13237 13238 13239 13240 13241 13242 13243 13244 13245 13246 13247 13248 13249 13250 13251 13252 13253 13254 13255 13256 13257 13258 13259 13260 13261 13262 13263 13264 13265 13266 13267 13268 13269 13270 13271 13272 13273 13274 13275 13276 13277 13278 13279 13280 13281 13282 13283 13284 13285 13286 13287 13288 13289 13290 13291 13292 13293 13294 13295 13296 13297 13298 13299 13300 13301 13302 13303 13304 13305 13306 13307 13308 13309 13310 13311 13312 13313 13314 13315 13316 13317 13318 13319 13320 13321 13322 13323 13324 13325 13326 13327 13328 13329 13330 13331 13332 13333 13334 13335 13336 13337 13338 13339 13340 13341 13342 13343 13344 13345 13346 13347 13348 13349 13350 13351 13352 13353 13354 13355 13356 13357 13358 13359 13360 13361 13362 13363 13364 13365 13366 13367 13368 13369 13370 13371 13372 13373 13374 13375 13376 13377 13378 13379 13380 13381 13382 13383 13384 13385 13386 13387 13388 13389 13390 13391 13392 13393 13394 13395 13396 13397 13398 13399 13400 13401 13402 13403 13404 13405 13406 13407 13408 13409 13410 13411 13412 13413 13414 13415 13416 13417 13418 13419 13420 13421 13422 13423 13424 13425 13426 13427 13428 13429 13430 13431 13432 13433 13434 13435 13436 13437 13438 13439 13440 13441 13442 13443 13444 13445 13446 13447 13448 13449 13450 13451 13452 13453 13454 13455 13456 13457 13458 13459 13460 13461 13462 13463 13464 13465 13466 13467 13468 13469 13470 13471 13472 13473 13474 13475 13476 13477 13478 13479 13480 13481 13482 13483 13484 13485 13486 13487 13488 13489 13490 13491 13492 13493 13494 13495 13496 13497 13498 13499 13500 13501 13502 13503 13504 13505 13506 13507 13508 13509 13510 13511 13512 13513 13514 13515 13516 13517 13518 13519 13520 13521 13522 13523 13524 13525 13526 13527 13528 13529 13530 13531 13532 13533 13534 13535 13536 13537 13538 13539 13540 13541 13542 13543 13544 13545 13546 13547 13548 13549 13550 13551 13552 13553 13554 13555 13556 13557 13558 13559 13560 13561 13562 13563 13564 13565 13566 13567 13568 13569 13570 13571 13572 13573 13574 13575 13576 13577 13578 13579 13580 13581 13582 13583 13584 13585 13586 13587 13588 13589 13590 13591 13592 13593 13594 13595 13596 13597 13598 13599 13600 13601 13602 13603 13604 13605 13606 13607 13608 13609 13610 13611 13612 13613 13614 13615 13616 13617 13618 13619 13620 13621 13622 13623 13624 13625 13626 13627 13628 13629 13630 13631 13632 13633 13634 13635 13636 13637 13638 13639 13640 13641 13642 13643 13644 13645 13646 13647 13648 13649 13650 13651 13652 13653 13654 13655 13656 13657 13658 13659 13660 13661 13662 13663 13664 13665 13666 13667 13668 13669 13670 13671 13672 13673 13674 13675 13676 13677 13678 13679 13680 13681 13682 13683 13684 13685 13686 13687 13688 13689 13690 13691 13692 13693 13694 13695 13696 13697 13698 13699 13700 13701 13702 13703 13704 13705 13706 13707 13708 13709 13710 13711 13712 13713 13714 13715 13716 13717 13718 13719 13720 13721 13722 13723 13724 13725 13726 13727 13728 13729 13730 13731 13732 13733 13734 13735 13736 13737 13738 13739 13740 13741 13742 13743 13744 13745 13746 13747 13748 13749 13750 13751 13752 13753 13754 13755 13756 13757 13758 13759 13760 13761 13762 13763 13764 13765 13766 13767 13768 13769 13770 13771 13772 13773 13774 13775 13776 13777 13778 13779 13780 13781 13782 13783 13784 13785 13786 13787 13788 13789 13790 13791 13792 13793 13794 13795 13796 13797 13798 13799 13800 13801 13802 13803 13804 13805 13806 13807 13808 13809 13810 13811 13812 13813 13814 13815 13816 13817 13818 13819 13820 13821 13822 13823 13824 13825 13826 13827 13828 13829 13830 13831 13832 13833 13834 13835 13836 13837 13838 13839 13840 13841 13842 13843 13844 13845 13846 13847 13848 13849 13850 13851 13852 13853 13854 13855 13856 13857 13858 13859 13860 13861 13862 13863 13864 13865 13866 13867 13868 13869 13870 13871 13872 13873 13874 13875 13876 13877 13878 13879 13880 13881 13882 13883 13884 13885 13886 13887 13888 13889 13890 13891 13892 13893 13894 13895 13896 13897 13898 13899 13900 13901 13902 13903 13904 13905 13906 13907 13908 13909 13910 13911 13912 13913 13914 13915 13916 13917 13918 13919 13920 13921 13922 13923 13924 13925 13926 13927 13928 13929 13930 13931 13932 13933 13934 13935 13936 13937 13938 13939 13940 13941 13942 13943 13944 13945 13946 13947 13948 13949 13950 13951 13952 13953 13954 13955 13956 13957 13958 13959 13960 13961 13962 13963 13964 13965 13966 13967 13968 13969 13970 13971 13972 13973 13974 13975 13976 13977 13978 13979 13980 13981 13982 13983 13984 13985 13986 13987 13988 13989 13990 13991 13992 13993 13994 13995 13996 13997 13998 13999 14000 14001 14002 14003 14004 14005 14006 14007 14008 14009 14010 14011 14012 14013 14014 14015 14016 14017 14018 14019 14020 14021 14022 14023 14024 14025 14026 14027 14028 14029 14030 14031 14032 14033 14034 14035 14036 14037 14038 14039 14040 14041 14042 14043 14044 14045 14046 14047 14048 14049 14050 14051 14052 14053 14054 14055 14056 14057 14058 14059 14060 14061 14062 14063 14064 14065 14066 14067 14068 14069 14070 14071 14072 14073 14074 14075 14076 14077 14078 14079 14080 14081 14082 14083 14084 14085 14086 14087 14088 14089 14090 14091 14092 14093 14094 14095 14096 14097 14098 14099 14100 14101 14102 14103 14104 14105 14106 14107 14108 14109 14110 14111 14112 14113 14114 14115 14116 14117 14118 14119 14120 14121 14122 14123 14124 14125 14126 14127 14128 14129 14130 14131 14132 14133 14134 14135 14136 14137 14138 14139 14140 14141 14142 14143 14144 14145 14146 14147 14148 14149 14150 14151 14152 14153 14154 14155 14156 14157 14158 14159 14160 14161 14162 14163 14164 14165 14166 14167 14168 14169 14170 14171 14172 14173 14174 14175 14176 14177 14178 14179 14180 14181 14182 14183 14184 14185 14186 14187 14188 14189 14190 14191 14192 14193 14194 14195 14196 14197 14198 14199 14200 14201 14202 14203 14204 14205 14206 14207 14208 14209 14210 14211 14212 14213 14214 14215 14216 14217 14218 14219 14220 14221 14222 14223 14224 14225 14226 14227 14228 14229 14230 14231 14232 14233 14234 14235 14236 14237 14238 14239 14240 14241 14242 14243 14244 14245 14246 14247 14248 14249 14250 14251 14252 14253 14254 14255 14256 14257 14258 14259 14260 14261 14262 14263 14264 14265 14266 14267 14268 14269 14270 14271 14272 14273 14274 14275 14276 14277 14278 14279 14280 14281 14282 14283 14284 14285 14286 14287 14288 14289 14290 14291 14292 14293 14294 14295 14296 14297 14298 14299 14300 14301 14302 14303 14304 14305 14306 14307 14308 14309 14310 14311 14312 14313 14314 14315 14316 14317 14318 14319 14320 14321 14322 14323 14324 14325 14326 14327 14328 14329 14330 14331 14332 14333 14334 14335 14336 14337 14338 14339 14340 14341 14342 14343 14344 14345 14346 14347 14348 14349 14350 14351 14352 14353 14354 14355 14356 14357 14358 14359 14360 14361 14362 14363 14364 14365 14366 14367 14368 14369 14370 14371 14372 14373 14374 14375 14376 14377 14378 14379 14380 14381 14382 14383 14384 14385 14386 14387 14388 14389 14390 14391 14392 14393 14394 14395 14396 14397 14398 14399 14400 14401 14402 14403 14404 14405 14406 14407 14408 14409 14410 14411 14412 14413 14414 14415 14416 14417 14418 14419 14420 14421 14422 14423 14424 14425 14426 14427 14428 14429 14430 14431 14432 14433 14434 14435 14436 14437 14438 14439 14440 14441 14442 14443 14444 14445 14446 14447 14448 14449 14450 14451 14452 14453 14454 14455 14456 14457 14458 14459 14460 14461 14462 14463 14464 14465 14466 14467 14468 14469 14470 14471 14472 14473 14474 14475 14476 14477 14478 14479 14480 14481 14482 14483 14484 14485 14486 14487 14488 14489 14490 14491 14492 14493 14494 14495 14496 14497 14498 14499 14500 14501 14502 14503 14504 14505 14506 14507 14508 14509 14510 14511 14512 14513 14514 14515 14516 14517 14518 14519 14520 14521 14522 14523 14524 14525 14526 14527 14528 14529 14530 14531 14532 14533 14534 14535 14536 14537 14538 14539 14540 14541 14542 14543 14544 14545 14546 14547 14548 14549 14550 14551 14552 14553 14554 14555 14556 14557 14558 14559 14560 14561 14562 14563 14564 14565 14566 14567 14568 14569 14570 14571 14572 14573 14574 14575 14576 14577 14578 14579 14580 14581 14582 14583 14584 14585 14586 14587 14588 14589 14590 14591 14592 14593 14594 14595 14596 14597 14598 14599 14600 14601 14602 14603 14604 14605 14606 14607 14608 14609 14610 14611 14612 14613 14614 14615 14616 14617 14618 14619 14620 14621 14622 14623 14624 14625 14626 14627 14628 14629 14630 14631 14632 14633 14634 14635 14636 14637 14638 14639 14640 14641 14642 14643 14644 14645 14646 14647 14648 14649 14650 14651 14652 14653 14654 14655 14656 14657 14658 14659 14660 14661 14662 14663 14664 14665 14666 14667 14668 14669 14670 14671 14672 14673 14674 14675 14676 14677 14678 14679 14680 14681 14682 14683 14684 14685 14686 14687 14688 14689 14690 14691 14692 14693 14694 14695 14696 14697 14698 14699 14700 14701 14702 14703 14704 14705 14706 14707 14708 14709 14710 14711 14712 14713 14714 14715 14716 14717 14718 14719 14720 14721 14722 14723 14724 14725 14726 14727 14728 14729 14730 14731 14732 14733 14734 14735 14736 14737 14738 14739 14740 14741 14742 14743 14744 14745 14746 14747 14748 14749 14750 14751 14752 14753 14754 14755 14756 14757 14758 14759 14760 14761 14762 14763 14764 14765 14766 14767 14768 14769 14770 14771 14772 14773 14774 14775 14776 14777 14778 14779 14780 14781 14782 14783 14784 14785 14786 14787 14788 14789 14790 14791 14792 14793 14794 14795 14796 14797 14798 14799 14800 14801 14802 14803 14804 14805 14806 14807 14808 14809 14810 14811 14812 14813 14814 14815 14816 14817 14818 14819 14820 14821 14822 14823 14824 14825 14826 14827 14828 14829 14830 14831 14832 14833 14834 14835 14836 14837 14838 14839 14840 14841 14842 14843 14844 14845 14846 14847 14848 14849 14850 14851 14852 14853 14854 14855 14856 14857 14858 14859 14860 14861 14862 14863 14864 14865 14866 14867 14868 14869 14870 14871 14872 14873 14874 14875 14876 14877 14878 14879 14880 14881 14882 14883 14884 14885 14886 14887 14888 14889 14890 14891 14892 14893 14894 14895 14896 14897 14898 14899 14900 14901 14902 14903 14904 14905 14906 14907 14908 14909 14910 14911 14912 14913 14914 14915 14916 14917 14918 14919 14920 14921 14922 14923 14924 14925 14926 14927 14928 14929 14930 14931 14932 14933 14934 14935 14936 14937 14938 14939 14940 14941 14942 14943 14944 14945 14946 14947 14948 14949 14950 14951 14952 14953 14954 14955 14956 14957 14958 14959 14960 14961 14962 14963 14964 14965 14966 14967 14968 14969 14970 14971 14972 14973 14974 14975 14976 14977 14978 14979 14980 14981 14982 14983 14984 14985 14986 14987 14988 14989 14990 14991 14992 14993 14994 14995 14996 14997 14998 14999 15000 15001 15002 15003 15004 15005 15006 15007 15008 15009 15010 15011 15012 15013 15014 15015 15016 15017 15018 15019 15020 15021 15022 15023 15024 15025 15026 15027 15028 15029 15030 15031 15032 15033 15034 15035 15036 15037 15038 15039 15040 15041 15042 15043 15044 15045 15046 15047 15048 15049 15050 15051 15052 15053 15054 15055 15056 15057 15058 15059 15060 15061 15062 15063 15064 15065 15066 15067 15068 15069 15070 15071 15072 15073 15074 15075 15076 15077 15078 15079 15080 15081 15082 15083 15084 15085 15086 15087 15088 15089 15090 15091 15092 15093 15094 15095 15096 15097 15098 15099 15100 15101 15102 15103 15104 15105 15106 15107 15108 15109 15110 15111 15112 15113 15114 15115 15116 15117 15118 15119 15120 15121 15122 15123 15124 15125 15126 15127 15128 15129 15130 15131 15132 15133 15134 15135 15136 15137 15138 15139 15140 15141 15142 15143 15144 15145 15146 15147 15148 15149 15150 15151 15152 15153 15154 15155 15156 15157 15158 15159 15160 15161 15162 15163 15164 15165 15166 15167 15168 15169 15170 15171 15172 15173 15174 15175 15176 15177 15178 15179 15180 15181 15182 15183 15184 15185 15186 15187 15188 15189 15190 15191 15192 15193 15194 15195 15196 15197 15198 15199 15200 15201 15202 15203 15204 15205 15206 15207 15208 15209 15210 15211 15212 15213 15214 15215 15216 15217 15218 15219 15220 15221 15222 15223 15224 15225 15226 15227 15228 15229 15230 15231 15232 15233 15234 15235 15236 15237 15238 15239 15240 15241 15242 15243 15244 15245 15246 15247 15248 15249 15250 15251 15252 15253 15254 15255 15256 15257 15258 15259 15260 15261 15262 15263 15264 15265 15266 15267 15268 15269 15270 15271 15272 15273 15274 15275 15276 15277 15278 15279 15280 15281 15282 15283 15284 15285 15286 15287 15288 15289 15290 15291 15292 15293 15294 15295 15296 15297 15298 15299 15300 15301 15302 15303 15304 15305 15306 15307 15308 15309 15310 15311 15312 15313 15314 15315 15316 15317 15318 15319 15320 15321 15322 15323 15324 15325 15326 15327 15328 15329 15330 15331 15332 15333 15334 15335 15336 15337 15338 15339 15340 15341 15342 15343 15344 15345 15346 15347 15348 15349 15350 15351 15352 15353 15354 15355 15356 15357 15358 15359 15360 15361 15362 15363 15364 15365 15366 15367 15368 15369 15370 15371 15372 15373 15374 15375 15376 15377 15378 15379 15380 15381 15382 15383 15384 15385 15386 15387 15388 15389 15390 15391 15392 15393 15394 15395 15396 15397 15398 15399 15400 15401 15402 15403 15404 15405 15406 15407 15408 15409 15410 15411 15412 15413 15414 15415 15416 15417 15418 15419 15420 15421 15422 15423 15424 15425 15426 15427 15428 15429 15430 15431 15432 15433 15434 15435 15436 15437 15438 15439 15440 15441 15442 15443 15444 15445 15446 15447 15448 15449 15450 15451 15452 15453 15454 15455 15456 15457 15458 15459 15460 15461 15462 15463 15464 15465 15466 15467 15468 15469 15470 15471 15472 15473 15474 15475 15476 15477 15478 15479 15480 15481 15482 15483 15484 15485 15486 15487 15488 15489 15490 15491 15492 15493 15494 15495 15496 15497 15498 15499 15500 15501 15502 15503 15504 15505 15506 15507 15508 15509 15510 15511 15512 15513 15514 15515 15516 15517 15518 15519 15520 15521 15522 15523 15524 15525 15526 15527 15528 15529 15530 15531 15532 15533 15534 15535 15536 15537 15538 15539 15540 15541 15542 15543 15544 15545 15546 15547 15548 15549 15550 15551 15552 15553 15554 15555 15556 15557 15558 15559 15560 15561 15562 15563 15564 15565 15566 15567 15568 15569 15570 15571 15572 15573 15574 15575 15576 15577 15578 15579 15580 15581 15582 15583 15584 15585 15586 15587 15588 15589 15590 15591 15592 15593 15594 15595 15596 15597 15598 15599 15600 15601 15602 15603 15604 15605 15606 15607 15608 15609 15610 15611 15612 15613 15614 15615 15616 15617 15618 15619 15620 15621 15622 15623 15624 15625 15626 15627 15628 15629 15630 15631 15632 15633 15634 15635 15636 15637 15638 15639 15640 15641 15642 15643 15644 15645 15646 15647 15648 15649 15650 15651 15652 15653 15654 15655 15656 15657 15658 15659 15660 15661 15662 15663 15664 15665 15666 15667 15668 15669 15670 15671 15672 15673 15674 15675 15676 15677 15678 15679 15680 15681 15682 15683 15684 15685 15686 15687 15688 15689 15690 15691 15692 15693 15694 15695 15696 15697 15698 15699 15700 15701 15702 15703 15704 15705 15706 15707 15708 15709 15710 15711 15712 15713 15714 15715 15716 15717 15718 15719 15720 15721 15722 15723 15724 15725 15726 15727 15728 15729 15730 15731 15732 15733 15734 15735 15736 15737 15738 15739 15740 15741 15742 15743 15744 15745 15746 15747 15748 15749 15750 15751 15752 15753 15754 15755 15756 15757 15758 15759 15760 15761 15762 15763 15764 15765 15766 15767 15768 15769 15770 15771 15772 15773 15774 15775 15776 15777 15778 15779 15780 15781 15782 15783 15784 15785 15786 15787 15788 15789 15790 15791 15792 15793 15794 15795 15796 15797 15798 15799 15800 15801 15802 15803 15804 15805 15806 15807 15808 15809 15810 15811 15812 15813 15814 15815 15816 15817 15818 15819 15820 15821 15822 15823 15824 15825 15826 15827 15828 15829 15830 15831 15832 15833 15834 15835 15836 15837 15838 15839 15840 15841 15842 15843 15844 15845 15846 15847 15848 15849 15850 15851 15852 15853 15854 15855 15856 15857 15858 15859 15860 15861 15862 15863 15864 15865 15866 15867 15868 15869 15870 15871 15872 15873 15874 15875 15876 15877 15878 15879 15880 15881 15882 15883 15884 15885 15886 15887 15888 15889 15890 15891 15892 15893 15894 15895 15896 15897 15898 15899 15900 15901 15902 15903 15904 15905 15906 15907 15908 15909 15910 15911 15912 15913 15914 15915 15916 15917 15918 15919 15920 15921 15922 15923 15924 15925 15926 15927 15928 15929 15930 15931 15932 15933 15934 15935 15936 15937 15938 15939 15940 15941 15942 15943 15944 15945 15946 15947 15948 15949 15950 15951 15952 15953 15954 15955 15956 15957 15958 15959 15960 15961 15962 15963 15964 15965 15966 15967 15968 15969 15970 15971 15972 15973 15974 15975 15976 15977 15978 15979 15980 15981 15982 15983 15984 15985 15986 15987 15988 15989 15990 15991 15992 15993 15994 15995 15996 15997 15998 15999 16000 16001 16002 16003 16004 16005 16006 16007 16008 16009 16010 16011 16012 16013 16014 16015 16016 16017 16018 16019 16020 16021 16022 16023 16024 16025 16026 16027 16028 16029 16030 16031 16032 16033 16034 16035 16036 16037 16038 16039 16040 16041 16042 16043 16044 16045 16046 16047 16048 16049 16050 16051 16052 16053 16054 16055 16056 16057 16058 16059 16060 16061 16062 16063 16064 16065 16066 16067 16068 16069 16070 16071 16072 16073 16074 16075 16076 16077 16078 16079 16080 16081 16082 16083 16084 16085 16086 16087 16088 16089 16090 16091 16092 16093 16094 16095 16096 16097 16098 16099 16100 16101 16102 16103 16104 16105 16106 16107 16108 16109 16110 16111 16112 16113 16114 16115 16116 16117 16118 16119 16120 16121 16122 16123 16124 16125 16126 16127 16128 16129 16130 16131 16132 16133 16134 16135 16136 16137 16138 16139 16140 16141 16142 16143 16144 16145 16146 16147 16148 16149 16150 16151 16152 16153 16154 16155 16156 16157 16158 16159 16160 16161 16162 16163 16164 16165 16166 16167 16168 16169 16170 16171 16172 16173 16174 16175 16176 16177 16178 16179 16180 16181 16182 16183 16184 16185 16186 16187 16188 16189 16190 16191 16192 16193 16194 16195 16196 16197 16198 16199 16200 16201 16202 16203 16204 16205 16206 16207 16208 16209 16210 16211 16212 16213 16214 16215 16216 16217 16218 16219 16220 16221 16222 16223 16224 16225 16226 16227 16228 16229 16230 16231 16232 16233 16234 16235 16236 16237 16238 16239 16240 16241 16242 16243 16244 16245 16246 16247 16248 16249 16250 16251 16252 16253 16254 16255 16256 16257 16258 16259 16260 16261 16262 16263 16264 16265 16266 16267 16268 16269 16270 16271 16272 16273 16274 16275 16276 16277 16278 16279 16280 16281 16282 16283 16284 16285 16286 16287 16288 16289 16290 16291 16292 16293 16294 16295 16296 16297 16298 16299 16300 16301 16302 16303 16304 16305 16306 16307 16308 16309 16310 16311 16312 16313 16314 16315 16316 16317 16318 16319 16320 16321 16322 16323 16324 16325 16326 16327 16328 16329 16330 16331 16332 16333 16334 16335 16336 16337 16338 16339 16340 16341 16342 16343 16344 16345 16346 16347 16348 16349 16350 16351 16352 16353 16354 16355 16356 16357 16358 16359 16360 16361 16362 16363 16364 16365 16366 16367 16368 16369 16370 16371 16372 16373 16374 16375 16376 16377 16378 16379 16380 16381 16382 16383 16384 16385 16386 16387 16388 16389 16390 16391 16392 16393 16394 16395 16396 16397 16398 16399 16400 16401 16402 16403 16404 16405 16406 16407 16408 16409 16410 16411 16412 16413 16414 16415 16416 16417 16418 16419 16420 16421 16422 16423 16424 16425 16426 16427 16428 16429 16430 16431 16432 16433 16434 16435 16436 16437 16438 16439 16440 16441 16442 16443 16444 16445 16446 16447 16448 16449 16450 16451 16452 16453 16454 16455 16456 16457 16458 16459 16460 16461 16462 16463 16464 16465 16466 16467 16468 16469 16470 16471 16472 16473 16474 16475 16476 16477 16478 16479 16480 16481 16482 16483 16484 16485 16486 16487 16488 16489 16490 16491 16492 16493 16494 16495 16496 16497 16498 16499 16500 16501 16502 16503 16504 16505 16506 16507 16508 16509 16510 16511 16512 16513 16514 16515 16516 16517 16518 16519 16520 16521 16522 16523 16524 16525 16526 16527 16528 16529 16530 16531 16532 16533 16534 16535 16536 16537 16538 16539 16540 16541 16542 16543 16544 16545 16546 16547 16548 16549 16550 16551 16552 16553 16554 16555 16556 16557 16558 16559 16560 16561 16562 16563 16564 16565 16566 16567 16568 16569 16570 16571 16572 16573 16574 16575 16576 16577 16578 16579 16580 16581 16582 16583 16584 16585 16586 16587 16588 16589 16590 16591 16592 16593 16594 16595 16596 16597 16598 16599 16600 16601 16602 16603 16604 16605 16606 16607 16608 16609 16610 16611 16612 16613 16614 16615 16616 16617 16618 16619 16620 16621 16622 16623 16624 16625 16626 16627 16628 16629 16630 16631 16632 16633 16634 16635 16636 16637 16638 16639 16640 16641 16642 16643 16644 16645 16646 16647 16648 16649 16650 16651 16652 16653 16654 16655 16656 16657 16658 16659 16660 16661 16662 16663 16664 16665 16666 16667 16668 16669 16670 16671 16672 16673 16674 16675 16676 16677 16678 16679 16680 16681 16682 16683 16684 16685 16686 16687 16688 16689 16690 16691 16692 16693 16694 16695 16696 16697 16698 16699 16700 16701 16702 16703 16704 16705 16706 16707 16708 16709 16710 16711 16712 16713 16714 16715 16716 16717 16718 16719 16720 16721 16722 16723 16724 16725 16726 16727 16728 16729 16730 16731 16732 16733 16734 16735 16736 16737 16738 16739 16740 16741 16742 16743 16744 16745 16746 16747 16748 16749 16750 16751 16752 16753 16754 16755 16756 16757 16758 16759 16760 16761 16762 16763 16764 16765 16766 16767 16768 16769 16770 16771 16772 16773 16774 16775 16776 16777 16778 16779 16780 16781 16782 16783 16784 16785 16786 16787 16788 16789 16790 16791 16792 16793 16794 16795 16796 16797 16798 16799 16800 16801 16802 16803 16804 16805 16806 16807 16808 16809 16810 16811 16812 16813 16814 16815 16816 16817 16818 16819 16820 16821 16822 16823 16824 16825 16826 16827 16828 16829 16830 16831 16832 16833 16834 16835 16836 16837 16838 16839 16840 16841 16842 16843 16844 16845 16846 16847 16848 16849 16850 16851 16852 16853 16854 16855 16856 16857 16858 16859 16860 16861 16862 16863 16864 16865 16866 16867 16868 16869 16870 16871 16872 16873 16874 16875 16876 16877 16878 16879 16880 16881 16882 16883 16884 16885 16886 16887 16888 16889 16890 16891 16892 16893 16894 16895 16896 16897 16898 16899 16900 16901 16902 16903 16904 16905 16906 16907 16908 16909 16910 16911 16912 16913 16914 16915 16916 16917 16918 16919 16920 16921 16922 16923 16924 16925 16926 16927 16928 16929 16930 16931 16932 16933 16934 16935 16936 16937 16938 16939 16940 16941 16942 16943 16944 16945 16946 16947 16948 16949 16950 16951 16952 16953 16954 16955 16956 16957 16958 16959 16960 16961 16962 16963 16964 16965 16966 16967 16968 16969 16970 16971 16972 16973 16974 16975 16976 16977 16978 16979 16980 16981 16982 16983 16984 16985 16986 16987 16988 16989 16990 16991 16992 16993 16994 16995 16996 16997 16998 16999 17000 17001 17002 17003 17004 17005 17006 17007 17008 17009 17010 17011 17012 17013 17014 17015 17016 17017 17018 17019 17020 17021 17022 17023 17024 17025 17026 17027 17028 17029 17030 17031 17032 17033 17034 17035 17036 17037 17038 17039 17040 17041 17042 17043 17044 17045 17046 17047 17048 17049 17050 17051 17052 17053 17054 17055 17056 17057 17058 17059 17060 17061 17062 17063 17064 17065 17066 17067 17068 17069 17070 17071 17072 17073 17074 17075 17076 17077 17078 17079 17080 17081 17082 17083 17084 17085 17086 17087 17088 17089 17090 17091 17092 17093 17094 17095 17096 17097 17098 17099 17100 17101 17102 17103 17104 17105 17106 17107 17108 17109 17110 17111 17112 17113 17114 17115 17116 17117 17118 17119 17120 17121 17122 17123 17124 17125 17126 17127 17128 17129 17130 17131 17132 17133 17134 17135 17136 17137 17138 17139 17140 17141 17142 17143 17144 17145 17146 17147 17148 17149 17150 17151 17152 17153 17154 17155 17156 17157 17158 17159 17160 17161 17162 17163 17164 17165 17166 17167 17168 17169 17170 17171 17172 17173 17174 17175 17176 17177 17178 17179 17180 17181 17182 17183 17184 17185 17186 17187 17188 17189 17190 17191 17192 17193 17194 17195 17196 17197 17198 17199 17200 17201 17202 17203 17204 17205 17206 17207 17208 17209 17210 17211 17212 17213 17214 17215 17216 17217 17218 17219 17220 17221 17222 17223 17224 17225 17226 17227 17228 17229 17230 17231 17232 17233 17234 17235 17236 17237 17238 17239 17240 17241 17242 17243 17244 17245 17246 17247 17248 17249 17250 17251 17252 17253 17254 17255 17256 17257 17258 17259 17260 17261 17262 17263 17264 17265 17266 17267 17268 17269 17270 17271 17272 17273 17274 17275 17276 17277 17278 17279 17280 17281 17282 17283 17284 17285 17286 17287 17288 17289 17290 17291 17292 17293 17294 17295 17296 17297 17298 17299 17300 17301 17302 17303 17304 17305 17306 17307 17308 17309 17310 17311 17312 17313 17314 17315 17316 17317 17318 17319 17320 17321 17322 17323 17324 17325 17326 17327 17328 17329 17330 17331 17332 17333 17334 17335 17336 17337 17338 17339 17340 17341 17342 17343 17344 17345 17346 17347 17348 17349 17350 17351 17352 17353 17354 17355 17356 17357 17358 17359 17360 17361 17362 17363 17364 17365 17366 17367 17368 17369 17370 17371 17372 17373 17374 17375 17376 17377 17378 17379 17380 17381 17382 17383 17384 17385 17386 17387 17388 17389 17390 17391 17392 17393 17394 17395 17396 17397 17398 17399 17400 17401 17402 17403 17404 17405 17406 17407 17408 17409 17410 17411 17412 17413 17414 17415 17416 17417 17418 17419 17420 17421 17422 17423 17424 17425 17426 17427 17428 17429 17430 17431 17432 17433 17434 17435 17436 17437 17438 17439 17440 17441 17442 17443 17444 17445 17446 17447 17448 17449 17450 17451 17452 17453 17454 17455 17456 17457 17458 17459 17460 17461 17462 17463 17464 17465 17466 17467 17468 17469 17470 17471 17472 17473 17474 17475 17476 17477 17478 17479 17480 17481 17482 17483 17484 17485 17486 17487 17488 17489 17490 17491 17492 17493 17494 17495 17496 17497 17498 17499 17500 17501 17502 17503 17504 17505 17506 17507 17508 17509 17510 17511 17512 17513 17514 17515 17516 17517 17518 17519 17520 17521 17522 17523 17524 17525 17526 17527 17528 17529 17530 17531 17532 17533 17534 17535 17536 17537 17538 17539 17540 17541 17542 17543 17544 17545 17546 17547 17548 17549 17550 17551 17552 17553 17554 17555 17556 17557 17558 17559 17560 17561 17562 17563 17564 17565 17566 17567 17568 17569 17570 17571 17572 17573 17574 17575 17576 17577 17578 17579 17580 17581 17582 17583 17584 17585 17586 17587 17588 17589 17590 17591 17592 17593 17594 17595 17596 17597 17598 17599 17600 17601 17602 17603 17604 17605 17606 17607 17608 17609 17610 17611 17612 17613 17614 17615 17616 17617 17618 17619 17620 17621 17622 17623 17624 17625 17626 17627 17628 17629 17630 17631 17632 17633 17634 17635 17636 17637 17638 17639 17640 17641 17642 17643 17644 17645 17646 17647 17648 17649 17650 17651 17652 17653 17654 17655 17656 17657 17658 17659 17660 17661 17662 17663 17664 17665 17666 17667 17668 17669 17670 17671 17672 17673 17674 17675 17676 17677 17678 17679 17680 17681 17682 17683 17684 17685 17686 17687 17688 17689 17690 17691 17692 17693 17694 17695 17696 17697 17698 17699 17700 17701 17702 17703 17704 17705 17706 17707 17708 17709 17710 17711 17712 17713 17714 17715 17716 17717 17718 17719 17720 17721 17722 17723 17724 17725 17726 17727 17728 17729 17730 17731 17732 17733 17734 17735 17736 17737 17738 17739 17740 17741 17742 17743 17744 17745 17746 17747 17748 17749 17750 17751 17752 17753 17754 17755 17756 17757 17758 17759 17760 17761 17762 17763 17764 17765 17766 17767 17768 17769 17770 17771 17772 17773 17774 17775 17776 17777 17778 17779 17780 17781 17782 17783 17784 17785 17786 17787 17788 17789 17790 17791 17792 17793 17794 17795 17796 17797 17798 17799 17800 17801 17802 17803 17804 17805 17806 17807 17808 17809 17810 17811 17812 17813 17814 17815 17816 17817 17818 17819 17820 17821 17822 17823 17824 17825 17826 17827 17828 17829 17830 17831 17832 17833 17834 17835 17836 17837 17838 17839 17840 17841 17842 17843 17844 17845 17846 17847 17848 17849 17850 17851 17852 17853 17854 17855 17856 17857 17858 17859 17860 17861 17862 17863 17864 17865 17866 17867 17868 17869 17870 17871 17872 17873 17874 17875 17876 17877 17878 17879 17880 17881 17882 17883 17884 17885 17886 17887 17888 17889 17890 17891 17892 17893 17894 17895 17896 17897 17898 17899 17900 17901 17902 17903 17904 17905 17906 17907 17908 17909 17910 17911 17912 17913 17914 17915 17916 17917 17918 17919 17920 17921 17922 17923 17924 17925 17926 17927 17928 17929 17930 17931 17932 17933 17934 17935 17936 17937 17938 17939 17940 17941 17942 17943 17944 17945 17946 17947 17948 17949 17950 17951 17952 17953 17954 17955 17956 17957 17958 17959 17960 17961 17962 17963 17964 17965 17966 17967 17968 17969 17970 17971 17972 17973 17974 17975 17976 17977 17978 17979 17980 17981 17982 17983 17984 17985 17986 17987 17988 17989 17990 17991 17992 17993 17994 17995 17996 17997 17998 17999 18000 18001 18002 18003 18004 18005 18006 18007 18008 18009 18010 18011 18012 18013 18014 18015 18016 18017 18018 18019 18020 18021 18022 18023 18024 18025 18026 18027 18028 18029 18030 18031 18032 18033 18034 18035 18036 18037 18038 18039 18040 18041 18042 18043 18044 18045 18046 18047 18048 18049 18050 18051 18052 18053 18054 18055 18056 18057 18058 18059 18060 18061 18062 18063 18064 18065 18066 18067 18068 18069 18070 18071 18072 18073 18074 18075 18076 18077 18078 18079 18080 18081 18082 18083 18084 18085 18086 18087 18088 18089 18090 18091 18092 18093 18094 18095 18096 18097 18098 18099 18100 18101 18102 18103 18104 18105 18106 18107 18108 18109 18110 18111 18112 18113 18114 18115 18116 18117 18118 18119 18120 18121 18122 18123 18124 18125 18126 18127 18128 18129 18130 18131 18132 18133 18134 18135 18136 18137 18138 18139 18140 18141 18142 18143 18144 18145 18146 18147 18148 18149 18150 18151 18152 18153 18154 18155 18156 18157 18158 18159 18160 18161 18162 18163 18164 18165 18166 18167 18168 18169 18170 18171 18172 18173 18174 18175 18176 18177 18178 18179 18180 18181 18182 18183 18184 18185 18186 18187 18188 18189 18190 18191 18192 18193 18194 18195 18196 18197 18198 18199 18200 18201 18202 18203 18204 18205 18206 18207 18208 18209 18210 18211 18212 18213 18214 18215 18216 18217 18218 18219 18220 18221 18222 18223 18224 18225 18226 18227 18228 18229 18230 18231 18232 18233 18234 18235 18236 18237 18238 18239 18240 18241 18242 18243 18244 18245 18246 18247 18248 18249 18250 18251 18252 18253 18254 18255 18256 18257 18258 18259 18260 18261 18262 18263 18264 18265 18266 18267 18268 18269 18270 18271 18272 18273 18274 18275 18276 18277 18278 18279 18280 18281 18282 18283 18284 18285 18286 18287 18288 18289 18290 18291 18292 18293 18294 18295 18296 18297 18298 18299 18300 18301 18302 18303 18304 18305 18306 18307 18308 18309 18310 18311 18312 18313 18314 18315 18316 18317 18318 18319 18320 18321 18322 18323 18324 18325 18326 18327 18328 18329 18330 18331 18332 18333 18334 18335 18336 18337 18338 18339 18340 18341 18342 18343 18344 18345 18346 18347 18348 18349 18350 18351 18352 18353 18354 18355 18356 18357 18358 18359 18360 18361 18362 18363 18364 18365 18366 18367 18368 18369 18370 18371 18372 18373 18374 18375 18376 18377 18378 18379 18380 18381 18382 18383 18384 18385 18386 18387 18388 18389 18390 18391 18392 18393 18394 18395 18396 18397 18398 18399 18400 18401 18402 18403 18404 18405 18406 18407 18408 18409 18410 18411 18412 18413 18414 18415 18416 18417 18418 18419 18420 18421 18422 18423 18424 18425 18426 18427 18428 18429 18430 18431 18432 18433 18434 18435 18436 18437 18438 18439 18440 18441 18442 18443 18444 18445 18446 18447 18448 18449 18450 18451 18452 18453 18454 18455 18456 18457 18458 18459 18460 18461 18462 18463 18464 18465 18466 18467 18468 18469 18470 18471 18472 18473 18474 18475 18476 18477 18478 18479 18480 18481 18482 18483 18484 18485 18486 18487 18488 18489 18490 18491 18492 18493 18494 18495 18496 18497 18498 18499 18500 18501 18502 18503 18504 18505 18506 18507 18508 18509 18510 18511 18512 18513 18514 18515 18516 18517 18518 18519 18520 18521 18522 18523 18524 18525 18526 18527 18528 18529 18530 18531 18532 18533 18534 18535 18536 18537 18538 18539 18540 18541 18542 18543 18544 18545 18546 18547 18548 18549 18550 18551 18552 18553 18554 18555 18556 18557 18558 18559 18560 18561 18562 18563 18564 18565 18566 18567 18568 18569 18570 18571 18572 18573 18574 18575 18576 18577 18578 18579 18580 18581 18582 18583 18584 18585 18586 18587 18588 18589 18590 18591 18592 18593 18594 18595 18596 18597 18598 18599 18600 18601 18602 18603 18604 18605 18606 18607 18608 18609 18610 18611 18612 18613 18614 18615 18616 18617 18618 18619 18620 18621 18622 18623 18624 18625 18626 18627 18628 18629 18630 18631 18632 18633 18634 18635 18636 18637 18638 18639 18640 18641 18642 18643 18644 18645 18646 18647 18648 18649 18650 18651 18652 18653 18654 18655 18656 18657 18658 18659 18660 18661 18662 18663 18664 18665 18666 18667 18668 18669 18670 18671 18672 18673 18674 18675 18676 18677 18678 18679 18680 18681 18682 18683 18684 18685 18686 18687 18688 18689 18690 18691 18692 18693 18694 18695 18696 18697 18698 18699 18700 18701 18702 18703 18704 18705 18706 18707 18708 18709 18710 18711 18712 18713 18714 18715 18716 18717 18718 18719 18720 18721 18722 18723 18724 18725 18726 18727 18728 18729 18730 18731 18732 18733 18734 18735 18736 18737 18738 18739 18740 18741 18742 18743 18744 18745 18746 18747 18748 18749 18750 18751 18752 18753 18754 18755 18756 18757 18758 18759 18760 18761 18762 18763 18764 18765 18766 18767 18768 18769 18770 18771 18772 18773 18774 18775 18776 18777 18778 18779 18780 18781 18782 18783 18784 18785 18786 18787 18788 18789 18790 18791 18792 18793 18794 18795 18796 18797 18798 18799 18800 18801 18802 18803 18804 18805 18806 18807 18808 18809 18810 18811 18812 18813 18814 18815 18816 18817 18818 18819 18820 18821 18822 18823 18824 18825 18826 18827 18828 18829 18830 18831 18832 18833 18834 18835 18836 18837 18838 18839 18840 18841 18842 18843 18844 18845 18846 18847 18848 18849 18850 18851 18852 18853 18854 18855 18856 18857 18858 18859 18860 18861 18862 18863 18864 18865 18866 18867 18868 18869 18870 18871 18872 18873 18874 18875 18876 18877 18878 18879 18880 18881 18882 18883 18884 18885 18886 18887 18888 18889 18890 18891 18892 18893 18894 18895 18896 18897 18898 18899 18900 18901 18902 18903 18904 18905 18906 18907 18908 18909 18910 18911 18912 18913 18914 18915 18916 18917 18918 18919 18920 18921 18922 18923 18924 18925 18926 18927 18928 18929 18930 18931 18932 18933 18934 18935 18936 18937 18938 18939 18940 18941 18942 18943 18944 18945 18946 18947 18948 18949 18950 18951 18952 18953 18954 18955 18956 18957 18958 18959 18960 18961 18962 18963 18964 18965 18966 18967 18968 18969 18970 18971 18972 18973 18974 18975 18976 18977 18978 18979 18980 18981 18982 18983 18984 18985 18986 18987 18988 18989 18990 18991 18992 18993 18994 18995 18996 18997 18998 18999 19000 19001 19002 19003 19004 19005 19006 19007 19008 19009 19010 19011 19012 19013 19014 19015 19016 19017 19018 19019 19020 19021 19022 19023 19024 19025 19026 19027 19028 19029 19030 19031 19032 19033 19034 19035 19036 19037 19038 19039 19040 19041 19042 19043 19044 19045 19046 19047 19048 19049 19050 19051 19052 19053 19054 19055 19056 19057 19058 19059 19060 19061 19062 19063 19064 19065 19066 19067 19068 19069 19070 19071 19072 19073 19074 19075 19076 19077 19078 19079 19080 19081 19082 19083 19084 19085 19086 19087 19088 19089 19090 19091 19092 19093 19094 19095 19096 19097 19098 19099 19100 19101 19102 19103 19104 19105 19106 19107 19108 19109 19110 19111 19112 19113 19114 19115 19116 19117 19118 19119 19120 19121 19122 19123 19124 19125 19126 19127 19128 19129 19130 19131 19132 19133 19134 19135 19136 19137 19138 19139 19140 19141 19142 19143 19144 19145 19146 19147 19148 19149 19150 19151 19152 19153 19154 19155 19156 19157 19158 19159 19160 19161 19162 19163 19164 19165 19166 19167 19168 19169 19170 19171 19172 19173 19174 19175 19176 19177 19178 19179 19180 19181 19182 19183 19184 19185 19186 19187 19188 19189 19190 19191 19192 19193 19194 19195 19196 19197 19198 19199 19200 19201 19202 19203 19204 19205 19206 19207 19208 19209 19210 19211 19212 19213 19214 19215 19216 19217 19218 19219 19220 19221 19222 19223 19224 19225 19226 19227 19228 19229 19230 19231 19232 19233 19234 19235 19236 19237 19238 19239 19240 19241 19242 19243 19244 19245 19246 19247 19248 19249 19250 19251 19252 19253 19254 19255 19256 19257 19258 19259 19260 19261 19262 19263 19264 19265 19266 19267 19268 19269 19270 19271 19272 19273 19274 19275 19276 19277 19278 19279 19280 19281 19282 19283 19284 19285 19286 19287 19288 19289 19290 19291 19292 19293 19294 19295 19296 19297 19298 19299 19300 19301 19302 19303 19304 19305 19306 19307 19308 19309 19310 19311 19312 19313 19314 19315 19316 19317 19318 19319 19320 19321 19322 19323 19324 19325 19326 19327 19328 19329 19330 19331 19332 19333 19334 19335 19336 19337 19338 19339 19340 19341 19342 19343 19344 19345 19346 19347 19348 19349 19350 19351 19352 19353 19354 19355 19356 19357 19358 19359 19360 19361 19362 19363 19364 19365 19366 19367 19368 19369 19370 19371 19372 19373 19374 19375 19376 19377 19378 19379 19380 19381 19382 19383 19384 19385 19386 19387 19388 19389 19390 19391 19392 19393 19394 19395 19396 19397 19398 19399 19400 19401 19402 19403 19404 19405 19406 19407 19408 19409 19410 19411 19412 19413 19414 19415 19416 19417 19418 19419 19420 19421 19422 19423 19424 19425 19426 19427 19428 19429 19430 19431 19432 19433 19434 19435 19436 19437 19438 19439 19440 19441 19442 19443 19444 19445 19446 19447 19448 19449 19450 19451 19452 19453 19454 19455 19456 19457 19458 19459 19460 19461 19462 19463 19464 19465 19466 19467 19468 19469 19470 19471 19472 19473 19474 19475 19476 19477 19478 19479 19480 19481 19482 19483 19484 19485 19486 19487 19488 19489 19490 19491 19492 19493 19494 19495 19496 19497 19498 19499 19500 19501 19502 19503 19504 19505 19506 19507 19508 19509 19510 19511 19512 19513 19514 19515 19516 19517 19518 19519 19520 19521 19522 19523 19524 19525 19526 19527 19528 19529 19530 19531 19532 19533 19534 19535 19536 19537 19538 19539 19540 19541 19542 19543 19544 19545 19546 19547 19548 19549 19550 19551 19552 19553 19554 19555 19556 19557 19558 19559 19560 19561 19562 19563 19564 19565 19566 19567 19568 19569 19570 19571 19572 19573 19574 19575 19576 19577 19578 19579 19580 19581 19582 19583 19584 19585 19586 19587 19588 19589 19590 19591 19592 19593 19594 19595 19596 19597 19598 19599 19600 19601 19602 19603 19604 19605 19606 19607 19608 19609 19610 19611 19612 19613 19614 19615 19616 19617 19618 19619 19620 19621 19622 19623 19624 19625 19626 19627 19628 19629 19630 19631 19632 19633 19634 19635 19636 19637 19638 19639 19640 19641 19642 19643 19644 19645 19646 19647 19648 19649 19650 19651 19652 19653 19654 19655 19656 19657 19658 19659 19660 19661 19662 19663 19664 19665 19666 19667 19668 19669 19670 19671 19672 19673 19674 19675 19676 19677 19678 19679 19680 19681 19682 19683 19684 19685 19686 19687 19688 19689 19690 19691 19692 19693 19694 19695 19696 19697 19698 19699 19700 19701 19702 19703 19704 19705 19706 19707 19708 19709 19710 19711 19712 19713 19714 19715 19716 19717 19718 19719 19720 19721 19722 19723 19724 19725 19726 19727 19728 19729 19730 19731 19732 19733 19734 19735 19736 19737 19738 19739 19740 19741 19742 19743 19744 19745 19746 19747 19748 19749 19750 19751 19752 19753 19754 19755 19756 19757 19758 19759 19760 19761 19762 19763 19764 19765 19766 19767 19768 19769 19770 19771 19772 19773 19774 19775 19776 19777 19778 19779 19780 19781 19782 19783 19784 19785 19786 19787 19788 19789 19790 19791 19792 19793 19794 19795 19796 19797 19798 19799 19800 19801 19802 19803 19804 19805 19806 19807 19808 19809 19810 19811 19812 19813 19814 19815 19816 19817 19818 19819 19820 19821 19822 19823 19824 19825 19826 19827 19828 19829 19830 19831 19832 19833 19834 19835 19836 19837 19838 19839 19840 19841 19842 19843 19844 19845 19846 19847 19848 19849 19850 19851 19852 19853 19854 19855 19856 19857 19858 19859 19860 19861 19862 19863 19864 19865 19866 19867 19868 19869 19870 19871 19872 19873 19874 19875 19876 19877 19878 19879 19880 19881 19882 19883 19884 19885 19886 19887 19888 19889 19890 19891 19892 19893 19894 19895 19896 19897 19898 19899 19900 19901 19902 19903 19904 19905 19906 19907 19908 19909 19910 19911 19912 19913 19914 19915 19916 19917 19918 19919 19920 19921 19922 19923 19924 19925 19926 19927 19928 19929 19930 19931 19932 19933 19934 19935 19936 19937 19938 19939 19940 19941 19942 19943 19944 19945 19946 19947 19948 19949 19950 19951 19952 19953 19954 19955 19956 19957 19958 19959 19960 19961 19962 19963 19964 19965 19966 19967 19968 19969 19970 19971 19972 19973 19974 19975 19976 19977 19978 19979 19980 19981 19982 19983 19984 19985 19986 19987 19988 19989 19990 19991 19992 19993 19994 19995 19996 19997 19998 19999 20000 20001 20002 20003 20004 20005 20006 20007 20008 20009 20010 20011 20012 20013 20014 20015 20016 20017 20018 20019 20020 20021 20022 20023 20024 20025 20026 20027 20028 20029 20030 20031 20032 20033 20034 20035 20036 20037 20038 20039 20040 20041 20042 20043 20044 20045 20046 20047 20048 20049 20050 20051 20052 20053 20054 20055 20056 20057 20058 20059 20060 20061 20062 20063 20064 20065 20066 20067 20068 20069 20070 20071 20072 20073 20074 20075 20076 20077 20078 20079 20080 20081 20082 20083 20084 20085 20086 20087 20088 20089 20090 20091 20092 20093 20094 20095 20096 20097 20098 20099 20100 20101 20102 20103 20104 20105 20106 20107 20108 20109 20110 20111 20112 20113 20114 20115 20116 20117 20118 20119 20120 20121 20122 20123 20124 20125 20126 20127 20128 20129 20130 20131 20132 20133 20134 20135 20136 20137 20138 20139 20140 20141 20142 20143 20144 20145 20146 20147 20148 20149 20150 20151 20152 20153 20154 20155 20156 20157 20158 20159 20160 20161 20162 20163 20164 20165 20166 20167 20168 20169 20170 20171 20172 20173 20174 20175 20176 20177 20178 20179 20180 20181 20182 20183 20184 20185 20186 20187 20188 20189 20190 20191 20192 20193 20194 20195 20196 20197 20198 20199 20200 20201 20202 20203 20204 20205 20206 20207 20208 20209 20210 20211 20212 20213 20214 20215 20216 20217 20218 20219 20220 20221 20222 20223 20224 20225 20226 20227 20228 20229 20230 20231 20232 20233 20234 20235 20236 20237 20238 20239 20240 20241 20242 20243 20244 20245 20246 20247 20248 20249 20250 20251 20252 20253 20254 20255 20256 20257 20258 20259 20260 20261 20262 20263 20264 20265 20266 20267 20268 20269 20270 20271 20272 20273 20274 20275 20276 20277 20278 20279 20280 20281 20282 20283 20284 20285 20286 20287 20288 20289 20290 20291 20292 20293 20294 20295 20296 20297 20298 20299 20300 20301 20302 20303 20304 20305 20306 20307 20308 20309 20310 20311 20312 20313 20314 20315 20316 20317 20318 20319 20320 20321 20322 20323 20324 20325 20326 20327 20328 20329 20330 20331 20332 20333 20334 20335 20336 20337 20338 20339 20340 20341 20342 20343 20344 20345 20346 20347 20348 20349 20350 20351 20352 20353 20354 20355 20356 20357 20358 20359 20360 20361 20362 20363 20364 20365 20366 20367 20368 20369 20370 20371 20372 20373 20374 20375 20376 20377 20378 20379 20380 20381 20382 20383 20384 20385 20386 20387 20388 20389 20390 20391 20392 20393 20394 20395 20396 20397 20398 20399 20400 20401 20402 20403 20404 20405 20406 20407 20408 20409 20410 20411 20412 20413 20414 20415 20416 20417 20418 20419 20420 20421 20422 20423 20424 20425 20426 20427 20428 20429 20430 20431 20432 20433 20434 20435 20436 20437 20438 20439 20440 20441 20442 20443 20444 20445 20446 20447 20448 20449 20450 20451 20452 20453 20454 20455 20456 20457 20458 20459 20460 20461 20462 20463 20464 20465 20466 20467 20468 20469 20470 20471 20472 20473 20474 20475 20476 20477 20478 20479 20480 20481 20482 20483 20484 20485 20486 20487 20488 20489 20490 20491 20492 20493 20494 20495 20496 20497 20498 20499 20500 20501 20502 20503 20504 20505 20506 20507 20508 20509 20510 20511 20512 20513 20514 20515 20516 20517 20518 20519 20520 20521 20522 20523 20524 20525 20526 20527 20528 20529 20530 20531 20532 20533 20534 20535 20536 20537 20538 20539 20540 20541 20542 20543 20544 20545 20546 20547 20548 20549 20550 20551 20552 20553 20554 20555 20556 20557 20558 20559 20560 20561 20562 20563 20564 20565 20566 20567 20568 20569 20570 20571 20572 20573 20574 20575 20576 20577 20578 20579 20580 20581 20582 20583 20584 20585 20586 20587 20588 20589 20590 20591 20592 20593 20594 20595 20596 20597 20598 20599 20600 20601 20602 20603 20604 20605 20606 20607 20608 20609 20610 20611 20612 20613 20614 20615 20616 20617 20618 20619 20620 20621 20622 20623 20624 20625 20626 20627 20628 20629 20630 20631 20632 20633 20634 20635 20636 20637 20638 20639 20640 20641 20642 20643 20644 20645 20646 20647 20648 20649 20650 20651 20652 20653 20654 20655 20656 20657 20658 20659 20660 20661 20662 20663 20664 20665 20666 20667 20668 20669 20670 20671 20672 20673 20674 20675 20676 20677 20678 20679 20680 20681 20682 20683 20684 20685 20686 20687 20688 20689 20690 20691 20692 20693 20694 20695 20696 20697 20698 20699 20700 20701 20702 20703 20704 20705 20706 20707 20708 20709 20710 20711 20712 20713 20714 20715 20716 20717 20718 20719 20720 20721 20722 20723 20724 20725 20726 20727 20728 20729 20730 20731 20732 20733 20734 20735 20736 20737 20738 20739 20740 20741 20742 20743 20744 20745 20746 20747 20748 20749 20750 20751 20752 20753 20754 20755 20756 20757 20758 20759 20760 20761 20762 20763 20764 20765 20766 20767 20768 20769 20770 20771 20772 20773 20774 20775 20776 20777 20778 20779 20780 20781 20782 20783 20784 20785 20786 20787 20788 20789 20790 20791 20792 20793 20794 20795 20796 20797 20798 20799 20800 20801 20802 20803 20804 20805 20806 20807 20808 20809 20810 20811 20812 20813 20814 20815 20816 20817 20818 20819 20820 20821 20822 20823 20824 20825 20826 20827 20828 20829 20830 20831 20832 20833 20834 20835 20836 20837 20838 20839 20840 20841 20842 20843 20844 20845 20846 20847 20848 20849 20850 20851 20852 20853 20854 20855 20856 20857 20858 20859 20860 20861 20862 20863 20864 20865 20866 20867 20868 20869 20870 20871 20872 20873 20874 20875 20876 20877 20878 20879 20880 20881 20882 20883 20884 20885 20886 20887 20888 20889 20890 20891 20892 20893 20894 20895 20896 20897 20898 20899 20900 20901 20902 20903 20904 20905 20906 20907 20908 20909 20910 20911 20912 20913 20914 20915 20916 20917 20918 20919 20920 20921 20922 20923 20924 20925 20926 20927 20928 20929 20930 20931 20932 20933 20934 20935 20936 20937 20938 20939 20940 20941 20942 20943 20944 20945 20946 20947 20948 20949 20950 20951 20952 20953 20954 20955 20956 20957 20958 20959 20960 20961 20962 20963 20964 20965 20966 20967 20968 20969 20970 20971 20972 20973 20974 20975 20976 20977 20978 20979 20980 20981 20982 20983 20984 20985 20986 20987 20988 20989 20990 20991 20992 20993 20994 20995 20996 20997 20998 20999 21000 21001 21002 21003 21004 21005 21006 21007 21008 21009 21010 21011 21012 21013 21014 21015 21016 21017 21018 21019 21020 21021 21022 21023 21024 21025 21026 21027 21028 21029 21030 21031 21032 21033 21034 21035 21036 21037 21038 21039 21040 21041 21042 21043 21044 21045 21046 21047 21048 21049 21050 21051 21052 21053 21054 21055 21056 21057 21058 21059 21060 21061 21062 21063 21064 21065 21066 21067 21068 21069 21070 21071 21072 21073 21074 21075 21076 21077 21078 21079 21080 21081 21082 21083 21084 21085 21086 21087 21088 21089 21090 21091 21092 21093 21094 21095 21096 21097 21098 21099 21100 21101 21102 21103 21104 21105 21106 21107 21108 21109 21110 21111 21112 21113 21114 21115 21116 21117 21118 21119 21120 21121 21122 21123 21124 21125 21126 21127 21128 21129 21130 21131 21132 21133 21134 21135 21136 21137 21138 21139 21140 21141 21142 21143 21144 21145 21146 21147 21148 21149 21150 21151 21152 21153 21154 21155 21156 21157 21158 21159 21160 21161 21162 21163 21164 21165 21166 21167 21168 21169 21170 21171 21172 21173 21174 21175 21176 21177 21178 21179 21180 21181 21182 21183 21184 21185 21186 21187 21188 21189 21190 21191 21192 21193 21194 21195 21196 21197 21198 21199 21200 21201 21202 21203 21204 21205 21206 21207 21208 21209 21210 21211 21212 21213 21214 21215 21216 21217 21218 21219 21220 21221 21222 21223 21224 21225 21226 21227 21228 21229 21230 21231 21232 21233 21234 21235 21236 21237 21238 21239 21240 21241 21242 21243 21244 21245 21246 21247 21248 21249 21250 21251 21252 21253 21254 21255 21256 21257 21258 21259 21260 21261 21262 21263 21264 21265 21266 21267 21268 21269 21270 21271 21272 21273 21274 21275 21276 21277 21278 21279 21280 21281 21282 21283 21284 21285 21286 21287 21288 21289 21290 21291 21292 21293 21294 21295 21296 21297 21298 21299 21300 21301 21302 21303 21304 21305 21306 21307 21308 21309 21310 21311 21312 21313 21314 21315 21316 21317 21318 21319 21320 21321 21322 21323 21324 21325 21326 21327 21328 21329 21330 21331 21332 21333 21334 21335 21336 21337 21338 21339 21340 21341 21342 21343 21344 21345 21346 21347 21348 21349 21350 21351 21352 21353 21354 21355 21356 21357 21358 21359 21360 21361 21362 21363 21364 21365 21366 21367 21368 21369 21370 21371 21372 21373 21374 21375 21376 21377 21378 21379 21380 21381 21382 21383 21384 21385 21386 21387 21388 21389 21390 21391 21392 21393 21394 21395 21396 21397 21398 21399 21400 21401 21402 21403 21404 21405 21406 21407 21408 21409 21410 21411 21412 21413 21414 21415 21416 21417 21418 21419 21420 21421 21422 21423 21424 21425 21426 21427 21428 21429 21430 21431 21432 21433 21434 21435 21436 21437 21438 21439 21440 21441 21442 21443 21444 21445 21446 21447 21448 21449 21450 21451 21452 21453 21454 21455 21456 21457 21458 21459 21460 21461 21462 21463 21464 21465 21466 21467 21468 21469 21470 21471 21472 21473 21474 21475 21476 21477 21478 21479 21480 21481 21482 21483 21484 21485 21486 21487 21488 21489 21490 21491 21492 21493 21494 21495 21496 21497 21498 21499 21500 21501 21502 21503 21504 21505 21506 21507 21508 21509 21510 21511 21512 21513 21514 21515 21516 21517 21518 21519 21520 21521 21522 21523 21524 21525 21526 21527 21528 21529 21530 21531 21532 21533 21534 21535 21536 21537 21538 21539 21540 21541 21542 21543 21544 21545 21546 21547 21548 21549 21550 21551 21552 21553 21554 21555 21556 21557 21558 21559 21560 21561 21562 21563 21564 21565 21566 21567 21568 21569 21570 21571 21572 21573 21574 21575 21576 21577 21578 21579 21580 21581 21582 21583 21584 21585 21586 21587 21588 21589 21590 21591 21592 21593 21594 21595 21596 21597 21598 21599 21600 21601 21602 21603 21604 21605 21606 21607 21608 21609 21610 21611 21612 21613 21614 21615 21616 21617 21618 21619 21620 21621 21622 21623 21624 21625 21626 21627 21628 21629 21630 21631 21632 21633 21634 21635 21636 21637 21638 21639 21640 21641 21642 21643 21644 21645 21646 21647 21648 21649 21650 21651 21652 21653 21654 21655 21656 21657 21658 21659 21660 21661 21662 21663 21664 21665 21666 21667 21668 21669 21670 21671 21672 21673 21674 21675 21676 21677 21678 21679 21680 21681 21682 21683 21684 21685 21686 21687 21688 21689 21690 21691 21692 21693 21694 21695 21696 21697 21698 21699 21700 21701 21702 21703 21704 21705 21706 21707 21708 21709 21710 21711 21712 21713 21714 21715 21716 21717 21718 21719 21720 21721 21722 21723 21724 21725 21726 21727 21728 21729 21730 21731 21732 21733 21734 21735 21736 21737 21738 21739 21740 21741 21742 21743 21744 21745 21746 21747 21748 21749 21750 21751 21752 21753 21754 21755 21756 21757 21758 21759 21760 21761 21762 21763 21764 21765 21766 21767 21768 21769 21770 21771 21772 21773 21774 21775 21776 21777 21778 21779 21780 21781 21782 21783 21784 21785 21786 21787 21788 21789 21790 21791 21792 21793 21794 21795 21796 21797 21798 21799 21800 21801 21802 21803 21804 21805 21806 21807 21808 21809 21810 21811 21812 21813 21814 21815 21816 21817 21818 21819 21820 21821 21822 21823 21824 21825 21826 21827 21828 21829 21830 21831 21832 21833 21834 21835 21836 21837 21838 21839 21840 21841 21842 21843 21844 21845 21846 21847 21848 21849 21850 21851 21852 21853 21854 21855 21856 21857 21858 21859 21860 21861 21862 21863 21864 21865 21866 21867 21868 21869 21870 21871 21872 21873 21874 21875 21876 21877 21878 21879 21880 21881 21882 21883 21884 21885 21886 21887 21888 21889 21890 21891 21892 21893 21894 21895 21896 21897 21898 21899 21900 21901 21902 21903 21904 21905 21906 21907 21908 21909 21910 21911 21912 21913 21914 21915 21916 21917 21918 21919 21920 21921 21922 21923 21924 21925 21926 21927 21928 21929 21930 21931 21932 21933 21934 21935 21936 21937 21938 21939 21940 21941 21942 21943 21944 21945 21946 21947 21948 21949 21950 21951 21952 21953 21954 21955 21956 21957 21958 21959 21960 21961 21962 21963 21964 21965 21966 21967 21968 21969 21970 21971 21972 21973 21974 21975 21976 21977 21978 21979 21980 21981 21982 21983 21984 21985 21986 21987 21988 21989 21990 21991 21992 21993 21994 21995 21996 21997 21998 21999 22000 22001 22002 22003 22004 22005 22006 22007 22008 22009 22010 22011 22012 22013 22014 22015 22016 22017 22018 22019 22020 22021 22022 22023 22024 22025 22026 22027 22028 22029 22030 22031 22032 22033 22034 22035 22036 22037 22038 22039 22040 22041 22042 22043 22044 22045 22046 22047 22048 22049 22050 22051 22052 22053 22054 22055 22056 22057 22058 22059 22060 22061 22062 22063 22064 22065 22066 22067 22068 22069 22070 22071 22072 22073 22074 22075 22076 22077 22078 22079 22080 22081 22082 22083 22084 22085 22086 22087 22088 22089 22090 22091 22092 22093 22094 22095 22096 22097 22098 22099 22100 22101 22102 22103 22104 22105 22106 22107 22108 22109 22110 22111 22112 22113 22114 22115 22116 22117 22118 22119 22120 22121 22122 22123 22124 22125 22126 22127 22128 22129 22130 22131 22132 22133 22134 22135 22136 22137 22138 22139 22140 22141 22142 22143 22144 22145 22146 22147 22148 22149 22150 22151 22152 22153 22154 22155 22156 22157 22158 22159 22160 22161 22162 22163 22164 22165 22166 22167 22168 22169 22170 22171 22172 22173 22174 22175 22176 22177 22178 22179 22180 22181 22182 22183 22184 22185 22186 22187 22188 22189 22190 22191 22192 22193 22194 22195 22196 22197 22198 22199 22200 22201 22202 22203 22204 22205 22206 22207 22208 22209 22210 22211 22212 22213 22214 22215 22216 22217 22218 22219 22220 22221 22222 22223 22224 22225 22226 22227 22228 22229 22230 22231 22232 22233 22234 22235 22236 22237 22238 22239 22240 22241 22242 22243 22244 22245 22246 22247 22248 22249 22250 22251 22252 22253 22254 22255 22256 22257 22258 22259 22260 22261 22262 22263 22264 22265 22266 22267 22268 22269 22270 22271 22272 22273 22274 22275 22276 22277 22278 22279 22280 22281 22282 22283 22284 22285 22286 22287 22288 22289 22290 22291 22292 22293 22294 22295 22296 22297 22298 22299 22300 22301 22302 22303 22304 22305 22306 22307 22308 22309 22310 22311 22312 22313 22314 22315 22316 22317 22318 22319 22320 22321 22322 22323 22324 22325 22326 22327 22328 22329 22330 22331 22332 22333 22334 22335 22336 22337 22338 22339 22340 22341 22342 22343 22344 22345 22346 22347 22348 22349 22350 22351 22352 22353 22354 22355 22356 22357 22358 22359 22360 22361 22362 22363 22364 22365 22366 22367 22368 22369 22370 22371 22372 22373 22374 22375 22376 22377 22378 22379 22380 22381 22382 22383 22384 22385 22386 22387 22388 22389 22390 22391 22392 22393 22394 22395 22396 22397 22398 22399 22400 22401 22402 22403 22404 22405 22406 22407 22408 22409 22410 22411 22412 22413 22414 22415 22416 22417 22418 22419 22420 22421 22422 22423 22424 22425 22426 22427 22428 22429 22430 22431 22432 22433 22434 22435 22436 22437 22438 22439 22440 22441 22442 22443 22444 22445 22446 22447 22448 22449 22450 22451 22452 22453 22454 22455 22456 22457 22458 22459 22460 22461 22462 22463 22464 22465 22466 22467 22468 22469 22470 22471 22472 22473 22474 22475 22476 22477 22478 22479 22480 22481 22482 22483 22484 22485 22486 22487 22488 22489 22490 22491 22492 22493 22494 22495 22496 22497 22498 22499 22500 22501 22502 22503 22504 22505 22506 22507 22508 22509 22510 22511 22512 22513 22514 22515 22516 22517 22518 22519 22520 22521 22522 22523 22524 22525 22526 22527 22528 22529 22530 22531 22532 22533 22534 22535 22536 22537 22538 22539 22540 22541 22542 22543 22544 22545 22546 22547 22548 22549 22550 22551 22552 22553 22554 22555 22556 22557 22558 22559 22560 22561 22562 22563 22564 22565 22566 22567 22568 22569 22570 22571 22572 22573 22574 22575 22576 22577 22578 22579 22580 22581 22582 22583 22584 22585 22586 22587 22588 22589 22590 22591 22592 22593 22594 22595 22596 22597 22598 22599 22600 22601 22602 22603 22604 22605 22606 22607 22608 22609 22610 22611 22612 22613 22614 22615 22616 22617 22618 22619 22620 22621 22622 22623 22624 22625 22626 22627 22628 22629 22630 22631 22632 22633 22634 22635 22636 22637 22638 22639 22640 22641 22642 22643 22644 22645 22646 22647 22648 22649 22650 22651 22652 22653 22654 22655 22656 22657 22658 22659 22660 22661 22662 22663 22664 22665 22666 22667 22668 22669 22670 22671 22672 22673 22674 22675 22676 22677 22678 22679 22680 22681 22682 22683 22684 22685 22686 22687 22688 22689 22690 22691 22692 22693 22694 22695 22696 22697 22698 22699 22700 22701 22702 22703 22704 22705 22706 22707 22708 22709 22710 22711 22712 22713 22714 22715 22716 22717 22718 22719 22720 22721 22722 22723 22724 22725 22726 22727 22728 22729 22730 22731 22732 22733 22734 22735 22736 22737 22738 22739 22740 22741 22742 22743 22744 22745 22746 22747 22748 22749 22750 22751 22752 22753 22754 22755 22756 22757 22758 22759 22760 22761 22762 22763 22764 22765 22766 22767 22768 22769 22770 22771 22772 22773 22774 22775 22776 22777 22778 22779 22780 22781 22782 22783 22784 22785 22786 22787 22788 22789 22790 22791 22792 22793 22794 22795 22796 22797 22798 22799 22800 22801 22802 22803 22804 22805 22806 22807 22808 22809 22810 22811 22812 22813 22814 22815 22816 22817 22818 22819 22820 22821 22822 22823 22824 22825 22826 22827 22828 22829 22830 22831 22832 22833 22834 22835 22836 22837 22838 22839 22840 22841 22842 22843 22844 22845 22846 22847 22848 22849 22850 22851 22852 22853 22854 22855 22856 22857 22858 22859 22860 22861 22862 22863 22864 22865 22866 22867 22868 22869 22870 22871 22872 22873 22874 22875 22876 22877 22878 22879 22880 22881 22882 22883 22884 22885 22886 22887 22888 22889 22890 22891 22892 22893 22894 22895 22896 22897 22898 22899 22900 22901 22902 22903 22904 22905 22906 22907 22908 22909 22910 22911 22912 22913 22914 22915 22916 22917 22918 22919 22920 22921 22922 22923 22924 22925 22926 22927 22928 22929 22930 22931 22932 22933 22934 22935 22936 22937 22938 22939 22940 22941 22942 22943 22944 22945 22946 22947 22948 22949 22950 22951 22952 22953 22954 22955 22956 22957 22958 22959 22960 22961 22962 22963 22964 22965 22966 22967 22968 22969 22970 22971 22972 22973 22974 22975 22976 22977 22978 22979 22980 22981 22982 22983 22984 22985 22986 22987 22988 22989 22990 22991 22992 22993 22994 22995 22996 22997 22998 22999 23000 23001 23002 23003 23004 23005 23006 23007 23008 23009 23010 23011 23012 23013 23014 23015 23016 23017 23018 23019 23020 23021 23022 23023 23024 23025 23026 23027 23028 23029 23030 23031 23032 23033 23034 23035 23036 23037 23038 23039 23040 23041 23042 23043 23044 23045 23046 23047 23048 23049 23050 23051 23052 23053 23054 23055 23056 23057 23058 23059 23060 23061 23062 23063 23064 23065 23066 23067 23068 23069 23070 23071 23072 23073 23074 23075 23076 23077 23078 23079 23080 23081 23082 23083 23084 23085 23086 23087 23088 23089 23090 23091 23092 23093 23094 23095 23096 23097 23098 23099 23100 23101 23102 23103 23104 23105 23106 23107 23108 23109 23110 23111 23112 23113 23114 23115 23116 23117 23118 23119 23120 23121 23122 23123 23124 23125 23126 23127 23128 23129 23130 23131 23132 23133 23134 23135 23136 23137 23138 23139 23140 23141 23142 23143 23144 23145 23146 23147 23148 23149 23150 23151 23152 23153 23154 23155 23156 23157 23158 23159 23160 23161 23162 23163 23164 23165 23166 23167 23168 23169 23170 23171 23172 23173 23174 23175 23176 23177 23178 23179 23180 23181 23182 23183 23184 23185 23186 23187 23188 23189 23190 23191 23192 23193 23194 23195 23196 23197 23198 23199 23200 23201 23202 23203 23204 23205 23206 23207 23208 23209 23210 23211 23212 23213 23214 23215 23216 23217 23218 23219 23220 23221 23222 23223 23224 23225 23226 23227 23228 23229 23230 23231 23232 23233 23234 23235 23236 23237 23238 23239 23240 23241 23242 23243 23244 23245 23246 23247 23248 23249 23250 23251 23252 23253 23254 23255 23256 23257 23258 23259 23260 23261 23262 23263 23264 23265 23266 23267 23268 23269 23270 23271 23272 23273 23274 23275 23276 23277 23278 23279 23280 23281 23282 23283 23284 23285 23286 23287 23288 23289 23290 23291 23292 23293 23294 23295 23296 23297 23298 23299 23300 23301 23302 23303 23304 23305 23306 23307 23308 23309 23310 23311 23312 23313 23314 23315 23316 23317 23318 23319 23320 23321 23322 23323 23324 23325 23326 23327 23328 23329 23330 23331 23332 23333 23334 23335 23336 23337 23338 23339 23340 23341 23342 23343 23344 23345 23346 23347 23348 23349 23350 23351 23352 23353 23354 23355 23356 23357 23358 23359 23360 23361 23362 23363 23364 23365 23366 23367 23368 23369 23370 23371 23372 23373 23374 23375 23376 23377 23378 23379 23380 23381 23382 23383 23384 23385 23386 23387 23388 23389 23390 23391 23392 23393 23394 23395 23396 23397 23398 23399 23400 23401 23402 23403 23404 23405 23406 23407 23408 23409 23410 23411 23412 23413 23414 23415 23416 23417 23418 23419 23420 23421 23422 23423 23424 23425 23426 23427 23428 23429 23430 23431 23432 23433 23434 23435 23436 23437 23438 23439 23440 23441 23442 23443 23444 23445 23446 23447 23448 23449 23450 23451 23452 23453 23454 23455 23456 23457 23458 23459 23460 23461 23462 23463 23464 23465 23466 23467 23468 23469 23470 23471 23472 23473 23474 23475 23476 23477 23478 23479 23480 23481 23482 23483 23484 23485 23486 23487 23488 23489 23490 23491 23492 23493 23494 23495 23496 23497 23498 23499 23500 23501 23502 23503 23504 23505 23506 23507 23508 23509 23510 23511 23512 23513 23514 23515 23516 23517 23518 23519 23520 23521 23522 23523 23524 23525 23526 23527 23528 23529 23530 23531 23532 23533 23534 23535 23536 23537 23538 23539 23540 23541 23542 23543 23544 23545 23546 23547 23548 23549 23550 23551 23552 23553 23554 23555 23556 23557 23558 23559 23560 23561 23562 23563 23564 23565 23566 23567 23568 23569 23570 23571 23572 23573 23574 23575 23576 23577 23578 23579 23580 23581 23582 23583 23584 23585 23586 23587 23588 23589 23590 23591 23592 23593 23594 23595 23596 23597 23598 23599 23600 23601 23602 23603 23604 23605 23606 23607 23608 23609 23610 23611 23612 23613 23614 23615 23616 23617 23618 23619 23620 23621 23622 23623 23624 23625 23626 23627 23628 23629 23630 23631 23632 23633 23634 23635 23636 23637 23638 23639 23640 23641 23642 23643 23644 23645 23646 23647 23648 23649 23650 23651 23652 23653 23654 23655 23656 23657 23658 23659 23660 23661 23662 23663 23664 23665 23666 23667 23668 23669 23670 23671 23672 23673 23674 23675 23676 23677 23678 23679 23680 23681 23682 23683 23684 23685 23686 23687 23688 23689 23690 23691 23692 23693 23694 23695 23696 23697 23698 23699 23700 23701 23702 23703 23704 23705 23706 23707 23708 23709 23710 23711 23712 23713 23714 23715 23716 23717 23718 23719 23720 23721 23722 23723 23724 23725 23726 23727 23728 23729 23730 23731 23732 23733 23734 23735 23736 23737 23738 23739 23740 23741 23742 23743 23744 23745 23746 23747 23748 23749 23750 23751 23752 23753 23754 23755 23756 23757 23758 23759 23760 23761 23762 23763 23764 23765 23766 23767 23768 23769 23770 23771 23772 23773 23774 23775 23776 23777 23778 23779 23780 23781 23782 23783 23784 23785 23786 23787 23788 23789 23790 23791 23792 23793 23794 23795 23796 23797 23798 23799 23800 23801 23802 23803 23804 23805 23806 23807 23808 23809 23810 23811 23812 23813 23814 23815 23816 23817 23818 23819 23820 23821 23822 23823 23824 23825 23826 23827 23828 23829 23830 23831 23832 23833 23834 23835 23836 23837 23838 23839 23840 23841 23842 23843 23844 23845 23846 23847 23848 23849 23850 23851 23852 23853 23854 23855 23856 23857 23858 23859 23860 23861 23862 23863 23864 23865 23866 23867 23868 23869 23870 23871 23872 23873 23874 23875 23876 23877 23878 23879 23880 23881 23882 23883 23884 23885 23886 23887 23888 23889 23890 23891 23892 23893 23894 23895 23896 23897 23898 23899 23900 23901 23902 23903 23904 23905 23906 23907 23908 23909 23910 23911 23912 23913 23914 23915 23916 23917 23918 23919 23920 23921 23922 23923 23924 23925 23926 23927 23928 23929 23930 23931 23932 23933 23934 23935 23936 23937 23938 23939 23940 23941 23942 23943 23944 23945 23946 23947 23948 23949 23950 23951 23952 23953 23954 23955 23956 23957 23958 23959 23960 23961 23962 23963 23964 23965 23966 23967 23968 23969 23970 23971 23972 23973 23974 23975 23976 23977 23978 23979 23980 23981 23982 23983 23984 23985 23986 23987 23988 23989 23990 23991 23992 23993 23994 23995 23996 23997 23998 23999 24000 24001 24002 24003 24004 24005 24006 24007 24008 24009 24010 24011 24012 24013 24014 24015 24016 24017 24018 24019 24020 24021 24022 24023 24024 24025 24026 24027 24028 24029 24030 24031 24032 24033 24034 24035 24036 24037 24038 24039 24040 24041 24042 24043 24044 24045 24046 24047 24048 24049 24050 24051 24052 24053 24054 24055 24056 24057 24058 24059 24060 24061 24062 24063 24064 24065 24066 24067 24068 24069 24070 24071 24072 24073 24074 24075 24076 24077 24078 24079 24080 24081 24082 24083 24084 24085 24086 24087 24088 24089 24090 24091 24092 24093 24094 24095 24096 24097 24098 24099 24100 24101 24102 24103 24104 24105 24106 24107 24108 24109 24110 24111 24112 24113 24114 24115 24116 24117 24118 24119 24120 24121 24122 24123 24124 24125 24126 24127 24128 24129 24130 24131 24132 24133 24134 24135 24136 24137 24138 24139 24140 24141 24142 24143 24144 24145 24146 24147 24148 24149 24150 24151 24152 24153 24154 24155 24156 24157 24158 24159 24160 24161 24162 24163 24164 24165 24166 24167 24168 24169 24170 24171 24172 24173 24174 24175 24176 24177 24178 24179 24180 24181 24182 24183 24184 24185 24186 24187 24188 24189 24190 24191 24192 24193 24194 24195 24196 24197 24198 24199 24200 24201 24202 24203 24204 24205 24206 24207 24208 24209 24210 24211 24212 24213 24214 24215 24216 24217 24218 24219 24220 24221 24222 24223 24224 24225 24226 24227 24228 24229 24230 24231 24232 24233 24234 24235 24236 24237 24238 24239 24240 24241 24242 24243 24244 24245 24246 24247 24248 24249 24250 24251 24252 24253 24254 24255 24256 24257 24258 24259 24260 24261 24262 24263 24264 24265 24266 24267 24268 24269 24270 24271 24272 24273 24274 24275 24276 24277 24278 24279 24280 24281 24282 24283 24284 24285 24286 24287 24288 24289 24290 24291 24292 24293 24294 24295 24296 24297 24298 24299 24300 24301 24302 24303 24304 24305 24306 24307 24308 24309 24310 24311 24312 24313 24314 24315 24316 24317 24318 24319 24320 24321 24322 24323 24324 24325 24326 24327 24328 24329 24330 24331 24332 24333 24334 24335 24336 24337 24338 24339 24340 24341 24342 24343 24344 24345 24346 24347 24348 24349 24350 24351 24352 24353 24354 24355 24356 24357 24358 24359 24360 24361 24362 24363 24364 24365 24366 24367 24368 24369 24370 24371 24372 24373 24374 24375 24376 24377 24378 24379 24380 24381 24382 24383 24384 24385 24386 24387 24388 24389 24390 24391 24392 24393 24394 24395 24396 24397 24398 24399 24400 24401 24402 24403 24404 24405 24406 24407 24408 24409 24410 24411 24412 24413 24414 24415 24416 24417 24418 24419 24420 24421 24422 24423 24424 24425 24426 24427 24428 24429 24430 24431 24432 24433 24434 24435 24436 24437 24438 24439 24440 24441 24442 24443 24444 24445 24446 24447 24448 24449 24450 24451 24452 24453 24454 24455 24456 24457 24458 24459 24460 24461 24462 24463 24464 24465 24466 24467 24468 24469 24470 24471 24472 24473 24474 24475 24476 24477 24478 24479 24480 24481 24482 24483 24484 24485 24486 24487 24488 24489 24490 24491 24492 24493 24494 24495 24496 24497 24498 24499 24500 24501 24502 24503 24504 24505 24506 24507 24508 24509 24510 24511 24512 24513 24514 24515 24516 24517 24518 24519 24520 24521 24522 24523 24524 24525 24526 24527 24528 24529 24530 24531 24532 24533 24534 24535 24536 24537 24538 24539 24540 24541 24542 24543 24544 24545 24546 24547 24548 24549 24550 24551 24552 24553 24554 24555 24556 24557 24558 24559 24560 24561 24562 24563 24564 24565 24566 24567 24568 24569 24570 24571 24572 24573 24574 24575 24576 24577 24578 24579 24580 24581 24582 24583 24584 24585 24586 24587 24588 24589 24590 24591 24592 24593 24594 24595 24596 24597 24598 24599 24600 24601 24602 24603 24604 24605 24606 24607 24608 24609 24610 24611 24612 24613 24614 24615 24616 24617 24618 24619 24620 24621 24622 24623 24624 24625 24626 24627 24628 24629 24630 24631 24632 24633 24634 24635 24636 24637 24638 24639 24640 24641 24642 24643 24644 24645 24646 24647 24648 24649 24650 24651 24652 24653 24654 24655 24656 24657 24658 24659 24660 24661 24662 24663 24664 24665 24666 24667 24668 24669 24670 24671 24672 24673 24674 24675 24676 24677 24678 24679 24680 24681 24682 24683 24684 24685 24686 24687 24688 24689 24690 24691 24692 24693 24694 24695 24696 24697 24698 24699 24700 24701 24702 24703 24704 24705 24706 24707 24708 24709 24710 24711 24712 24713 24714 24715 24716 24717 24718 24719 24720 24721 24722 24723 24724 24725 24726 24727 24728 24729 24730 24731 24732 24733 24734 24735 24736 24737 24738 24739 24740 24741 24742 24743 24744 24745 24746 24747 24748 24749 24750 24751 24752 24753 24754 24755 24756 24757 24758 24759 24760 24761 24762 24763 24764 24765 24766 24767 24768 24769 24770 24771 24772 24773 24774 24775 24776 24777 24778 24779 24780 24781 24782 24783 24784 24785 24786 24787 24788 24789 24790 24791 24792 24793 24794 24795 24796 24797 24798 24799 24800 24801 24802 24803 24804 24805 24806 24807 24808 24809 24810 24811 24812 24813 24814 24815 24816 24817 24818 24819 24820 24821 24822 24823 24824 24825 24826 24827 24828 24829 24830 24831 24832 24833 24834 24835 24836 24837 24838 24839 24840 24841 24842 24843 24844 24845 24846 24847 24848 24849 24850 24851 24852 24853 24854 24855 24856 24857 24858 24859 24860 24861 24862 24863 24864 24865 24866 24867 24868 24869 24870 24871 24872 24873 24874 24875 24876 24877 24878 24879 24880 24881 24882 24883 24884 24885 24886 24887 24888 24889 24890 24891 24892 24893 24894 24895 24896 24897 24898 24899 24900 24901 24902 24903 24904 24905 24906 24907 24908 24909 24910 24911 24912 24913 24914 24915 24916 24917 24918 24919 24920 24921 24922 24923 24924 24925 24926 24927 24928 24929 24930 24931 24932 24933 24934 24935 24936 24937 24938 24939 24940 24941 24942 24943 24944 24945 24946 24947 24948 24949 24950 24951 24952 24953 24954 24955 24956 24957 24958 24959 24960 24961 24962 24963 24964 24965 24966 24967 24968 24969 24970 24971 24972 24973 24974 24975 24976 24977 24978 24979 24980 24981 24982 24983 24984 24985 24986 24987 24988 24989 24990 24991 24992 24993 24994 24995 24996 24997 24998 24999 25000 25001 25002 25003 25004 25005 25006 25007 25008 25009 25010 25011 25012 25013 25014 25015 25016 25017 25018 25019 25020 25021 25022 25023 25024 25025 25026 25027 25028 25029 25030 25031 25032 25033 25034 25035 25036 25037 25038 25039 25040 25041 25042 25043 25044 25045 25046 25047 25048 25049 25050 25051 25052 25053 25054 25055 25056 25057 25058 25059 25060 25061 25062 25063 25064 25065 25066 25067 25068 25069 25070 25071 25072 25073 25074 25075 25076 25077 25078 25079 25080 25081 25082 25083 25084 25085 25086 25087 25088 25089 25090 25091 25092 25093 25094 25095 25096 25097 25098 25099 25100 25101 25102 25103 25104 25105 25106 25107 25108 25109 25110 25111 25112 25113 25114 25115 25116 25117 25118 25119 25120 25121 25122 25123 25124 25125 25126 25127 25128 25129 25130 25131 25132 25133 25134 25135 25136 25137 25138 25139 25140 25141 25142 25143 25144 25145 25146 25147 25148 25149 25150 25151 25152 25153 25154 25155 25156 25157 25158 25159 25160 25161 25162 25163 25164 25165 25166 25167 25168 25169 25170 25171 25172 25173 25174 25175 25176 25177 25178 25179 25180 25181 25182 25183 25184 25185 25186 25187 25188 25189 25190 25191 25192 25193 25194 25195 25196 25197 25198 25199 25200 25201 25202 25203 25204 25205 25206 25207 25208 25209 25210 25211 25212 25213 25214 25215 25216 25217 25218 25219 25220 25221 25222 25223 25224 25225 25226 25227 25228 25229 25230 25231 25232 25233 25234 25235 25236 25237 25238 25239 25240 25241 25242 25243 25244 25245 25246 25247 25248 25249 25250 25251 25252 25253 25254 25255 25256 25257 25258 25259 25260 25261 25262 25263 25264 25265 25266 25267 25268 25269 25270 25271 25272 25273 25274 25275 25276 25277 25278 25279 25280 25281 25282 25283 25284 25285 25286 25287 25288 25289 25290 25291 25292 25293 25294 25295 25296 25297 25298 25299 25300 25301 25302 25303 25304 25305 25306 25307 25308 25309 25310 25311 25312 25313 25314 25315 25316 25317 25318 25319 25320 25321 25322 25323 25324 25325 25326 25327 25328 25329 25330 25331 25332 25333 25334 25335 25336 25337 25338 25339 25340 25341 25342 25343 25344 25345 25346 25347 25348 25349 25350 25351 25352 25353 25354 25355 25356 25357 25358 25359 25360 25361 25362 25363 25364 25365 25366 25367 25368 25369 25370 25371 25372 25373 25374 25375 25376 25377 25378 25379 25380 25381 25382 25383 25384 25385 25386 25387 25388 25389 25390 25391 25392 25393 25394 25395 25396 25397 25398 25399 25400 25401 25402 25403 25404 25405 25406 25407 25408 25409 25410 25411 25412 25413 25414 25415 25416 25417 25418 25419 25420 25421 25422 25423 25424 25425 25426 25427 25428 25429 25430 25431 25432 25433 25434 25435 25436 25437 25438 25439 25440 25441 25442 25443 25444 25445 25446 25447 25448 25449 25450 25451 25452 25453 25454 25455 25456 25457 25458 25459 25460 25461 25462 25463 25464 25465 25466 25467 25468 25469 25470 25471 25472 25473 25474 25475 25476 25477 25478 25479 25480 25481 25482 25483 25484 25485 25486 25487 25488 25489 25490 25491 25492 25493 25494 25495 25496 25497 25498 25499 25500 25501 25502 25503 25504 25505 25506 25507 25508 25509 25510 25511 25512 25513 25514 25515 25516 25517 25518 25519 25520 25521 25522 25523 25524 25525 25526 25527 25528 25529 25530 25531 25532 25533 25534 25535 25536 25537 25538 25539 25540 25541 25542 25543 25544 25545 25546 25547 25548 25549 25550 25551 25552 25553 25554 25555 25556 25557 25558 25559 25560 25561 25562 25563 25564 25565 25566 25567 25568 25569 25570 25571 25572 25573 25574 25575 25576 25577 25578 25579 25580 25581 25582 25583 25584 25585 25586 25587 25588 25589 25590 25591 25592 25593 25594 25595 25596 25597 25598 25599 25600 25601 25602 25603 25604 25605 25606 25607 25608 25609 25610 25611 25612 25613 25614 25615 25616 25617 25618 25619 25620 25621 25622 25623 25624 25625 25626 25627 25628 25629 25630 25631 25632 25633 25634 25635 25636 25637 25638 25639 25640 25641 25642 25643 25644 25645 25646 25647 25648 25649 25650 25651 25652 25653 25654 25655 25656 25657 25658 25659 25660 25661 25662 25663 25664 25665 25666 25667 25668 25669 25670 25671 25672 25673 25674 25675 25676 25677 25678 25679 25680 25681 25682 25683 25684 25685 25686 25687 25688 25689 25690 25691 25692 25693 25694 25695 25696 25697 25698 25699 25700 25701 25702 25703 25704 25705 25706 25707 25708 25709 25710 25711 25712 25713 25714 25715 25716 25717 25718 25719 25720 25721 25722 25723 25724 25725 25726 25727 25728 25729 25730 25731 25732 25733 25734 25735 25736 25737 25738 25739 25740 25741 25742 25743 25744 25745 25746 25747 25748 25749 25750 25751 25752 25753 25754 25755 25756 25757 25758 25759 25760 25761 25762 25763 25764 25765 25766 25767 25768 25769 25770 25771 25772 25773 25774 25775 25776 25777 25778 25779 25780 25781 25782 25783 25784 25785 25786 25787 25788 25789 25790 25791 25792 25793 25794 25795 25796 25797 25798 25799 25800 25801 25802 25803 25804 25805 25806 25807 25808 25809 25810 25811 25812 25813 25814 25815 25816 25817 25818 25819 25820 25821 25822 25823 25824 25825 25826 25827 25828 25829 25830 25831 25832 25833 25834 25835 25836 25837 25838 25839 25840 25841 25842 25843 25844 25845 25846 25847 25848 25849 25850 25851 25852 25853 25854 25855 25856 25857 25858 25859 25860 25861 25862 25863 25864 25865 25866 25867 25868 25869 25870 25871 25872 25873 25874 25875 25876 25877 25878 25879 25880 25881 25882 25883 25884 25885 25886 25887 25888 25889 25890 25891 25892 25893 25894 25895 25896 25897 25898 25899 25900 25901 25902 25903 25904 25905 25906 25907 25908 25909 25910 25911 25912 25913 25914 25915 25916 25917 25918 25919 25920 25921 25922 25923 25924 25925 25926 25927 25928 25929 25930 25931 25932 25933 25934 25935 25936 25937 25938 25939 25940 25941 25942 25943 25944 25945 25946 25947 25948 25949 25950 25951 25952 25953 25954 25955 25956 25957 25958 25959 25960 25961 25962 25963 25964 25965 25966 25967 25968 25969 25970 25971 25972 25973 25974 25975 25976 25977 25978 25979 25980 25981 25982 25983 25984 25985 25986 25987 25988 25989 25990 25991 25992 25993 25994 25995 25996 25997 25998 25999 26000 26001 26002 26003 26004 26005 26006 26007 26008 26009 26010 26011 26012 26013 26014 26015 26016 26017 26018 26019 26020 26021 26022 26023 26024 26025 26026 26027 26028 26029 26030 26031 26032 26033 26034 26035 26036 26037 26038 26039 26040 26041 26042 26043 26044 26045 26046 26047 26048 26049 26050 26051 26052 26053 26054 26055 26056 26057 26058 26059 26060 26061 26062 26063 26064 26065 26066 26067 26068 26069 26070 26071 26072 26073 26074 26075 26076 26077 26078 26079 26080 26081 26082 26083 26084 26085 26086 26087 26088 26089 26090 26091 26092 26093 26094 26095 26096 26097 26098 26099 26100 26101 26102 26103 26104 26105 26106 26107 26108 26109 26110 26111 26112 26113 26114 26115 26116 26117 26118 26119 26120 26121 26122 26123 26124 26125 26126 26127 26128 26129 26130 26131 26132 26133 26134 26135 26136 26137 26138 26139 26140 26141 26142 26143 26144 26145 26146 26147 26148 26149 26150 26151 26152 26153 26154 26155 26156 26157 26158 26159 26160 26161 26162 26163 26164 26165 26166 26167 26168 26169 26170 26171 26172 26173 26174 26175 26176 26177 26178 26179 26180 26181 26182 26183 26184 26185 26186 26187 26188 26189 26190 26191 26192 26193 26194 26195 26196 26197 26198 26199 26200 26201 26202 26203 26204 26205 26206 26207 26208 26209 26210 26211 26212 26213 26214 26215 26216 26217 26218 26219 26220 26221 26222 26223 26224 26225 26226 26227 26228 26229 26230 26231 26232 26233 26234 26235 26236 26237 26238 26239 26240 26241 26242 26243 26244 26245 26246 26247 26248 26249 26250 26251 26252 26253 26254 26255 26256 26257 26258 26259 26260 26261 26262 26263 26264 26265 26266 26267 26268 26269 26270 26271 26272 26273 26274 26275 26276 26277 26278 26279 26280 26281 26282 26283 26284 26285 26286 26287 26288 26289 26290 26291 26292 26293 26294 26295 26296 26297 26298 26299 26300 26301 26302 26303 26304 26305 26306 26307 26308 26309 26310 26311 26312 26313 26314 26315 26316 26317 26318 26319 26320 26321 26322 26323 26324 26325 26326 26327 26328 26329 26330 26331 26332 26333 26334 26335 26336 26337 26338 26339 26340 26341 26342 26343 26344 26345 26346 26347 26348 26349 26350 26351 26352 26353 26354 26355 26356 26357 26358 26359 26360 26361 26362 26363 26364 26365 26366 26367 26368 26369 26370 26371 26372 26373 26374 26375 26376 26377 26378 26379 26380 26381 26382 26383 26384 26385 26386 26387 26388 26389 26390 26391 26392 26393 26394 26395 26396 26397 26398 26399 26400 26401 26402 26403 26404 26405 26406 26407 26408 26409 26410 26411 26412 26413 26414 26415 26416 26417 26418 26419 26420 26421 26422 26423 26424 26425 26426 26427 26428 26429 26430 26431 26432 26433 26434 26435 26436 26437 26438 26439 26440 26441 26442 26443 26444 26445 26446 26447 26448 26449 26450 26451 26452 26453 26454 26455 26456 26457 26458 26459 26460 26461 26462 26463 26464 26465 26466 26467 26468 26469 26470 26471 26472 26473 26474 26475 26476 26477 26478 26479 26480 26481 26482 26483 26484 26485 26486 26487 26488 26489 26490 26491 26492 26493 26494 26495 26496 26497 26498 26499 26500 26501 26502 26503 26504 26505 26506 26507 26508 26509 26510 26511 26512 26513 26514 26515 26516 26517 26518 26519 26520 26521 26522 26523 26524 26525 26526 26527 26528 26529 26530 26531 26532 26533 26534 26535 26536 26537 26538 26539 26540 26541 26542 26543 26544 26545 26546 26547 26548 26549 26550 26551 26552 26553 26554 26555 26556 26557 26558 26559 26560 26561 26562 26563 26564 26565 26566 26567 26568 26569 26570 26571 26572 26573 26574 26575 26576 26577 26578 26579 26580 26581 26582 26583 26584 26585 26586 26587 26588 26589 26590 26591 26592 26593 26594 26595 26596 26597 26598 26599 26600 26601 26602 26603 26604 26605 26606 26607 26608 26609 26610 26611 26612 26613 26614 26615 26616 26617 26618 26619 26620 26621 26622 26623 26624 26625 26626 26627 26628 26629 26630 26631 26632 26633 26634 26635 26636 26637 26638 26639 26640 26641 26642 26643 26644 26645 26646 26647 26648 26649 26650 26651 26652 26653 26654 26655 26656 26657 26658 26659 26660 26661 26662 26663 26664 26665 26666 26667 26668 26669 26670 26671 26672 26673 26674 26675 26676 26677 26678 26679 26680 26681 26682 26683 26684 26685 26686 26687 26688 26689 26690 26691 26692 26693 26694 26695 26696 26697 26698 26699 26700 26701 26702 26703 26704 26705 26706 26707 26708 26709 26710 26711 26712 26713 26714 26715 26716 26717 26718 26719 26720 26721 26722 26723 26724 26725 26726 26727 26728 26729 26730 26731 26732 26733 26734 26735 26736 26737 26738 26739 26740 26741 26742 26743 26744 26745 26746 26747 26748 26749 26750 26751 26752 26753 26754 26755 26756 26757 26758 26759 26760 26761 26762 26763 26764 26765 26766 26767 26768 26769 26770 26771 26772 26773 26774 26775 26776 26777 26778 26779 26780 26781 26782 26783 26784 26785 26786 26787 26788 26789 26790 26791 26792 26793 26794 26795 26796 26797 26798 26799 26800 26801 26802 26803 26804 26805 26806 26807 26808 26809 26810 26811 26812 26813 26814 26815 26816 26817 26818 26819 26820 26821 26822 26823 26824 26825 26826 26827 26828 26829 26830 26831 26832 26833 26834 26835 26836 26837 26838 26839 26840 26841 26842 26843 26844 26845 26846 26847 26848 26849 26850 26851 26852 26853 26854 26855 26856 26857 26858 26859 26860 26861 26862 26863 26864 26865 26866 26867 26868 26869 26870 26871 26872 26873 26874 26875 26876 26877 26878 26879 26880 26881 26882 26883 26884 26885 26886 26887 26888 26889 26890 26891 26892 26893 26894 26895 26896 26897 26898 26899 26900 26901 26902 26903 26904 26905 26906 26907 26908 26909 26910 26911 26912 26913 26914 26915 26916 26917 26918 26919 26920 26921 26922 26923 26924 26925 26926 26927 26928 26929 26930 26931 26932 26933 26934 26935 26936 26937 26938 26939 26940 26941 26942 26943 26944 26945 26946 26947 26948 26949 26950 26951 26952 26953 26954 26955 26956 26957 26958 26959 26960 26961 26962 26963 26964 26965 26966 26967 26968 26969 26970 26971 26972 26973 26974 26975 26976 26977 26978 26979 26980 26981 26982 26983 26984 26985 26986 26987 26988 26989 26990 26991 26992 26993 26994 26995 26996 26997 26998 26999 27000 27001 27002 27003 27004 27005 27006 27007 27008 27009 27010 27011 27012 27013 27014 27015 27016 27017 27018 27019 27020 27021 27022 27023 27024 27025 27026 27027 27028 27029 27030 27031 27032 27033 27034 27035 27036 27037 27038 27039 27040 27041 27042 27043 27044 27045 27046 27047 27048 27049 27050 27051 27052 27053 27054 27055 27056 27057 27058 27059 27060 27061 27062 27063 27064 27065 27066 27067 27068 27069 27070 27071 27072 27073 27074 27075 27076 27077 27078 27079 27080 27081 27082 27083 27084 27085 27086 27087 27088 27089 27090 27091 27092 27093 27094 27095 27096 27097 27098 27099 27100 27101 27102 27103 27104 27105 27106 27107 27108 27109 27110 27111 27112 27113 27114 27115 27116 27117 27118 27119 27120 27121 27122 27123 27124 27125 27126 27127 27128 27129 27130 27131 27132 27133 27134 27135 27136 27137 27138 27139 27140 27141 27142 27143 27144 27145 27146 27147 27148 27149 27150 27151 27152 27153 27154 27155 27156 27157 27158 27159 27160 27161 27162 27163 27164 27165 27166 27167 27168 27169 27170 27171 27172 27173 27174 27175 27176 27177 27178 27179 27180 27181 27182 27183 27184 27185 27186 27187 27188 27189 27190 27191 27192 27193 27194 27195 27196 27197 27198 27199 27200 27201 27202 27203 27204 27205 27206 27207 27208 27209 27210 27211 27212 27213 27214 27215 27216 27217 27218 27219 27220 27221 27222 27223 27224 27225 27226 27227 27228 27229 27230 27231 27232 27233 27234 27235 27236 27237 27238 27239 27240 27241 27242 27243 27244 27245 27246 27247 27248 27249 27250 27251 27252 27253 27254 27255 27256 27257 27258 27259 27260 27261 27262 27263 27264 27265 27266 27267 27268 27269 27270 27271 27272 27273 27274 27275 27276 27277 27278 27279 27280 27281 27282 27283 27284 27285 27286 27287 27288 27289 27290 27291 27292 27293 27294 27295 27296 27297 27298 27299 27300 27301 27302 27303 27304 27305 27306 27307 27308 27309 27310 27311 27312 27313 27314 27315 27316 27317 27318 27319 27320 27321 27322 27323 27324 27325 27326 27327 27328 27329 27330 27331 27332 27333 27334 27335 27336 27337 27338 27339 27340 27341 27342 27343 27344 27345 27346 27347 27348 27349 27350 27351 27352 27353 27354 27355 27356 27357 27358 27359 27360 27361 27362 27363 27364 27365 27366 27367 27368 27369 27370 27371 27372 27373 27374 27375 27376 27377 27378 27379 27380 27381 27382 27383 27384 27385 27386 27387 27388 27389 27390 27391 27392 27393 27394 27395 27396 27397 27398 27399 27400 27401 27402 27403 27404 27405 27406 27407 27408 27409 27410 27411 27412 27413 27414 27415 27416 27417 27418 27419 27420 27421 27422 27423 27424 27425 27426 27427 27428 27429 27430 27431 27432 27433 27434 27435 27436 27437 27438 27439 27440 27441 27442 27443 27444 27445 27446 27447 27448 27449 27450 27451 27452 27453 27454 27455 27456 27457 27458 27459 27460 27461 27462 27463 27464 27465 27466 27467 27468 27469 27470 27471 27472 27473 27474 27475 27476 27477 27478 27479 27480 27481 27482 27483 27484 27485 27486 27487 27488 27489 27490 27491 27492 27493 27494 27495 27496 27497 27498 27499 27500 27501 27502 27503 27504 27505 27506 27507 27508 27509 27510 27511 27512 27513 27514 27515 27516 27517 27518 27519 27520 27521 27522 27523 27524 27525 27526 27527 27528 27529 27530 27531 27532 27533 27534 27535 27536 27537 27538 27539 27540 27541 27542 27543 27544 27545 27546 27547 27548 27549 27550 27551 27552 27553 27554 27555 27556 27557 27558 27559 27560 27561 27562 27563 27564 27565 27566 27567 27568 27569 27570 27571 27572 27573 27574 27575 27576 27577 27578 27579 27580 27581 27582 27583 27584 27585 27586 27587 27588 27589 27590 27591 27592 27593 27594 27595 27596 27597 27598 27599 27600 27601 27602 27603 27604 27605 27606 27607 27608 27609 27610 27611 27612 27613 27614 27615 27616 27617 27618 27619 27620 27621 27622 27623 27624 27625 27626 27627 27628 27629 27630 27631 27632 27633 27634 27635 27636 27637 27638 27639 27640 27641 27642 27643 27644 27645 27646 27647 27648 27649 27650 27651 27652 27653 27654 27655 27656 27657 27658 27659 27660 27661 27662 27663 27664 27665 27666 27667 27668 27669 27670 27671 27672 27673 27674 27675 27676 27677 27678 27679 27680 27681 27682 27683 27684 27685 27686 27687 27688 27689 27690 27691 27692 27693 27694 27695 27696 27697 27698 27699 27700 27701 27702 27703 27704 27705 27706 27707 27708 27709 27710 27711 27712 27713 27714 27715 27716 27717 27718 27719 27720 27721 27722 27723 27724 27725 27726 27727 27728 27729 27730 27731 27732 27733 27734 27735 27736 27737 27738 27739 27740 27741 27742 27743 27744 27745 27746 27747 27748 27749 27750 27751 27752 27753 27754 27755 27756 27757 27758 27759 27760 27761 27762 27763 27764 27765 27766 27767 27768 27769 27770 27771 27772 27773 27774 27775 27776 27777 27778 27779 27780 27781 27782 27783 27784 27785 27786 27787 27788 27789 27790 27791 27792 27793 27794 27795 27796 27797 27798 27799 27800 27801 27802 27803 27804 27805 27806 27807 27808 27809 27810 27811 27812 27813 27814 27815 27816 27817 27818 27819 27820 27821 27822 27823 27824 27825 27826 27827 27828 27829 27830 27831 27832 27833 27834 27835 27836 27837 27838 27839 27840 27841 27842 27843 27844 27845 27846 27847 27848 27849 27850 27851 27852 27853 27854 27855 27856 27857 27858 27859 27860 27861 27862 27863 27864 27865 27866 27867 27868 27869 27870 27871 27872 27873 27874 27875 27876 27877 27878 27879 27880 27881 27882 27883 27884 27885 27886 27887 27888 27889 27890 27891 27892 27893 27894 27895 27896 27897 27898 27899 27900 27901 27902 27903 27904 27905 27906 27907 27908 27909 27910 27911 27912 27913 27914 27915 27916 27917 27918 27919 27920 27921 27922 27923 27924 27925 27926 27927 27928 27929 27930 27931 27932 27933 27934 27935 27936 27937 27938 27939 27940 27941 27942 27943 27944 27945 27946 27947 27948 27949 27950 27951 27952 27953 27954 27955 27956 27957 27958 27959 27960 27961 27962 27963 27964 27965 27966 27967 27968 27969 27970 27971 27972 27973 27974 27975 27976 27977 27978 27979 27980 27981 27982 27983 27984 27985 27986 27987 27988 27989 27990 27991 27992 27993 27994 27995 27996 27997 27998 27999 28000 28001 28002 28003 28004 28005 28006 28007 28008 28009 28010 28011 28012 28013 28014 28015 28016 28017 28018 28019 28020 28021 28022 28023 28024 28025 28026 28027 28028 28029 28030 28031 28032 28033 28034 28035 28036 28037 28038 28039 28040 28041 28042 28043 28044 28045 28046 28047 28048 28049 28050 28051 28052 28053 28054 28055 28056 28057 28058 28059 28060 28061 28062 28063 28064 28065 28066 28067 28068 28069 28070 28071 28072 28073 28074 28075 28076 28077 28078 28079 28080 28081 28082 28083 28084 28085 28086 28087 28088 28089 28090 28091 28092 28093 28094 28095 28096 28097 28098 28099 28100 28101 28102 28103 28104 28105 28106 28107 28108 28109 28110 28111 28112 28113 28114 28115 28116 28117 28118 28119 28120 28121 28122 28123 28124 28125 28126 28127 28128 28129 28130 28131 28132 28133 28134 28135 28136 28137 28138 28139 28140 28141 28142 28143 28144 28145 28146 28147 28148 28149 28150 28151 28152 28153 28154 28155 28156 28157 28158 28159 28160 28161 28162 28163 28164 28165 28166 28167 28168 28169 28170 28171 28172 28173 28174 28175 28176 28177 28178 28179 28180 28181 28182 28183 28184 28185 28186 28187 28188 28189 28190 28191 28192 28193 28194 28195 28196 28197 28198 28199 28200 28201 28202 28203 28204 28205 28206 28207 28208 28209 28210 28211 28212 28213 28214 28215 28216 28217 28218 28219 28220 28221 28222 28223 28224 28225 28226 28227 28228 28229 28230 28231 28232 28233 28234 28235 28236 28237 28238 28239 28240 28241 28242 28243 28244 28245 28246 28247 28248 28249 28250 28251 28252 28253 28254 28255 28256 28257 28258 28259 28260 28261 28262 28263 28264 28265 28266 28267 28268 28269 28270 28271 28272 28273 28274 28275 28276 28277 28278 28279 28280 28281 28282 28283 28284 28285 28286 28287 28288 28289 28290 28291 28292 28293 28294 28295 28296 28297 28298 28299 28300 28301 28302 28303 28304 28305 28306 28307 28308 28309 28310 28311 28312 28313 28314 28315 28316 28317 28318 28319 28320 28321 28322 28323 28324 28325 28326 28327 28328 28329 28330 28331 28332 28333 28334 28335 28336 28337 28338 28339 28340 28341 28342 28343 28344 28345 28346 28347 28348 28349 28350 28351 28352 28353 28354 28355 28356 28357 28358 28359 28360 28361 28362 28363 28364 28365 28366 28367 28368 28369 28370 28371 28372 28373 28374 28375 28376 28377 28378 28379 28380 28381 28382 28383 28384 28385 28386 28387 28388 28389 28390 28391 28392 28393 28394 28395 28396 28397 28398 28399 28400 28401 28402 28403 28404 28405 28406 28407 28408 28409 28410 28411 28412 28413 28414 28415 28416 28417 28418 28419 28420 28421 28422 28423 28424 28425 28426 28427 28428 28429 28430 28431 28432 28433 28434 28435 28436 28437 28438 28439 28440 28441 28442 28443 28444 28445 28446 28447 28448 28449 28450 28451 28452 28453 28454 28455 28456 28457 28458 28459 28460 28461 28462 28463 28464 28465 28466 28467 28468 28469 28470 28471 28472 28473 28474 28475 28476 28477 28478 28479 28480 28481 28482 28483 28484 28485 28486 28487 28488 28489 28490 28491 28492 28493 28494 28495 28496 28497 28498 28499 28500 28501 28502 28503 28504 28505 28506 28507 28508 28509 28510 28511 28512 28513 28514 28515 28516 28517 28518 28519 28520 28521 28522 28523 28524 28525 28526 28527 28528 28529 28530 28531 28532 28533 28534 28535 28536 28537 28538 28539 28540 28541 28542 28543 28544 28545 28546 28547 28548 28549 28550 28551 28552 28553 28554 28555 28556 28557 28558 28559 28560 28561 28562 28563 28564 28565 28566 28567 28568 28569 28570 28571 28572 28573 28574 28575 28576 28577 28578 28579 28580 28581 28582 28583 28584 28585 28586 28587 28588 28589 28590 28591 28592 28593 28594 28595 28596 28597 28598 28599 28600 28601 28602 28603 28604 28605 28606 28607 28608 28609 28610 28611 28612 28613 28614 28615 28616 28617 28618 28619 28620 28621 28622 28623 28624 28625 28626 28627 28628 28629 28630 28631 28632 28633 28634 28635 28636 28637 28638 28639 28640 28641 28642 28643 28644 28645 28646 28647 28648 28649 28650 28651 28652 28653 28654 28655 28656 28657 28658 28659 28660 28661 28662 28663 28664 28665 28666 28667 28668 28669 28670 28671 28672 28673 28674 28675 28676 28677 28678 28679 28680 28681 28682 28683 28684 28685 28686 28687 28688 28689 28690 28691 28692 28693 28694 28695 28696 28697 28698 28699 28700 28701 28702 28703 28704 28705 28706 28707 28708 28709 28710 28711 28712 28713 28714 28715 28716 28717 28718 28719 28720 28721 28722 28723 28724 28725 28726 28727 28728 28729 28730 28731 28732 28733 28734 28735 28736 28737 28738 28739 28740 28741 28742 28743 28744 28745 28746 28747 28748 28749 28750 28751 28752 28753 28754 28755 28756 28757 28758 28759 28760 28761 28762 28763 28764 28765 28766 28767 28768 28769 28770 28771 28772 28773 28774 28775 28776 28777 28778 28779 28780 28781 28782 28783 28784 28785 28786 28787 28788 28789 28790 28791 28792 28793 28794 28795 28796 28797 28798 28799 28800 28801 28802 28803 28804 28805 28806 28807 28808 28809 28810 28811 28812 28813 28814 28815 28816 28817 28818 28819 28820 28821 28822 28823 28824 28825 28826 28827 28828 28829 28830 28831 28832 28833 28834 28835 28836 28837 28838 28839 28840 28841 28842 28843 28844 28845 28846 28847 28848 28849 28850 28851 28852 28853 28854 28855 28856 28857 28858 28859 28860 28861 28862 28863 28864 28865 28866 28867 28868 28869 28870 28871 28872 28873 28874 28875 28876 28877 28878 28879 28880 28881 28882 28883 28884 28885 28886 28887 28888 28889 28890 28891 28892 28893 28894 28895 28896 28897 28898 28899 28900 28901 28902 28903 28904 28905 28906 28907 28908 28909 28910 28911 28912 28913 28914 28915 28916 28917 28918 28919 28920 28921 28922 28923 28924 28925 28926 28927 28928 28929 28930 28931 28932 28933 28934 28935 28936 28937 28938 28939 28940 28941 28942 28943 28944 28945 28946 28947 28948 28949 28950 28951 28952 28953 28954 28955 28956 28957 28958 28959 28960 28961 28962 28963 28964 28965 28966 28967 28968 28969 28970 28971 28972 28973 28974 28975 28976 28977 28978 28979 28980 28981 28982 28983 28984 28985 28986 28987 28988 28989 28990 28991 28992 28993 28994 28995 28996 28997 28998 28999 29000 29001 29002 29003 29004 29005 29006 29007 29008 29009 29010 29011 29012 29013 29014 29015 29016 29017 29018 29019 29020 29021 29022 29023 29024 29025 29026 29027 29028 29029 29030 29031 29032 29033 29034 29035 29036 29037 29038 29039 29040 29041 29042 29043 29044 29045 29046 29047 29048 29049 29050 29051 29052 29053 29054 29055 29056 29057 29058 29059 29060 29061 29062 29063 29064 29065 29066 29067 29068 29069 29070 29071 29072 29073 29074 29075 29076 29077 29078 29079 29080 29081 29082 29083 29084 29085 29086 29087 29088 29089 29090 29091 29092 29093 29094 29095 29096 29097 29098 29099 29100 29101 29102 29103 29104 29105 29106 29107 29108 29109 29110 29111 29112 29113 29114 29115 29116 29117 29118 29119 29120 29121 29122 29123 29124 29125 29126 29127 29128 29129 29130 29131 29132 29133 29134 29135 29136 29137 29138 29139 29140 29141 29142 29143 29144 29145 29146 29147 29148 29149 29150 29151 29152 29153 29154 29155 29156 29157 29158 29159 29160 29161 29162 29163 29164 29165 29166 29167 29168 29169 29170 29171 29172 29173 29174 29175 29176 29177 29178 29179 29180 29181 29182 29183 29184 29185 29186 29187 29188 29189 29190 29191 29192 29193 29194 29195 29196 29197 29198 29199 29200 29201 29202 29203 29204 29205 29206 29207 29208 29209 29210 29211 29212 29213 29214 29215 29216 29217 29218 29219 29220 29221 29222 29223 29224 29225 29226 29227 29228 29229 29230 29231 29232 29233 29234 29235 29236 29237 29238 29239 29240 29241 29242 29243 29244 29245 29246 29247 29248 29249 29250 29251 29252 29253 29254 29255 29256 29257 29258 29259 29260 29261 29262 29263 29264 29265 29266 29267 29268 29269 29270 29271 29272 29273 29274 29275 29276 29277 29278 29279 29280 29281 29282 29283 29284 29285 29286 29287 29288 29289 29290 29291 29292 29293 29294 29295 29296 29297 29298 29299 29300 29301 29302 29303 29304 29305 29306 29307 29308 29309 29310 29311 29312 29313 29314 29315 29316 29317 29318 29319 29320 29321 29322 29323 29324 29325 29326 29327 29328 29329 29330 29331 29332 29333 29334 29335 29336 29337 29338 29339 29340 29341 29342 29343 29344 29345 29346 29347 29348 29349 29350 29351 29352 29353 29354 29355 29356 29357 29358 29359 29360 29361 29362 29363 29364 29365 29366 29367 29368 29369 29370 29371 29372 29373 29374 29375 29376 29377 29378 29379 29380 29381 29382 29383 29384 29385 29386 29387 29388 29389 29390 29391 29392 29393 29394 29395 29396 29397 29398 29399 29400 29401 29402 29403 29404 29405 29406 29407 29408 29409 29410 29411 29412 29413 29414 29415 29416 29417 29418 29419 29420 29421 29422 29423 29424 29425 29426 29427 29428 29429 29430 29431 29432 29433 29434 29435 29436 29437 29438 29439 29440 29441 29442 29443 29444 29445 29446 29447 29448 29449 29450 29451 29452 29453 29454 29455 29456 29457 29458 29459 29460 29461 29462 29463 29464 29465 29466 29467 29468 29469 29470 29471 29472 29473 29474 29475 29476 29477 29478 29479 29480 29481 29482 29483 29484 29485 29486 29487 29488 29489 29490 29491 29492 29493 29494 29495 29496 29497 29498 29499 29500 29501 29502 29503 29504 29505 29506 29507 29508 29509 29510 29511 29512 29513 29514 29515 29516 29517 29518 29519 29520 29521 29522 29523 29524 29525 29526 29527 29528 29529 29530 29531 29532 29533 29534 29535 29536 29537 29538 29539 29540 29541 29542 29543 29544 29545 29546 29547 29548 29549 29550 29551 29552 29553 29554 29555 29556 29557 29558 29559 29560 29561 29562 29563 29564 29565 29566 29567 29568 29569 29570 29571 29572 29573 29574 29575 29576 29577 29578 29579 29580 29581 29582 29583 29584 29585 29586 29587 29588 29589 29590 29591 29592 29593 29594 29595 29596 29597 29598 29599 29600 29601 29602 29603 29604 29605 29606 29607 29608 29609 29610 29611 29612 29613 29614 29615 29616 29617 29618 29619 29620 29621 29622 29623 29624 29625 29626 29627 29628 29629 29630 29631 29632 29633 29634 29635 29636 29637 29638 29639 29640 29641 29642 29643 29644 29645 29646 29647 29648 29649 29650 29651 29652 29653 29654 29655 29656 29657 29658 29659 29660 29661 29662 29663 29664 29665 29666 29667 29668 29669 29670 29671 29672 29673 29674 29675 29676 29677 29678 29679 29680 29681 29682 29683 29684 29685 29686 29687 29688 29689 29690 29691 29692 29693 29694 29695 29696 29697 29698 29699 29700 29701 29702 29703 29704 29705 29706 29707 29708 29709 29710 29711 29712 29713 29714 29715 29716 29717 29718 29719 29720 29721 29722 29723 29724 29725 29726 29727 29728 29729 29730 29731 29732 29733 29734 29735 29736 29737 29738 29739 29740 29741 29742 29743 29744 29745 29746 29747 29748 29749 29750 29751 29752 29753 29754 29755 29756 29757 29758 29759 29760 29761 29762 29763 29764 29765 29766 29767 29768 29769 29770 29771 29772 29773 29774 29775 29776 29777 29778 29779 29780 29781 29782 29783 29784 29785 29786 29787 29788 29789 29790 29791 29792 29793 29794 29795 29796 29797 29798 29799 29800 29801 29802 29803 29804 29805 29806 29807 29808 29809 29810 29811 29812 29813 29814 29815 29816 29817 29818 29819 29820 29821 29822 29823 29824 29825 29826 29827 29828 29829 29830 29831 29832 29833 29834 29835 29836 29837 29838 29839 29840 29841 29842 29843 29844 29845 29846 29847 29848 29849 29850 29851 29852 29853 29854 29855 29856 29857 29858 29859 29860 29861 29862 29863 29864 29865 29866 29867 29868 29869 29870 29871 29872 29873 29874 29875 29876 29877 29878 29879 29880 29881 29882 29883 29884 29885 29886 29887 29888 29889 29890 29891 29892 29893 29894 29895 29896 29897 29898 29899 29900 29901 29902 29903 29904 29905 29906 29907 29908 29909 29910 29911 29912 29913 29914 29915 29916 29917 29918 29919 29920 29921 29922 29923 29924 29925 29926 29927 29928 29929 29930 29931 29932 29933 29934 29935 29936 29937 29938 29939 29940 29941 29942 29943 29944 29945 29946 29947 29948 29949 29950 29951 29952 29953 29954 29955 29956 29957 29958 29959 29960 29961 29962 29963 29964 29965 29966 29967 29968 29969 29970 29971 29972 29973 29974 29975 29976 29977 29978 29979 29980 29981 29982 29983 29984 29985 29986 29987 29988 29989 29990 29991 29992 29993 29994 29995 29996 29997 29998 29999 30000 30001 30002 30003 30004 30005 30006 30007 30008 30009 30010 30011 30012 30013 30014 30015 30016 30017 30018 30019 30020 30021 30022 30023 30024 30025 30026 30027 30028 30029 30030 30031 30032 30033 30034 30035 30036 30037 30038 30039 30040 30041 30042 30043 30044 30045 30046 30047 30048 30049 30050 30051 30052 30053 30054 30055 30056 30057 30058 30059 30060 30061 30062 30063 30064 30065 30066 30067 30068 30069 30070 30071 30072 30073 30074 30075 30076 30077 30078 30079 30080 30081 30082 30083 30084 30085 30086 30087 30088 30089 30090 30091 30092 30093 30094 30095 30096 30097 30098 30099 30100 30101 30102 30103 30104 30105 30106 30107 30108 30109 30110 30111 30112 30113 30114 30115 30116 30117 30118 30119 30120 30121 30122 30123 30124 30125 30126 30127 30128 30129 30130 30131 30132 30133 30134 30135 30136 30137 30138 30139 30140 30141 30142 30143 30144 30145 30146 30147 30148 30149 30150 30151 30152 30153 30154 30155 30156 30157 30158 30159 30160 30161 30162 30163 30164 30165 30166 30167 30168 30169 30170 30171 30172 30173 30174 30175 30176 30177 30178 30179 30180 30181 30182 30183 30184 30185 30186 30187 30188 30189 30190 30191 30192 30193 30194 30195 30196 30197 30198 30199 30200 30201 30202 30203 30204 30205 30206 30207 30208 30209 30210 30211 30212 30213 30214 30215 30216 30217 30218 30219 30220 30221 30222 30223 30224 30225 30226 30227 30228 30229 30230 30231 30232 30233 30234 30235 30236 30237 30238 30239 30240 30241 30242 30243 30244 30245 30246 30247 30248 30249 30250 30251 30252 30253 30254 30255 30256 30257 30258 30259 30260 30261 30262 30263 30264 30265 30266 30267 30268 30269 30270 30271 30272 30273 30274 30275 30276 30277 30278 30279 30280 30281 30282 30283 30284 30285 30286 30287 30288 30289 30290 30291 30292 30293 30294 30295 30296 30297 30298 30299 30300 30301 30302 30303 30304 30305 30306 30307 30308 30309 30310 30311 30312 30313 30314 30315 30316 30317 30318 30319 30320 30321 30322 30323 30324 30325 30326 30327 30328 30329 30330 30331 30332 30333 30334 30335 30336 30337 30338 30339 30340 30341 30342 30343 30344 30345 30346 30347 30348 30349 30350 30351 30352 30353 30354 30355 30356 30357 30358 30359 30360 30361 30362 30363 30364 30365 30366 30367 30368 30369 30370 30371 30372 30373 30374 30375 30376 30377 30378 30379 30380 30381 30382 30383 30384 30385 30386 30387 30388 30389 30390 30391 30392 30393 30394 30395 30396 30397 30398 30399 30400 30401 30402 30403 30404 30405 30406 30407 30408 30409 30410 30411 30412 30413 30414 30415 30416 30417 30418 30419 30420 30421 30422 30423 30424 30425 30426 30427 30428 30429 30430 30431 30432 30433 30434 30435 30436 30437 30438 30439 30440 30441 30442 30443 30444 30445 30446 30447 30448 30449 30450 30451 30452 30453 30454 30455 30456 30457 30458 30459 30460 30461 30462 30463 30464 30465 30466 30467 30468 30469 30470 30471 30472 30473 30474 30475 30476 30477 30478 30479 30480 30481 30482 30483 30484 30485 30486 30487 30488 30489 30490 30491 30492 30493 30494 30495 30496 30497 30498 30499 30500 30501 30502 30503 30504 30505 30506 30507 30508 30509 30510 30511 30512 30513 30514 30515 30516 30517 30518 30519 30520 30521 30522 30523 30524 30525 30526 30527 30528 30529 30530 30531 30532 30533 30534 30535 30536 30537 30538 30539 30540 30541 30542 30543 30544 30545 30546 30547 30548 30549 30550 30551 30552 30553 30554 30555 30556 30557 30558 30559 30560 30561 30562 30563 30564 30565 30566 30567 30568 30569 30570 30571 30572 30573 30574 30575 30576 30577 30578 30579 30580 30581 30582 30583 30584 30585 30586 30587 30588 30589 30590 30591 30592 30593 30594 30595 30596 30597 30598 30599 30600 30601 30602 30603 30604 30605 30606 30607 30608 30609 30610 30611 30612 30613 30614 30615 30616 30617 30618 30619 30620 30621 30622 30623 30624 30625 30626 30627 30628 30629 30630 30631 30632 30633 30634 30635 30636 30637 30638 30639 30640 30641 30642 30643 30644 30645 30646 30647 30648 30649 30650 30651 30652 30653 30654 30655 30656 30657 30658 30659 30660 30661 30662 30663 30664 30665 30666 30667 30668 30669 30670 30671 30672 30673 30674 30675 30676 30677 30678 30679 30680 30681 30682 30683 30684 30685 30686 30687 30688 30689 30690 30691 30692 30693 30694 30695 30696 30697 30698 30699 30700 30701 30702 30703 30704 30705 30706 30707 30708 30709 30710 30711 30712 30713 30714 30715 30716 30717 30718 30719 30720 30721 30722 30723 30724 30725 30726 30727 30728 30729 30730 30731 30732 30733 30734 30735 30736 30737 30738 30739 30740 30741 30742 30743 30744 30745 30746 30747 30748 30749 30750 30751 30752 30753 30754 30755 30756 30757 30758 30759 30760 30761 30762 30763 30764 30765 30766 30767 30768 30769 30770 30771 30772 30773 30774 30775 30776 30777 30778 30779 30780 30781 30782 30783 30784 30785 30786 30787 30788 30789 30790 30791 30792 30793 30794 30795 30796 30797 30798 30799 30800 30801 30802 30803 30804 30805 30806 30807 30808 30809 30810 30811 30812 30813 30814 30815 30816 30817 30818 30819 30820 30821 30822 30823 30824 30825 30826 30827 30828 30829 30830 30831 30832 30833 30834 30835 30836 30837 30838 30839 30840 30841 30842 30843 30844 30845 30846 30847 30848 30849 30850 30851 30852 30853 30854 30855 30856 30857 30858 30859 30860 30861 30862 30863 30864 30865 30866 30867 30868 30869 30870 30871 30872 30873 30874 30875 30876 30877 30878 30879 30880 30881 30882 30883 30884 30885 30886 30887 30888 30889 30890 30891 30892 30893 30894 30895 30896 30897 30898 30899 30900 30901 30902 30903 30904 30905 30906 30907 30908 30909 30910 30911 30912 30913 30914 30915 30916 30917 30918 30919 30920 30921 30922 30923 30924 30925 30926 30927 30928 30929 30930 30931 30932 30933 30934 30935 30936 30937 30938 30939 30940 30941 30942 30943 30944 30945 30946 30947 30948 30949 30950 30951 30952 30953 30954 30955 30956 30957 30958 30959 30960 30961 30962 30963 30964 30965 30966 30967 30968 30969 30970 30971 30972 30973 30974 30975 30976 30977 30978 30979 30980 30981 30982 30983 30984 30985 30986 30987 30988 30989 30990 30991 30992 30993 30994 30995 30996 30997 30998 30999 31000 31001 31002 31003 31004 31005 31006 31007 31008 31009 31010 31011 31012 31013 31014 31015 31016 31017 31018 31019 31020 31021 31022 31023 31024 31025 31026 31027 31028 31029 31030 31031 31032 31033 31034 31035 31036 31037 31038 31039 31040 31041 31042 31043 31044 31045 31046 31047 31048 31049 31050 31051 31052 31053 31054 31055 31056 31057 31058 31059 31060 31061 31062 31063 31064 31065 31066 31067 31068 31069 31070 31071 31072 31073 31074 31075 31076 31077 31078 31079 31080 31081 31082 31083 31084 31085 31086 31087 31088 31089 31090 31091 31092 31093 31094 31095 31096 31097 31098 31099 31100 31101 31102 31103 31104 31105 31106 31107 31108 31109 31110 31111 31112 31113 31114 31115 31116 31117 31118 31119 31120 31121 31122 31123 31124 31125 31126 31127 31128 31129 31130 31131 31132 31133 31134 31135 31136 31137 31138 31139 31140 31141 31142 31143 31144 31145 31146 31147 31148 31149 31150 31151 31152 31153 31154 31155 31156 31157 31158 31159 31160 31161 31162 31163 31164 31165 31166 31167 31168 31169 31170 31171 31172 31173 31174 31175 31176 31177 31178 31179 31180 31181 31182 31183 31184 31185 31186 31187 31188 31189 31190 31191 31192 31193 31194 31195 31196 31197 31198 31199 31200 31201 31202 31203 31204 31205 31206 31207 31208 31209 31210 31211 31212 31213 31214 31215 31216 31217 31218 31219 31220 31221 31222 31223 31224 31225 31226 31227 31228 31229 31230 31231 31232 31233 31234 31235 31236 31237 31238 31239 31240 31241 31242 31243 31244 31245 31246 31247 31248 31249 31250 31251 31252 31253 31254 31255 31256 31257 31258 31259 31260 31261 31262 31263 31264 31265 31266 31267 31268 31269 31270 31271 31272 31273 31274 31275 31276 31277 31278 31279 31280 31281 31282 31283 31284 31285 31286 31287 31288 31289 31290 31291 31292 31293 31294 31295 31296 31297 31298 
</DataArray>
<DataArray type="UInt32" Name="offsets" format="ascii">
2 5 8 11 14 17 20 23 26 29 32 35 38 40 43 45 48 51 54 56 59 61 64 67 70 73 76 79 82 85 88 91 94 96 99 102 104 106 109 112 115 118 121 124 127 130 133 136 139 142 144 147 150 153 156 159 162 165 168 171 174 177 180 182 184 187 189 192 194 196 199 202 205 208 211 213 216 219 222 225 228 231 233 236 238 241 244 247 250 253 256 258 260 263 266 268 271 273 276 279 282 284 287 289 292 295 298 301 304 307 309 312 315 317 320 323 326 329 332 335 338 341 344 347 350 353 356 359 362 364 367 370 373 376 379 382 385 388 391 394 397 400 403 406 408 411 414 417 420 423 426 428 431 434 437 440 443 446 449 451 454 457 459 462 465 468 471 474 477 480 483 486 488 491 494 496 499 502 504 507 510 513 516 519 522 525 528 530 532 535 537 540 543 545 548 551 554 557 560 563 566 569 571 574 577 580 582 585 588 591 594 597 600 603 605 608 610 612 615 617 619 622 625 627 630 633 636 639 642 645 648 651 654 657 659 662 665 668 671 674 677 680 683 685 687 690 693 696 699 702 705 707 710 713 715 718 721 724 726 729 732 735 738 741 744 747 750 753 756 759 762 765 768 771 774 777 780 783 786 789 791 794 797 800 803 806 809 812 815 818 821 824 827 830 833 836 839 842 845 847 850 853 856 859 861 864 867 870 873 876 879 882 885 888 891 894 897 900 903 905 908 911 914 917 920 923 926 929 932 935 938 941 944 947 950 953 956 959 962 965 968 971 974 977 980 983 986 989 992 995 998 1001 1004 1007 1009 1012 1015 1018 1021 1024 1027 1029 1032 1035 1038 1041 1044 1047 1050 1053 1056 1059 1062 1065 1068 1071 1074 1076 1079 1082 1085 1088 1090 1093 1096 1098 1101 1103 1106 1109 1112 1115 1118 1120 1123 1126 1129 1132 1135 1138 1141 1143 1146 1149 1151 1154 1157 1160 1162 1165 1168 1171 1174 1176 1179 1182 1185 1188 1191 1194 1197 1200 1203 1206 1209 1212 1215 1218 1221 1224 1227 1230 1233 1236 1239 1242 1245 1248 1251 1254 1257 1260 1263 1266 1269 1272 1275 1278 1281 1284 1287 1290 1293 1296 1299 1302 1305 1308 1311 1314 1317 1320 1323 1326 1329 1331 1334 1337 1340 1343 1345 1348 1351 1354 1357 1360 1363 1366 1369 1372 1375 1378 1381 1384 1387 1390 1393 1396 1399 1402 1405 1408 1411 1414 1417 1420 1422 1425 1428 1431 1434 1436 1439 1442 1445 1447 1450 1453 1456 1459 1462 1465 1468 1471 1474 1477 1480 1483 1485 1488 1491 1494 1497 1500 1503 1506 1509 1512 1514 1517 1520 1523 1526 1529 1532 1535 1538 1541 1544 1547 1549 1552 1555 1557 1560 1563 1566 1569 1572 1575 1578 1581 1584 1587 1590 1593 1595 1598 1601 1603 1606 1609 1612 1614 1617 1620 1623 1626 1628 1631 1634 1637 1639 1642 1645 1648 1651 1654 1657 1660 1663 1666 1669 1672 1675 1678 1681 1684 1687 1690 1693 1695 1698 1701 1704 1707 1710 1713 1716 1719 1722 1725 1728 1731 1734 1737 1740 1743 1746 1749 1752 1755 1758 1761 1764 1767 1770 1773 1776 1779 1781 1784 1787 1789 1792 1795 1798 1800 1803 1806 1809 1812 1815 1818 1821 1824 1827 1830 1833 1836 1839 1842 1845 1848 1851 1854 1856 1859 1862 1865 1868 1871 1874 1877 1880 1883 1886 1889 1892 1895 1898 1901 1904 1907 1909 1912 1915 1918 1921 1924 1927 1929 1932 1935 1938 1941 1944 1947 1950 1953 1956 1959 1962 1965 1968 1971 1974 1977 1980 1983 1986 1989 1992 1995 1998 2001 2004 2007 2010 2013 2016 2019 2022 2025 2028 2031 2034 2037 2040 2043 2046 2049 2052 2055 2058 2061 2064 2067 2070 2073 2076 2079 2082 2085 2088 2091 2094 2097 2100 2103 2106 2109 2112 2115 2118 2121 2124 2127 2130 2133 2136 2139 2142 2145 2148 2151 2153 2156 2159 2162 2165 2168 2170 2173 2176 2178 2181 2184 2187 2190 2193 2196 2199 2202 2205 2208 2211 2214 2216 2219 2222 2225 2228 2231 2234 2236 2239 2242 2245 2247 2250 2253 2255 2258 2261 2264 2267 2269 2272 2275 2277 2280 2283 2286 2289 2292 2295 2298 2301 2303 2306 2308 2311 2314 2317 2319 2321 2324 2327 2330 2333 2336 2339 2342 2345 2348 2351 2354 2356 2359 2362 2365 2367 2370 2373 2375 2378 2381 2384 2387 2390 2393 2396 2399 2402 2404 2407 2410 2413 2416 2419 2422 2425 2428 2431 2434 2437 2440 2442 2445 2447 2450 2453 2456 2459 2462 2465 2468 2471 2474 2477 2480 2483 2486 2489 2492 2495 2498 2501 2504 2506 2509 2512 2514 2517 2520 2523 2526 2529 2532 2534 2537 2540 2543 2545 2548 2550 2552 2555 2558 2561 2564 2567 2570 2572 2574 2576 2578 2581 2583 2586 2589 2592 2595 2598 2600 2603 2606 2608 2611 2614 2616 2619 2622 2625 2628 2631 2634 2637 2640 2643 2646 2649 2652 2655 2658 2661 2664 2667 2669 2672 2675 2678 2681 2684 2687 2690 2692 2695 2698 2701 2704 2707 2710 2713 2716 2719 2722 2725 2728 2731 2734 2737 2740 2743 2746 2749 2752 2754 2757 2760 2763 2765 2768 2770 2773 2776 2778 2781 2784 2787 2790 2793 2796 2799 2802 2805 2808 2811 2813 2816 2819 2822 2825 2828 2831 2834 2837 2840 2843 2845 2848 2851 2854 2857 2860 2863 2866 2869 2872 2875 2877 2880 2883 2885 2888 2891 2894 2897 2900 2903 2906 2909 2912 2915 2918 2921 2924 2927 2930 2933 2936 2939 2942 2944 2946 2949 2951 2954 2957 2959 2961 2963 2966 2968 2971 2974 2977 2980 2983 2985 2988 2991 2994 2997 3000 3003 3006 3009 3012 3015 3018 3021 3024 3027 3030 3033 3036 3039 3042 3045 3048 3051 3053 3056 3059 3061 3064 3067 3070 3073 3076 3079 3082 3085 3087 3090 3093 3096 3098 3101 3104 3107 3110 3113 3115 3118 3121 3124 3126 3129 3132 3135 3137 3140 3142 3144 3147 3150 3153 3156 3158 3161 3164 3166 3169 3172 3175 3178 3180 3182 3185 3188 3190 3192 3195 3198 3201 3204 3206 3209 3212 3215 3218 3221 3224 3227 3230 3233 3236 3239 3242 3245 3248 3251 3254 3257 3260 3263 3265 3268 3270 3273 3276 3279 3282 3285 3288 3291 3294 3296 3298 3301 3304 3307 3309 3311 3314 3316 3319 3321 3324 3327 3330 3333 3335 3338 3341 3344 3347 3350 3353 3356 3359 3362 3365 3368 3370 3373 3376 3379 3382 3385 3388 3391 3394 3396 3399 3402 3405 3408 3411 3414 3417 3420 3423 3426 3429 3432 3434 3437 3440 3443 3446 3449 3452 3455 3458 3461 3464 3467 3470 3473 3476 3478 3481 3484 3487 3490 3493 3496 3499 3502 3505 3508 3511 3514 3517 3520 3523 3525 3528 3531 3534 3537 3540 3543 3546 3549 3552 3555 3558 3561 3564 3567 3570 3573 3575 3577 3580 3583 3586 3588 3591 3594 3596 3599 3602 3605 3608 3610 3612 3614 3617 3620 3623 3626 3629 3632 3635 3638 3641 3643 3646 3649 3652 3655 3657 3660 3663 3666 3669 3672 3674 3677 3680 3683 3686 3689 3692 3695 3698 3701 3704 3707 3710 3713 3716 3719 3722 3725 3728 3730 3733 3736 3739 3742 3745 3748 3750 3752 3755 3758 3761 3764 3767 3770 3773 3776 3778 3780 3782 3785 3788 3791 3794 3797 3800 3803 3806 3809 3812 3815 3818 3821 3824 3827 3830 3833 3836 3839 3842 3844 3847 3850 3853 3856 3859 3862 3864 3867 3870 3873 3876 3879 3881 3884 3887 3890 3893 3896 3899 3902 3905 3908 3911 3914 3917 3920 3923 3926 3929 3931 3934 3937 3940 3942 3945 3948 3951 3954 3957 3960 3963 3966 3968 3971 3974 3977 3979 3982 3985 3988 3991 3994 3997 4000 4003 4006 4009 4012 4014 4017 4020 4023 4025 4028 4031 4034 4037 4040 4043 4046 4049 4052 4055 4058 4061 4064 4067 4070 4072 4075 4077 4080 4083 4086 4089 4092 4095 4097 4100 4103 4106 4109 4112 4115 4118 4121 4123 4126 4128 4131 4134 4137 4140 4143 4146 4149 4152 4155 4158 4161 4163 4166 4169 4172 4175 4178 4181 4184 4187 4190 4192 4195 4198 4201 4204 4206 4209 4212 4214 4217 4220 4223 4226 4229 4232 4235 4238 4240 4242 4245 4248 4250 4253 4256 4259 4262 4265 4268 4271 4274 4277 4280 4283 4286 4289 4292 4295 4298 4301 4304 4307 4310 4313 4316 4319 4322 4325 4328 4331 4334 4336 4339 4342 4345 4348 4350 4353 4356 4359 4362 4365 4368 4371 4374 4376 4379 4382 4385 4388 4391 4394 4397 4400 4403 4406 4409 4412 4415 4418 4421 4424 4427 4430 4433 4435 4438 4441 4444 4446 4449 4452 4455 4458 4461 4464 4467 4470 4473 4476 4479 4482 4485 4488 4491 4494 4497 4500 4503 4506 4508 4511 4514 4517 4520 4522 4525 4528 4531 4534 4537 4540 4543 4545 4548 4551 4554 4556 4559 4562 4565 4567 4570 4573 4576 4579 4582 4585 4588 4591 4593 4596 4599 4602 4605 4608 4611 4614 4617 4620 4622 4625 4628 4630 4632 4634 4637 4639 4642 4645 4648 4651 4654 4656 4659 4661 4663 4666 4668 4671 4674 4677 4680 4683 4686 4689 4692 4694 4697 4700 4703 4706 4708 4711 4714 4717 4719 4721 4724 4727 4729 4731 4734 4737 4740 4743 4746 4748 4751 4753 4756 4759 4762 4765 4768 4771 4773 4775 4778 4780 4783 4786 4789 4792 4795 4798 4801 4804 4806 4809 4812 4815 4818 4820 4823 4825 4828 4830 4833 4836 4839 4842 4845 4848 4851 4854 4857 4860 4863 4866 4869 4872 4875 4878 4881 4884 4887 4890 4893 4895 4898 4900 4903 4906 4909 4912 4915 4918 4920 4923 4926 4929 4932 4935 4938 4941 4944 4947 4950 4953 4955 4958 4961 4964 4967 4970 4973 4976 4979 4982 4985 4988 4991 4994 4997 5000 5003 5006 5009 5012 5015 5017 5020 5023 5026 5029 5032 5035 5038 5040 5042 5045 5048 5051 5054 5057 5060 5063 5066 5069 5072 5075 5078 5081 5083 5086 5089 5092 5094 5097 5100 5103 5106 5109 5112 5115 5118 5121 5124 5127 5130 5133 5136 5139 5141 5144 5147 5150 5153 5156 5159 5162 5165 5168 5170 5173 5175 5178 5181 5184 5187 5189 5192 5194 5196 5199 5201 5204 5207 5210 5212 5215 5218 5221 5224 5227 5230 5233 5236 5239 5242 5245 5248 5251 5253 5256 5259 5262 5265 5267 5270 5273 5276 5279 5282 5285 5288 5290 5293 5296 5299 5301 5304 5306 5309 5312 5314 5317 5320 5323 5326 5329 5332 5335 5338 5341 5343 5346 5349 5352 5355 5358 5361 5364 5367 5370 5373 5376 5379 5382 5385 5388 5390 5393 5396 5399 5401 5403 5406 5408 5411 5413 5416 5418 5421 5424 5427 5430 5433 5436 5439 5441 5444 5447 5450 5453 5456 5459 5462 5465 5468 5471 5474 5477 5480 5483 5486 5489 5492 5495 5498 5501 5504 5507 5510 5513 5516 5519 5522 5525 5528 5531 5534 5537 5540 5543 5546 5549 5552 5555 5558 5561 5564 5567 5570 5573 5576 5579 5582 5585 5588 5591 5594 5597 5600 5603 5606 5609 5611 5614 5617 5620 5623 5626 5629 5632 5634 5637 5640 5643 5646 5649 5652 5655 5658 5661 5664 5667 5670 5672 5675 5678 5681 5684 5687 5690 5693 5695 5698 5701 5704 5707 5710 5713 5716 5719 5722 5724 5727 5730 5733 5735 5738 5741 5744 5747 5750 5753 5756 5759 5762 5765 5768 5771 5774 5777 5780 5783 5786 5789 5792 5795 5798 5801 5804 5807 5810 5813 5816 5818 5821 5824 5827 5830 5833 5835 5838 5841 5844 5846 5849 5852 5854 5857 5860 5862 5865 5868 5871 5874 5877 5879 5882 5885 5887 5890 5893 5896 5899 5902 5905 5908 5910 5913 5915 5918 5921 5923 5926 5929 5932 5935 5938 5941 5943 5946 5949 5952 5955 5958 5961 5963 5966 5969 5972 5975 5978 5981 5984 5987 5990 5993 5996 5999 6001 6004 6007 6010 6012 6015 6018 6021 6024 6027 6030 6033 6036 6039 6042 6045 6048 6051 6053 6056 6059 6062 6065 6067 6070 6073 6076 6079 6082 6085 6088 6091 6093 6096 6099 6102 6105 6108 6111 6114 6117 6120 6123 6126 6129 6132 6135 6138 6141 6144 6147 6150 6153 6156 6159 6162 6165 6168 6171 6174 6177 6179 6182 6185 6187 6189 6192 6195 6198 6200 6202 6205 6208 6211 6214 6217 6220 6223 6226 6229 6232 6235 6237 6240 6243 6246 6249 6252 6255 6258 6261 6264 6267 6270 6273 6276 6279 6282 6285 6288 6291 6294 6296 6299 6302 6304 6307 6310 6313 6316 6319 6322 6325 6328 6331 6334 6337 6339 6342 6345 6347 6350 6353 6356 6358 6361 6364 6367 6370 6373 6376 6379 6382 6385 6388 6391 6394 6397 6400 6403 6406 6409 6412 6415 6418 6421 6424 6427 6430 6433 6436 6439 6442 6445 6448 6451 6454 6457 6460 6463 6466 6469 6472 6475 6478 6481 6484 6487 6490 6492 6495 6498 6501 6503 6506 6509 6512 6515 6517 6520 6523 6525 6528 6531 6533 6536 6539 6542 6545 6547 6549 6552 6555 6558 6561 6564 6567 6570 6573 6576 6579 6581 6584 6586 6589 6592 6595 6598 6601 6604 6606 6609 6612 6614 6617 6620 6623 6625 6628 6631 6633 6636 6639 6642 6644 6647 6650 6653 6656 6659 6662 6665 6668 6671 6674 6677 6680 6683 6686 6689 6692 6695 6698 6701 6704 6707 6710 6713 6716 6719 6722 6725 6728 6731 6734 6737 6739 6742 6745 6748 6751 6754 6756 6759 6762 6765 6768 6771 6774 6777 6779 6782 6785 6788 6790 6793 6796 6799 6802 6805 6808 6811 6814 6817 6820 6822 6825 6828 6830 6833 6836 6839 6842 6845 6847 6850 6853 6855 6858 6860 6863 6866 6869 6872 6875 6878 6881 6884 6887 6890 6893 6896 6899 6902 6905 6908 6911 6914 6917 6920 6923 6926 6929 6932 6935 6938 6941 6943 6946 6948 6951 6954 6957 6960 6963 6966 6969 6972 6975 6978 6980 6983 6986 6989 6992 6995 6998 7001 7004 7007 7010 7013 7016 7019 7022 7024 7027 7030 7033 7036 7039 7042 7044 7047 7050 7053 7056 7059 7062 7065 7068 7071 7074 7077 7080 7083 7086 7089 7091 7094 7097 7100 7103 7106 7109 7111 7114 7117 7120 7123 7126 7129 7132 7135 7138 7141 7143 7146 7149 7152 7154 7157 7160 7163 7166 7168 7171 7174 7177 7180 7182 7185 7188 7191 7194 7197 7200 7203 7206 7209 7212 7214 7217 7220 7223 7226 7229 7231 7234 7237 7240 7243 7246 7249 7252 7255 7258 7261 7264 7267 7269 7272 7275 7277 7280 7283 7286 7289 7292 7295 7298 7301 7304 7307 7310 7313 7316 7319 7322 7325 7328 7331 7334 7337 7340 7343 7346 7349 7352 7355 7358 7361 7364 7367 7370 7373 7376 7379 7382 7385 7388 7391 7394 7397 7400 7403 7406 7409 7412 7415 7418 7421 7424 7427 7429 7431 7434 7437 7440 7443 7446 7449 7452 7455 7458 7461 7464 7467 7470 7473 7475 7478 7481 7484 7487 7490 7493 7495 7498 7501 7504 7507 7510 7513 7515 7518 7521 7524 7527 7530 7533 7536 7539 7542 7545 7548 7550 7553 7556 7559 7562 7564 7567 7570 7573 7575 7577 7580 7583 7585 7588 7591 7593 7596 7599 7602 7605 7607 7610 7613 7616 7619 7622 7624 7627 7629 7632 7635 7637 7640 7643 7645 7648 7651 7654 7657 7660 7663 7666 7669 7672 7675 7677 7680 7683 7686 7689 7692 7694 7697 7700 7702 7705 7707 7709 7712 7715 7718 7721 7723 7726 7729 7732 7735 7738 7740 7742 7745 7748 7751 7754 7757 7760 7762 7765 7768 7770 7773 7775 7778 7781 7783 7786 7789 7792 7795 7797 7799 7802 7805 7808 7811 7814 7817 7820 7823 7826 7829 7832 7835 7838 7841 7844 7847 7850 7853 7856 7859 7862 7865 7868 7871 7874 7877 7880 7883 7886 7889 7892 7895 7897 7899 7902 7904 7907 7910 7913 7916 7919 7922 7924 7927 7930 7933 7936 7939 7941 7944 7947 7950 7953 7956 7959 7962 7965 7967 7970 7973 7976 7978 7981 7984 7987 7990 7993 7996 7999 8002 8005 8008 8010 8013 8016 8018 8021 8024 8027 8030 8033 8036 8039 8042 8045 8047 8050 8053 8056 8059 8061 8064 8067 8070 8073 8076 8079 8081 8084 8087 8090 8093 8096 8099 8102 8104 8107 8110 8113 8116 8119 8122 8125 8128 8131 8134 8137 8140 8143 8146 8149 8152 8155 8158 8161 8164 8167 8170 8173 8176 8179 8181 8184 8187 8190 8193 8195 8198 8200 8203 8206 8209 8212 8215 8218 8220 8223 8226 8228 8231 8234 8237 8240 8243 8246 8249 8252 8255 8258 8260 8263 8266 8269 8272 8275 8278 8281 8284 8286 8289 8292 8295 8298 8300 8303 8306 8309 8312 8315 8318 8321 8324 8327 8329 8332 8335 8337 8340 8343 8346 8349 8352 8354 8356 8359 8362 8365 8368 8371 8374 8377 8380 8383 8386 8389 8392 8395 8397 8400 8402 8404 8407 8410 8413 8416 8419 8422 8425 8428 8431 8434 8437 8440 8443 8445 8448 8451 8454 8456 8458 8461 8464 8467 8470 8473 8476 8479 8482 8485 8487 8490 8493 8496 8499 8502 8505 8508 8511 8513 8516 8518 8521 8523 8525 8528 8531 8533 8535 8538 8541 8544 8547 8550 8553 8556 8559 8562 8565 8567 8570 8572 8575 8578 8581 8583 8586 8588 8590 8592 8595 8598 8600 8603 8606 8609 8612 8615 8618 8621 8624 8627 8629 8632 8635 8638 8641 8644 8647 8650 8653 8656 8659 8662 8665 8668 8671 8674 8676 8679 8682 8685 8688 8690 8692 8694 8697 8700 8703 8706 8708 8711 8714 8717 8720 8723 8726 8728 8731 8734 8737 8740 8743 8746 8749 8752 8755 8758 8761 8764 8767 8770 8773 8776 8779 8782 8785 8788 8791 8794 8797 8800 8803 8806 8809 8812 8815 8817 8820 8823 8826 8829 8832 8835 8838 8841 8844 8847 8850 8853 8855 8858 8861 8864 8867 8870 8873 8875 8878 8881 8884 8887 8890 8893 8895 8898 8901 8904 8907 8910 8913 8916 8919 8922 8925 8927 8930 8933 8936 8938 8941 8943 8946 8949 8952 8955 8958 8961 8964 8967 8970 8973 8976 8979 8982 8985 8988 8991 8994 8997 9000 9003 9006 9009 9012 9014 9016 9019 9022 9025 9028 9031 9034 9036 9039 9042 9045 9048 9051 9054 9057 9060 9063 9066 9069 9072 9075 9078 9081 9084 9087 9090 9093 9096 9099 9102 9105 9108 9111 9114 9117 9120 9123 9126 9129 9132 9135 9137 9140 9143 9145 9147 9150 9153 9155 9158 9161 9164 9167 9170 9173 9176 9179 9181 9184 9187 9190 9193 9196 9199 9202 9205 9208 9211 9214 9217 9220 9223 9226 9228 9231 9234 9237 9240 9243 9246 9249 9252 9255 9258 9261 9264 9267 9270 9272 9275 9278 9281 9284 9286 9289 9291 9293 9296 9299 9301 9304 9307 9309 9312 9315 9318 9321 9323 9326 9329 9332 9335 9338 9340 9343 9346 9348 9351 9354 9357 9360 9363 9366 9369 9372 9375 9377 9380 9383 9386 9388 9391 9394 9397 9400 9403 9406 9409 9412 9415 9418 9421 9424 9427 9430 9433 9436 9439 9442 9445 9448 9451 9454 9457 9460 9463 9466 9469 9472 9475 9478 9481 9484 9487 9490 9492 9495 9498 9500 9503 9506 9509 9512 9515 9518 9521 9524 9526 9529 9532 9535 9538 9541 9544 9547 9550 9553 9555 9558 9561 9564 9567 9569 9572 9575 9578 9581 9584 9587 9590 9593 9596 9599 9602 9605 9608 9611 9614 9617 9620 9623 9626 9629 9631 9634 9636 9639 9642 9645 9648 9651 9653 9656 9659 9662 9665 9668 9671 9674 9677 9680 9682 9685 9688 9691 9694 9697 9700 9703 9706 9709 9712 9715 9718 9721 9724 9726 9729 9732 9735 9738 9740 9743 9746 9749 9751 9754 9757 9760 9763 9766 9769 9772 9774 9777 9780 9783 9785 9788 9791 9794 9796 9799 9801 9804 9807 9810 9813 9816 9819 9822 9825 9827 9830 9833 9835 9838 9841 9844 9846 9849 9851 9854 9857 9860 9862 9865 9868 9871 9873 9876 9879 9881 9884 9886 9889 9892 9894 9897 9900 9902 9905 9908 9911 9914 9917 9920 9923 9926 9929 9932 9935 9938 9941 9944 9947 9950 9953 9956 9958 9961 9964 9967 9970 9973 9975 9978 9981 9983 9986 9989 9992 9995 9998 10000 10003 10006 10009 10012 10015 10017 10020 10023 10026 10029 10032 10035 10038 10041 10043 10046 10049 10051 10054 10056 10059 10062 10065 10067 10070 10073 10076 10079 10082 10085 10087 10090 10093 10095 10098 10101 10104 10107 10109 10112 10115 10118 10120 10122 10125 10128 10131 10134 10137 10140 10142 10144 10147 10150 10153 10156 10158 10161 10164 10167 10169 10172 10175 10178 10181 10184 10187 10190 10193 10196 10199 10202 10205 10208 10211 10214 10217 10220 10223 10226 10229 10232 10235 10238 10241 10244 10247 10250 10253 10256 10259 10262 10265 10268 10271 10274 10277 10280 10283 10286 10289 10292 10295 10298 10301 10304 10307 10310 10313 10316 10319 10322 10325 10328 10331 10334 10337 10340 10343 10346 10349 10352 10355 10358 10361 10364 10366 10369 10372 10375 10377 10380 10383 10386 10389 10392 10395 10398 10401 10404 10407 10410 10412 10415 10417 10420 10423 10426 10429 10432 10435 10438 10440 10443 10446 10449 10452 10455 10458 10461 10464 10467 10470 10473 10476 10479 10482 10485 10488 10490 10493 10496 10498 10501 10504 10507 10509 10512 10515 10518 10521 10524 10526 10529 10532 10535 10538 10541 10544 10547 10550 10553 10556 10558 10561 10563 10566 10569 10572 10575 10578 10581 10584 10587 10590 10593 10596 10599 10602 10605 10608 10611 10614 10616 10619 10622 10625 10628 10631 10634 10637 10640 10643 10646 10649 10652 10654 10657 10660 10663 10666 10668 10671 10674 10676 10679 10681 10684 10687 10690 10692 10695 10698 10701 10704 10707 10710 10712 10715 10718 10721 10724 10727 10730 10733 10736 10739 10742 10745 10748 10750 10753 10756 10759 10762 10765 10768 10771 10774 10777 10780 10783 10786 10789 10792 10795 10798 10800 10803 10806 10809 10812 10815 10817 10819 10822 10825 10827 10830 10833 10836 10839 10842 10845 10848 10851 10854 10857 10860 10863 10866 10869 10872 10875 10878 10881 10884 10886 10889 10892 10895 10898 10901 10904 10907 10910 10913 10916 10918 10921 10924 10927 10930 10933 10936 10938 10941 10944 10946 10949 10952 10955 10958 10961 10964 10967 10970 10973 10976 10979 10982 10985 10988 10991 10994 10997 11000 11003 11006 11008 11011 11014 11017 11020 11023 11026 11028 11031 11034 11037 11040 11043 11045 11048 11051 11053 11056 11058 11061 11063 11066 11068 11071 11074 11077 11080 11082 11085 11088 11091 11094 11097 11099 11102 11105 11108 11111 11113 11116 11119 11122 11125 11128 11130 11133 11136 11138 11141 11144 11147 11150 11152 11155 11158 11161 11164 11166 11169 11172 11175 11178 11181 11184 11187 11190 11193 11196 11199 11202 11205 11208 11211 11214 11217 11220 11223 11226 11229 11231 11234 11237 11240 11243 11246 11249 11252 11255 11257 11260 11263 11266 11268 11271 11274 11277 11280 11283 11285 11288 11291 11294 11297 11300 11302 11305 11308 11311 11314 11317 11320 11322 11325 11328 11331 11334 11337 11340 11343 11346 11349 11352 11355 11358 11361 11364 11367 11370 11373 11376 11379 11382 11385 11388 11391 11393 11395 11398 11401 11404 11407 11410 11413 11415 11418 11421 11424 11427 11429 11432 11435 11438 11440 11443 11446 11449 11452 11455 11457 11459 11462 11465 11468 11470 11473 11476 11478 11481 11484 11487 11490 11493 11496 11499 11502 11505 11508 11510 11512 11515 11518 11521 11524 11527 11530 11533 11536 11539 11542 11545 11548 11551 11554 11557 11560 11563 11566 11569 11572 11575 11578 11580 11583 11585 11588 11591 11594 11597 11599 11602 11605 11608 11611 11614 11617 11620 11623 11626 11628 11631 11634 11636 11639 11642 11645 11648 11651 11654 11657 11660 11663 11666 11669 11672 11675 11678 11681 11684 11687 11690 11693 11696 11699 11702 11705 11708 11711 11714 11717 11720 11723 11726 11729 11731 11734 11737 11740 11742 11745 11748 11751 11754 11756 11759 11762 11765 11768 11770 11773 11776 11779 11782 11785 11788 11791 11794 11797 11800 11803 11806 11809 11812 11815 11817 11820 11823 11826 11829 11832 11835 11838 11841 11844 11847 11850 11853 11856 11859 11862 11865 11868 11871 11874 11877 11880 11882 11885 11888 11890 11893 11896 11899 11901 11904 11906 11909 11912 11915 11918 11921 11923 11926 11929 11932 11935 11938 11941 11944 11947 11950 11953 11956 11959 11962 11965 11968 11971 11974 11977 11980 11982 11985 11987 11990 11992 11995 11998 12001 12004 12007 12010 12013 12016 12019 12021 12024 12027 12029 12032 12035 12038 12041 12044 12047 12050 12053 12056 12059 12062 12065 12068 12071 12074 12077 12080 12083 12086 12089 12092 12095 12098 12101 12104 12107 12110 12113 12116 12119 12122 12125 12128 12131 12134 12137 12140 12143 12146 12148 12151 12154 12157 12160 12163 12166 12169 12172 12175 12177 12179 12182 12185 12188 12191 12194 12197 12200 12203 12206 12209 12212 12215 12218 12221 12224 12227 12230 12233 12235 12238 12241 12244 12247 12250 12253 12256 12259 12262 12265 12268 12271 12274 12277 12280 12283 12286 12289 12292 12295 12298 12301 12304 12307 12310 12313 12316 12319 12322 12325 12328 12331 12334 12337 12340 12343 12346 12349 12352 12355 12358 12361 12364 12367 12370 12373 12376 12378 12381 12383 12386 12388 12391 12394 12397 12399 12402 12405 12407 12410 12412 12415 12418 12421 12424 12427 12429 12432 12435 12438 12440 12443 12445 12448 12451 12454 12456 12459 12461 12464 12467 12470 12473 12475 12478 12481 12484 12487 12490 12493 12496 12498 12501 12504 12507 12510 12513 12515 12518 12521 12523 12526 12529 12532 12535 12538 12541 12544 12547 12550 12553 12556 12559 12562 12565 12568 12571 12574 12577 12580 12583 12586 12589 12592 12595 12598 12601 12604 12607 12610 12613 12616 12618 12621 12624 12627 12630 12633 12636 12639 12642 12645 12648 12651 12654 12657 12660 12663 12666 12669 12672 12675 12678 12681 12684 12687 12690 12693 12696 12699 12702 12704 12707 12710 12713 12715 12718 12721 12724 12727 12730 12733 12736 12739 12742 12745 12748 12751 12754 12757 12760 12763 12766 12769 12772 12775 12778 12781 12784 12786 12789 12792 12795 12798 12801 12804 12807 12810 12813 12816 12819 12821 12824 12827 12830 12833 12836 12838 12841 12844 12847 12850 12853 12856 12859 12861 12864 12867 12870 12873 12876 12879 12881 12884 12887 12890 12893 12895 12897 12900 12902 12905 12908 12911 12914 12917 12919 12922 12925 12928 12931 12934 12937 12940 12942 12945 12948 12951 12954 12956 12959 12962 12965 12968 12971 12974 12977 12980 12982 12985 12988 12991 12994 12997 13000 13002 13005 13008 13011 13014 13017 13020 13023 13025 13028 13031 13034 13037 13040 13042 13045 13048 13051 13054 13057 13060 13063 13066 13069 13072 13075 13078 13080 13083 13086 13089 13092 13095 13098 13101 13104 13106 13109 13112 13115 13118 13121 13124 13127 13129 13132 13135 13138 13141 13143 13146 13149 13152 13155 13158 13161 13164 13166 13169 13172 13174 13177 13180 13183 13186 13189 13191 13194 13197 13200 13202 13204 13207 13210 13213 13216 13219 13221 13224 13227 13230 13233 13236 13239 13242 13245 13247 13250 13253 13255 13258 13261 13264 13267 13270 13273 13276 13279 13282 13285 13288 13290 13293 13295 13298 13301 13304 13307 13309 13312 13315 13318 13321 13324 13327 13330 13333 13336 13338 13341 13344 13347 13350 13352 13355 13358 13361 13364 13366 13369 13372 13375 13378 13380 13383 13386 13389 13392 13395 13398 13401 13404 13407 13410 13413 13416 13419 13422 13425 13428 13431 13434 13437 13440 13443 13446 13448 13451 13454 13457 13460 13463 13465 13468 13471 13474 13476 13479 13482 13484 13487 13490 13493 13496 13499 13502 13505 13508 13511 13514 13517 13520 13523 13525 13528 13531 13533 13536 13539 13542 13544 13547 13550 13552 13555 13557 13560 13563 13566 13568 13571 13574 13577 13580 13582 13585 13588 13591 13594 13597 13600 13602 13605 13608 13611 13614 13617 13620 13623 13626 13629 13632 13634 13637 13640 13642 13645 13647 13649 13652 13654 13656 13659 13662 13665 13667 13670 13673 13676 13679 13682 13685 13688 13691 13694 13697 13700 13703 13706 13709 13712 13715 13718 13721 13724 13726 13729 13732 13735 13738 13741 13744 13747 13750 13753 13756 13759 13762 13764 13767 13770 13773 13775 13778 13781 13784 13787 13790 13793 13796 13799 13802 13805 13808 13811 13814 13817 13820 13823 13826 13829 13832 13835 13838 13841 13844 13847 13850 13853 13856 13859 13862 13865 13868 13871 13874 13877 13880 13883 13886 13889 13892 13895 13898 13901 13904 13907 13910 13912 13915 13918 13920 13923 13926 13929 13931 13934 13936 13939 13942 13945 13948 13951 13954 13957 13960 13963 13966 13969 13972 13975 13978 13981 13984 13986 13989 13991 13994 13997 14000 14003 14006 14009 14012 14015 14018 14021 14024 14026 14029 14031 14034 14036 14039 14041 14044 14046 14048 14051 14054 14057 14060 14062 14065 14068 14071 14074 14076 14079 14081 14083 14086 14088 14091 14093 14096 14099 14102 14105 14108 14111 14114 14117 14120 14123 14126 14129 14132 14135 14138 14140 14143 14146 14148 14151 14154 14156 14159 14162 14165 14167 14170 14173 14176 14178 14181 14184 14187 14190 14193 14196 14199 14202 14205 14208 14211 14214 14217 14220 14223 14226 14229 14232 14235 14237 14240 14243 14246 14249 14252 14255 14258 14261 14264 14267 14270 14273 14276 14279 14282 14285 14287 14290 14293 14296 14299 14301 14303 14306 14309 14312 14315 14318 14321 14324 14326 14328 14331 14334 14337 14340 14343 14346 14349 14352 14355 14358 14361 14364 14367 14370 14373 14376 14379 14382 14385 14387 14390 14393 14396 14398 14401 14404 14407 14410 14412 14415 14418 14420 14423 14426 14428 14431 14434 14437 14440 14443 14446 14449 14452 14454 14457 14460 14463 14466 14469 14472 14475 14478 14481 14483 14486 14489 14492 14494 14497 14500 14503 14506 14509 14512 14515 14518 14521 14524 14527 14530 14533 14536 14539 14542 14545 14548 14551 14554 14557 14560 14563 14566 14569 14572 14575 14578 14580 14582 14585 14588 14591 14594 14597 14600 14602 14605 14608 14611 14614 14617 14619 14622 14625 14628 14631 14633 14636 14639 14642 14644 14647 14650 14653 14656 14659 14661 14664 14667 14670 14672 14675 14678 14681 14684 14687 14690 14693 14696 14699 14702 14705 14708 14711 14714 14717 14720 14723 14725 14728 14731 14734 14736 14739 14742 14745 14748 14751 14754 14757 14760 14763 14765 14768 14771 14774 14776 14779 14782 14785 14788 14791 14794 14796 14799 14802 14805 14808 14811 14814 14817 14820 14823 14825 14828 14831 14834 14837 14839 14842 14845 14848 14851 14854 14856 14859 14862 14864 14867 14870 14873 14876 14879 14882 14885 14888 14891 14894 14897 14900 14903 14906 14909 14912 14915 14918 14921 14924 14926 14929 14932 14935 14938 14941 14944 14947 14950 14953 14955 14958 14961 14963 14966 14969 14972 14974 14977 14980 14983 14986 14989 14992 14995 14998 15000 15003 15006 15009 15012 15015 15017 15020 15023 15026 15029 15032 15034 15037 15039 15042 15045 15048 15051 15053 15056 15059 15061 15064 15066 15069 15071 15074 15077 15080 15083 15086 15088 15091 15093 15095 15098 15101 15103 15106 15109 15112 15114 15117 15120 15123 15126 15129 15132 15135 15137 15139 15142 15145 15148 15151 15154 15157 15160 15162 15165 15168 15171 15173 15176 15179 15182 15185 15188 15191 15194 15197 15199 15202 15205 15207 15210 15213 15216 15219 15222 15225 15227 15230 15233 15236 15239 15242 15245 15248 15251 15253 15256 15258 15261 15263 15266 15269 15271 15273 15276 15279 15281 15284 15286 15288 15291 15294 15297 15299 15302 15304 15307 15310 15313 15315 15317 15319 15322 15325 15327 15329 15332 15334 15337 15339 15342 15345 15348 15350 15353 15356 15359 15362 15365 15367 15370 15373 15376 15378 15381 15384 15386 15388 15391 15394 15397 15400 15403 15406 15408 15411 15414 15417 15420 15422 15425 15428 15431 15434 15437 15440 15443 15446 15449 15452 15454 15457 15459 15461 15464 15467 15469 15472 15474 15476 15479 15482 15484 15487 15489 15491 15494 15497 15500 15503 15506 15509 15512 15514 15517 15520 15523 15525 15528 15531 15534 15537 15540 15543 15546 15549 15552 15555 15558 15560 15563 15566 15568 15571 15574 15577 15580 15583 15585 15588 15591 15594 15596 15599 15602 15604 15607 15610 15613 15615 15618 15621 15624 15627 15630 15632 15635 15638 15641 15644 15646 15648 15651 15653 15656 15658 15661 15663 15665 15668 15671 15674 15677 15680 15682 15684 15687 15689 15691 15694 15696 15699 15702 15705 15707 15709 15712 15714 15717 15720 15722 15725 15728 15731 15734 15736 15739 15741 15744 15747 15750 15752 15755 15758 15760 15763 15766 15769 15772 15774 15777 15780 15783 15786 15788 15791 15794 15797 15800 15803 15806 15809 15812 15815 15818 15821 15824 15826 15829 15832 15835 15838 15841 15844 15847 15850 15853 15855 15858 15861 15864 15866 15869 15872 15875 15878 15881 15884 15887 15890 15893 15896 15899 15902 15905 15908 15911 15914 15917 15920 15923 15926 15929 15932 15935 15938 15941 15944 15947 15950 15953 15956 15959 15962 15965 15968 15971 15974 15977 15980 15983 15986 15989 15992 15995 15998 16001 16004 16007 16010 16013 16016 16019 16022 16025 16028 16031 16034 16037 16040 16043 16045 16048 16051 16054 16057 16060 16063 16066 16069 16071 16074 16077 16080 16083 16086 16089 16091 16094 16097 16100 16102 16105 16108 16111 16114 16117 16120 16123 16125 16128 16131 16134 16137 16140 16142 16144 16147 16150 16153 16155 16158 16160 16163 16165 16168 16171 16174 16177 16180 16183 16185 16187 16190 16193 16196 16199 16202 16205 16207 16210 16213 16216 16219 16222 16225 16228 16231 16233 16235 16238 16241 16244 16246 16248 16251 16254 16257 16260 16263 16265 16268 16271 16274 16277 16280 16283 16286 16289 16292 16294 16297 16300 16303 16305 16308 16311 16314 16317 16320 16322 16325 16328 16331 16334 16337 16340 16343 16346 16349 16352 16355 16358 16361 16364 16367 16369 16372 16375 16378 16380 16383 16385 16388 16391 16394 16397 16400 16403 16406 16409 16412 16415 16418 16421 16424 16427 16430 16433 16436 16439 16442 16445 16448 16451 16454 16457 16459 16462 16464 16467 16470 16473 16476 16479 16482 16485 16487 16490 16493 16496 16499 16502 16505 16508 16510 16513 16515 16518 16521 16524 16527 16530 16533 16536 16539 16542 16545 16548 16551 16554 16556 16559 16562 16564 16566 16569 16572 16575 16578 16581 16584 16587 16590 16593 16596 16599 16602 16605 16608 16610 16613 16616 16619 16622 16625 16627 16630 16632 16635 16638 16641 16644 16647 16650 16653 16656 16659 16662 16665 16668 16671 16674 16677 16680 16683 16686 16689 16692 16694 16696 16699 16702 16705 16708 16711 16714 16717 16720 16723 16726 16729 16732 16735 16737 16740 16743 16746 16749 16752 16755 16758 16761 16764 16767 16770 16773 16776 16779 16782 16785 16788 16791 16794 16797 16800 16803 16806 16809 16812 16815 16818 16821 16824 16827 16830 16833 16836 16839 16842 16845 16848 16851 16854 16856 16859 16862 16864 16867 16870 16873 16876 16879 16882 16885 16888 16891 16894 16897 16899 16902 16905 16908 16911 16914 16917 16920 16923 16926 16928 16931 16934 16936 16939 16942 16945 16948 16951 16954 16956 16959 16962 16965 16968 16971 16974 16977 16980 16983 16986 16989 16992 16995 16998 17001 17004 17007 17010 17013 17016 17019 17022 17025 17028 17031 17034 17037 17040 17043 17046 17049 17052 17055 17058 17061 17063 17065 17068 17071 17074 17077 17080 17082 17085 17088 17091 17094 17097 17100 17103 17106 17109 17112 17115 17118 17121 17123 17126 17129 17132 17135 17138 17141 17144 17147 17149 17152 17155 17158 17161 17164 17167 17170 17173 17176 17179 17182 17185 17188 17191 17194 17197 17200 17203 17206 17209 17212 17215 17218 17221 17224 17227 17230 17233 17236 17239 17242 17245 17248 17251 17254 17257 17260 17263 17266 17269 17272 17275 17278 17281 17284 17287 17290 17293 17296 17299 17302 17305 17308 17311 17314 17317 17320 17323 17326 17329 17332 17335 17338 17341 17344 17347 17350 17353 17355 17357 17360 17363 17366 17369 17372 17375 17378 17381 17384 17387 17390 17393 17396 17399 17402 17405 17407 17410 17413 17415 17418 17420 17423 17425 17428 17431 17433 17436 17439 17442 17445 17448 17451 17454 17456 17459 17462 17465 17468 17471 17474 17477 17480 17483 17486 17489 17492 17494 17497 17500 17503 17506 17509 17512 17515 17518 17521 17524 17527 17530 17533 17536 17538 17541 17544 17547 17550 17553 17556 17559 17562 17565 17568 17571 17574 17577 17580 17583 17586 17589 17592 17595 17598 17601 17604 17607 17610 17613 17616 17619 17622 17625 17628 17631 17634 17637 17640 17643 17646 17649 17652 17655 17658 17661 17664 17667 17670 17673 17676 17679 17682 17685 17688 17691 17694 17697 17700 17703 17706 17709 17712 17715 17718 17721 17724 17727 17730 17733 17736 17739 17742 17745 17748 17751 17754 17757 17760 17763 17766 17769 17772 17775 17778 17781 17784 17787 17790 17793 17796 17799 17802 17805 17808 17810 17813 17815 17818 17821 17824 17827 17830 17833 17836 17839 17842 17845 17848 17851 17854 17857 17860 17863 17865 17867 17870 17873 17876 17879 17882 17885 17888 17891 17894 17897 17900 17903 17906 17909 17912 17915 17918 17921 17924 17927 17930 17933 17936 17939 17942 17945 17948 17951 17954 17957 17960 17963 17966 17969 17972 17975 17978 17981 17984 17986 17989 17992 17995 17998 18000 18003 18006 18009 18012 18015 18018 18021 18024 18027 18029 18032 18034 18037 18040 18043 18046 18049 18052 18055 18057 18060 18063 18066 18069 18072 18075 18078 18081 18084 18087 18090 18093 18096 18099 18101 18104 18107 18110 18113 18115 18118 18121 18124 18127 18130 18133 18136 18139 18142 18145 18148 18151 18154 18156 18159 18162 18165 18167 18170 18173 18176 18179 18182 18185 18188 18191 18194 18197 18200 18203 18206 18209 18212 18215 18218 18221 18224 18227 18230 18233 18236 18238 18241 18244 18247 18250 18252 18255 18258 18261 18264 18267 18270 18272 18275 18278 18281 18284 18286 18289 18292 18295 18298 18301 18304 18306 18309 18312 18315 18318 18321 18323 18326 18329 18331 18333 18336 18339 18342 18345 18347 18350 18353 18356 18359 18362 18365 18368 18371 18374 18376 18379 18382 18384 18387 18390 18393 18396 18399 18402 18405 18408 18411 18414 18417 18420 18423 18426 18428 18431 18434 18437 18440 18443 18445 18448 18451 18454 18457 18459 18462 18465 18468 18471 18474 18477 18480 18483 18486 18489 18492 18495 18498 18501 18503 18506 18509 18512 18515 18518 18520 18523 18526 18529 18532 18535 18538 18540 18543 18546 18549 18552 18555 18558 18561 18564 18567 18570 18573 18576 18579 18581 18584 18587 18590 18593 18596 18599 18601 18604 18607 18609 18612 18615 18618 18621 18624 18627 18630 18633 18636 18639 18642 18644 18647 18650 18653 18656 18659 18662 18665 18668 18671 18674 18677 18679 18682 18684 18687 18690 18693 18696 18699 18701 18703 18706 18709 18711 18713 18716 18719 18721 18724 18727 18730 18733 18735 18738 18741 18744 18747 18750 18753 18755 18758 18761 18763 18766 18769 18772 18775 18778 18781 18784 18786 18789 18792 18795 18798 18801 18804 18806 18809 18812 18815 18818 18821 18824 18827 18830 18833 18836 18839 18842 18845 18848 18851 18854 18857 18859 18862 18865 18868 18870 18873 18876 18879 18882 18885 18888 18891 18894 18897 18900 18903 18906 18909 18912 18915 18918 18921 18924 18927 18930 18933 18935 18938 18941 18944 18947 18949 18952 18954 18957 18960 18962 18965 18968 18970 18973 18976 18979 18982 18985 18987 18990 18993 18996 18998 19001 19004 19006 19009 19012 19015 19018 19020 19023 19026 19029 19032 19034 19037 19040 19043 19046 19049 19052 19055 19058 19061 19064 19067 19070 19073 19076 19079 19082 19085 19088 19091 19093 19096 19099 19102 19105 19108 19111 19113 19116 19119 19122 19125 19128 19130 19133 19136 19139 19141 19144 19147 19149 19152 19155 19158 19161 19164 19167 19170 19173 19176 19179 19182 19185 19188 19190 19193 19195 19198 19201 19204 19207 19210 19213 19216 19219 19222 19225 19228 19231 19234 19237 19240 19243 19245 19248 19251 19254 19256 19259 19262 19265 19268 19271 19274 19277 19280 19283 19286 19289 19292 19295 19298 19301 19304 19307 19310 19313 19316 19319 19322 19325 19328 19331 19334 19337 19340 19343 19346 19348 19351 19354 19356 19359 19362 19365 19368 19371 19374 19377 19380 19383 19386 19389 19392 19395 19398 19400 19403 19406 19409 19412 19415 19417 19420 19423 19426 19429 19432 19435 19438 19441 19444 19446 19449 19452 19455 19458 19461 19464 19467 19470 19473 19476 19479 19482 19485 19488 19491 19494 19497 19500 19503 19506 19509 19511 19514 19516 19519 19521 19524 19527 19530 19533 19536 19539 19542 19545 19548 19550 19553 19556 19559 19562 19565 19568 19571 19574 19577 19580 19583 19586 19589 19592 19595 19598 19600 19602 19605 19608 19611 19614 19617 19620 19623 19625 19628 19631 19634 19637 19640 19643 19646 19649 19652 19655 19658 19661 19664 19667 19670 19673 19676 19678 19680 19683 19686 19689 19692 19695 19698 19701 19704 19707 19710 19713 19716 19719 19722 19725 19728 19731 19734 19737 19740 19743 19746 19749 19752 19755 19758 19761 19764 19767 19770 19773 19776 19779 19782 19785 19788 19791 19794 19797 19800 19803 19806 19808 19811 19814 19817 19820 19823 19826 19829 19832 19835 19838 19841 19844 19847 19850 19853 19856 19859 19862 19865 19867 19870 19873 19876 19879 19882 19885 19888 19891 19893 19896 19899 19902 19905 19908 19911 19913 19915 19918 19920 19923 19926 19928 19931 19934 19937 19939 19942 19944 19947 19950 19952 19955 19958 19960 19963 19966 19969 19972 19975 19978 19981 19984 19987 19990 19993 19995 19998 20001 20004 20007 20009 20012 20015 20018 20021 20024 20027 20030 20033 20036 20039 20041 20044 20047 20049 20052 20055 20058 20061 20064 20067 20070 20073 20076 20079 20082 20085 20088 20091 20094 20097 20100 20103 20106 20109 20112 20114 20117 20120 20122 20125 20128 20131 20134 20137 20140 20143 20146 20148 20150 20153 20156 20159 20162 20165 20167 20170 20173 20176 20178 20181 20184 20187 20190 20192 20195 20198 20201 20204 20207 20210 20213 20216 20219 20222 20225 20228 20231 20234 20237 20240 20243 20246 20249 20252 20255 20258 20261 20264 20267 20270 20273 20276 20279 20282 20285 20288 20291 20294 20296 20298 20301 20304 20307 20310 20313 20315 20318 20321 20324 20327 20329 20332 20335 20338 20341 20344 20347 20350 20353 20355 20358 20361 20364 20367 20370 20372 20375 20378 20381 20383 20386 20389 20392 20395 20398 20401 20404 20407 20410 20413 20416 20419 20421 20423 20426 20429 20432 20435 20437 20439 20442 20444 20446 20449 20451 20454 20456 20459 20462 20464 20466 20469 20472 20475 20478 20480 20482 20485 20488 20490 20492 20495 20498 20500 20503 20506 20508 20511 20514 20517 20520 20523 20526 20529 20532 20535 20538 20541 20544 20547 20550 20553 20556 20559 20562 20565 20568 20571 20573 20576 20579 20582 20584 20587 20590 20592 20595 20598 20601 20603 20606 20608 20610 20613 20615 20618 20621 20624 20627 20630 20632 20634 20637 20640 20642 20645 20648 20651 20653 20656 20659 20662 20665 20668 20671 20674 20677 20679 20682 20685 20687 20690 20693 20696 20699 20701 20703 20706 20708 20711 20714 20717 20720 20722 20725 20728 20731 20734 20737 20740 20743 20745 20748 20751 20754 20757 20760 20763 20765 20768 20771 20774 20777 20780 20783 20786 20789 20792 20795 20798 20801 20804 20806 20808 20810 20812 20815 20818 20820 20822 20825 20828 20831 20834 20837 20839 20841 20844 20846 20849 20851 20854 20856 20859 20862 20864 20867 20870 20872 20875 20877 20879 20882 20885 20888 20891 20894 20897 20900 20903 20906 20909 20911 20914 20917 20919 20922 20925 20928 20931 20934 20937 20940 20943 20946 20949 20952 20955 20958 20961 20963 20966 20969 20972 20974 20977 20980 20982 20985 20988 20991 20994 20996 20999 21002 21005 21008 21010 21013 21016 21019 21021 21024 21027 21030 21033 21036 21038 21041 21044 21047 21050 21053 21056 21058 21061 21063 21066 21069 21072 21075 21078 21081 21084 21087 21090 21093 21096 21099 21102 21105 21107 21110 21113 21115 21118 21120 21122 21125 21128 21131 21134 21137 21140 21142 21145 21148 21150 21153 21156 21159 21161 21163 21166 21168 21171 21174 21177 21180 21183 21185 21188 21191 21194 21196 21199 21202 21205 21208 21211 21214 21217 21219 21222 21225 21228 21231 21234 21237 21239 21242 21245 21248 21251 21254 21257 21259 21262 21265 21268 21271 21274 21277 21280 21283 21286 21289 21291 21294 21297 21300 21303 21306 21309 21312 21315 21318 21321 21324 21327 21330 21333 21336 21338 21340 21343 21346 21349 21352 21355 21358 21361 21364 21367 21369 21372 21375 21378 21381 21384 21387 21390 21393 21395 21398 21401 21403 21406 21408 21411 21414 21417 21419 21422 21424 21427 21430 21433 21435 21438 21440 21443 21446 21449 21451 21453 21456 21458 21461 21464 21467 21470 21473 21476 21479 21482 21485 21488 21491 21493 21495 21498 21500 21503 21506 21509 21511 21513 21516 21518 21521 21524 21527 21530 21532 21534 21537 21539 21542 21545 21548 21551 21554 21557 21559 21562 21564 21567 21570 21573 21576 21578 21580 21583 21586 21588 21591 21594 21596 21599 21602 21604 21607 21610 21612 21614 21617 21620 21622 21625 21627 21629 21632 21635 21637 21640 21643 21646 21649 21652 21655 21657 21659 21661 21664 21667 21670 21672 21675 21677 21680 21683 21686 21689 21691 21693 21696 21698 21700 21702 21705 21708 21711 21714 21717 21720 21723 21726 21729 21732 21735 21738 21741 21744 21747 21750 21753 21756 21759 21762 21765 21768 21771 21774 21777 21780 21782 21785 21788 21791 21793 21796 21799 21802 21805 21808 21811 21814 21817 21820 21823 21826 21828 21831 21834 21837 21840 21843 21845 21848 21850 21853 21856 21858 21861 21864 21867 21870 21873 21875 21877 21880 21883 21886 21889 21892 21894 21897 21900 21902 21905 21908 21911 21914 21917 21920 21923 21926 21929 21932 21935 21938 21941 21944 21947 21950 21953 21956 21959 21962 21964 21967 21970 21973 21976 21979 21982 21985 21988 21991 21994 21997 21999 22001 22004 22007 22010 22013 22016 22019 22022 22025 22028 22030 22033 22036 22039 22042 22045 22048 22051 22053 22056 22059 22062 22065 22068 22071 22074 22077 22080 22083 22086 22089 22091 22094 22096 22099 22102 22105 22108 22111 22114 22117 22120 22123 22125 22128 22130 22133 22136 22139 22142 22145 22148 22151 22154 22157 22159 22161 22164 22167 22170 22173 22176 22179 22182 22185 22188 22191 22194 22197 22200 22203 22206 22209 22212 22215 22218 22221 22224 22227 22230 22233 22236 22239 22242 22245 22248 22251 22254 22257 22260 22262 22265 22268 22271 22274 22277 22280 22283 22286 22289 22292 22295 22298 22301 22303 22306 22309 22312 22315 22318 22321 22324 22327 22330 22333 22336 22339 22342 22345 22348 22351 22354 22357 22360 22363 22366 22369 22372 22374 22376 22379 22382 22385 22388 22391 22394 22397 22400 22403 22406 22409 22412 22415 22418 22421 22423 22426 22429 22432 22435 22438 22441 22444 22447 22450 22453 22456 22459 22462 22465 22468 22471 22474 22476 22479 22482 22485 22488 22490 22493 22496 22499 22502 22505 22508 22511 22514 22517 22520 22523 22525 22527 22530 22533 22536 22539 22542 22545 22548 22551 22554 22557 22560 22563 22566 22569 22572 22575 22578 22581 22584 22586 22589 22592 22595 22597 22600 22603 22606 22608 22610 22613 22616 22618 22620 22623 22625 22628 22631 22634 22636 22639 22642 22644 22646 22649 22652 22654 22657 22660 22662 22664 22667 22670 22673 22676 22678 22681 22684 22687 22689 22691 22694 22697 22700 22703 22706 22709 22712 22715 22717 22720 22723 22725 22728 22731 22734 22737 22739 22742 22745 22748 22751 22754 22756 22759 22762 22764 22767 22770 22773 22776 22779 22781 22784 22787 22790 22793 22795 22798 22801 22803 22806 22808 22811 22814 22817 22820 22823 22826 22829 22831 22834 22837 22840 22842 22845 22848 22850 22853 22856 22859 22862 22865 22868 22871 22874 22877 22880 22883 22886 22889 22892 22895 22898 22900 22903 22905 22908 22911 22914 22917 22920 22923 22926 22929 22932 22934 22937 22940 22943 22945 22947 22949 22952 22955 22958 22960 22962 22965 22967 22970 22972 22974 22977 22980 22983 22985 22988 22990 22993 22996 22999 23002 23005 23008 23011 23014 23017 23020 23022 23025 23028 23031 23033 23036 23039 23042 23044 23047 23050 23053 23056 23059 23062 23065 23068 23071 23074 23077 23080 23083 23086 23089 23092 23095 23098 23101 23103 23106 23109 23112 23115 23117 23120 23122 23125 23128 23131 23134 23137 23140 23143 23146 23149 23152 23155 23157 23160 23162 23165 23168 23170 23173 23175 23177 23179 23182 23185 23188 23190 23193 23196 23199 23201 23203 23206 23209 23212 23215 23218 23221 23223 23226 23229 23232 23235 23238 23241 23244 23247 23250 23252 23255 23258 23260 23263 23266 23269 23271 23274 23277 23280 23283 23286 23289 23292 23295 23298 23301 23304 23307 23310 23313 23316 23319 23322 23324 23327 23330 23333 23336 23339 23342 23344 23346 23349 23352 23355 23357 23360 23363 23366 23369 23372 23375 23378 23380 23383 23386 23389 23392 23395 23398 23401 23404 23407 23410 23413 23416 23419 23421 23424 23427 23430 23433 23436 23439 23442 23445 23448 23451 23454 23457 23460 23463 23466 23469 23472 23475 23477 23480 23483 23486 23489 23492 23494 23497 23500 23503 23506 23509 23512 23515 23518 23520 23523 23526 23529 23532 23535 23538 23541 23544 23547 23550 23553 23556 23559 23562 23565 23568 23571 23574 23577 23580 23583 23585 23587 23590 23593 23595 23598 23600 23603 23606 23609 23612 23615 23618 23621 23624 23626 23629 23632 23635 23638 23640 23643 23646 23649 23652 23654 23657 23660 23663 23665 23668 23670 23673 23676 23679 23681 23683 23686 23688 23691 23693 23695 23698 23701 23704 23707 23710 23712 23715 23718 23721 23723 23726 23729 23732 23735 23737 23740 23743 23746 23749 23752 23755 23758 23761 23764 23767 23770 23773 23776 23779 23782 23785 23788 23791 23793 23796 23799 23802 23805 23808 23810 23813 23816 23819 23822 23824 23827 23830 23833 23836 23839 23842 23844 23847 23850 23853 23856 23859 23862 23865 23868 23871 23874 23877 23880 23883 23886 23889 23892 23895 23898 23901 23904 23907 23910 23913 23916 23918 23921 23924 23927 23929 23932 23935 23937 23940 23943 23945 23948 23951 23954 23956 23959 23962 23964 23967 23969 23972 23975 23977 23980 23983 23986 23989 23992 23995 23998 24001 24004 24007 24010 24013 24016 24019 24022 24024 24027 24030 24032 24035 24037 24040 24043 24046 24049 24052 24055 24058 24060 24063 24066 24068 24071 24073 24076 24079 24082 24084 24087 24090 24093 24096 24098 24101 24104 24106 24109 24112 24114 24117 24120 24122 24125 24128 24131 24134 24137 24140 24143 24146 24149 24151 24154 24157 24159 24162 24164 24166 24168 24171 24174 24177 24180 24183 24186 24189 24191 24194 24196 24199 24201 24203 24206 24209 24212 24215 24218 24221 24224 24227 24230 24233 24236 24238 24241 24244 24247 24250 24253 24256 24259 24262 24265 24268 24271 24274 24277 24280 24283 24286 24289 24292 24295 24298 24301 24304 24307 24310 24313 24316 24319 24322 24324 24327 24330 24333 24336 24339 24342 24344 24347 24350 24353 24356 24359 24362 24365 24368 24371 24374 24377 24380 24383 24386 24389 24392 24394 24397 24400 24403 24406 24409 24412 24415 24418 24421 24424 24427 24430 24433 24436 24439 24442 24445 24448 24451 24454 24457 24460 24463 24465 24467 24470 24473 24476 24479 24482 24485 24488 24490 24493 24496 24499 24501 24503 24506 24509 24511 24514 24517 24520 24523 24526 24529 24532 24535 24538 24541 24544 24547 24550 24552 24555 24558 24561 24564 24567 24570 24573 24576 24579 24582 24585 24588 24591 24594 24597 24600 24603 24606 24609 24612 24615 24618 24620 24623 24626 24629 24631 24634 24637 24640 24643 24646 24649 24652 24655 24658 24661 24664 24667 24670 24673 24676 24679 24682 24685 24688 24691 24694 24697 24699 24702 24705 24708 24711 24714 24717 24720 24723 24726 24729 24732 24735 24738 24741 24744 24747 24750 24753 24756 24759 24762 24765 24768 24770 24773 24776 24779 24782 24785 24788 24791 24794 24797 24800 24803 24806 24809 24812 24815 24818 24821 24824 24827 24829 24832 24835 24838 24841 24844 24847 24850 24853 24856 24859 24862 24865 24868 24871 24874 24877 24880 24883 24886 24889 24892 24895 24898 24901 24904 24907 24910 24913 24916 24919 24922 24925 24928 24931 24934 24937 24940 24943 24946 24949 24951 24954 24957 24960 24963 24966 24969 24972 24974 24977 24980 24982 24985 24988 24990 24993 24996 24999 25002 25005 25008 25011 25014 25017 25020 25023 25026 25029 25032 25035 25038 25041 25044 25047 25050 25053 25056 25059 25062 25065 25068 25071 25074 25077 25080 25082 25085 25088 25091 25094 25096 25099 25102 25105 25108 25111 25114 25117 25120 25122 25125 25128 25131 25134 25137 25140 25143 25146 25149 25152 25155 25158 25161 25164 25167 25170 25173 25176 25178 25180 25183 25185 25188 25190 25193 25196 25199 25201 25204 25207 25210 25213 25216 25219 25221 25224 25227 25230 25232 25235 25238 25241 25244 25246 25249 25252 25255 25257 25260 25263 25266 25269 25272 25274 25277 25280 25282 25285 25288 25291 25294 25297 25300 25303 25306 25309 25312 25315 25318 25321 25324 25327 25330 25333 25336 25338 25341 25344 25347 25350 25353 25356 25359 25362 25365 25368 25371 25374 25377 25379 25382 25384 25387 25390 25393 25395 25398 25400 25403 25406 25409 25412 25415 25418 25421 25424 25427 25430 25433 25436 25439 25442 25445 25447 25450 25453 25455 25458 25461 25464 25467 25470 25473 25476 25479 25482 25485 25488 25491 25494 25497 25500 25503 25506 25509 25512 25515 25518 25521 25524 25527 25530 25533 25536 25539 25542 25545 25548 25551 25554 25556 25559 25562 25565 25568 25571 25574 25577 25580 25583 25586 25589 25592 25595 25598 25601 25604 25607 25610 25613 25616 25619 25622 25625 25628 25631 25634 25637 25640 25643 25646 25649 25652 25655 25658 25661 25664 25667 25670 25673 25676 25679 25682 25685 25688 25691 25694 25697 25700 25703 25705 25708 25711 25714 25717 25720 25722 25725 25727 25730 25733 25736 25739 25742 25745 25748 25751 25754 25757 25760 25763 25766 25769 25772 25775 25777 25780 25783 25786 25789 25792 25795 25798 25801 25804 25807 25810 25813 25816 25819 25822 25825 25828 25831 25834 25836 25839 25842 25845 25848 25851 25853 25856 25859 25862 25865 25867 25870 25873 25876 25879 25882 25885 25888 25891 25894 25897 25900 25903 25906 25909 25912 25915 25918 25921 25924 25927 25930 25933 25936 25939 25942 25945 25948 25951 25954 25957 25960 25963 25966 25969 25972 25975 25978 25981 25984 25986 25989 25992 25995 25998 26001 26004 26007 26010 26013 26016 26019 26022 26025 26028 26031 26034 26037 26040 26043 26046 26049 26052 26055 26058 26061 26064 26067 26070 26072 26075 26077 26080 26082 26085 26088 26091 26094 26097 26099 26101 26104 26106 26109 26112 26114 26117 26120 26122 26125 26128 26130 26133 26136 26139 26142 26145 26148 26151 26154 26157 26160 26163 26166 26169 26172 26175 26178 26181 26183 26186 26189 26192 26195 26198 26200 26203 26206 26209 26212 26215 26218 26221 26224 26227 26230 26233 26235 26238 26241 26243 26246 26249 26252 26255 26258 26261 26264 26266 26269 26272 26275 26278 26281 26284 26287 26290 26292 26295 26298 26301 26303 26306 26308 26311 26314 26317 26320 26323 26326 26329 26332 26335 26338 26341 26344 26347 26350 26353 26356 26359 26362 26365 26368 26371 26374 26377 26380 26383 26385 26388 26391 26394 26396 26399 26402 26405 26408 26411 26414 26417 26420 26423 26425 26428 26431 26434 26437 26440 26443 26446 26448 26451 26454 26457 26460 26463 26466 26469 26472 26475 26478 26481 26484 26487 26490 26493 26496 26499 26502 26505 26508 26511 26514 26517 26520 26523 26526 26529 26532 26535 26538 26541 26544 26547 26550 26553 26555 26558 26561 26564 26567 26570 26573 26576 26579 26582 26585 26588 26591 26594 26597 26600 26603 26606 26609 26612 26615 26618 26621 26624 26627 26630 26633 26636 26639 26642 26645 26648 26651 26654 26657 26660 26663 26666 26669 26672 26675 26678 26681 26684 26687 26690 26693 26696 26699 26702 26705 26707 26710 26713 26716 26719 26722 26724 26727 26730 26733 26736 26739 26742 26745 26747 26750 26753 26756 26759 26762 26765 26768 26771 26773 26776 26778 26781 26784 26787 26790 26792 26795 26798 26800 26803 26806 26809 26811 26813 26816 26819 26822 26824 26826 26829 26831 26834 26837 26840 26843 26846 26849 26852 26855 26858 26861 26864 26867 26870 26873 26876 26879 26882 26885 26888 26891 26894 26897 26900 26902 26904 26907 26909 26912 26915 26918 26921 26924 26926 26929 26932 26935 26938 26940 26943 26946 26949 26951 26954 26956 26959 26962 26965 26968 26971 26974 26977 26980 26983 26986 26989 26992 26995 26998 27001 27004 27007 27010 27013 27016 27019 27022 27025 27028 27031 27033 27036 27039 27042 27045 27048 27051 27054 27057 27060 27063 27065 27068 27071 27074 27077 27080 27083 27086 27089 27091 27093 27096 27099 27102 27105 27108 27111 27114 27117 27120 27123 27126 27129 27132 27135 27138 27141 27144 27146 27149 27152 27154 27156 27159 27162 27165 27168 27171 27173 27176 27179 27182 27185 27188 27191 27194 27197 27200 27202 27205 27208 27211 27213 27216 27219 27222 27225 27228 27230 27233 27235 27238 27240 27242 27245 27248 27250 27253 27256 27259 27262 27265 27267 27270 27273 27276 27279 27282 27284 27286 27289 27292 27295 27298 27300 27303 27306 27309 27312 27315 27318 27320 27323 27326 27329 27332 27335 27338 27341 27344 27347 27350 27353 27356 27359 27362 27365 27368 27371 27374 27377 27380 27383 27386 27389 27392 27395 27398 27401 27404 27407 27410 27413 27416 27419 27422 27425 27428 27431 27434 27437 27440 27443 27446 27449 27452 27455 27458 27461 27464 27467 27470 27473 27476 27479 27481 27484 27487 27489 27492 27495 27497 27500 27502 27505 27508 27511 27514 27517 27520 27523 27526 27529 27531 27534 27537 27539 27542 27545 27548 27551 27554 27557 27560 27563 27566 27569 27571 27574 27577 27580 27583 27585 27588 27591 27594 27596 27599 27602 27605 27608 27610 27613 27616 27619 27622 27625 27628 27631 27634 27637 27639 27642 27645 27648 27651 27653 27656 27659 27662 27665 27668 27671 27674 27677 27680 27683 27686 27689 27692 27695 27698 27701 27704 27707 27710 27713 27716 27719 27722 27724 27727 27730 27733 27736 27739 27742 27745 27748 27751 27753 27756 27759 27762 27765 27768 27771 27773 27776 27779 27782 27785 27788 27791 27794 27797 27800 27803 27806 27809 27812 27815 27818 27821 27824 27827 27830 27833 27836 27839 27842 27845 27848 27851 27854 27857 27860 27863 27866 27869 27871 27874 27877 27880 27882 27885 27888 27890 27892 27895 27898 27901 27904 27907 27910 27913 27916 27919 27921 27924 27927 27930 27932 27934 27937 27940 27942 27945 27948 27951 27953 27955 27957 27960 27963 27966 27969 27972 27975 27978 27981 27984 27987 27990 27993 27996 27999 28002 28005 28008 28011 28014 28017 28020 28023 28026 28029 28032 28035 28037 28040 28043 28045 28048 28051 28053 28056 28059 28062 28065 28068 28071 28074 28076 28079 28082 28085 28088 28091 28094 28097 28100 28103 28106 28109 28112 28115 28117 28120 28123 28125 28128 28131 28134 28137 28140 28143 28146 28149 28151 28154 28157 28160 28163 28166 28169 28172 28175 28178 28181 28184 28187 28190 28193 28196 28199 28202 28205 28208 28211 28214 28217 28220 28223 28226 28229 28232 28235 28238 28241 28244 28247 28250 28253 28256 28259 28262 28265 28268 28271 28274 28277 28280 28283 28286 28289 28292 28295 28297 28300 28303 28306 28309 28312 28315 28318 28321 28324 28327 28330 28333 28336 28339 28342 28344 28347 28350 28353 28356 28359 28361 28364 28367 28370 28373 28376 28379 28382 28384 28387 28390 28393 28396 28398 28401 28404 28407 28410 28413 28416 28419 28422 28425 28428 28430 28433 28436 28438 28441 28444 28447 28450 28453 28456 28459 28462 28464 28466 28469 28472 28475 28477 28480 28483 28486 28489 28492 28495 28498 28501 28504 28507 28509 28512 28515 28518 28520 28523 28526 28529 28531 28534 28537 28540 28543 28546 28549 28552 28555 28558 28561 28563 28566 28569 28572 28575 28578 28581 28583 28586 28589 28591 28594 28597 28600 28603 28606 28609 28612 28615 28618 28621 28624 28627 28630 28632 28635 28638 28640 28643 28646 28649 28651 28653 28656 28659 28662 28665 28668 28671 28673 28676 28679 28682 28685 28688 28691 28694 28697 28700 28703 28705 28708 28711 28714 28717 28720 28723 28726 28729 28732 28734 28737 28740 28742 28745 28748 28751 28754 28757 28760 28762 28765 28768 28771 28774 28777 28780 28783 28786 28789 28792 28795 28798 28801 28804 28806 28809 28812 28815 28818 28821 28823 28826 28829 28831 28834 28837 28840 28843 28846 28849 28852 28855 28858 28861 28864 28866 28869 28872 28875 28878 28881 28883 28886 28888 28891 28893 28896 28899 28901 28904 28907 28910 28913 28915 28918 28920 28923 28925 28927 28930 28933 28935 28938 28941 28943 28946 28949 28952 28955 28958 28961 28964 28967 28970 28973 28976 28979 28982 28985 28987 28990 28993 28996 28999 29002 29004 29007 29010 29013 29016 29019 29022 29025 29028 29030 29033 29036 29039 29042 29045 29048 29051 29054 29057 29060 29063 29065 29068 29071 29074 29077 29080 29082 29085 29088 29091 29094 29097 29100 29102 29105 29108 29111 29114 29117 29119 29121 29124 29127 29130 29132 29135 29138 29141 29144 29147 29150 29153 29156 29159 29162 29165 29168 29171 29174 29177 29180 29183 29186 29189 29192 29195 29198 29201 29203 29206 29209 29212 29215 29217 29219 29222 29224 29227 29230 29233 29236 29239 29242 29244 29247 29250 29253 29255 29258 29261 29264 29267 29270 29273 29276 29278 29281 29284 29287 29289 29292 29295 29298 29301 29303 29306 29309 29311 29314 29317 29320 29322 29325 29328 29330 29333 29336 29338 29340 29342 29345 29347 29349 29352 29355 29357 29360 29363 29365 29368 29371 29374 29377 29380 29383 29386 29388 29391 29394 29396 29399 29402 29405 29408 29411 29414 29417 29420 29423 29426 29429 29432 29435 29438 29441 29444 29447 29450 29453 29455 29457 29460 29463 29466 29469 29472 29475 29478 29481 29484 29487 29490 29493 29496 29499 29502 29505 29508 29511 29514 29517 29520 29523 29526 29529 29532 29535 29538 29541 29544 29547 29550 29553 29556 29559 29562 29565 29568 29571 29574 29577 29580 29583 29586 29589 29592 29595 29598 29601 29604 29607 29610 29613 29616 29619 29622 29624 29627 29630 29633 29636 29639 29642 29645 29648 29651 29654 29657 29660 29663 29666 29669 29672 29675 29678 29681 29684 29687 29690 29693 29696 29698 29701 29704 29707 29710 29713 29716 29719 29722 29725 29728 29731 29734 29737 29740 29743 29746 29749 29752 29755 29758 29761 29764 29767 29770 29773 29776 29779 29782 29785 29788 29791 29794 29797 29800 29803 29806 29809 29812 29815 29818 29820 29823 29825 29828 29831 29834 29837 29839 29842 29845 29848 29850 29853 29856 29859 29862 29865 29868 29871 29874 29877 29880 29883 29886 29889 29892 29895 29897 29900 29903 29906 29909 29912 29915 29918 29921 29924 29927 29930 29932 29935 29938 29941 29943 29946 29949 29952 29955 29958 29961 29964 29967 29970 29972 29975 29977 29980 29983 29985 29988 29991 29994 29997 30000 30003 30006 30009 30012 30015 30018 30020 30023 30026 30029 30032 30035 30038 30041 30044 30047 30050 30053 30056 30059 30062 30065 30068 30071 30074 30077 30080 30083 30086 30089 30092 30094 30097 30100 30103 30106 30109 30112 30115 30118 30121 30124 30127 30129 30132 30135 30138 30140 30142 30145 30148 30151 30154 30157 30160 30163 30166 30169 30172 30174 30177 30180 30183 30186 30188 30191 30193 30196 30199 30202 30205 30207 30210 30213 30215 30218 30221 30224 30227 30230 30232 30235 30238 30241 30244 30247 30250 30253 30256 30259 30262 30265 30268 30271 30274 30277 30280 30283 30286 30289 30292 30295 30298 30301 30304 30307 30310 30313 30315 30318 30321 30323 30326 30329 30332 30335 30337 30340 30343 30346 30349 30352 30354 30357 30360 30363 30366 30369 30372 30375 30378 30381 30384 30387 30390 30392 30395 30398 30401 30404 30407 30410 30413 30416 30419 30421 30424 30427 30430 30433 30436 30439 30442 30445 30448 30451 30454 30457 30460 30463 30466 30469 30471 30474 30477 30480 30483 30486 30489 30492 30494 30496 30499 30502 30504 30507 30510 30513 30516 30519 30522 30525 30528 30531 30534 30537 30540 30543 30545 30548 30551 30554 30557 30560 30562 30564 30567 30570 30573 30576 30579 30582 30585 30588 30591 30594 30597 30600 30603 30606 30609 30612 30615 30618 30621 30624 30627 30630 30633 30636 30639 30642 30645 30648 30651 30654 30657 30660 30663 30666 30669 30672 30675 30678 30681 30684 30687 30690 30693 30696 30699 30702 30705 30708 30711 30714 30717 30720 30723 30726 30729 30732 30735 30738 30741 30744 30747 30750 30753 30756 30759 30761 30764 30766 30769 30772 30775 30778 30781 30784 30787 30790 30793 30796 30799 30802 30805 30808 30811 30814 30817 30820 30823 30826 30829 30832 30835 30838 30841 30844 30847 30850 30853 30856 30859 30862 30865 30868 30871 30874 30877 30880 30883 30886 30889 30892 30895 30898 30901 30904 30907 30910 30913 30916 30919 30922 30925 30927 30930 30933 30935 30938 30941 30944 30947 30950 30953 30956 30959 30962 30965 30968 30971 30974 30977 30980 30983 30985 30988 30991 30994 30997 31000 31003 31006 31009 31012 31015 31018 31021 31024 31027 31030 31033 31036 31039 31042 31045 31048 31051 31054 31057 31060 31063 31066 31069 31072 31075 31078 31081 31084 31087 31090 31092 31095 31098 31101 31104 31107 31110 31113 31116 31119 31122 31124 31127 31130 31133 31136 31139 31142 31145 31148 31151 31154 31157 31160 31163 31166 31169 31172 31175 31178 31181 31184 31187 31190 31193 31196 31199 31202 31205 31208 31210 31213 31216 31219 31222 31225 31228 31230 31233 31236 31239 31242 31245 31248 31251 31254 31257 31260 31263 31266 31269 31272 31275 31278 31281 31284 31287 31290 31293 31296 31299 
</DataArray>
<DataArray type="UInt32" Name="types" format="ascii">
3 5 5 5 5 5 5 5 5 5 5 5 5 3 5 3 5 5 5 3 5 3 5 5 5 5 5 5 5 5 5 5 5 3 5 5 3 3 5 5 5 5 5 5 5 5 5 5 5 5 3 5 5 5 5 5 5 5 5 5 5 5 5 3 3 5 3 5 3 3 5 5 5 5 5 3 5 5 5 5 5 5 3 5 3 5 5 5 5 5 5 3 3 5 5 3 5 3 5 5 5 3 5 3 5 5 5 5 5 5 3 5 5 3 5 5 5 5 5 5 5 5 5 5 5 5 5 5 5 3 5 5 5 5 5 5 5 5 5 5 5 5 5 5 3 5 5 5 5 5 5 3 5 5 5 5 5 5 5 3 5 5 3 5 5 5 5 5 5 5 5 5 3 5 5 3 5 5 3 5 5 5 5 5 5 5 5 3 3 5 3 5 5 3 5 5 5 5 5 5 5 5 3 5 5 5 3 5 5 5 5 5 5 5 3 5 3 3 5 3 3 5 5 3 5 5 5 5 5 5 5 5 5 5 3 5 5 5 5 5 5 5 5 3 3 5 5 5 5 5 5 3 5 5 3 5 5 5 3 5 5 5 5 5 5 5 5 5 5 5 5 5 5 5 5 5 5 5 5 5 3 5 5 5 5 5 5 5 5 5 5 5 5 5 5 5 5 5 5 3 5 5 5 5 3 5 5 5 5 5 5 5 5 5 5 5 5 5 5 3 5 5 5 5 5 5 5 5 5 5 5 5 5 5 5 5 5 5 5 5 5 5 5 5 5 5 5 5 5 5 5 5 5 5 3 5 5 5 5 5 5 3 5 5 5 5 5 5 5 5 5 5 5 5 5 5 5 3 5 5 5 5 3 5 5 3 5 3 5 5 5 5 5 3 5 5 5 5 5 5 5 3 5 5 3 5 5 5 3 5 5 5 5 3 5 5 5 5 5 5 5 5 5 5 5 5 5 5 5 5 5 5 5 5 5 5 5 5 5 5 5 5 5 5 5 5 5 5 5 5 5 5 5 5 5 5 5 5 5 5 5 5 5 5 5 3 5 5 5 5 3 5 5 5 5 5 5 5 5 5 5 5 5 5 5 5 5 5 5 5 5 5 5 5 5 5 3 5 5 5 5 3 5 5 5 3 5 5 5 5 5 5 5 5 5 5 5 5 3 5 5 5 5 5 5 5 5 5 3 5 5 5 5 5 5 5 5 5 5 5 3 5 5 3 5 5 5 5 5 5 5 5 5 5 5 5 3 5 5 3 5 5 5 3 5 5 5 5 3 5 5 5 3 5 5 5 5 5 5 5 5 5 5 5 5 5 5 5 5 5 5 3 5 5 5 5 5 5 5 5 5 5 5 5 5 5 5 5 5 5 5 5 5 5 5 5 5 5 5 5 3 5 5 3 5 5 5 3 5 5 5 5 5 5 5 5 5 5 5 5 5 5 5 5 5 5 3 5 5 5 5 5 5 5 5 5 5 5 5 5 5 5 5 5 3 5 5 5 5 5 5 3 5 5 5 5 5 5 5 5 5 5 5 5 5 5 5 5 5 5 5 5 5 5 5 5 5 5 5 5 5 5 5 5 5 5 5 5 5 5 5 5 5 5 5 5 5 5 5 5 5 5 5 5 5 5 5 5 5 5 5 5 5 5 5 5 5 5 5 5 5 5 5 5 5 5 3 5 5 5 5 5 3 5 5 3 5 5 5 5 5 5 5 5 5 5 5 5 3 5 5 5 5 5 5 3 5 5 5 3 5 5 3 5 5 5 5 3 5 5 3 5 5 5 5 5 5 5 5 3 5 3 5 5 5 3 3 5 5 5 5 5 5 5 5 5 5 5 3 5 5 5 3 5 5 3 5 5 5 5 5 5 5 5 5 3 5 5 5 5 5 5 5 5 5 5 5 5 3 5 3 5 5 5 5 5 5 5 5 5 5 5 5 5 5 5 5 5 5 5 3 5 5 3 5 5 5 5 5 5 3 5 5 5 3 5 3 3 5 5 5 5 5 5 3 3 3 3 5 3 5 5 5 5 5 3 5 5 3 5 5 3 5 5 5 5 5 5 5 5 5 5 5 5 5 5 5 5 5 3 5 5 5 5 5 5 5 3 5 5 5 5 5 5 5 5 5 5 5 5 5 5 5 5 5 5 5 5 3 5 5 5 3 5 3 5 5 3 5 5 5 5 5 5 5 5 5 5 5 3 5 5 5 5 5 5 5 5 5 5 3 5 5 5 5 5 5 5 5 5 5 3 5 5 3 5 5 5 5 5 5 5 5 5 5 5 5 5 5 5 5 5 5 5 3 3 5 3 5 5 3 3 3 5 3 5 5 5 5 5 3 5 5 5 5 5 5 5 5 5 5 5 5 5 5 5 5 5 5 5 5 5 5 3 5 5 3 5 5 5 5 5 5 5 5 3 5 5 5 3 5 5 5 5 5 3 5 5 5 3 5 5 5 3 5 3 3 5 5 5 5 3 5 5 3 5 5 5 5 3 3 5 5 3 3 5 5 5 5 3 5 5 5 5 5 5 5 5 5 5 5 5 5 5 5 5 5 5 5 3 5 3 5 5 5 5 5 5 5 5 3 3 5 5 5 3 3 5 3 5 3 5 5 5 5 3 5 5 5 5 5 5 5 5 5 5 5 3 5 5 5 5 5 5 5 5 3 5 5 5 5 5 5 5 5 5 5 5 5 3 5 5 5 5 5 5 5 5 5 5 5 5 5 5 3 5 5 5 5 5 5 5 5 5 5 5 5 5 5 5 3 5 5 5 5 5 5 5 5 5 5 5 5 5 5 5 5 3 3 5 5 5 3 5 5 3 5 5 5 5 3 3 3 5 5 5 5 5 5 5 5 5 3 5 5 5 5 3 5 5 5 5 5 3 5 5 5 5 5 5 5 5 5 5 5 5 5 5 5 5 5 5 3 5 5 5 5 5 5 3 3 5 5 5 5 5 5 5 5 3 3 3 5 5 5 5 5 5 5 5 5 5 5 5 5 5 5 5 5 5 5 5 3 5 5 5 5 5 5 3 5 5 5 5 5 3 5 5 5 5 5 5 5 5 5 5 5 5 5 5 5 5 3 5 5 5 3 5 5 5 5 5 5 5 5 3 5 5 5 3 5 5 5 5 5 5 5 5 5 5 5 3 5 5 5 3 5 5 5 5 5 5 5 5 5 5 5 5 5 5 5 3 5 3 5 5 5 5 5 5 3 5 5 5 5 5 5 5 5 3 5 3 5 5 5 5 5 5 5 5 5 5 5 3 5 5 5 5 5 5 5 5 5 3 5 5 5 5 3 5 5 3 5 5 5 5 5 5 5 5 3 3 5 5 3 5 5 5 5 5 5 5 5 5 5 5 5 5 5 5 5 5 5 5 5 5 5 5 5 5 5 5 5 3 5 5 5 5 3 5 5 5 5 5 5 5 5 3 5 5 5 5 5 5 5 5 5 5 5 5 5 5 5 5 5 5 5 3 5 5 5 3 5 5 5 5 5 5 5 5 5 5 5 5 5 5 5 5 5 5 5 5 3 5 5 5 5 3 5 5 5 5 5 5 5 3 5 5 5 3 5 5 5 3 5 5 5 5 5 5 5 5 3 5 5 5 5 5 5 5 5 5 3 5 5 3 3 3 5 3 5 5 5 5 5 3 5 3 3 5 3 5 5 5 5 5 5 5 5 3 5 5 5 5 3 5 5 5 3 3 5 5 3 3 5 5 5 5 5 3 5 3 5 5 5 5 5 5 3 3 5 3 5 5 5 5 5 5 5 5 3 5 5 5 5 3 5 3 5 3 5 5 5 5 5 5 5 5 5 5 5 5 5 5 5 5 5 5 5 5 5 3 5 3 5 5 5 5 5 5 3 5 5 5 5 5 5 5 5 5 5 5 3 5 5 5 5 5 5 5 5 5 5 5 5 5 5 5 5 5 5 5 5 3 5 5 5 5 5 5 5 3 3 5 5 5 5 5 5 5 5 5 5 5 5 5 3 5 5 5 3 5 5 5 5 5 5 5 5 5 5 5 5 5 5 5 3 5 5 5 5 5 5 5 5 5 3 5 3 5 5 5 5 3 5 3 3 5 3 5 5 5 3 5 5 5 5 5 5 5 5 5 5 5 5 5 3 5 5 5 5 3 5 5 5 5 5 5 5 3 5 5 5 3 5 3 5 5 3 5 5 5 5 5 5 5 5 5 3 5 5 5 5 5 5 5 5 5 5 5 5 5 5 5 3 5 5 5 3 3 5 3 5 3 5 3 5 5 5 5 5 5 5 3 5 5 5 5 5 5 5 5 5 5 5 5 5 5 5 5 5 5 5 5 5 5 5 5 5 5 5 5 5 5 5 5 5 5 5 5 5 5 5 5 5 5 5 5 5 5 5 5 5 5 5 5 5 5 5 5 3 5 5 5 5 5 5 5 3 5 5 5 5 5 5 5 5 5 5 5 5 3 5 5 5 5 5 5 5 3 5 5 5 5 5 5 5 5 5 3 5 5 5 3 5 5 5 5 5 5 5 5 5 5 5 5 5 5 5 5 5 5 5 5 5 5 5 5 5 5 5 3 5 5 5 5 5 3 5 5 5 3 5 5 3 5 5 3 5 5 5 5 5 3 5 5 3 5 5 5 5 5 5 5 3 5 3 5 5 3 5 5 5 5 5 5 3 5 5 5 5 5 5 3 5 5 5 5 5 5 5 5 5 5 5 5 3 5 5 5 3 5 5 5 5 5 5 5 5 5 5 5 5 5 3 5 5 5 5 3 5 5 5 5 5 5 5 5 3 5 5 5 5 5 5 5 5 5 5 5 5 5 5 5 5 5 5 5 5 5 5 5 5 5 5 5 5 3 5 5 3 3 5 5 5 3 3 5 5 5 5 5 5 5 5 5 5 5 3 5 5 5 5 5 5 5 5 5 5 5 5 5 5 5 5 5 5 5 3 5 5 3 5 5 5 5 5 5 5 5 5 5 5 3 5 5 3 5 5 5 3 5 5 5 5 5 5 5 5 5 5 5 5 5 5 5 5 5 5 5 5 5 5 5 5 5 5 5 5 5 5 5 5 5 5 5 5 5 5 5 5 5 5 5 5 3 5 5 5 3 5 5 5 5 3 5 5 3 5 5 3 5 5 5 5 3 3 5 5 5 5 5 5 5 5 5 5 3 5 3 5 5 5 5 5 5 3 5 5 3 5 5 5 3 5 5 3 5 5 5 3 5 5 5 5 5 5 5 5 5 5 5 5 5 5 5 5 5 5 5 5 5 5 5 5 5 5 5 5 5 5 5 3 5 5 5 5 5 3 5 5 5 5 5 5 5 3 5 5 5 3 5 5 5 5 5 5 5 5 5 5 3 5 5 3 5 5 5 5 5 3 5 5 3 5 3 5 5 5 5 5 5 5 5 5 5 5 5 5 5 5 5 5 5 5 5 5 5 5 5 5 5 5 3 5 3 5 5 5 5 5 5 5 5 5 5 3 5 5 5 5 5 5 5 5 5 5 5 5 5 5 3 5 5 5 5 5 5 3 5 5 5 5 5 5 5 5 5 5 5 5 5 5 5 3 5 5 5 5 5 5 3 5 5 5 5 5 5 5 5 5 5 3 5 5 5 3 5 5 5 5 3 5 5 5 5 3 5 5 5 5 5 5 5 5 5 5 3 5 5 5 5 5 3 5 5 5 5 5 5 5 5 5 5 5 5 3 5 5 3 5 5 5 5 5 5 5 5 5 5 5 5 5 5 5 5 5 5 5 5 5 5 5 5 5 5 5 5 5 5 5 5 5 5 5 5 5 5 5 5 5 5 5 5 5 5 5 5 5 5 3 3 5 5 5 5 5 5 5 5 5 5 5 5 5 5 3 5 5 5 5 5 5 3 5 5 5 5 5 5 3 5 5 5 5 5 5 5 5 5 5 5 3 5 5 5 5 3 5 5 5 3 3 5 5 3 5 5 3 5 5 5 5 3 5 5 5 5 5 3 5 3 5 5 3 5 5 3 5 5 5 5 5 5 5 5 5 5 3 5 5 5 5 5 3 5 5 3 5 3 3 5 5 5 5 3 5 5 5 5 5 3 3 5 5 5 5 5 5 3 5 5 3 5 3 5 5 3 5 5 5 5 3 3 5 5 5 5 5 5 5 5 5 5 5 5 5 5 5 5 5 5 5 5 5 5 5 5 5 5 5 5 5 5 5 5 3 3 5 3 5 5 5 5 5 5 3 5 5 5 5 5 3 5 5 5 5 5 5 5 5 3 5 5 5 3 5 5 5 5 5 5 5 5 5 5 3 5 5 3 5 5 5 5 5 5 5 5 5 3 5 5 5 5 3 5 5 5 5 5 5 3 5 5 5 5 5 5 5 3 5 5 5 5 5 5 5 5 5 5 5 5 5 5 5 5 5 5 5 5 5 5 5 5 5 3 5 5 5 5 3 5 3 5 5 5 5 5 5 3 5 5 3 5 5 5 5 5 5 5 5 5 5 3 5 5 5 5 5 5 5 5 3 5 5 5 5 3 5 5 5 5 5 5 5 5 5 3 5 5 3 5 5 5 5 5 3 3 5 5 5 5 5 5 5 5 5 5 5 5 5 3 5 3 3 5 5 5 5 5 5 5 5 5 5 5 5 5 3 5 5 5 3 3 5 5 5 5 5 5 5 5 5 3 5 5 5 5 5 5 5 5 3 5 3 5 3 3 5 5 3 3 5 5 5 5 5 5 5 5 5 5 3 5 3 5 5 5 3 5 3 3 3 5 5 3 5 5 5 5 5 5 5 5 5 3 5 5 5 5 5 5 5 5 5 5 5 5 5 5 5 3 5 5 5 5 3 3 3 5 5 5 5 3 5 5 5 5 5 5 3 5 5 5 5 5 5 5 5 5 5 5 5 5 5 5 5 5 5 5 5 5 5 5 5 5 5 5 5 5 3 5 5 5 5 5 5 5 5 5 5 5 5 3 5 5 5 5 5 5 3 5 5 5 5 5 5 3 5 5 5 5 5 5 5 5 5 5 3 5 5 5 3 5 3 5 5 5 5 5 5 5 5 5 5 5 5 5 5 5 5 5 5 5 5 5 5 5 3 3 5 5 5 5 5 5 3 5 5 5 5 5 5 5 5 5 5 5 5 5 5 5 5 5 5 5 5 5 5 5 5 5 5 5 5 5 5 5 5 5 3 5 5 3 3 5 5 3 5 5 5 5 5 5 5 5 3 5 5 5 5 5 5 5 5 5 5 5 5 5 5 5 3 5 5 5 5 5 5 5 5 5 5 5 5 5 5 3 5 5 5 5 3 5 3 3 5 5 3 5 5 3 5 5 5 5 3 5 5 5 5 5 3 5 5 3 5 5 5 5 5 5 5 5 5 3 5 5 5 3 5 5 5 5 5 5 5 5 5 5 5 5 5 5 5 5 5 5 5 5 5 5 5 5 5 5 5 5 5 5 5 5 5 5 3 5 5 3 5 5 5 5 5 5 5 5 3 5 5 5 5 5 5 5 5 5 3 5 5 5 5 3 5 5 5 5 5 5 5 5 5 5 5 5 5 5 5 5 5 5 5 5 3 5 3 5 5 5 5 5 3 5 5 5 5 5 5 5 5 5 3 5 5 5 5 5 5 5 5 5 5 5 5 5 5 3 5 5 5 5 3 5 5 5 3 5 5 5 5 5 5 5 3 5 5 5 3 5 5 5 3 5 3 5 5 5 5 5 5 5 5 3 5 5 3 5 5 5 3 5 3 5 5 5 3 5 5 5 3 5 5 3 5 3 5 5 3 5 5 3 5 5 5 5 5 5 5 5 5 5 5 5 5 5 5 5 5 5 3 5 5 5 5 5 3 5 5 3 5 5 5 5 5 3 5 5 5 5 5 3 5 5 5 5 5 5 5 5 3 5 5 3 5 3 5 5 5 3 5 5 5 5 5 5 3 5 5 3 5 5 5 5 3 5 5 5 3 3 5 5 5 5 5 5 3 3 5 5 5 5 3 5 5 5 3 5 5 5 5 5 5 5 5 5 5 5 5 5 5 5 5 5 5 5 5 5 5 5 5 5 5 5 5 5 5 5 5 5 5 5 5 5 5 5 5 5 5 5 5 5 5 5 5 5 5 5 5 5 5 5 5 5 5 5 5 5 5 5 5 5 3 5 5 5 3 5 5 5 5 5 5 5 5 5 5 5 3 5 3 5 5 5 5 5 5 5 3 5 5 5 5 5 5 5 5 5 5 5 5 5 5 5 5 3 5 5 3 5 5 5 3 5 5 5 5 5 3 5 5 5 5 5 5 5 5 5 5 3 5 3 5 5 5 5 5 5 5 5 5 5 5 5 5 5 5 5 5 3 5 5 5 5 5 5 5 5 5 5 5 5 3 5 5 5 5 3 5 5 3 5 3 5 5 5 3 5 5 5 5 5 5 3 5 5 5 5 5 5 5 5 5 5 5 5 3 5 5 5 5 5 5 5 5 5 5 5 5 5 5 5 5 3 5 5 5 5 5 3 3 5 5 3 5 5 5 5 5 5 5 5 5 5 5 5 5 5 5 5 5 5 5 3 5 5 5 5 5 5 5 5 5 5 3 5 5 5 5 5 5 3 5 5 3 5 5 5 5 5 5 5 5 5 5 5 5 5 5 5 5 5 5 5 5 3 5 5 5 5 5 5 3 5 5 5 5 5 3 5 5 3 5 3 5 3 5 3 5 5 5 5 3 5 5 5 5 5 3 5 5 5 5 3 5 5 5 5 5 3 5 5 3 5 5 5 5 3 5 5 5 5 3 5 5 5 5 5 5 5 5 5 5 5 5 5 5 5 5 5 5 5 5 5 3 5 5 5 5 5 5 5 5 3 5 5 5 3 5 5 5 5 5 3 5 5 5 5 5 3 5 5 5 5 5 5 3 5 5 5 5 5 5 5 5 5 5 5 5 5 5 5 5 5 5 5 5 5 5 5 3 3 5 5 5 5 5 5 3 5 5 5 5 3 5 5 5 3 5 5 5 5 5 3 3 5 5 5 3 5 5 3 5 5 5 5 5 5 5 5 5 5 3 3 5 5 5 5 5 5 5 5 5 5 5 5 5 5 5 5 5 5 5 5 5 5 3 5 3 5 5 5 5 3 5 5 5 5 5 5 5 5 5 3 5 5 3 5 5 5 5 5 5 5 5 5 5 5 5 5 5 5 5 5 5 5 5 5 5 5 5 5 5 5 5 5 5 5 3 5 5 5 3 5 5 5 5 3 5 5 5 5 3 5 5 5 5 5 5 5 5 5 5 5 5 5 5 5 3 5 5 5 5 5 5 5 5 5 5 5 5 5 5 5 5 5 5 5 5 5 3 5 5 3 5 5 5 3 5 3 5 5 5 5 5 3 5 5 5 5 5 5 5 5 5 5 5 5 5 5 5 5 5 5 5 3 5 3 5 3 5 5 5 5 5 5 5 5 5 3 5 5 3 5 5 5 5 5 5 5 5 5 5 5 5 5 5 5 5 5 5 5 5 5 5 5 5 5 5 5 5 5 5 5 5 5 5 5 5 5 5 5 3 5 5 5 5 5 5 5 5 5 3 3 5 5 5 5 5 5 5 5 5 5 5 5 5 5 5 5 5 5 3 5 5 5 5 5 5 5 5 5 5 5 5 5 5 5 5 5 5 5 5 5 5 5 5 5 5 5 5 5 5 5 5 5 5 5 5 5 5 5 5 5 5 5 5 5 5 5 3 5 3 5 3 5 5 5 3 5 5 3 5 3 5 5 5 5 5 3 5 5 5 3 5 3 5 5 5 3 5 3 5 5 5 5 3 5 5 5 5 5 5 5 3 5 5 5 5 5 3 5 5 3 5 5 5 5 5 5 5 5 5 5 5 5 5 5 5 5 5 5 5 5 5 5 5 5 5 5 5 5 5 5 5 3 5 5 5 5 5 5 5 5 5 5 5 5 5 5 5 5 5 5 5 5 5 5 5 5 5 5 5 5 3 5 5 5 3 5 5 5 5 5 5 5 5 5 5 5 5 5 5 5 5 5 5 5 5 5 5 5 3 5 5 5 5 5 5 5 5 5 5 5 3 5 5 5 5 5 3 5 5 5 5 5 5 5 3 5 5 5 5 5 5 3 5 5 5 5 3 3 5 3 5 5 5 5 5 3 5 5 5 5 5 5 5 3 5 5 5 5 3 5 5 5 5 5 5 5 5 3 5 5 5 5 5 5 3 5 5 5 5 5 5 5 3 5 5 5 5 5 3 5 5 5 5 5 5 5 5 5 5 5 5 3 5 5 5 5 5 5 5 5 3 5 5 5 5 5 5 5 3 5 5 5 5 3 5 5 5 5 5 5 5 3 5 5 3 5 5 5 5 5 3 5 5 5 3 3 5 5 5 5 5 3 5 5 5 5 5 5 5 5 3 5 5 3 5 5 5 5 5 5 5 5 5 5 5 3 5 3 5 5 5 5 3 5 5 5 5 5 5 5 5 5 3 5 5 5 5 3 5 5 5 5 3 5 5 5 5 3 5 5 5 5 5 5 5 5 5 5 5 5 5 5 5 5 5 5 5 5 5 5 3 5 5 5 5 5 3 5 5 5 3 5 5 3 5 5 5 5 5 5 5 5 5 5 5 5 5 3 5 5 3 5 5 5 3 5 5 3 5 3 5 5 5 3 5 5 5 5 3 5 5 5 5 5 5 3 5 5 5 5 5 5 5 5 5 5 3 5 5 3 5 3 3 5 3 3 5 5 5 3 5 5 5 5 5 5 5 5 5 5 5 5 5 5 5 5 5 5 5 3 5 5 5 5 5 5 5 5 5 5 5 5 3 5 5 5 3 5 5 5 5 5 5 5 5 5 5 5 5 5 5 5 5 5 5 5 5 5 5 5 5 5 5 5 5 5 5 5 5 5 5 5 5 5 5 5 5 5 5 5 5 5 3 5 5 3 5 5 5 3 5 3 5 5 5 5 5 5 5 5 5 5 5 5 5 5 5 5 3 5 3 5 5 5 5 5 5 5 5 5 5 5 3 5 3 5 3 5 3 5 3 3 5 5 5 5 3 5 5 5 5 3 5 3 3 5 3 5 3 5 5 5 5 5 5 5 5 5 5 5 5 5 5 5 3 5 5 3 5 5 3 5 5 5 3 5 5 5 3 5 5 5 5 5 5 5 5 5 5 5 5 5 5 5 5 5 5 5 3 5 5 5 5 5 5 5 5 5 5 5 5 5 5 5 5 3 5 5 5 5 3 3 5 5 5 5 5 5 5 3 3 5 5 5 5 5 5 5 5 5 5 5 5 5 5 5 5 5 5 5 3 5 5 5 3 5 5 5 5 3 5 5 3 5 5 3 5 5 5 5 5 5 5 5 3 5 5 5 5 5 5 5 5 5 3 5 5 5 3 5 5 5 5 5 5 5 5 5 5 5 5 5 5 5 5 5 5 5 5 5 5 5 5 5 5 5 5 3 3 5 5 5 5 5 5 3 5 5 5 5 5 3 5 5 5 5 3 5 5 5 3 5 5 5 5 5 3 5 5 5 3 5 5 5 5 5 5 5 5 5 5 5 5 5 5 5 5 5 3 5 5 5 3 5 5 5 5 5 5 5 5 5 3 5 5 5 3 5 5 5 5 5 5 3 5 5 5 5 5 5 5 5 5 3 5 5 5 5 3 5 5 5 5 5 3 5 5 3 5 5 5 5 5 5 5 5 5 5 5 5 5 5 5 5 5 5 5 5 3 5 5 5 5 5 5 5 5 5 3 5 5 3 5 5 5 3 5 5 5 5 5 5 5 5 3 5 5 5 5 5 3 5 5 5 5 5 3 5 3 5 5 5 5 3 5 5 3 5 3 5 3 5 5 5 5 5 3 5 3 3 5 5 3 5 5 5 3 5 5 5 5 5 5 5 3 3 5 5 5 5 5 5 5 3 5 5 5 3 5 5 5 5 5 5 5 5 3 5 5 3 5 5 5 5 5 5 3 5 5 5 5 5 5 5 5 3 5 3 5 3 5 5 3 3 5 5 3 5 3 3 5 5 5 3 5 3 5 5 5 3 3 3 5 5 3 3 5 3 5 3 5 5 5 3 5 5 5 5 5 3 5 5 5 3 5 5 3 3 5 5 5 5 5 5 3 5 5 5 5 3 5 5 5 5 5 5 5 5 5 5 3 5 3 3 5 5 3 5 3 3 5 5 3 5 3 3 5 5 5 5 5 5 5 3 5 5 5 3 5 5 5 5 5 5 5 5 5 5 5 3 5 5 3 5 5 5 5 5 3 5 5 5 3 5 5 3 5 5 5 3 5 5 5 5 5 3 5 5 5 5 3 3 5 3 5 3 5 3 3 5 5 5 5 5 3 3 5 3 3 5 3 5 5 5 3 3 5 3 5 5 3 5 5 5 5 3 5 3 5 5 5 3 5 5 3 5 5 5 5 3 5 5 5 5 3 5 5 5 5 5 5 5 5 5 5 5 5 3 5 5 5 5 5 5 5 5 5 3 5 5 5 3 5 5 5 5 5 5 5 5 5 5 5 5 5 5 5 5 5 5 5 5 5 5 5 5 5 5 5 5 5 5 5 5 5 5 5 5 5 5 5 5 5 5 5 5 5 5 5 5 5 5 5 5 5 5 5 5 5 5 5 3 5 5 5 5 5 5 5 5 3 5 5 5 5 5 5 3 5 5 5 3 5 5 5 5 5 5 5 3 5 5 5 5 5 3 3 5 5 5 3 5 3 5 3 5 5 5 5 5 5 3 3 5 5 5 5 5 5 3 5 5 5 5 5 5 5 5 3 3 5 5 5 3 3 5 5 5 5 5 3 5 5 5 5 5 5 5 5 5 3 5 5 5 3 5 5 5 5 5 3 5 5 5 5 5 5 5 5 5 5 5 5 5 5 5 3 5 5 5 3 5 3 5 5 5 5 5 5 5 5 5 5 5 5 5 5 5 5 5 5 5 5 5 5 5 5 3 5 3 5 5 5 5 5 5 5 3 5 5 5 5 5 5 5 3 5 3 5 5 5 5 5 5 5 5 5 5 5 5 5 3 5 5 3 3 5 5 5 5 5 5 5 5 5 5 5 5 5 5 3 5 5 5 5 5 3 5 3 5 5 5 5 5 5 5 5 5 5 5 5 5 5 5 5 5 5 5 5 3 3 5 5 5 5 5 5 5 5 5 5 5 5 5 3 5 5 5 5 5 5 5 5 5 5 5 5 5 5 5 5 5 5 5 5 5 5 5 5 5 5 5 5 5 5 5 5 5 5 5 5 5 5 5 3 5 5 3 5 5 5 5 5 5 5 5 5 5 5 3 5 5 5 5 5 5 5 5 5 3 5 5 3 5 5 5 5 5 5 3 5 5 5 5 5 5 5 5 5 5 5 5 5 5 5 5 5 5 5 5 5 5 5 5 5 5 5 5 5 5 5 5 5 5 5 3 3 5 5 5 5 5 3 5 5 5 5 5 5 5 5 5 5 5 5 5 3 5 5 5 5 5 5 5 5 3 5 5 5 5 5 5 5 5 5 5 5 5 5 5 5 5 5 5 5 5 5 5 5 5 5 5 5 5 5 5 5 5 5 5 5 5 5 5 5 5 5 5 5 5 5 5 5 5 5 5 5 5 5 5 5 5 5 5 5 5 5 5 5 5 5 5 5 5 3 3 5 5 5 5 5 5 5 5 5 5 5 5 5 5 5 5 3 5 5 3 5 3 5 3 5 5 3 5 5 5 5 5 5 5 3 5 5 5 5 5 5 5 5 5 5 5 5 3 5 5 5 5 5 5 5 5 5 5 5 5 5 5 3 5 5 5 5 5 5 5 5 5 5 5 5 5 5 5 5 5 5 5 5 5 5 5 5 5 5 5 5 5 5 5 5 5 5 5 5 5 5 5 5 5 5 5 5 5 5 5 5 5 5 5 5 5 5 5 5 5 5 5 5 5 5 5 5 5 5 5 5 5 5 5 5 5 5 5 5 5 5 5 5 5 5 5 5 5 5 5 5 5 5 3 5 3 5 5 5 5 5 5 5 5 5 5 5 5 5 5 5 5 3 3 5 5 5 5 5 5 5 5 5 5 5 5 5 5 5 5 5 5 5 5 5 5 5 5 5 5 5 5 5 5 5 5 5 5 5 5 5 5 5 3 5 5 5 5 3 5 5 5 5 5 5 5 5 5 3 5 3 5 5 5 5 5 5 5 3 5 5 5 5 5 5 5 5 5 5 5 5 5 5 3 5 5 5 5 3 5 5 5 5 5 5 5 5 5 5 5 5 5 3 5 5 5 3 5 5 5 5 5 5 5 5 5 5 5 5 5 5 5 5 5 5 5 5 5 5 5 3 5 5 5 5 3 5 5 5 5 5 5 3 5 5 5 5 3 5 5 5 5 5 5 3 5 5 5 5 5 3 5 5 3 3 5 5 5 5 3 5 5 5 5 5 5 5 5 5 3 5 5 3 5 5 5 5 5 5 5 5 5 5 5 5 5 5 3 5 5 5 5 5 3 5 5 5 5 3 5 5 5 5 5 5 5 5 5 5 5 5 5 5 3 5 5 5 5 5 3 5 5 5 5 5 5 3 5 5 5 5 5 5 5 5 5 5 5 5 5 3 5 5 5 5 5 5 3 5 5 3 5 5 5 5 5 5 5 5 5 5 5 3 5 5 5 5 5 5 5 5 5 5 5 3 5 3 5 5 5 5 5 3 3 5 5 3 3 5 5 3 5 5 5 5 3 5 5 5 5 5 5 3 5 5 3 5 5 5 5 5 5 5 3 5 5 5 5 5 5 3 5 5 5 5 5 5 5 5 5 5 5 5 5 5 5 5 5 3 5 5 5 3 5 5 5 5 5 5 5 5 5 5 5 5 5 5 5 5 5 5 5 5 5 3 5 5 5 5 3 5 3 5 5 3 5 5 3 5 5 5 5 5 3 5 5 5 3 5 5 3 5 5 5 5 3 5 5 5 5 3 5 5 5 5 5 5 5 5 5 5 5 5 5 5 5 5 5 5 5 3 5 5 5 5 5 5 3 5 5 5 5 5 3 5 5 5 3 5 5 3 5 5 5 5 5 5 5 5 5 5 5 5 5 3 5 3 5 5 5 5 5 5 5 5 5 5 5 5 5 5 5 5 3 5 5 5 3 5 5 5 5 5 5 5 5 5 5 5 5 5 5 5 5 5 5 5 5 5 5 5 5 5 5 5 5 5 5 3 5 5 3 5 5 5 5 5 5 5 5 5 5 5 5 5 5 3 5 5 5 5 5 3 5 5 5 5 5 5 5 5 5 3 5 5 5 5 5 5 5 5 5 5 5 5 5 5 5 5 5 5 5 5 5 3 5 3 5 3 5 5 5 5 5 5 5 5 5 3 5 5 5 5 5 5 5 5 5 5 5 5 5 5 5 5 3 3 5 5 5 5 5 5 5 3 5 5 5 5 5 5 5 5 5 5 5 5 5 5 5 5 5 3 3 5 5 5 5 5 5 5 5 5 5 5 5 5 5 5 5 5 5 5 5 5 5 5 5 5 5 5 5 5 5 5 5 5 5 5 5 5 5 5 5 5 5 3 5 5 5 5 5 5 5 5 5 5 5 5 5 5 5 5 5 5 5 3 5 5 5 5 5 5 5 5 3 5 5 5 5 5 5 3 3 5 3 5 5 3 5 5 5 3 5 3 5 5 3 5 5 3 5 5 5 5 5 5 5 5 5 5 5 3 5 5 5 5 3 5 5 5 5 5 5 5 5 5 5 3 5 5 3 5 5 5 5 5 5 5 5 5 5 5 5 5 5 5 5 5 5 5 5 5 3 5 5 3 5 5 5 5 5 5 5 5 3 3 5 5 5 5 5 3 5 5 5 3 5 5 5 5 3 5 5 5 5 5 5 5 5 5 5 5 5 5 5 5 5 5 5 5 5 5 5 5 5 5 5 5 5 5 5 5 5 5 5 3 3 5 5 5 5 5 3 5 5 5 5 3 5 5 5 5 5 5 5 5 3 5 5 5 5 5 3 5 5 5 3 5 5 5 5 5 5 5 5 5 5 5 5 3 3 5 5 5 5 3 3 5 3 3 5 3 5 3 5 5 3 3 5 5 5 5 3 3 5 5 3 3 5 5 3 5 5 3 5 5 5 5 5 5 5 5 5 5 5 5 5 5 5 5 5 5 5 5 5 3 5 5 5 3 5 5 3 5 5 5 3 5 3 3 5 3 5 5 5 5 5 3 3 5 5 3 5 5 5 3 5 5 5 5 5 5 5 5 3 5 5 3 5 5 5 5 3 3 5 3 5 5 5 5 3 5 5 5 5 5 5 5 3 5 5 5 5 5 5 3 5 5 5 5 5 5 5 5 5 5 5 5 5 3 3 3 3 5 5 3 3 5 5 5 5 5 3 3 5 3 5 3 5 3 5 5 3 5 5 3 5 3 3 5 5 5 5 5 5 5 5 5 5 3 5 5 3 5 5 5 5 5 5 5 5 5 5 5 5 5 5 3 5 5 5 3 5 5 3 5 5 5 5 3 5 5 5 5 3 5 5 5 3 5 5 5 5 5 3 5 5 5 5 5 5 3 5 3 5 5 5 5 5 5 5 5 5 5 5 5 5 5 3 5 5 3 5 3 3 5 5 5 5 5 5 3 5 5 3 5 5 5 3 3 5 3 5 5 5 5 5 3 5 5 5 3 5 5 5 5 5 5 5 3 5 5 5 5 5 5 3 5 5 5 5 5 5 3 5 5 5 5 5 5 5 5 5 5 3 5 5 5 5 5 5 5 5 5 5 5 5 5 5 5 3 3 5 5 5 5 5 5 5 5 5 3 5 5 5 5 5 5 5 5 3 5 5 3 5 3 5 5 5 3 5 3 5 5 5 3 5 3 5 5 5 3 3 5 3 5 5 5 5 5 5 5 5 5 5 5 3 3 5 3 5 5 5 3 3 5 3 5 5 5 5 3 3 5 3 5 5 5 5 5 5 3 5 3 5 5 5 5 3 3 5 5 3 5 5 3 5 5 3 5 5 3 3 5 5 3 5 3 3 5 5 3 5 5 5 5 5 5 3 3 3 5 5 5 3 5 3 5 5 5 5 3 3 5 3 3 3 5 5 5 5 5 5 5 5 5 5 5 5 5 5 5 5 5 5 5 5 5 5 5 5 5 5 3 5 5 5 3 5 5 5 5 5 5 5 5 5 5 5 3 5 5 5 5 5 3 5 3 5 5 3 5 5 5 5 5 3 3 5 5 5 5 5 3 5 5 3 5 5 5 5 5 5 5 5 5 5 5 5 5 5 5 5 5 5 5 5 3 5 5 5 5 5 5 5 5 5 5 5 3 3 5 5 5 5 5 5 5 5 5 3 5 5 5 5 5 5 5 3 5 5 5 5 5 5 5 5 5 5 5 5 3 5 3 5 5 5 5 5 5 5 5 5 3 5 3 5 5 5 5 5 5 5 5 5 3 3 5 5 5 5 5 5 5 5 5 5 5 5 5 5 5 5 5 5 5 5 5 5 5 5 5 5 5 5 5 5 5 5 5 3 5 5 5 5 5 5 5 5 5 5 5 5 5 3 5 5 5 5 5 5 5 5 5 5 5 5 5 5 5 5 5 5 5 5 5 5 5 3 3 5 5 5 5 5 5 5 5 5 5 5 5 5 5 5 3 5 5 5 5 5 5 5 5 5 5 5 5 5 5 5 5 5 3 5 5 5 5 3 5 5 5 5 5 5 5 5 5 5 5 3 3 5 5 5 5 5 5 5 5 5 5 5 5 5 5 5 5 5 5 5 3 5 5 5 3 5 5 5 3 3 5 5 3 3 5 3 5 5 5 3 5 5 3 3 5 5 3 5 5 3 3 5 5 5 5 3 5 5 5 3 3 5 5 5 5 5 5 5 5 3 5 5 3 5 5 5 5 3 5 5 5 5 5 3 5 5 3 5 5 5 5 5 3 5 5 5 5 3 5 5 3 5 3 5 5 5 5 5 5 5 3 5 5 5 3 5 5 3 5 5 5 5 5 5 5 5 5 5 5 5 5 5 5 5 3 5 3 5 5 5 5 5 5 5 5 5 3 5 5 5 3 3 3 5 5 5 3 3 5 3 5 3 3 5 5 5 3 5 3 5 5 5 5 5 5 5 5 5 5 3 5 5 5 3 5 5 5 3 5 5 5 5 5 5 5 5 5 5 5 5 5 5 5 5 5 5 5 3 5 5 5 5 3 5 3 5 5 5 5 5 5 5 5 5 5 5 3 5 3 5 5 3 5 3 3 3 5 5 5 3 5 5 5 3 3 5 5 5 5 5 5 3 5 5 5 5 5 5 5 5 5 3 5 5 3 5 5 5 3 5 5 5 5 5 5 5 5 5 5 5 5 5 5 5 5 5 3 5 5 5 5 5 5 3 3 5 5 5 3 5 5 5 5 5 5 5 3 5 5 5 5 5 5 5 5 5 5 5 5 5 3 5 5 5 5 5 5 5 5 5 5 5 5 5 5 5 5 5 5 3 5 5 5 5 5 3 5 5 5 5 5 5 5 5 3 5 5 5 5 5 5 5 5 5 5 5 5 5 5 5 5 5 5 5 5 5 3 3 5 5 3 5 3 5 5 5 5 5 5 5 5 3 5 5 5 5 3 5 5 5 5 3 5 5 5 3 5 3 5 5 5 3 3 5 3 5 3 3 5 5 5 5 5 3 5 5 5 3 5 5 5 5 3 5 5 5 5 5 5 5 5 5 5 5 5 5 5 5 5 5 5 3 5 5 5 5 5 3 5 5 5 5 3 5 5 5 5 5 5 3 5 5 5 5 5 5 5 5 5 5 5 5 5 5 5 5 5 5 5 5 5 5 5 5 3 5 5 5 3 5 5 3 5 5 3 5 5 5 3 5 5 3 5 3 5 5 3 5 5 5 5 5 5 5 5 5 5 5 5 5 5 5 3 5 5 3 5 3 5 5 5 5 5 5 5 3 5 5 3 5 3 5 5 5 3 5 5 5 5 3 5 5 3 5 5 3 5 5 3 5 5 5 5 5 5 5 5 5 3 5 5 3 5 3 3 3 5 5 5 5 5 5 5 3 5 3 5 3 3 5 5 5 5 5 5 5 5 5 5 5 3 5 5 5 5 5 5 5 5 5 5 5 5 5 5 5 5 5 5 5 5 5 5 5 5 5 5 5 5 3 5 5 5 5 5 5 3 5 5 5 5 5 5 5 5 5 5 5 5 5 5 5 5 3 5 5 5 5 5 5 5 5 5 5 5 5 5 5 5 5 5 5 5 5 5 5 5 3 3 5 5 5 5 5 5 5 3 5 5 5 3 3 5 5 3 5 5 5 5 5 5 5 5 5 5 5 5 5 3 5 5 5 5 5 5 5 5 5 5 5 5 5 5 5 5 5 5 5 5 5 5 3 5 5 5 3 5 5 5 5 5 5 5 5 5 5 5 5 5 5 5 5 5 5 5 5 5 5 3 5 5 5 5 5 5 5 5 5 5 5 5 5 5 5 5 5 5 5 5 5 5 5 3 5 5 5 5 5 5 5 5 5 5 5 5 5 5 5 5 5 5 5 3 5 5 5 5 5 5 5 5 5 5 5 5 5 5 5 5 5 5 5 5 5 5 5 5 5 5 5 5 5 5 5 5 5 5 5 5 5 5 5 5 3 5 5 5 5 5 5 5 3 5 5 3 5 5 3 5 5 5 5 5 5 5 5 5 5 5 5 5 5 5 5 5 5 5 5 5 5 5 5 5 5 5 5 5 5 3 5 5 5 5 3 5 5 5 5 5 5 5 5 3 5 5 5 5 5 5 5 5 5 5 5 5 5 5 5 5 5 5 3 3 5 3 5 3 5 5 5 3 5 5 5 5 5 5 3 5 5 5 3 5 5 5 5 3 5 5 5 3 5 5 5 5 5 3 5 5 3 5 5 5 5 5 5 5 5 5 5 5 5 5 5 5 5 5 5 3 5 5 5 5 5 5 5 5 5 5 5 5 5 3 5 3 5 5 5 3 5 3 5 5 5 5 5 5 5 5 5 5 5 5 5 5 5 3 5 5 3 5 5 5 5 5 5 5 5 5 5 5 5 5 5 5 5 5 5 5 5 5 5 5 5 5 5 5 5 5 5 5 5 5 3 5 5 5 5 5 5 5 5 5 5 5 5 5 5 5 5 5 5 5 5 5 5 5 5 5 5 5 5 5 5 5 5 5 5 5 5 5 5 5 5 5 5 5 5 5 5 5 5 5 3 5 5 5 5 5 3 5 3 5 5 5 5 5 5 5 5 5 5 5 5 5 5 5 5 3 5 5 5 5 5 5 5 5 5 5 5 5 5 5 5 5 5 5 5 3 5 5 5 5 5 3 5 5 5 5 3 5 5 5 5 5 5 5 5 5 5 5 5 5 5 5 5 5 5 5 5 5 5 5 5 5 5 5 5 5 5 5 5 5 5 5 5 5 5 5 3 5 5 5 5 5 5 5 5 5 5 5 5 5 5 5 5 5 5 5 5 5 5 5 5 5 5 5 5 3 5 3 5 3 5 5 5 5 5 3 3 5 3 5 5 3 5 5 3 5 5 3 5 5 5 5 5 5 5 5 5 5 5 5 5 5 5 5 5 3 5 5 5 5 5 3 5 5 5 5 5 5 5 5 5 5 5 3 5 5 3 5 5 5 5 5 5 5 3 5 5 5 5 5 5 5 5 3 5 5 5 3 5 3 5 5 5 5 5 5 5 5 5 5 5 5 5 5 5 5 5 5 5 5 5 5 5 5 5 3 5 5 5 3 5 5 5 5 5 5 5 5 5 3 5 5 5 5 5 5 5 3 5 5 5 5 5 5 5 5 5 5 5 5 5 5 5 5 5 5 5 5 5 5 5 5 5 5 5 5 5 5 5 5 5 5 5 3 5 5 5 5 5 5 5 5 5 5 5 5 5 5 5 5 5 5 5 5 5 5 5 5 5 5 5 5 5 5 5 5 5 5 5 5 5 5 5 5 5 5 5 5 5 5 5 5 5 5 3 5 5 5 5 5 3 5 5 5 5 5 5 5 3 5 5 5 5 5 5 5 5 3 5 3 5 5 5 5 3 5 5 3 5 5 5 3 3 5 5 5 3 3 5 3 5 5 5 5 5 5 5 5 5 5 5 5 5 5 5 5 5 5 5 5 5 5 5 3 3 5 3 5 5 5 5 5 3 5 5 5 5 3 5 5 5 3 5 3 5 5 5 5 5 5 5 5 5 5 5 5 5 5 5 5 5 5 5 5 5 5 5 5 5 3 5 5 5 5 5 5 5 5 5 5 3 5 5 5 5 5 5 5 5 3 3 5 5 5 5 5 5 5 5 5 5 5 5 5 5 5 5 5 3 5 5 3 3 5 5 5 5 5 3 5 5 5 5 5 5 5 5 5 3 5 5 5 3 5 5 5 5 5 3 5 3 5 3 3 5 5 3 5 5 5 5 5 3 5 5 5 5 5 3 3 5 5 5 5 3 5 5 5 5 5 5 3 5 5 5 5 5 5 5 5 5 5 5 5 5 5 5 5 5 5 5 5 5 5 5 5 5 5 5 5 5 5 5 5 5 5 5 5 5 5 5 5 5 5 5 5 5 5 5 5 5 5 5 5 5 3 5 5 3 5 5 3 5 3 5 5 5 5 5 5 5 5 5 3 5 5 3 5 5 5 5 5 5 5 5 5 5 3 5 5 5 5 3 5 5 5 3 5 5 5 5 3 5 5 5 5 5 5 5 5 5 3 5 5 5 5 3 5 5 5 5 5 5 5 5 5 5 5 5 5 5 5 5 5 5 5 5 5 5 5 3 5 5 5 5 5 5 5 5 5 3 5 5 5 5 5 5 3 5 5 5 5 5 5 5 5 5 5 5 5 5 5 5 5 5 5 5 5 5 5 5 5 5 5 5 5 5 5 5 5 3 5 5 5 3 5 5 3 3 5 5 5 5 5 5 5 5 5 3 5 5 5 3 3 5 5 3 5 5 5 3 3 3 5 5 5 5 5 5 5 5 5 5 5 5 5 5 5 5 5 5 5 5 5 5 5 5 5 5 3 5 5 3 5 5 3 5 5 5 5 5 5 5 3 5 5 5 5 5 5 5 5 5 5 5 5 5 3 5 5 3 5 5 5 5 5 5 5 5 3 5 5 5 5 5 5 5 5 5 5 5 5 5 5 5 5 5 5 5 5 5 5 5 5 5 5 5 5 5 5 5 5 5 5 5 5 5 5 5 5 5 5 5 5 5 5 5 5 3 5 5 5 5 5 5 5 5 5 5 5 5 5 5 5 3 5 5 5 5 5 3 5 5 5 5 5 5 5 3 5 5 5 5 3 5 5 5 5 5 5 5 5 5 5 3 5 5 3 5 5 5 5 5 5 5 5 3 3 5 5 5 3 5 5 5 5 5 5 5 5 5 5 3 5 5 5 3 5 5 5 3 5 5 5 5 5 5 5 5 5 5 3 5 5 5 5 5 5 3 5 5 3 5 5 5 5 5 5 5 5 5 5 5 5 5 3 5 5 3 5 5 5 3 3 5 5 5 5 5 5 3 5 5 5 5 5 5 5 5 5 5 3 5 5 5 5 5 5 5 5 5 3 5 5 3 5 5 5 5 5 5 3 5 5 5 5 5 5 5 5 5 5 5 5 5 5 3 5 5 5 5 5 3 5 5 3 5 5 5 5 5 5 5 5 5 5 5 3 5 5 5 5 5 3 5 3 5 3 5 5 3 5 5 5 5 3 5 3 5 3 3 5 5 3 5 5 3 5 5 5 5 5 5 5 5 5 5 5 5 5 5 3 5 5 5 5 5 3 5 5 5 5 5 5 5 5 3 5 5 5 5 5 5 5 5 5 5 5 3 5 5 5 5 5 3 5 5 5 5 5 5 3 5 5 5 5 5 3 3 5 5 5 3 5 5 5 5 5 5 5 5 5 5 5 5 5 5 5 5 5 5 5 5 5 5 5 3 5 5 5 5 3 3 5 3 5 5 5 5 5 5 3 5 5 5 3 5 5 5 5 5 5 5 3 5 5 5 3 5 5 5 5 3 5 5 3 5 5 5 3 5 5 3 5 5 3 3 3 5 3 3 5 5 3 5 5 3 5 5 5 5 5 5 5 3 5 5 3 5 5 5 5 5 5 5 5 5 5 5 5 5 5 5 5 5 5 5 3 3 5 5 5 5 5 5 5 5 5 5 5 5 5 5 5 5 5 5 5 5 5 5 5 5 5 5 5 5 5 5 5 5 5 5 5 5 5 5 5 5 5 5 5 5 5 5 5 5 5 5 5 5 5 5 5 3 5 5 5 5 5 5 5 5 5 5 5 5 5 5 5 5 5 5 5 5 5 5 5 5 3 5 5 5 5 5 5 5 5 5 5 5 5 5 5 5 5 5 5 5 5 5 5 5 5 5 5 5 5 5 5 5 5 5 5 5 5 5 5 5 5 3 5 3 5 5 5 5 3 5 5 5 3 5 5 5 5 5 5 5 5 5 5 5 5 5 5 5 3 5 5 5 5 5 5 5 5 5 5 5 3 5 5 5 3 5 5 5 5 5 5 5 5 5 3 5 3 5 5 3 5 5 5 5 5 5 5 5 5 5 5 3 5 5 5 5 5 5 5 5 5 5 5 5 5 5 5 5 5 5 5 5 5 5 5 5 3 5 5 5 5 5 5 5 5 5 5 5 3 5 5 5 3 3 5 5 5 5 5 5 5 5 5 5 3 5 5 5 5 3 5 3 5 5 5 5 3 5 5 3 5 5 5 5 5 3 5 5 5 5 5 5 5 5 5 5 5 5 5 5 5 5 5 5 5 5 5 5 5 5 5 5 5 3 5 5 3 5 5 5 5 3 5 5 5 5 5 3 5 5 5 5 5 5 5 5 5 5 5 5 3 5 5 5 5 5 5 5 5 5 3 5 5 5 5 5 5 5 5 5 5 5 5 5 5 5 5 3 5 5 5 5 5 5 5 3 3 5 5 3 5 5 5 5 5 5 5 5 5 5 5 5 5 3 5 5 5 5 5 3 3 5 5 5 5 5 5 5 5 5 5 5 5 5 5 5 5 5 5 5 5 5 5 5 5 5 5 5 5 5 5 5 5 5 5 5 5 5 5 5 5 5 5 5 5 5 5 5 5 5 5 5 5 5 5 5 5 5 5 5 5 5 5 5 5 5 3 5 3 5 5 5 5 5 5 5 5 5 5 5 5 5 5 5 5 5 5 5 5 5 5 5 5 5 5 5 5 5 5 5 5 5 5 5 5 5 5 5 5 5 5 5 5 5 5 5 5 5 5 5 5 5 3 5 5 3 5 5 5 5 5 5 5 5 5 5 5 5 5 5 5 5 3 5 5 5 5 5 5 5 5 5 5 5 5 5 5 5 5 5 5 5 5 5 5 5 5 5 5 5 5 5 5 5 5 5 5 5 3 5 5 5 5 5 5 5 5 5 5 3 5 5 5 5 5 5 5 5 5 5 5 5 5 5 5 5 5 5 5 5 5 5 5 5 5 5 5 5 3 5 5 5 5 5 5 3 5 5 5 5 5 5 5 5 5 5 5 5 5 5 5 5 5 5 5 5 5 5 5 
</DataArray>
</Cells>
<PointData Scalars="" Vectors="displacement," Tensors="">
<DataArray type="Float64" Name="displacement" NumberOfComponents="3" format="ascii">
2.9788896583348272e-08 0.014999854237401007 0 4.6318528514490249e-05 0.014667498426239099 0 1.6900702815260564e-08 0.014999187129652885 0 -4.9494362624232696e-09 0.014999906698146189 0 2.7225790323482966e-09 0.014133578730583213 0 1.6900702815260564e-08 0.014999187129652885 0 2.7225790323482966e-09 0.014133578730583213 0 2.87200815239992e-05 0.014352962468590282 0 4.145653284922913e-06 0.014999696715721222 0 2.6707035168394995e-09 0.014999999001566561 0 4.973019823704646e-06 0.014996156807062165 0 6.2617456717299477e-10 0.015000001763199218 0 4.145653284922913e-06 0.014999696715721222 0 2.6707035168394995e-09 0.014999999001566561 0 2.6707035168394995e-09 0.014999999001566561 0 4.973019823704646e-06 0.014996156807062165 0 6.1730084879347021e-10 0.014999989205718012 0 4.145653284922913e-06 0.014999696715721222 0 4.973019823704646e-06 0.014996156807062165 0 1.2186724391385689e-05 0.014995616354419322 0 4.973019823704646e-06 0.014996156807062165 0 6.1730084879347021e-10 0.014999989205718012 0 7.1959105437025527e-06 0.014990763085266512 0 1.395141732613099e-05 0.014988384954486702 0 2.3655181654577793e-05 0.014982927472950627 0 1.7043596153695002e-05 0.014980704078514448 0 1.395141732613099e-05 0.014988384954486702 0 1.2186724391385689e-05 0.014995616354419322 0 2.3655181654577793e-05 0.014982927472950627 0 4.973019823704646e-06 0.014996156807062165 0 1.395141732613099e-05 0.014988384954486702 0 7.1959105437025527e-06 0.014990763085266512 0 4.973019823704646e-06 0.014996156807062165 0 1.395141732613099e-05 0.014988384954486702 0 1.2186724391385689e-05 0.014995616354419322 0 -0.0001278840944136338 0.014426058807994576 0 -0.00014947710101413872 0.014345238371494219 0 -0.00020710709681513961 0.014437896336169142 0 -6.8315134340871705e-05 0.013803174637000303 0 -1.9898609089998248e-05 0.013495981089188574 0 -0.0001278840944136338 0.014426058807994576 0 -0.00020710709681513961 0.014437896336169142 0 -0.00020986259265814465 0.01447744597139089 0 -9.2508184219460828e-05 0.014805456187418187 0 -5.4068025394018944e-05 0.014163121423084063 0 8.576728112722219e-05 0.013071595218435214 0 -1.6235813010029124e-05 0.013192030932200168 0 8.3308117127493599e-05 0.013028151622218107 0 8.576728112722219e-05 0.013071595218435214 0 -1.6235813010029124e-05 0.013192030932200168 0 8.5007575891138984e-05 0.012939397380926148 0 2.87200815239992e-05 0.014352962468590282 0 -0.0001278840944136338 0.014426058807994576 0 -0.00014947710101413872 0.014345238371494219 0 4.6318528514490249e-05 0.014667498426239099 0 -9.2508184219460828e-05 0.014805456187418187 0 2.7225790323482966e-09 0.014133578730583213 0 2.87200815239992e-05 0.014352962468590282 0 -0.00014947710101413872 0.014345238371494219 0 4.5802314466144071e-08 0.014132340529279072 0 -6.8315134340871705e-05 0.013803174637000303 0 -5.8410064379430753e-07 0.014131547639225321 0 -1.6235813010029124e-05 0.013192030932200168 0 5.0671187597501988e-07 0.013281887824766112 0 -1.6235813010029124e-05 0.013192030932200168 0 5.0671187597501988e-07 0.013281887824766112 0 8.3308117127493599e-05 0.013028151622218107 0 5.0671187597501988e-07 0.013281887824766112 0 8.3308117127493599e-05 0.013028151622218107 0 -4.0795306075444487e-07 0.012432684380676512 0 8.3308117127493599e-05 0.013028151622218107 0 -4.0795306075444487e-07 0.012432684380676512 0 8.6996814199387661e-06 0.012988743140268343 0 -4.0795306075444487e-07 0.012432684380676512 0 8.6996814199387661e-06 0.012988743140268343 0 -0.00024298111295665263 0.012952102110627162 0 8.6996814199387661e-06 0.012988743140268343 0 -0.00024298111295665263 0.012952102110627162 0 -0.00012678204008238132 0.013134356090043233 0 8.576728112722219e-05 0.013071595218435214 0 8.3308117127493599e-05 0.013028151622218107 0 8.6996814199387661e-06 0.012988743140268343 0 8.576728112722219e-05 0.013071595218435214 0 8.6996814199387661e-06 0.012988743140268343 0 3.5771384911726909e-05 0.013096317436368998 0 -8.6629748571081618e-08 0.011593530090840508 0 -6.1327289670734669e-05 0.011473133101665853 0 4.0176439946202513e-06 0.010711474230583773 0 -4.0795306075444487e-07 0.012432684380676512 0 -0.00041548324056200333 0.01272049619436883 0 -0.00024298111295665263 0.012952102110627162 0 -2.222337196555104e-07 0.012430994817063789 0 -8.6629748571081618e-08 0.011593530090840508 0 -6.1327289670734669e-05 0.011473133101665853 0 6.5473584304461183e-08 0.012431204007873174 0 -0.00019273684446383276 0.012086171028753751 0 -0.00041548324056200333 0.01272049619436883 0 -0.00024298111295665263 0.012952102110627162 0 -0.00047882224325556056 0.012998571056293996 0 -0.00041548324056200333 0.01272049619436883 0 -0.00047882224325556056 0.012998571056293996 0 -0.00065777989173287877 0.012889428361035411 0 -0.00046619381402455734 0.012989414168363318 0 -0.0007711151285954694 0.013036541770314826 0 -0.00019273684446383276 0.012086171028753751 0 -0.00026304660054507695 0.011756088220897716 0 -0.00047882224325556056 0.012998571056293996 0 -0.00054834665758756319 0.013151050681031343 0 -0.000696292890124602 0.013017594515589015 0 -0.00047882224325556056 0.012998571056293996 0 -0.00054834665758756319 0.013151050681031343 0 -0.00035376488633765383 0.013156815594464542 0 -0.00024298111295665263 0.012952102110627162 0 -0.00047882224325556056 0.012998571056293996 0 -0.00035376488633765383 0.013156815594464542 0 -0.00024298111295665263 0.012952102110627162 0 -0.00035376488633765383 0.013156815594464542 0 -0.00012678204008238132 0.013134356090043233 0 -0.00035376488633765383 0.013156815594464542 0 -0.0002209681331343967 0.013307911405631522 0 -0.00012678204008238132 0.013134356090043233 0 -0.00035376488633765383 0.013156815594464542 0 -0.0002209681331343967 0.013307911405631522 0 -0.00046588556151390089 0.013377591369144121 0 -0.0002209681331343967 0.013307911405631522 0 -0.00046588556151390089 0.013377591369144121 0 -0.00016846504341811927 0.013510487382435998 0 -0.00054834665758756319 0.013151050681031343 0 -0.00035376488633765383 0.013156815594464542 0 -0.00046588556151390089 0.013377591369144121 0 -0.00054834665758756319 0.013151050681031343 0 -0.00046588556151390089 0.013377591369144121 0 -0.00075937017386486097 0.013225032316809429 0 -1.8127847544126198e-05 0.013195252074789889 0 0.00011208285692134714 0.013166077583698182 0 -5.7750820882609482e-06 0.013256782674824292 0 -1.8127847544126198e-05 0.013195252074789889 0 0.00011208285692134714 0.013166077583698182 0 3.5771384911726909e-05 0.013096317436368998 0 8.576728112722219e-05 0.013071595218435214 0 0.00011208285692134714 0.013166077583698182 0 3.5771384911726909e-05 0.013096317436368998 0 8.9603693493444978e-05 0.012949889180325178 0 -1.9898609089998248e-05 0.013495981089188574 0 8.6996814199387661e-06 0.012988743140268343 0 3.5771384911726909e-05 0.013096317436368998 0 -0.00012678204008238132 0.013134356090043233 0 -1.8127847544126198e-05 0.013195252074789889 0 3.5771384911726909e-05 0.013096317436368998 0 -0.00012678204008238132 0.013134356090043233 0 -1.8127847544126198e-05 0.013195252074789889 0 -0.00012678204008238132 0.013134356090043233 0 -9.811530144192347e-05 0.013285195632711392 0 -9.811530144192347e-05 0.013285195632711392 0 -2.633700213990552e-05 0.013380349919985886 0 -5.7750820882609482e-06 0.013256782674824292 0 -0.0002209681331343967 0.013307911405631522 0 -0.00010789968490094986 0.013383363113535458 0 -0.00016846504341811927 0.013510487382435998 0 -1.8127847544126198e-05 0.013195252074789889 0 -9.811530144192347e-05 0.013285195632711392 0 -5.7750820882609482e-06 0.013256782674824292 0 -0.0002209681331343967 0.013307911405631522 0 -0.00012678204008238132 0.013134356090043233 0 -9.811530144192347e-05 0.013285195632711392 0 -0.0002209681331343967 0.013307911405631522 0 -9.811530144192347e-05 0.013285195632711392 0 -0.00010789968490094986 0.013383363113535458 0 -9.811530144192347e-05 0.013285195632711392 0 -0.00010789968490094986 0.013383363113535458 0 -2.633700213990552e-05 0.013380349919985886 0 -0.00010789968490094986 0.013383363113535458 0 -2.633700213990552e-05 0.013380349919985886 0 -2.5806430646467061e-05 0.013428302376238339 0 0.00011208285692134714 0.013166077583698182 0 -2.633700213990552e-05 0.013380349919985886 0 -5.7750820882609482e-06 0.013256782674824292 0 -2.633700213990552e-05 0.013380349919985886 0 7.0020428549545701e-05 0.013342031507106548 0 -2.5806430646467061e-05 0.013428302376238339 0 -5.4068025394018944e-05 0.014163121423084063 0 0.00015070405170908492 0.013276511207841389 0 -1.9898609089998248e-05 0.013495981089188574 0 4.034848309195068e-05 0.013271291439937613 0 7.6311653090704016e-05 0.013265599882338365 0 -2.633700213990552e-05 0.013380349919985886 0 7.0020428549545701e-05 0.013342031507106548 0 -1.9898609089998248e-05 0.013495981089188574 0 -5.4068025394018944e-05 0.014163121423084063 0 0.0001220448201119601 0.013315475422873707 0 -2.5806430646467061e-05 0.013428302376238339 0 0.00010301717321682514 0.013632406159396957 0 -5.4068025394018944e-05 0.014163121423084063 0 0.00019177414509686971 0.014015482120588438 0 0.00016983810585215629 0.012627564179002869 0 0.00019177414509686971 0.014015482120588438 0 -0.00010789968490094986 0.013383363113535458 0 -2.5806430646467061e-05 0.013428302376238339 0 -0.00016846504341811927 0.013510487382435998 0 -2.5806430646467061e-05 0.013428302376238339 0 -0.00016846504341811927 0.013510487382435998 0 0.00010301717321682514 0.013632406159396957 0 0.00068481738056281444 0.01237855419163396 0 0.00028179249450248557 0.012523680877809652 0 0.00099056174481733676 0.012682817465413318 0 0.000444061648795684 0.012007186929877964 0 0.00068481738056281444 0.01237855419163396 0 0.0010198034420895218 0.012299532996792565 0 0.000444061648795684 0.012007186929877964 0 0.00068481738056281444 0.01237855419163396 0 0.00028179249450248557 0.012523680877809652 0 0.00019177414509686971 0.014015482120588438 0 0.00050873930945525788 0.01360301414773764 0 0.00068481738056281444 0.01237855419163396 0 0.0010198034420895218 0.012299532996792565 0 0.00099056174481733676 0.012682817465413318 0 3.1357621506232721e-05 0.014959433813252813 0 3.0626705160985303e-05 0.014957890534021488 0 2.6206505078141714e-05 0.014963337533688401 0 3.1357621506232721e-05 0.014959433813252813 0 3.1922067995879784e-05 0.014956024345127709 0 3.0626705160985303e-05 0.014957890534021488 0 -0.00016708438561740253 0.011684957812242647 0 1.1490272121345112e-05 0.012147158540397517 0 -0.00044474168121505086 0.012376995658789728 0 -0.00016708438561740253 0.011684957812242647 0 -0.00062627617926807537 0.011730542081077084 0 -0.00044474168121505086 0.012376995658789728 0 -0.00016708438561740253 0.011684957812242647 0 0.000444061648795684 0.012007186929877964 0 1.1490272121345112e-05 0.012147158540397517 0 -0.00031771317931429498 0.012546009156113355 0 0.00016983810585215629 0.012627564179002869 0 0.000444061648795684 0.012007186929877964 0 1.1490272121345112e-05 0.012147158540397517 0 0.00028179249450248557 0.012523680877809652 0 0.00015586118697977113 0.012514494687386442 0 -0.00060394581099148083 0.012496168647643347 0 1.1490272121345112e-05 0.012147158540397517 0 0.00028179249450248557 0.012523680877809652 0 -0.00044474168121505086 0.012376995658789728 0 -7.4850630891111071e-05 0.01273694970805914 0 -0.00068179871448840741 0.01316364076417219 0 -0.00071553386343716884 0.012589423962767578 0 -7.4850630891111071e-05 0.01273694970805914 0 -5.7365060290634244e-05 0.013218003362945312 0 -0.00068179871448840741 0.01316364076417219 0 -0.00028104762794814236 0.013309806301396254 0 -0.00014900895115411124 0.013600645543696038 0 -0.00045906377529133054 0.013560218449304882 0 -0.00028104762794814236 0.013309806301396254 0 -0.00068179871448840741 0.01316364076417219 0 -0.00045906377529133054 0.013560218449304882 0 -0.00068179871448840741 0.01316364076417219 0 -0.00074521072715367685 0.013536478793777253 0 -0.00045906377529133054 0.013560218449304882 0 -0.00014770733101795587 0.013161383471158061 0 -0.00067244005360009057 0.01320071003328872 0 0.00050873930945525788 0.01360301414773764 0 0.00022018441391249467 0.014090704875449613 0 3.3777445867527515e-05 0.01495637772532883 0 3.0626705160985303e-05 0.014957890534021488 0 3.4842086584431847e-05 0.014946599979345984 0 0.00058324684440025387 0.012886103305541704 0 0.00026252507789954212 0.013048747356323196 0 0.00055230039298282904 0.013270600726212734 0 0.00050873930945525788 0.01360301414773764 0 0.00039053856397363999 0.013768528337371405 0 -7.4850630891111071e-05 0.01273694970805914 0 0.00058324684440025387 0.012886103305541704 0 0.00026252507789954212 0.013048747356323196 0 0.00015586118697977113 0.012514494687386442 0 0.00050873930945525788 0.01360301414773764 0 -7.4850630891111071e-05 0.01273694970805914 0 -5.7365060290634244e-05 0.013218003362945312 0 0.00026252507789954212 0.013048747356323196 0 -5.7365060290634244e-05 0.013218003362945312 0 0.00026252507789954212 0.013048747356323196 0 0.00055230039298282904 0.013270600726212734 0 -0.00028104762794814236 0.013309806301396254 0 0.00018918596925266559 0.013375572822077368 0 -0.00014900895115411124 0.013600645543696038 0 -0.00014770733101795587 0.013161383471158061 0 0.00022018441391249467 0.014090704875449613 0 7.238760329528303e-05 0.014811637165204412 0 -2.2477330358675008e-05 0.014814118852273291 0 1.8775287945399992e-05 0.014755808619416241 0 0.00022018441391249467 0.014090704875449613 0 -2.7362605521676633e-05 0.014944288828767433 0 3.4842086584431847e-05 0.014946599979345984 0 1.9646586114101329e-05 0.014959283401410148 0 2.2857557577730445e-05 0.014962717897780755 0 3.0626705160985303e-05 0.014957890534021488 0 3.4842086584431847e-05 0.014946599979345984 0 2.2857557577730445e-05 0.014962717897780755 0 2.2857557577730445e-05 0.014962717897780755 0 2.6206505078141714e-05 0.014963337533688401 0 1.9124551080663679e-05 0.014971695002410175 0 3.0626705160985303e-05 0.014957890534021488 0 2.2857557577730445e-05 0.014962717897780755 0 2.6206505078141714e-05 0.014963337533688401 0 2.2857557577730445e-05 0.014962717897780755 0 1.2916536725963693e-05 0.014973464350733788 0 1.9124551080663679e-05 0.014971695002410175 0 1.9646586114101329e-05 0.014959283401410148 0 2.2857557577730445e-05 0.014962717897780755 0 1.2916536725963693e-05 0.014973464350733788 0 -2.7362605521676633e-05 0.014944288828767433 0 -1.5011104550552312e-05 0.014922576199893648 0 1.9646586114101329e-05 0.014959283401410148 0 1.2916536725963693e-05 0.014973464350733788 0 9.4801880489792177e-06 0.014974605165067835 0 1.2916536725963693e-05 0.014973464350733788 0 9.4801880489792177e-06 0.014974605165067835 0 3.3079212362139204e-06 0.014987548736402317 0 -1.5011104550552312e-05 0.014922576199893648 0 -1.3009840169133523e-05 0.014967357728050343 0 9.4801880489792177e-06 0.014974605165067835 0 -4.3507462530642835e-06 0.0149816163225824 0 3.3079212362139204e-06 0.014987548736402317 0 -4.2704551705715783e-05 0.014872031497957312 0 -4.3507462530642835e-06 0.0149816163225824 0 -2.2399672994858637e-05 0.014926875898140445 0 -4.3507462530642835e-06 0.0149816163225824 0 3.3079212362139204e-06 0.014987548736402317 0 -1.1769569762577898e-08 0.014999934589708972 0 3.3079212362139204e-06 0.014987548736402317 0 -1.1769569762577898e-08 0.014999934589708972 0 5.5122326943726114e-09 0.01499999618467192 0 3.3079212362139204e-06 0.014987548736402317 0 5.3577582832859839e-06 0.014987606438274818 0 5.5122326943726114e-09 0.01499999618467192 0 1.2916536725963693e-05 0.014973464350733788 0 3.3079212362139204e-06 0.014987548736402317 0 5.3577582832859839e-06 0.014987606438274818 0 1.2916536725963693e-05 0.014973464350733788 0 5.3577582832859839e-06 0.014987606438274818 0 1.0749427187178094e-05 0.014983197160762293 0 5.3577582832859839e-06 0.014987606438274818 0 3.8583150196916273e-06 0.014992694271393027 0 1.0749427187178094e-05 0.014983197160762293 0 5.3577582832859839e-06 0.014987606438274818 0 5.5122326943726114e-09 0.01499999618467192 0 3.8583150196916273e-06 0.014992694271393027 0 6.1730084879347021e-10 0.014999989205718012 0 5.5122326943726114e-09 0.01499999618467192 0 3.8583150196916273e-06 0.014992694271393027 0 6.1730084879347021e-10 0.014999989205718012 0 3.8583150196916273e-06 0.014992694271393027 0 7.1959105437025527e-06 0.014990763085266512 0 3.8583150196916273e-06 0.014992694271393027 0 7.1959105437025527e-06 0.014990763085266512 0 1.0749427187178094e-05 0.014983197160762293 0 7.1959105437025527e-06 0.014990763085266512 0 1.7043596153695002e-05 0.014980704078514448 0 1.0749427187178094e-05 0.014983197160762293 0 1.395141732613099e-05 0.014988384954486702 0 7.1959105437025527e-06 0.014990763085266512 0 1.7043596153695002e-05 0.014980704078514448 0 2.3655181654577793e-05 0.014982927472950627 0 2.6294175131128772e-05 0.014968829973344925 0 1.7043596153695002e-05 0.014980704078514448 0 0.00019177414509686971 0.014015482120588438 0 6.0607414603615645e-05 0.015104222207139601 0 2.6294175131128772e-05 0.014968829973344925 0 1.7043596153695002e-05 0.014980704078514448 0 1.9124551080663679e-05 0.014971695002410175 0 3.1357621506232721e-05 0.014959433813252813 0 2.6206505078141714e-05 0.014963337533688401 0 1.9124551080663679e-05 0.014971695002410175 0 1.7043596153695002e-05 0.014980704078514448 0 1.9124551080663679e-05 0.014971695002410175 0 1.0749427187178094e-05 0.014983197160762293 0 1.2916536725963693e-05 0.014973464350733788 0 1.9124551080663679e-05 0.014971695002410175 0 1.0749427187178094e-05 0.014983197160762293 0 -0.00017768822344532286 0.006105781219918587 0 -4.1078227549249166e-05 0.0060493902596624469 0 -7.0342446746432448e-05 0.0061828204795250207 0 -4.1078227549249166e-05 0.0060493902596624469 0 0.00016502508280841343 0.0060210797420172006 0 7.3165906165464749e-05 0.006134138366972298 0 -4.1078227549249166e-05 0.0060493902596624469 0 -7.0342446746432448e-05 0.0061828204795250207 0 7.3165906165464749e-05 0.006134138366972298 0 -4.1078227549249166e-05 0.0060493902596624469 0 3.0107833602055184e-06 0.0058829371537734649 0 0.00016502508280841343 0.0060210797420172006 0 -0.00017768822344532286 0.006105781219918587 0 -4.1078227549249166e-05 0.0060493902596624469 0 -0.00019345945126976051 0.0059508707684386439 0 -4.1078227549249166e-05 0.0060493902596624469 0 -0.00019345945126976051 0.0059508707684386439 0 3.0107833602055184e-06 0.0058829371537734649 0 -0.00019345945126976051 0.0059508707684386439 0 -0.00034016605841085502 0.0060892351163549631 0 -0.00047446519126430846 0.0058913715475135478 0 -0.00017768822344532286 0.006105781219918587 0 -0.00034016605841085502 0.0060892351163549631 0 -0.00020249131748517922 0.0062600585189900955 0 -0.00017768822344532286 0.006105781219918587 0 -0.00019345945126976051 0.0059508707684386439 0 -0.00034016605841085502 0.0060892351163549631 0 -0.00040591349151987931 0.0063856920033094899 0 -0.00034981103391808384 0.0064720217402620146 0 -0.00078777376970415596 0.0066074451225844886 0 -0.00024174296394462307 0.0062796650526294488 0 -0.00051012754903748884 0.006255551560223639 0 -0.00020249131748517922 0.0062600585189900955 0 -0.00040591349151987931 0.0063856920033094899 0 -0.00062859797984405837 0.006377650858597329 0 -0.00034016605841085502 0.0060892351163549631 0 -0.00020249131748517922 0.0062600585189900955 0 -0.00046442172195783517 0.0062835645370567829 0 -0.00020249131748517922 0.0062600585189900955 0 -0.00040591349151987931 0.0063856920033094899 0 -0.00029224446026787697 0.0063848176617607773 0 -0.00020249131748517922 0.0062600585189900955 0 -0.00029224446026787697 0.0063848176617607773 0 -0.00020507882405892177 0.0064009593916095221 0 -0.00040591349151987931 0.0063856920033094899 0 -0.00029224446026787697 0.0063848176617607773 0 -0.00034981103391808384 0.0064720217402620146 0 -0.00029224446026787697 0.0063848176617607773 0 -0.00020507882405892177 0.0064009593916095221 0 -0.00034981103391808384 0.0064720217402620146 0 -0.00018307053573454911 0.0063983471043494011 0 3.0437277926387996e-05 0.0064143470104125995 0 -0.00020507882405892177 0.0064009593916095221 0 -5.1185103850415442e-05 0.0063086376402402772 0 0.00019503323494400761 0.0064289784113241086 0 -0.00020249131748517922 0.0062600585189900955 0 -0.00020507882405892177 0.0064009593916095221 0 -5.1185103850415442e-05 0.0063086376402402772 0 -0.00017768822344532286 0.006105781219918587 0 -0.00020249131748517922 0.0062600585189900955 0 -7.0342446746432448e-05 0.0061828204795250207 0 -0.00020249131748517922 0.0062600585189900955 0 -7.0342446746432448e-05 0.0061828204795250207 0 -5.1185103850415442e-05 0.0063086376402402772 0 -7.0342446746432448e-05 0.0061828204795250207 0 5.9629144599090813e-05 0.0062523450374281477 0 -5.1185103850415442e-05 0.0063086376402402772 0 -7.0342446746432448e-05 0.0061828204795250207 0 5.9629144599090813e-05 0.0062523450374281477 0 7.3165906165464749e-05 0.006134138366972298 0 -0.00020507882405892177 0.0064009593916095221 0 -0.00015260244125393072 0.0064592649711512108 0 -9.5032694568314072e-05 0.0064186315635112907 0 -0.00025605729204073222 0.0068204648720276897 0 7.2621306393319566e-06 0.0068981530164716268 0 -0.00015260244125393072 0.0064592649711512108 0 -0.00022372423880098543 0.0065462202310791334 0 -0.00010483108235620539 0.0064656636242748531 0 -0.00020507882405892177 0.0064009593916095221 0 -0.00015260244125393072 0.0064592649711512108 0 -0.00022372423880098543 0.0065462202310791334 0 2.915281248374864e-05 0.0077205837047115934 0 -0.00019833249902242878 0.0077414930025787093 0 -8.3269277508117362e-06 0.0076135238437670394 0 1.1725210019767343e-07 0.008244179566047536 0 4.8556886710048442e-08 0.0074059946205016595 0 -8.3269277508117362e-06 0.0076135238437670394 0 -0.0002042864407098752 0.0071170046675039841 0 6.2523260280792454e-05 0.0073704866147184089 0 -8.3269277508117362e-06 0.0076135238437670394 0 1.1725210019767343e-07 0.008244179566047536 0 5.1865756281959379e-05 0.0083879745435872528 0 1.1725210019767343e-07 0.008244179566047536 0 5.1865756281959379e-05 0.0083879745435872528 0 -2.2201603074646454e-07 0.0087165459108144508 0 -8.3269277508117362e-06 0.0076135238437670394 0 -0.00041909763618617384 0.0073380545138413073 0 -0.0002042864407098752 0.0071170046675039841 0 -0.00041909763618617384 0.0073380545138413073 0 -0.00051890771391183978 0.0070312634179943451 0 -0.0002042864407098752 0.0071170046675039841 0 -0.00022372423880098543 0.0065462202310791334 0 -0.00034981103391808384 0.0064720217402620146 0 -0.00078777376970415596 0.0066074451225844886 0 -0.00041909763618617384 0.0073380545138413073 0 -0.00051890771391183978 0.0070312634179943451 0 -0.00066396366766389167 0.0070207951832831272 0 -0.00051890771391183978 0.0070312634179943451 0 -0.0002042864407098752 0.0071170046675039841 0 -0.00078777376970415596 0.0066074451225844886 0 -0.00025605729204073222 0.0068204648720276897 0 -0.00077062749480953738 0.0066066123495082726 0 -0.00020507882405892177 0.0064009593916095221 0 -0.00022372423880098543 0.0065462202310791334 0 -0.00034981103391808384 0.0064720217402620146 0 -0.00051890771391183978 0.0070312634179943451 0 -0.00066396366766389167 0.0070207951832831272 0 -0.00078777376970415596 0.0066074451225844886 0 -0.00019833249902242878 0.0077414930025787093 0 -0.00059209795505019093 0.0084661765515603171 0 -0.00041909763618617384 0.0073380545138413073 0 -0.00066396366766389167 0.0070207951832831272 0 -0.0010376238710144722 0.0070115776688535253 0 -0.00066396366766389167 0.0070207951832831272 0 -0.0010376238710144722 0.0070115776688535253 0 -0.00078777376970415596 0.0066074451225844886 0 7.3230508485930542e-05 0.0090322937058949278 0 -0.00059209795505019093 0.0084661765515603171 0 5.1865756281959379e-05 0.0083879745435872528 0 -2.2201603074646454e-07 0.0087165459108144508 0 -0.00016116346840055776 0.0083590206952941313 0 -6.2890453798465258e-07 0.0087183828147806858 0 -4.7033936436071361e-05 0.0092780694034496625 0 -0.0002137209060895665 0.0097151707548841261 0 1.0245592257174851e-07 0.0090814293307058935 0 -4.7033936436071361e-05 0.0092780694034496625 0 4.423310232159056e-05 0.0096224905113103127 0 -6.2890453798465258e-07 0.0087183828147806858 0 1.0245592257174851e-07 0.0090814293307058935 0 -4.7033936436071361e-05 0.0092780694034496625 0 -4.7033936436071361e-05 0.0092780694034496625 0 4.423310232159056e-05 0.0096224905113103127 0 -0.0002137209060895665 0.0097151707548841261 0 -0.00093659525075392069 0.0090567666006190536 0 -0.00078819303924057224 0.0094826413293161039 0 -0.00053762721696271499 0.0092460559742912254 0 -0.0010376238710144722 0.0070115776688535253 0 -0.0012129330939713537 0.0064619045541326227 0 -0.00078777376970415596 0.0066074451225844886 0 4.423310232159056e-05 0.0096224905113103127 0 -0.0002137209060895665 0.0097151707548841261 0 2.8148684133193268e-05 0.0099528043055064422 0 -0.00059209795505019093 0.0084661765515603171 0 -0.0009824308647131011 0.0085116640361616834 0 -0.00059209795505019093 0.0084661765515603171 0 -0.00020718800867894997 0.0096234586144632716 0 -0.00076104659538751287 0.011474642339155437 0 -0.00078446851082737451 0.011398315117711399 0 -0.00082147523118220609 0.011465596434499192 0 -0.0009824308647131011 0.0085116640361616834 0 0.00022192297733533332 0.0082936965558590581 0 -0.00040591349151987931 0.0063856920033094899 0 -0.00078777376970415596 0.0066074451225844886 0 -0.00062859797984405837 0.006377650858597329 0 -0.0007427687371344341 0.0063266282620688527 0 -0.00046442172195783517 0.0062835645370567829 0 -0.00061759697784545813 0.0061398015474535819 0 -0.0009824308647131011 0.0085116640361616834 0 -0.00051012754903748884 0.006255551560223639 0 -0.0012129330939713537 0.0064619045541326227 0 -0.00078777376970415596 0.0066074451225844886 0 -0.00062859797984405837 0.006377650858597329 0 -0.00046442172195783517 0.0062835645370567829 0 -0.00061759697784545813 0.0061398015474535819 0 -0.0004739255184505925 0.006102896948359816 0 -0.00061759697784545813 0.0061398015474535819 0 -0.00082154368986305968 0.0060958202475736283 0 -0.00047446519126430846 0.0058913715475135478 0 -0.00034016605841085502 0.0060892351163549631 0 -0.00046442172195783517 0.0062835645370567829 0 -0.0004739255184505925 0.006102896948359816 0 -0.00034016605841085502 0.0060892351163549631 0 -0.0004739255184505925 0.006102896948359816 0 -0.00047446519126430846 0.0058913715475135478 0 -0.00061759697784545813 0.0061398015474535819 0 -0.0004739255184505925 0.006102896948359816 0 -0.00047446519126430846 0.0058913715475135478 0 -0.0007427687371344341 0.0063266282620688527 0 -0.00061759697784545813 0.0061398015474535819 0 -0.00082154368986305968 0.0060958202475736283 0 0.0021901268188827647 0.0041564955655976794 0 0.0020778006144403275 0.0044296312860763638 0 0.0017365223345076916 0.0043759887389455453 0 0.00022192297733533332 0.0082936965558590581 0 0.00087706972616690977 0.0046642736910738752 0 -0.00084999906522876287 0.011467970893524521 0 -0.00083506005535484591 0.011420414881614705 0 -0.0008969466193503422 0.011476399011032114 0 -0.00076533470633830642 0.011445636532834433 0 -0.00084999906522876287 0.011467970893524521 0 -0.00083506005535484591 0.011420414881614705 0 -0.00078446851082737451 0.011398315117711399 0 -0.00084999906522876287 0.011467970893524521 0 -0.00082147523118220609 0.011465596434499192 0 0.00022192297733533332 0.0082936965558590581 0 -0.0015181766462517051 0.011541187926787422 0 -0.00091502027214585729 0.011474941401351879 0 -0.0009310477958574733 0.011486206274741931 0 -0.00097914518270510371 0.011575368292433724 0 -0.00083506005535484591 0.011420414881614705 0 -0.00091502027214585729 0.011474941401351879 0 -0.0008969466193503422 0.011476399011032114 0 -0.00083506005535484591 0.011420414881614705 0 -0.00091502027214585729 0.011474941401351879 0 -0.00088423403445875813 0.011418393233523153 0 -0.00091502027214585729 0.011474941401351879 0 -0.0009310477958574733 0.011486206274741931 0 -0.0008969466193503422 0.011476399011032114 0 -0.00055439448779179951 0.011446430403377809 0 -0.00049580805896594468 0.011469882693349909 0 -0.00063107946898788563 0.01148863186358917 0 -0.0008969466193503422 0.011476399011032114 0 -0.00091887342027322156 0.011492382793759732 0 -0.0008827198218628187 0.011510217401677398 0 -0.0009310477958574733 0.011486206274741931 0 -0.0008969466193503422 0.011476399011032114 0 -0.00091887342027322156 0.011492382793759732 0 -0.00036602532346791415 0.010745772990535226 0 -0.00049807808503765107 0.011921604578797465 0 -0.0009310477958574733 0.011486206274741931 0 -0.00091887342027322156 0.011492382793759732 0 -0.00093196827445054902 0.011487893462035711 0 -0.00078663047025014858 0.011952870048609119 0 -0.00079307961601397499 0.01198191152645222 0 -0.00079307961601397499 0.01198191152645222 0 -0.00049807808503765107 0.011921604578797465 0 -0.00091887342027322156 0.011492382793759732 0 -0.00092937174023747301 0.011498446736264573 0 -0.0008827198218628187 0.011510217401677398 0 -0.00079307961601397499 0.01198191152645222 0 -0.00036602532346791415 0.010745772990535226 0 -0.00036602532346791415 0.010745772990535226 0 -0.00020718800867894997 0.0096234586144632716 0 -0.00078819303924057224 0.0094826413293161039 0 -0.00013797256287014173 0.0094392556859865043 0 -0.00053762721696271499 0.0092460559742912254 0 -0.00076104659538751287 0.011474642339155437 0 -0.0008827198218628187 0.011510217401677398 0 -0.00082147523118220609 0.011465596434499192 0 -0.0009824308647131011 0.0085116640361616834 0 -0.00036602532346791415 0.010745772990535226 0 -0.00084999906522876287 0.011467970893524521 0 -0.0008827198218628187 0.011510217401677398 0 -0.00082147523118220609 0.011465596434499192 0 -0.00084999906522876287 0.011467970893524521 0 -0.0008969466193503422 0.011476399011032114 0 -0.0008827198218628187 0.011510217401677398 0 6.5369353705656524e-05 0.01010999292418999 0 2.8148684133193268e-05 0.0099528043055064422 0 7.7429714196150442e-05 0.0099966711120516496 0 4.423310232159056e-05 0.0096224905113103127 0 2.8148684133193268e-05 0.0099528043055064422 0 7.7429714196150442e-05 0.0099966711120516496 0 4.423310232159056e-05 0.0096224905113103127 0 7.7429714196150442e-05 0.0099966711120516496 0 2.2962401019162654e-07 0.0099189955858804933 0 1.0245592257174851e-07 0.0090814293307058935 0 4.423310232159056e-05 0.0096224905113103127 0 2.2962401019162654e-07 0.0099189955858804933 0 7.7429714196150442e-05 0.0099966711120516496 0 2.2962401019162654e-07 0.0099189955858804933 0 6.9036547322706885e-05 0.010344170201786407 0 6.5369353705656524e-05 0.01010999292418999 0 7.7429714196150442e-05 0.0099966711120516496 0 7.9810101019608541e-05 0.010272250992256137 0 7.7429714196150442e-05 0.0099966711120516496 0 6.9036547322706885e-05 0.010344170201786407 0 7.9810101019608541e-05 0.010272250992256137 0 6.9036547322706885e-05 0.010344170201786407 0 4.0176439946202513e-06 0.010711474230583773 0 7.9810101019608541e-05 0.010272250992256137 0 -0.00026304660054507695 0.011756088220897716 0 -0.00049807808503765107 0.011921604578797465 0 1.5830687054136207e-07 0.010756291480211351 0 6.9036547322706885e-05 0.010344170201786407 0 4.0176439946202513e-06 0.010711474230583773 0 2.2962401019162654e-07 0.0099189955858804933 0 1.5830687054136207e-07 0.010756291480211351 0 6.9036547322706885e-05 0.010344170201786407 0 -8.6629748571081618e-08 0.011593530090840508 0 1.5830687054136207e-07 0.010756291480211351 0 4.0176439946202513e-06 0.010711474230583773 0 -0.00047882224325556056 0.012998571056293996 0 -0.00065777989173287877 0.012889428361035411 0 -0.00068581820364491271 0.012976598026859833 0 -0.00065777989173287877 0.012889428361035411 0 -0.00068581820364491271 0.012976598026859833 0 -0.00083642052972898739 0.012979292328810711 0 -0.000696292890124602 0.013017594515589015 0 -0.00082274089473436697 0.013092748053756929 0 -0.00075937017386486097 0.013225032316809429 0 -0.00054834665758756319 0.013151050681031343 0 -0.000696292890124602 0.013017594515589015 0 -0.00075937017386486097 0.013225032316809429 0 -0.0009310477958574733 0.011486206274741931 0 -0.00093196827445054902 0.011487893462035711 0 -0.00083598605426006469 0.011436414318224689 0 -0.00079307961601397499 0.01198191152645222 0 -0.00081099249556354058 0.012370080832447576 0 -0.0007711151285954694 0.013036541770314826 0 -0.00049807808503765107 0.011921604578797465 0 -0.0010253136099691981 0.013081657229213039 0 -0.00082274089473436697 0.013092748053756929 0 -0.00075937017386486097 0.013225032316809429 0 -0.000696292890124602 0.013017594515589015 0 -0.00082274089473436697 0.013092748053756929 0 -0.00090756119544075687 0.013028937750690495 0 -0.0010253136099691981 0.013081657229213039 0 -0.00082274089473436697 0.013092748053756929 0 -0.00090756119544075687 0.013028937750690495 0 -0.0009310477958574733 0.011486206274741931 0 -0.00097914518270510371 0.011575368292433724 0 -0.00083598605426006469 0.011436414318224689 0 -0.00097914518270510371 0.011575368292433724 0 -0.00083598605426006469 0.011436414318224689 0 -0.00062627617926807537 0.011730542081077084 0 -0.00016708438561740253 0.011684957812242647 0 -0.00083598605426006469 0.011436414318224689 0 -0.00062627617926807537 0.011730542081077084 0 -0.00031771317931429498 0.012546009156113355 0 -0.00081099249556354058 0.012370080832447576 0 -0.00082409973516885788 0.011999654139651896 0 -0.00062627617926807537 0.011730542081077084 0 -0.00044474168121505086 0.012376995658789728 0 -0.00097914518270510371 0.011575368292433724 0 -0.00082409973516885788 0.011999654139651896 0 -0.00062627617926807537 0.011730542081077084 0 -0.00089214416982466972 0.011358064513953429 0 -0.0014278681971567422 0.012384141004182328 0 -0.00097914518270510371 0.011575368292433724 0 -0.00097455090190201349 0.011251542842203638 0 -0.00092107241815361774 0.011423566415580838 0 -0.00097914518270510371 0.011575368292433724 0 -0.0013084852909381391 0.012319092767293028 0 -0.0014327974067722181 0.012463681545940119 0 -0.00097914518270510371 0.011575368292433724 0 -0.00082409973516885788 0.011999654139651896 0 -0.0013084852909381391 0.012319092767293028 0 -0.0012850089499488876 0.012321312688378192 0 -0.00060394581099148083 0.012496168647643347 0 -0.00082409973516885788 0.011999654139651896 0 -0.0013084852909381391 0.012319092767293028 0 -0.00044474168121505086 0.012376995658789728 0 -0.0013084852909381391 0.012319092767293028 0 -0.0011649832751570257 0.012602236018118251 0 -0.00071553386343716884 0.012589423962767578 0 -0.0013084852909381391 0.012319092767293028 0 -0.0013035303373346884 0.012501704456998563 0 -0.0011649832751570257 0.012602236018118251 0 -0.0013035303373346884 0.012501704456998563 0 -0.0013214880782787539 0.012613266916396667 0 -0.0011649832751570257 0.012602236018118251 0 -0.0013214880782787539 0.012613266916396667 0 -0.0011649832751570257 0.012602236018118251 0 -0.0012783821051184866 0.012773132218663483 0 -0.0011649832751570257 0.012602236018118251 0 -0.00071553386343716884 0.012589423962767578 0 -0.001071652808506351 0.012822458936352551 0 -0.00071553386343716884 0.012589423962767578 0 -0.00099059357495812051 0.013071970719063549 0 -0.001071652808506351 0.012822458936352551 0 -0.00068179871448840741 0.01316364076417219 0 -0.00071553386343716884 0.012589423962767578 0 -0.00099059357495812051 0.013071970719063549 0 -0.00068179871448840741 0.01316364076417219 0 -0.0010041309500671443 0.013368181217930444 0 -0.00074521072715367685 0.013536478793777253 0 -0.00068179871448840741 0.01316364076417219 0 -0.00099059357495812051 0.013071970719063549 0 -0.0010041309500671443 0.013368181217930444 0 -0.0010041309500671443 0.013368181217930444 0 -0.0012697371345769203 0.013133509477954542 0 -0.0013329185589534981 0.013396117875017649 0 -0.00099059357495812051 0.013071970719063549 0 -0.0010041309500671443 0.013368181217930444 0 -0.0012697371345769203 0.013133509477954542 0 -0.0012697371345769203 0.013133509477954542 0 -0.0012398395014065731 0.012927115990974824 0 -0.0013391545737766238 0.012988066542705885 0 -0.0012398395014065731 0.012927115990974824 0 -0.0013475077274749208 0.012882974272724534 0 -0.0013391545737766238 0.012988066542705885 0 -0.00099059357495812051 0.013071970719063549 0 -0.0012398395014065731 0.012927115990974824 0 -0.001071652808506351 0.012822458936352551 0 -0.00099059357495812051 0.013071970719063549 0 -0.0012697371345769203 0.013133509477954542 0 -0.0012398395014065731 0.012927115990974824 0 -0.0012398395014065731 0.012927115990974824 0 -0.001071652808506351 0.012822458936352551 0 -0.0012783821051184866 0.012773132218663483 0 -0.0011649832751570257 0.012602236018118251 0 -0.001071652808506351 0.012822458936352551 0 -0.0012783821051184866 0.012773132218663483 0 -0.0012398395014065731 0.012927115990974824 0 -0.0012783821051184866 0.012773132218663483 0 -0.0013475077274749208 0.012882974272724534 0 -0.0014283220847401154 0.012803952606621771 0 -0.0015918038487312881 0.013014137974642934 0 -0.0014327974067722181 0.012463681545940119 0 -0.0013214880782787539 0.012613266916396667 0 -0.0012783821051184866 0.012773132218663483 0 -0.0014283220847401154 0.012803952606621771 0 -0.00026860973185460123 0.0096191243084016217 0 -0.0014278681971567422 0.012384141004182328 0 -0.0012783821051184866 0.012773132218663483 0 -0.0014283220847401154 0.012803952606621771 0 -0.0013475077274749208 0.012882974272724534 0 -0.0014283220847401154 0.012803952606621771 0 -0.0015117065071523614 0.012990558992986576 0 -0.0015918038487312881 0.013014137974642934 0 -0.0015117065071523614 0.012990558992986576 0 -0.0015477884756945185 0.013021175425566477 0 -0.0014991631763423021 0.013067965575857085 0 -0.0015117065071523614 0.012990558992986576 0 -0.0015918038487312881 0.013014137974642934 0 -0.0015477884756945185 0.013021175425566477 0 -0.0015918038487312881 0.013014137974642934 0 -0.0015477884756945185 0.013021175425566477 0 -0.0014991631763423021 0.013067965575857085 0 -0.0014283220847401154 0.012803952606621771 0 -0.0015117065071523614 0.012990558992986576 0 -0.0014213710611735246 0.012940845382728961 0 -0.0013475077274749208 0.012882974272724534 0 -0.0014213710611735246 0.012940845382728961 0 -0.0013391545737766238 0.012988066542705885 0 -0.0014283220847401154 0.012803952606621771 0 -0.0013475077274749208 0.012882974272724534 0 -0.0014213710611735246 0.012940845382728961 0 -0.0015117065071523614 0.012990558992986576 0 -0.0014213710611735246 0.012940845382728961 0 -0.0014171932110306664 0.013050104880889892 0 -0.0014213710611735246 0.012940845382728961 0 -0.0013391545737766238 0.012988066542705885 0 -0.0014171932110306664 0.013050104880889892 0 -0.0015918038487312881 0.013014137974642934 0 -0.0014666952829002775 0.01317220538092416 0 -0.0016862071620019827 0.013303927497649996 0 -0.0012697371345769203 0.013133509477954542 0 -0.0013391545737766238 0.012988066542705885 0 -0.0014171932110306664 0.013050104880889892 0 -0.0012697371345769203 0.013133509477954542 0 -0.0014171932110306664 0.013050104880889892 0 -0.0014666952829002775 0.01317220538092416 0 -0.0014666952829002775 0.01317220538092416 0 -0.0016862071620019827 0.013303927497649996 0 -0.0013329185589534981 0.013396117875017649 0 -0.0014171932110306664 0.013050104880889892 0 -0.0014991631763423021 0.013067965575857085 0 -0.0014666952829002775 0.01317220538092416 0 -0.0015117065071523614 0.012990558992986576 0 -0.0014171932110306664 0.013050104880889892 0 -0.0014991631763423021 0.013067965575857085 0 -0.0015918038487312881 0.013014137974642934 0 -0.0014991631763423021 0.013067965575857085 0 -0.0014666952829002775 0.01317220538092416 0 -0.0012697371345769203 0.013133509477954542 0 -0.0014666952829002775 0.01317220538092416 0 -0.0013329185589534981 0.013396117875017649 0 -0.00026860973185460123 0.0096191243084016217 0 0.00072025963879065937 0.0096378595104583426 0 0.0030408915446771662 0.0053466923353206481 0 0.003010001229731244 0.0061629993303797285 0 0.0024990413477292161 0.0055257684493614234 0 0.003010001229731244 0.0061629993303797285 0 0.0024990413477292161 0.0055257684493614234 0 0.0024233906614895308 0.0064513872183761117 0 0.0030408915446771662 0.0053466923353206481 0 0.0024990413477292161 0.0055257684493614234 0 0.0025289393099417138 0.0051193510662413781 0 0.0030408915446771662 0.0053466923353206481 0 0.0025289393099417138 0.0051193510662413781 0 0.0024871985793202839 0.0046202018234597223 0 -0.00026860973185460123 0.0096191243084016217 0 0.0010922144715826601 0.0075995395592249613 0 0.0025289393099417138 0.0051193510662413781 0 0.0024871985793202839 0.0046202018234597223 0 0.0020752063800597671 0.0050442989473776893 0 -0.00083419809425245163 0.010963628570887228 0 -0.00076399023873800829 0.011283885826639393 0 -0.00085883849738636246 0.011212931982304388 0 -0.00076399023873800829 0.011283885826639393 0 -0.00085883849738636246 0.011212931982304388 0 -0.00086236466164860256 0.011343530602670761 0 -0.00083419809425245163 0.010963628570887228 0 -0.00085883849738636246 0.011212931982304388 0 -0.00097455090190201349 0.011251542842203638 0 -0.0013214880782787539 0.012613266916396667 0 -0.0014283220847401154 0.012803952606621771 0 -0.0014327974067722181 0.012463681545940119 0 -0.0013035303373346884 0.012501704456998563 0 -0.0013214880782787539 0.012613266916396667 0 -0.0014327974067722181 0.012463681545940119 0 -0.0013084852909381391 0.012319092767293028 0 -0.0013035303373346884 0.012501704456998563 0 -0.0014327974067722181 0.012463681545940119 0 -0.00085883849738636246 0.011212931982304388 0 -0.00097455090190201349 0.011251542842203638 0 -0.00086236466164860256 0.011343530602670761 0 -0.00086236466164860256 0.011343530602670761 0 -0.00092107241815361774 0.011423566415580838 0 -0.00088423403445875813 0.011418393233523153 0 -0.00091502027214585729 0.011474941401351879 0 -0.00097914518270510371 0.011575368292433724 0 -0.00092107241815361774 0.011423566415580838 0 -0.00097455090190201349 0.011251542842203638 0 -0.00086236466164860256 0.011343530602670761 0 -0.00092107241815361774 0.011423566415580838 0 -0.00091502027214585729 0.011474941401351879 0 -0.00092107241815361774 0.011423566415580838 0 -0.00088423403445875813 0.011418393233523153 0 -0.00083506005535484591 0.011420414881614705 0 -0.00086236466164860256 0.011343530602670761 0 -0.00088423403445875813 0.011418393233523153 0 -0.00083506005535484591 0.011420414881614705 0 -0.00076399023873800829 0.011283885826639393 0 -0.00086236466164860256 0.011343530602670761 0 0.00022192297733533332 0.0082936965558590581 0 0.0010922144715826601 0.0075995395592249613 0 -0.00076533470633830642 0.011445636532834433 0 -0.00083506005535484591 0.011420414881614705 0 -0.00076399023873800829 0.011283885826639393 0 0.0024871985793202839 0.0046202018234597223 0 0.0020778006144403275 0.0044296312860763638 0 0.0019992058382402597 0.0046477362017175788 0 0.0021901268188827647 0.0041564955655976794 0 0.0024871985793202839 0.0046202018234597223 0 0.0020778006144403275 0.0044296312860763638 0 0.0020778006144403275 0.0044296312860763638 0 0.0017365223345076916 0.0043759887389455453 0 0.0019992058382402597 0.0046477362017175788 0 0.0017365223345076916 0.0043759887389455453 0 0.0017281484424323821 0.0048531377654472286 0 0.0019992058382402597 0.0046477362017175788 0 0.0017281484424323821 0.0048531377654472286 0 0.0019992058382402597 0.0046477362017175788 0 0.0020752063800597671 0.0050442989473776893 0 0.0024871985793202839 0.0046202018234597223 0 0.0019992058382402597 0.0046477362017175788 0 0.0020752063800597671 0.0050442989473776893 0 0.0024990413477292161 0.0055257684493614234 0 0.0025289393099417138 0.0051193510662413781 0 0.0020752063800597671 0.0050442989473776893 0 0.0024990413477292161 0.0055257684493614234 0 0.0020752063800597671 0.0050442989473776893 0 0.001742944504408722 0.0056048370450378932 0 0.0024990413477292161 0.0055257684493614234 0 0.001742944504408722 0.0056048370450378932 0 0.0024233906614895308 0.0064513872183761117 0 0.0020752063800597671 0.0050442989473776893 0 0.001742944504408722 0.0056048370450378932 0 0.0016427357421331861 0.0052150775401690296 0 0.001742944504408722 0.0056048370450378932 0 0.0016427357421331861 0.0052150775401690296 0 0.0016124823808186517 0.0053208234976575034 0 0.0017281484424323821 0.0048531377654472286 0 0.0016427357421331861 0.0052150775401690296 0 0.0015360836204860377 0.0049952174706383605 0 0.0017281484424323821 0.0048531377654472286 0 0.0020752063800597671 0.0050442989473776893 0 0.0016427357421331861 0.0052150775401690296 0 0.0016427357421331861 0.0052150775401690296 0 0.0015360836204860377 0.0049952174706383605 0 0.0014923474765387516 0.0051057918912127713 0 0.0015360836204860377 0.0049952174706383605 0 0.0014164512831564328 0.0049374400459430354 0 0.0014999618492720287 0.0047815935999662206 0 0.0015360836204860377 0.0049952174706383605 0 0.0014923474765387516 0.0051057918912127713 0 0.0014164512831564328 0.0049374400459430354 0 0.0016427357421331861 0.0052150775401690296 0 0.0014923474765387516 0.0051057918912127713 0 0.0016124823808186517 0.0053208234976575034 0 0.0014923474765387516 0.0051057918912127713 0 0.001425478423689825 0.0050770186623306504 0 0.0015272465477130482 0.0051910549055624675 0 0.0014923474765387516 0.0051057918912127713 0 0.0015272465477130482 0.0051910549055624675 0 0.0016124823808186517 0.0053208234976575034 0 0.0014923474765387516 0.0051057918912127713 0 0.0013475919762994469 0.004960152205054429 0 0.0014164512831564328 0.0049374400459430354 0 0.0014923474765387516 0.0051057918912127713 0 0.0013475919762994469 0.004960152205054429 0 0.001425478423689825 0.0050770186623306504 0 0.0013475919762994469 0.004960152205054429 0 0.001425478423689825 0.0050770186623306504 0 0.0013121531781837192 0.0049674393605286145 0 0.0013475919762994469 0.004960152205054429 0 0.0013312521681477325 0.0048822415050284789 0 0.0012765151471164852 0.0048641704645850789 0 0.0013475919762994469 0.004960152205054429 0 0.0014164512831564328 0.0049374400459430354 0 0.0013312521681477325 0.0048822415050284789 0 0.0014164512831564328 0.0049374400459430354 0 0.0013312521681477325 0.0048822415050284789 0 0.0013456500788453438 0.0047804033511489163 0 0.0013312521681477325 0.0048822415050284789 0 0.0013456500788453438 0.0047804033511489163 0 0.0012737991444571842 0.0048145209811930132 0 0.0013456500788453438 0.0047804033511489163 0 0.0013694291280047872 0.0046277468550010199 0 0.0011867157607950405 0.0047650255649896106 0 0.0013456500788453438 0.0047804033511489163 0 0.0014999618492720287 0.0047815935999662206 0 0.0013694291280047872 0.0046277468550010199 0 0.0014164512831564328 0.0049374400459430354 0 0.0013456500788453438 0.0047804033511489163 0 0.0014999618492720287 0.0047815935999662206 0 0.0017365223345076916 0.0043759887389455453 0 0.0017281484424323821 0.0048531377654472286 0 0.0014999618492720287 0.0047815935999662206 0 0.0017281484424323821 0.0048531377654472286 0 0.0015360836204860377 0.0049952174706383605 0 0.0014999618492720287 0.0047815935999662206 0 0.0017365223345076916 0.0043759887389455453 0 0.0014999618492720287 0.0047815935999662206 0 0.0013694291280047872 0.0046277468550010199 0 -0.00019345945126976051 0.0059508707684386439 0 -0.00047446519126430846 0.0058913715475135478 0 -9.7512999679400062e-05 0.0056842093164623467 0 0.00087706972616690977 0.0046642736910738752 0 0.00048917244467765793 0.0052981271969454666 0 3.0107833602055184e-06 0.0058829371537734649 0 -9.7512999679400062e-05 0.0056842093164623467 0 0.00017669913658747215 0.0057508474603403491 0 -0.00019345945126976051 0.0059508707684386439 0 3.0107833602055184e-06 0.0058829371537734649 0 -9.7512999679400062e-05 0.0056842093164623467 0 0.0015417383330943765 0.005310758432342912 0 0.001347754237010804 0.0055124078975396238 0 0.0013806537693630597 0.0051978942986459159 0 0.0015417383330943765 0.005310758432342912 0 0.0016402941741070572 0.0055258604494370965 0 0.001347754237010804 0.0055124078975396238 0 -0.00045023537303389089 0.011660328994723112 0 0.00043862444929546453 0.013151324575782282 0 -5.5182790327367659e-05 0.013216833599851468 0 0.0015417383330943765 0.005310758432342912 0 0.0016071775432067381 0.0052773815542891964 0 0.0016402941741070572 0.0055258604494370965 0 0.00062482454852066536 0.008417989102437488 0 0.0007772704713898803 0.0093292293635250986 0 0.0015417383330943765 0.005310758432342912 0 0.0016071775432067381 0.0052773815542891964 0 0.0015635666002027269 0.005213909147095133 0 0.0015417383330943765 0.005310758432342912 0 0.0014594531328632448 0.0051552411356824519 0 0.0015635666002027269 0.005213909147095133 0 0.0015417383330943765 0.005310758432342912 0 0.0014594531328632448 0.0051552411356824519 0 0.0013806537693630597 0.0051978942986459159 0 0.0014594531328632448 0.0051552411356824519 0 0.0013705426451461917 0.0050503500889474461 0 0.0015048032220350326 0.0051622629771336821 0 0.0014594531328632448 0.0051552411356824519 0 0.0013353074165351835 0.0050620640107866778 0 0.0013806537693630597 0.0051978942986459159 0 0.0014594531328632448 0.0051552411356824519 0 0.0013705426451461917 0.0050503500889474461 0 0.0013353074165351835 0.0050620640107866778 0 0.0013705426451461917 0.0050503500889474461 0 0.001425478423689825 0.0050770186623306504 0 0.0015048032220350326 0.0051622629771336821 0 0.001425478423689825 0.0050770186623306504 0 0.0015272465477130482 0.0051910549055624675 0 0.0015048032220350326 0.0051622629771336821 0 0.0013705426451461917 0.0050503500889474461 0 0.001425478423689825 0.0050770186623306504 0 0.0013121531781837192 0.0049674393605286145 0 0.0015272465477130482 0.0051910549055624675 0 0.0015757769948388889 0.0052287975961002138 0 0.0016124823808186517 0.0053208234976575034 0 0.0015272465477130482 0.0051910549055624675 0 0.0015048032220350326 0.0051622629771336821 0 0.0015757769948388889 0.0052287975961002138 0 0.0016071775432067381 0.0052773815542891964 0 0.0015635666002027269 0.005213909147095133 0 0.0015750590449802842 0.0052386215501583691 0 0.0015757769948388889 0.0052287975961002138 0 0.0015635666002027269 0.005213909147095133 0 0.0015750590449802842 0.0052386215501583691 0 0.0014594531328632448 0.0051552411356824519 0 0.0015048032220350326 0.0051622629771336821 0 0.0015635666002027269 0.005213909147095133 0 0.0015048032220350326 0.0051622629771336821 0 0.0015757769948388889 0.0052287975961002138 0 0.0015635666002027269 0.005213909147095133 0 0.00062482454852066536 0.008417989102437488 0 0.0010317950897551441 0.0068185923017484665 0 -0.00045023537303389089 0.011660328994723112 0 0.00037337940103629371 0.0083953416696103296 0 0.0014752675601635351 0.0094626173928617288 0 0.00037337940103629371 0.0083953416696103296 0 0.0017944304957579404 0.0078308128431657277 0 0.0014752675601635351 0.0094626173928617288 0 0.001742944504408722 0.0056048370450378932 0 0.00037337940103629371 0.0083953416696103296 0 0.0017944304957579404 0.0078308128431657277 0 0.001742944504408722 0.0056048370450378932 0 0.0015750590449802842 0.0052386215501583691 0 0.0016124823808186517 0.0053208234976575034 0 0.0016682831579038304 0.0056513833081750049 0 0.0010317950897551441 0.0068185923017484665 0 0.0015757769948388889 0.0052287975961002138 0 0.0015750590449802842 0.0052386215501583691 0 0.0016124823808186517 0.0053208234976575034 0 0.001742944504408722 0.0056048370450378932 0 0.0024233906614895308 0.0064513872183761117 0 0.0017944304957579404 0.0078308128431657277 0 0.0022401832638611592 0.0088665214256988013 0 0.00083951552444712374 0.010910188607684019 0 0.0024233906614895308 0.0064513872183761117 0 0.0017944304957579404 0.0078308128431657277 0 0.002712982137082058 0.0076795798594634637 0 0.00083951552444712374 0.010910188607684019 0 0.0011545757787113256 0.012292267719565103 0 0.0001241154590756732 0.014001377866293588 0 0.00026919301295490129 0.013707184725287862 0 -1.8263653637712807e-05 0.013835031349534751 0 0.0033712839431973814 0.008044925479129536 0 0.0014752675601635351 0.0094626173928617288 0 0.0018670145771069241 0.010957453932133945 0 0.0017944304957579404 0.0078308128431657277 0 0.0033712839431973814 0.008044925479129536 0 0.0014752675601635351 0.0094626173928617288 0 -0.00045023537303389089 0.011660328994723112 0 0.0018670145771069241 0.010957453932133945 0 0.00043862444929546453 0.013151324575782282 0 -0.00045023537303389089 0.011660328994723112 0 0.0014752675601635351 0.0094626173928617288 0 0.0018670145771069241 0.010957453932133945 0 0.0011545757787113256 0.012292267719565103 0 0.00048344067715265759 0.013124671621709241 0 0.00026919301295490129 0.013707184725287862 0 0.00043862444929546453 0.013151324575782282 0 0.00011993083490945661 0.013384102528027082 0 0.00026919301295490129 0.013707184725287862 0 -3.9333836913159391e-05 0.013647074927876084 0 0.00011993083490945661 0.013384102528027082 0 -3.9333836913159391e-05 0.013647074927876084 0 -0.00016569311599674895 0.013599050133716447 0 0.00011993083490945661 0.013384102528027082 0 -3.9333836913159391e-05 0.013647074927876084 0 -0.00016569311599674895 0.013599050133716447 0 -0.00020161392683258787 0.013825138884592499 0 -3.9333836913159391e-05 0.013647074927876084 0 -0.00020161392683258787 0.013825138884592499 0 -1.8263653637712807e-05 0.013835031349534751 0 0.00026919301295490129 0.013707184725287862 0 -3.9333836913159391e-05 0.013647074927876084 0 -1.8263653637712807e-05 0.013835031349534751 0 0.0001241154590756732 0.014001377866293588 0 -1.8263653637712807e-05 0.013835031349534751 0 -0.00015044093293700933 0.013988958008100842 0 0.00083951552444712374 0.010910188607684019 0 -0.0011094382129728426 0.014035959270819581 0 0.003010001229731244 0.0061629993303797285 0 0.0024233906614895308 0.0064513872183761117 0 0.002712982137082058 0.0076795798594634637 0 -0.0016862071620019827 0.013303927497649996 0 -0.0017908059015561591 0.013553218893600016 0 -0.001453429919480618 0.013638648845507364 0 0.00072025963879065937 0.0096378595104583426 0 0.00083951552444712374 0.010910188607684019 0 -0.0016862071620019827 0.013303927497649996 0 -0.0013329185589534981 0.013396117875017649 0 -0.001453429919480618 0.013638648845507364 0 -0.00020161392683258787 0.013825138884592499 0 -1.8263653637712807e-05 0.013835031349534751 0 -0.00015044093293700933 0.013988958008100842 0 -0.00020161392683258787 0.013825138884592499 0 -0.00015044093293700933 0.013988958008100842 0 -0.00033984458215421623 0.013978847045273003 0 -0.0011094382129728426 0.014035959270819581 0 -0.00063334103495938049 0.013845788871330842 0 -0.0010041309500671443 0.013368181217930444 0 -0.0013329185589534981 0.013396117875017649 0 -0.0010570545522269458 0.013742759298134736 0 -0.0013329185589534981 0.013396117875017649 0 -0.001453429919480618 0.013638648845507364 0 -0.0010570545522269458 0.013742759298134736 0 -0.0010041309500671443 0.013368181217930444 0 -0.0010570545522269458 0.013742759298134736 0 -0.00074521072715367685 0.013536478793777253 0 -0.0010570545522269458 0.013742759298134736 0 -0.00074521072715367685 0.013536478793777253 0 -0.00066601815056614082 0.013840480770472277 0 -0.00063334103495938049 0.013845788871330842 0 -0.00054589392914170508 0.013915774244777636 0 -0.00033984458215421623 0.013978847045273003 0 -0.00037903032429853175 0.013866658031681486 0 -0.00041949801088393869 0.013982939797136561 0 -0.00020161392683258787 0.013825138884592499 0 -0.00033984458215421623 0.013978847045273003 0 -0.00037903032429853175 0.013866658031681486 0 -0.00016569311599674895 0.013599050133716447 0 -0.00037903032429853175 0.013866658031681486 0 -0.00031888101314147844 0.013676314118342291 0 -0.00016569311599674895 0.013599050133716447 0 -0.00020161392683258787 0.013825138884592499 0 -0.00037903032429853175 0.013866658031681486 0 -0.00037903032429853175 0.013866658031681486 0 -0.00042732954735325403 0.013671303200210708 0 -0.00031888101314147844 0.013676314118342291 0 -0.00037903032429853175 0.013866658031681486 0 -0.00042732954735325403 0.013671303200210708 0 -0.00049888013479390265 0.013963308729902717 0 -0.00016569311599674895 0.013599050133716447 0 -0.00031888101314147844 0.013676314118342291 0 -0.00028858571198087801 0.013470466543271218 0 -0.00042732954735325403 0.013671303200210708 0 -0.00031888101314147844 0.013676314118342291 0 -0.00028858571198087801 0.013470466543271218 0 -0.00042732954735325403 0.013671303200210708 0 -0.00054590657954111646 0.013383229962777994 0 -0.0006306836835993909 0.013524061377334196 0 -0.00042732954735325403 0.013671303200210708 0 -0.00028858571198087801 0.013470466543271218 0 -0.00054590657954111646 0.013383229962777994 0 -0.00054590657954111646 0.013383229962777994 0 -0.00043634707356703963 0.013072096959722442 0 -0.00069791810231408695 0.013274132778987575 0 -0.00043634707356703963 0.013072096959722442 0 -0.00035993407056686671 0.013278731447205101 0 -0.0001699800453761765 0.013186381161908092 0 -0.00054590657954111646 0.013383229962777994 0 -0.00043634707356703963 0.013072096959722442 0 -0.00035993407056686671 0.013278731447205101 0 -0.00028858571198087801 0.013470466543271218 0 -0.00054590657954111646 0.013383229962777994 0 -0.00035993407056686671 0.013278731447205101 0 -0.00028858571198087801 0.013470466543271218 0 -0.00035993407056686671 0.013278731447205101 0 -0.0001699800453761765 0.013186381161908092 0 -0.00043634707356703963 0.013072096959722442 0 -0.0001699800453761765 0.013186381161908092 0 -0.00018958269839935589 0.012923553449425159 0 -0.0001699800453761765 0.013186381161908092 0 -1.7615683416624662e-06 0.013003802896460016 0 -0.00018958269839935589 0.012923553449425159 0 -1.7615683416624662e-06 0.013003802896460016 0 -0.00018958269839935589 0.012923553449425159 0 -3.8364819698744306e-05 0.012813475189912904 0 -0.0001699800453761765 0.013186381161908092 0 -1.7615683416624662e-06 0.013003802896460016 0 9.900470289227893e-06 0.013202395134687803 0 -0.0001699800453761765 0.013186381161908092 0 9.900470289227893e-06 0.013202395134687803 0 -8.2637666795048526e-05 0.013390993859755741 0 9.900470289227893e-06 0.013202395134687803 0 -8.2637666795048526e-05 0.013390993859755741 0 0.00013328574241343075 0.013268626411476851 0 -0.00028858571198087801 0.013470466543271218 0 -0.0001699800453761765 0.013186381161908092 0 -8.2637666795048526e-05 0.013390993859755741 0 -0.00016569311599674895 0.013599050133716447 0 -0.00028858571198087801 0.013470466543271218 0 -8.2637666795048526e-05 0.013390993859755741 0 -0.00016569311599674895 0.013599050133716447 0 -8.2637666795048526e-05 0.013390993859755741 0 0.00011993083490945661 0.013384102528027082 0 -8.2637666795048526e-05 0.013390993859755741 0 0.00011993083490945661 0.013384102528027082 0 0.00013328574241343075 0.013268626411476851 0 0.00043862444929546453 0.013151324575782282 0 0.00011993083490945661 0.013384102528027082 0 0.00030372362838288673 0.013261776907381978 0 0.00011993083490945661 0.013384102528027082 0 0.00030372362838288673 0.013261776907381978 0 0.00013328574241343075 0.013268626411476851 0 0.00030372362838288673 0.013261776907381978 0 0.00025458625963512818 0.01323954232393435 0 -5.5182790327367659e-05 0.013216833599851468 0 0.00043862444929546453 0.013151324575782282 0 0.00030372362838288673 0.013261776907381978 0 -5.5182790327367659e-05 0.013216833599851468 0 0.00030372362838288673 0.013261776907381978 0 0.00025458625963512818 0.01323954232393435 0 0.00013328574241343075 0.013268626411476851 0 9.900470289227893e-06 0.013202395134687803 0 0.00013328574241343075 0.013268626411476851 0 0.0001441115597923458 0.013141900194998878 0 0.00025458625963512818 0.01323954232393435 0 0.00013328574241343075 0.013268626411476851 0 0.0001441115597923458 0.013141900194998878 0 -1.7615683416624662e-06 0.013003802896460016 0 9.900470289227893e-06 0.013202395134687803 0 0.0001441115597923458 0.013141900194998878 0 -1.7615683416624662e-06 0.013003802896460016 0 0.00017763568524984779 0.012942345119345547 0 0.00011880736153717654 0.012779610001576822 0 -1.7615683416624662e-06 0.013003802896460016 0 0.0001441115597923458 0.013141900194998878 0 0.00017763568524984779 0.012942345119345547 0 0.00017763568524984779 0.012942345119345547 0 0.0003212941722337866 0.012883027638530551 0 0.00025069250390951254 0.012772768664822087 0 0.00017763568524984779 0.012942345119345547 0 0.00025069250390951254 0.012772768664822087 0 0.00011880736153717654 0.012779610001576822 0 0.00017763568524984779 0.012942345119345547 0 0.0003212941722337866 0.012883027638530551 0 0.00028828519749305007 0.013075977867606087 0 0.0001441115597923458 0.013141900194998878 0 0.00017763568524984779 0.012942345119345547 0 0.00028828519749305007 0.013075977867606087 0 0.00025458625963512818 0.01323954232393435 0 0.0001441115597923458 0.013141900194998878 0 0.00028828519749305007 0.013075977867606087 0 0.00028828519749305007 0.013075977867606087 0 0.00042210133603545063 0.013073097177721833 0 0.00040226756065103991 0.012969072292359166 0 0.00025458625963512818 0.01323954232393435 0 0.00028828519749305007 0.013075977867606087 0 0.00042210133603545063 0.013073097177721833 0 0.0003212941722337866 0.012883027638530551 0 0.00028828519749305007 0.013075977867606087 0 0.00040226756065103991 0.012969072292359166 0 0.00042210133603545063 0.013073097177721833 0 0.00040226756065103991 0.012969072292359166 0 0.00059059923719213174 0.012882077436208488 0 0.00040226756065103991 0.012969072292359166 0 0.00048252800707384382 0.012792304263091858 0 0.00059059923719213174 0.012882077436208488 0 0.0003212941722337866 0.012883027638530551 0 0.00040226756065103991 0.012969072292359166 0 0.00048252800707384382 0.012792304263091858 0 0.0003212941722337866 0.012883027638530551 0 0.00048252800707384382 0.012792304263091858 0 0.00038293127861771954 0.0126771950063109 0 0.00042210133603545063 0.013073097177721833 0 0.00059059923719213174 0.012882077436208488 0 0.00076916061729164886 0.01297370694947611 0 0.00059059923719213174 0.012882077436208488 0 0.00068626304757250583 0.012702534994712404 0 0.00080584134272809022 0.012790870986335355 0 0.00048252800707384382 0.012792304263091858 0 0.00059059923719213174 0.012882077436208488 0 0.00068626304757250583 0.012702534994712404 0 0.00059059923719213174 0.012882077436208488 0 0.00076916061729164886 0.01297370694947611 0 0.00080584134272809022 0.012790870986335355 0 0.0010081195728923885 0.0095020341696290776 0 0.0010222707360034056 0.0099631576411068432 0 0.00042210133603545063 0.013073097177721833 0 0.00039270523698782018 0.013188928006894527 0 0.00076916061729164886 0.01297370694947611 0 0.00025458625963512818 0.01323954232393435 0 0.00042210133603545063 0.013073097177721833 0 0.00039270523698782018 0.013188928006894527 0 0.00025458625963512818 0.01323954232393435 0 0.00039270523698782018 0.013188928006894527 0 -5.5182790327367659e-05 0.013216833599851468 0 0.0015854965679631475 0.0059336240583671351 0 0.0016402941741070572 0.0055258604494370965 0 0.001347754237010804 0.0055124078975396238 0 0.0010081195728923885 0.0095020341696290776 0 0.0007772704713898803 0.0093292293635250986 0 -3.603473003558043e-05 0.014724071298194773 0 -2.9748434127404476e-05 0.014535717462964172 0 -2.6765503219320206e-05 0.01464070944710576 0 -2.9748434127404476e-05 0.014535717462964172 0 -2.6765503219320206e-05 0.01464070944710576 0 -4.1498221283678692e-05 0.01442472458569439 0 -2.6765503219320206e-05 0.01464070944710576 0 -4.1498221283678692e-05 0.01442472458569439 0 -4.6228949415466789e-05 0.014536534928860837 0 -3.603473003558043e-05 0.014724071298194773 0 -2.6765503219320206e-05 0.01464070944710576 0 -1.9745892386318403e-05 0.014836258281320432 0 -2.6765503219320206e-05 0.01464070944710576 0 -2.642225115571923e-05 0.014671336721825128 0 -2.0405633096845699e-05 0.014760898627530791 0 -2.6765503219320206e-05 0.01464070944710576 0 -1.9745892386318403e-05 0.014836258281320432 0 -2.0405633096845699e-05 0.014760898627530791 0 -1.9745892386318403e-05 0.014836258281320432 0 -1.7167241654439114e-08 0.014999738588190561 0 -2.0405633096845699e-05 0.014760898627530791 0 -1.9745892386318403e-05 0.014836258281320432 0 -1.7668020740888975e-08 0.014999784598785749 0 -1.7167241654439114e-08 0.014999738588190561 0 -2.3354462297658715e-05 0.014883463174921448 0 -1.7668020740888975e-08 0.014999784598785749 0 -3.6781674462465219e-08 0.014999810146071279 0 -1.9745892386318403e-05 0.014836258281320432 0 -2.3354462297658715e-05 0.014883463174921448 0 -1.7668020740888975e-08 0.014999784598785749 0 -3.603473003558043e-05 0.014724071298194773 0 -1.9745892386318403e-05 0.014836258281320432 0 -2.3354462297658715e-05 0.014883463174921448 0 -3.603473003558043e-05 0.014724071298194773 0 -2.3354462297658715e-05 0.014883463174921448 0 -3.5129897625360877e-05 0.014854933626668308 0 -2.3354462297658715e-05 0.014883463174921448 0 -3.5129897625360877e-05 0.014854933626668308 0 -3.6781674462465219e-08 0.014999810146071279 0 -3.5129897625360877e-05 0.014854933626668308 0 -3.6781674462465219e-08 0.014999810146071279 0 -2.2399672994858637e-05 0.014926875898140445 0 -4.3507462530642835e-06 0.0149816163225824 0 -1.1769569762577898e-08 0.014999934589708972 0 -3.6781674462465219e-08 0.014999810146071279 0 -4.3507462530642835e-06 0.0149816163225824 0 -3.6781674462465219e-08 0.014999810146071279 0 -2.2399672994858637e-05 0.014926875898140445 0 -4.2704551705715783e-05 0.014872031497957312 0 -3.5129897625360877e-05 0.014854933626668308 0 -2.2399672994858637e-05 0.014926875898140445 0 -2.2477330358675008e-05 0.014814118852273291 0 -4.2704551705715783e-05 0.014872031497957312 0 -3.876199794579536e-05 0.014721947030410359 0 -4.2704551705715783e-05 0.014872031497957312 0 -3.5129897625360877e-05 0.014854933626668308 0 -3.876199794579536e-05 0.014721947030410359 0 -3.603473003558043e-05 0.014724071298194773 0 -3.5129897625360877e-05 0.014854933626668308 0 -3.876199794579536e-05 0.014721947030410359 0 -3.603473003558043e-05 0.014724071298194773 0 -2.9748434127404476e-05 0.014535717462964172 0 -3.876199794579536e-05 0.014721947030410359 0 -2.9748434127404476e-05 0.014535717462964172 0 -3.876199794579536e-05 0.014721947030410359 0 7.3509976699761789e-05 0.014671225479951618 0 -2.2477330358675008e-05 0.014814118852273291 0 -3.876199794579536e-05 0.014721947030410359 0 1.8775287945399992e-05 0.014755808619416241 0 -3.876199794579536e-05 0.014721947030410359 0 1.8775287945399992e-05 0.014755808619416241 0 7.3509976699761789e-05 0.014671225479951618 0 0.00018918596925266559 0.013375572822077368 0 0.0001457946492117853 0.013786684192814116 0 -0.00014900895115411124 0.013600645543696038 0 0.00022018441391249467 0.014090704875449613 0 9.5186296524643903e-05 0.014229987951208051 0 7.238760329528303e-05 0.014811637165204412 0 1.8775287945399992e-05 0.014755808619416241 0 7.3509976699761789e-05 0.014671225479951618 0 0.0001457946492117853 0.013786684192814116 0 -0.00014900895115411124 0.013600645543696038 0 -0.00031692577236759633 0.013983742773655265 0 0.0001457946492117853 0.013786684192814116 0 -0.00031692577236759633 0.013983742773655265 0 3.0868159194454937e-05 0.014326630487570298 0 -2.9748434127404476e-05 0.014535717462964172 0 7.3509976699761789e-05 0.014671225479951618 0 3.0868159194454937e-05 0.014326630487570298 0 9.5186296524643903e-05 0.014229987951208051 0 5.103343973216779e-05 0.014319106852978341 0 -0.00074521072715367685 0.013536478793777253 0 -0.00045906377529133054 0.013560218449304882 0 -0.00066601815056614082 0.013840480770472277 0 -0.00014900895115411124 0.013600645543696038 0 -0.00045906377529133054 0.013560218449304882 0 -0.00031692577236759633 0.013983742773655265 0 -0.00031692577236759633 0.013983742773655265 0 -0.00041949801088393869 0.013982939797136561 0 -0.00041509240561588614 0.014019948902480799 0 -0.00032113312725396391 0.01397126605919982 0 -0.00054589392914170508 0.013915774244777636 0 -0.00045906377529133054 0.013560218449304882 0 -0.00031692577236759633 0.013983742773655265 0 -0.00066601815056614082 0.013840480770472277 0 -0.00037903032429853175 0.013866658031681486 0 -0.00041949801088393869 0.013982939797136561 0 -0.00041509240561588614 0.014019948902480799 0 -0.00031692577236759633 0.013983742773655265 0 -0.00041509240561588614 0.014019948902480799 0 -0.00023010632973356572 0.01421961693938811 0 -0.00041509240561588614 0.014019948902480799 0 -0.00023010632973356572 0.01421961693938811 0 -0.00049888013479390265 0.013963308729902717 0 -0.00023010632973356572 0.01421961693938811 0 -0.00049888013479390265 0.013963308729902717 0 -0.00029170262362377883 0.014194409868047092 0 -0.00037903032429853175 0.013866658031681486 0 -0.00041509240561588614 0.014019948902480799 0 -0.00049888013479390265 0.013963308729902717 0 3.0868159194454937e-05 0.014326630487570298 0 -0.00023010632973356572 0.01421961693938811 0 -4.1498221283678692e-05 0.01442472458569439 0 -2.9748434127404476e-05 0.014535717462964172 0 3.0868159194454937e-05 0.014326630487570298 0 -4.1498221283678692e-05 0.01442472458569439 0 -0.00031692577236759633 0.013983742773655265 0 3.0868159194454937e-05 0.014326630487570298 0 -0.00023010632973356572 0.01421961693938811 0 -0.00023010632973356572 0.01421961693938811 0 -4.1498221283678692e-05 0.01442472458569439 0 -0.00013856998320237068 0.014366234407459075 0 -0.00023010632973356572 0.01421961693938811 0 -0.00022199674498612975 0.014272646831964759 0 -0.00029170262362377883 0.014194409868047092 0 -0.00023010632973356572 0.01421961693938811 0 -0.00013856998320237068 0.014366234407459075 0 -0.00022199674498612975 0.014272646831964759 0 -0.00020711689468435731 0.014333223181532786 0 -0.00015126142905696669 0.014346239111972687 0 -0.00013856998320237068 0.014366234407459075 0 -0.00022569584561919805 0.014319152943017483 0 -4.6228949415466789e-05 0.014536534928860837 0 -4.1498221283678692e-05 0.01442472458569439 0 -0.00013856998320237068 0.014366234407459075 0 -4.6228949415466789e-05 0.014536534928860837 0 -0.00013856998320237068 0.014366234407459075 0 -0.00022199674498612975 0.014272646831964759 0 -0.00022569584561919805 0.014319152943017483 0 -0.00022199674498612975 0.014272646831964759 0 -0.00022569584561919805 0.014319152943017483 0 -0.00029170262362377883 0.014194409868047092 0 -0.00022569584561919805 0.014319152943017483 0 -0.0002688012023804692 0.014236133131009068 0 -0.00023329385001088514 0.014189201805574255 0 -0.00022569584561919805 0.014319152943017483 0 -0.00025371713426217531 0.014336073501185629 0 -0.00023329385001088514 0.014189201805574255 0 -0.00022569584561919805 0.014319152943017483 0 -0.0002688012023804692 0.014236133131009068 0 -0.00027888410434135703 0.014207329972595651 0 -0.00042732954735325403 0.013671303200210708 0 -0.00049888013479390265 0.013963308729902717 0 -0.0006306836835993909 0.013524061377334196 0 -0.00049888013479390265 0.013963308729902717 0 -0.00029170262362377883 0.014194409868047092 0 -0.00025371713426217531 0.014336073501185629 0 -0.00050413443861902646 0.01396802632805836 0 -0.00052566488044205998 0.013935079639778393 0 -0.00022569584561919805 0.014319152943017483 0 -0.00029170262362377883 0.014194409868047092 0 -0.00025371713426217531 0.014336073501185629 0 -0.00082204825597038814 0.013553085084442845 0 -0.0006306836835993909 0.013524061377334196 0 -0.00078623018605555579 0.013472656020088819 0 -0.00049888013479390265 0.013963308729902717 0 -0.00082204825597038814 0.013553085084442845 0 -0.0006306836835993909 0.013524061377334196 0 -0.00054590657954111646 0.013383229962777994 0 -0.0006306836835993909 0.013524061377334196 0 -0.00081278830351598312 0.013415659998798263 0 -0.0006306836835993909 0.013524061377334196 0 -0.00081278830351598312 0.013415659998798263 0 -0.00078623018605555579 0.013472656020088819 0 -0.00082204825597038814 0.013553085084442845 0 -0.00078623018605555579 0.013472656020088819 0 -0.00070367694429592854 0.013464344269109538 0 -0.00081278830351598312 0.013415659998798263 0 -0.00078623018605555579 0.013472656020088819 0 -0.00070367694429592854 0.013464344269109538 0 -0.00081278830351598312 0.013415659998798263 0 -0.00074501902913673868 0.013707190380183037 0 -0.00091078231690583519 0.013408368711794679 0 -0.00054590657954111646 0.013383229962777994 0 -0.00081278830351598312 0.013415659998798263 0 -0.00069791810231408695 0.013274132778987575 0 -0.00081278830351598312 0.013415659998798263 0 -0.00069791810231408695 0.013274132778987575 0 -0.00091078231690583519 0.013408368711794679 0 -0.0002688012023804692 0.014236133131009068 0 -0.00023329385001088514 0.014189201805574255 0 -0.00030734524808018112 0.014176855449731636 0 -0.00052566488044205998 0.013935079639778393 0 -0.00047656067256867941 0.013845648662794325 0 -0.00081278830351598312 0.013415659998798263 0 -0.00070367694429592854 0.013464344269109538 0 -0.00074501902913673868 0.013707190380183037 0 -0.00070367694429592854 0.013464344269109538 0 -0.00074501902913673868 0.013707190380183037 0 -0.00036362830653664975 0.014033847010017801 0 -0.00047656067256867941 0.013845648662794325 0 -0.00036665908122942247 0.014010377467028993 0 -0.00023329385001088514 0.014189201805574255 0 -0.00030734524808018112 0.014176855449731636 0 -0.00036362830653664975 0.014033847010017801 0 -0.00028150817025894407 0.014197139235139683 0 -0.00030734524808018112 0.014176855449731636 0 -0.00036362830653664975 0.014033847010017801 0 -0.00028150817025894407 0.014197139235139683 0 -0.00027065539991298138 0.01427623979363613 0 -0.00036362830653664975 0.014033847010017801 0 -0.00028150817025894407 0.014197139235139683 0 -0.00027065539991298138 0.01427623979363613 0 -0.00018387478027595129 0.01432363227499028 0 -0.00028150817025894407 0.014197139235139683 0 -0.00016633810189533468 0.014165781249847437 0 -0.00018387478027595129 0.01432363227499028 0 -0.00028150817025894407 0.014197139235139683 0 -0.00027074761876442121 0.014174038222523258 0 -0.00016633810189533468 0.014165781249847437 0 -0.0002688012023804692 0.014236133131009068 0 -0.00030734524808018112 0.014176855449731636 0 -0.00027074761876442121 0.014174038222523258 0 -0.00028150817025894407 0.014197139235139683 0 -0.00030734524808018112 0.014176855449731636 0 -0.00027074761876442121 0.014174038222523258 0 -0.0002688012023804692 0.014236133131009068 0 -0.00027074761876442121 0.014174038222523258 0 -0.00027888410434135703 0.014207329972595651 0 -0.00027074761876442121 0.014174038222523258 0 -0.00027888410434135703 0.014207329972595651 0 -0.00023353654865414093 0.014144781854491398 0 -0.00027074761876442121 0.014174038222523258 0 -0.00023353654865414093 0.014144781854491398 0 -0.00016633810189533468 0.014165781249847437 0 -2.642225115571923e-05 0.014671336721825128 0 -4.6228949415466789e-05 0.014536534928860837 0 -1.9498535840847959e-05 0.014751633693763143 0 -0.00015126142905696669 0.014346239111972687 0 -0.00011371470254458661 0.014628811043339778 0 -2.642225115571923e-05 0.014671336721825128 0 -2.0405633096845699e-05 0.014760898627530791 0 -1.9498535840847959e-05 0.014751633693763143 0 -2.6765503219320206e-05 0.01464070944710576 0 -2.642225115571923e-05 0.014671336721825128 0 -4.6228949415466789e-05 0.014536534928860837 0 2.1224247434230529e-07 0.015000099025516956 0 -0.00011371470254458661 0.014628811043339778 0 -7.3742774532280313e-09 0.015000000500007899 0 -8.7239104380258692e-07 0.014995106465373408 0 6.4808352205495458e-07 0.014998108849158609 0 -1.7167241654439114e-08 0.014999738588190561 0 -2.0405633096845699e-05 0.014760898627530791 0 -1.9498535840847959e-05 0.014751633693763143 0 -8.7239104380258692e-07 0.014995106465373408 0 6.4808352205495458e-07 0.014998108849158609 0 2.7329214524453411e-06 0.014998429598138839 0 -0.00011371470254458661 0.014628811043339778 0 -7.8238694498495028e-05 0.014574090775274044 0 -7.3742774532280313e-09 0.015000000500007899 0 6.4808352205495458e-07 0.014998108849158609 0 1.9431060736719465e-08 0.014999988717093626 0 1.9431060736719465e-08 0.014999988717093626 0 2.7329214524453411e-06 0.014998429598138839 0 7.2002997071041463e-06 0.015000423925368669 0 6.4808352205495458e-07 0.014998108849158609 0 1.9431060736719465e-08 0.014999988717093626 0 2.7329214524453411e-06 0.014998429598138839 0 -0.00016633810189533468 0.014165781249847437 0 -9.1980341739237403e-06 0.014336188482168355 0 -0.00018387478027595129 0.01432363227499028 0 -7.8238694498495028e-05 0.014574090775274044 0 -2.0522093912884874e-06 0.014677422359846067 0 2.7329214524453411e-06 0.014998429598138839 0 7.2002997071041463e-06 0.015000423925368669 0 2.3093498296963737e-05 0.01499680013379975 0 1.9431060736719465e-08 0.014999988717093626 0 7.2002997071041463e-06 0.015000423925368669 0 -2.8133453812113945e-08 0.015000048960522398 0 7.2002997071041463e-06 0.015000423925368669 0 -2.8133453812113945e-08 0.015000048960522398 0 2.3093498296963737e-05 0.01499680013379975 0 -2.0522093912884874e-06 0.014677422359846067 0 3.1489699217137819e-05 0.014875541595317832 0 -2.8133453812113945e-08 0.015000048960522398 0 2.3093498296963737e-05 0.01499680013379975 0 2.8271249631712658e-05 0.014903712698728273 0 -9.1980341739237403e-06 0.014336188482168355 0 -9.2454320331574179e-05 0.014593846801262616 0 2.8271249631712658e-05 0.014903712698728273 0 -9.1980341739237403e-06 0.014336188482168355 0 -9.2454320331574179e-05 0.014593846801262616 0 -0.00018387478027595129 0.01432363227499028 0 -9.2454320331574179e-05 0.014593846801262616 0 -0.00018387478027595129 0.01432363227499028 0 -0.0001860824834864034 0.014552005764447373 0 -9.2454320331574179e-05 0.014593846801262616 0 -5.7961548663682957e-05 0.014781429763277228 0 -0.0001860824834864034 0.014552005764447373 0 -9.2454320331574179e-05 0.014593846801262616 0 -5.7961548663682957e-05 0.014781429763277228 0 2.8271249631712658e-05 0.014903712698728273 0 -2.8133453812113945e-08 0.015000048960522398 0 7.9467736113351434e-08 0.014999575984699733 0 2.8271249631712658e-05 0.014903712698728273 0 -0.00027065539991298138 0.01427623979363613 0 -0.00036158975629919319 0.014419853406462941 0 -0.00036362830653664975 0.014033847010017801 0 -0.00027065539991298138 0.01427623979363613 0 -0.00018387478027595129 0.01432363227499028 0 -0.0001860824834864034 0.014552005764447373 0 -0.0001860824834864034 0.014552005764447373 0 -0.00036158975629919319 0.014419853406462941 0 -0.00024860248705401214 0.014721217482536086 0 -0.00027065539991298138 0.01427623979363613 0 -0.0001860824834864034 0.014552005764447373 0 -0.00036158975629919319 0.014419853406462941 0 -0.00036158975629919319 0.014419853406462941 0 -0.00024860248705401214 0.014721217482536086 0 -0.00050899199412436538 0.014726785122101859 0 -0.0001860824834864034 0.014552005764447373 0 -0.00024860248705401214 0.014721217482536086 0 -8.941471487525427e-05 0.014854147535151681 0 -0.0001652375509525354 0.014875601833740353 0 -9.0483335203123025e-05 0.014945721494530212 0 -0.00026174795094420055 0.014967740628668418 0 -0.0001652375509525354 0.014875601833740353 0 -8.941471487525427e-05 0.014854147535151681 0 -9.0483335203123025e-05 0.014945721494530212 0 -0.00024860248705401214 0.014721217482536086 0 -0.0001652375509525354 0.014875601833740353 0 -8.941471487525427e-05 0.014854147535151681 0 -0.00024860248705401214 0.014721217482536086 0 -0.00026174795094420055 0.014967740628668418 0 -0.00050899199412436538 0.014726785122101859 0 -0.00024860248705401214 0.014721217482536086 0 -0.0001652375509525354 0.014875601833740353 0 -0.00026174795094420055 0.014967740628668418 0 -0.00093305442243807324 0.013587728973721826 0 -0.0009202052376699085 0.01362220146981769 0 -5.7961548663682957e-05 0.014781429763277228 0 2.8271249631712658e-05 0.014903712698728273 0 -4.2901612459913969e-06 0.014922437731920661 0 7.9467736113351434e-08 0.014999575984699733 0 -4.2901612459913969e-06 0.014922437731920661 0 -1.4018741479586992e-08 0.014999962012776896 0 7.9467736113351434e-08 0.014999575984699733 0 2.8271249631712658e-05 0.014903712698728273 0 -4.2901612459913969e-06 0.014922437731920661 0 -5.7961548663682957e-05 0.014781429763277228 0 -0.0001860824834864034 0.014552005764447373 0 -8.941471487525427e-05 0.014854147535151681 0 -5.7961548663682957e-05 0.014781429763277228 0 -4.2901612459913969e-06 0.014922437731920661 0 -8.941471487525427e-05 0.014854147535151681 0 -4.2901612459913969e-06 0.014922437731920661 0 -8.941471487525427e-05 0.014854147535151681 0 -3.2378409684952515e-05 0.014943608166928229 0 -8.941471487525427e-05 0.014854147535151681 0 -3.2378409684952515e-05 0.014943608166928229 0 -9.0483335203123025e-05 0.014945721494530212 0 -3.2378409684952515e-05 0.014943608166928229 0 -1.4018741479586992e-08 0.014999962012776896 0 -2.7797779747082832e-05 0.014983380812249081 0 -4.2901612459913969e-06 0.014922437731920661 0 -3.2378409684952515e-05 0.014943608166928229 0 -1.4018741479586992e-08 0.014999962012776896 0 -1.4018741479586992e-08 0.014999962012776896 0 -1.7252571536376955e-08 0.015000003886528709 0 -2.7797779747082832e-05 0.014983380812249081 0 -1.7252571536376955e-08 0.015000003886528709 0 -3.5674510554573036e-05 0.015004437150385661 0 -2.7939031913820546e-05 0.015002156214400268 0 -1.7252571536376955e-08 0.015000003886528709 0 -3.5674510554573036e-05 0.015004437150385661 0 -2.7797779747082832e-05 0.014983380812249081 0 -5.0824975124060823e-05 0.015009515570976866 0 -3.5674510554573036e-05 0.015004437150385661 0 -6.3768557255438872e-05 0.015007682883228913 0 -5.0824975124060823e-05 0.015009515570976866 0 -5.7857454389359213e-05 0.015014437207055076 0 -6.3768557255438872e-05 0.015007682883228913 0 -5.7857454389359213e-05 0.015014437207055076 0 -6.3768557255438872e-05 0.015007682883228913 0 -8.3155238735075544e-05 0.015025699060869663 0 -5.7857454389359213e-05 0.015014437207055076 0 -5.003255315183333e-05 0.015009878255258114 0 -8.3155238735075544e-05 0.015025699060869663 0 -5.7857454389359213e-05 0.015014437207055076 0 -5.003255315183333e-05 0.015009878255258114 0 -4.4252385473608066e-05 0.015007857063556573 0 -5.0824975124060823e-05 0.015009515570976866 0 -5.7857454389359213e-05 0.015014437207055076 0 -4.4252385473608066e-05 0.015007857063556573 0 -4.4252385473608066e-05 0.015007857063556573 0 -3.5674510554573036e-05 0.015004437150385661 0 -2.7939031913820546e-05 0.015002156214400268 0 -5.0824975124060823e-05 0.015009515570976866 0 -4.4252385473608066e-05 0.015007857063556573 0 -3.5674510554573036e-05 0.015004437150385661 0 -3.5674510554573036e-05 0.015004437150385661 0 -8.2312927927063266e-05 0.014996828187992608 0 -2.7797779747082832e-05 0.014983380812249081 0 -8.2312927927063266e-05 0.014996828187992608 0 -6.3768557255438872e-05 0.015007682883228913 0 -8.3155238735075544e-05 0.015025699060869663 0 -3.5674510554573036e-05 0.015004437150385661 0 -8.2312927927063266e-05 0.014996828187992608 0 -6.3768557255438872e-05 0.015007682883228913 0 -8.2312927927063266e-05 0.014996828187992608 0 -2.7797779747082832e-05 0.014983380812249081 0 -9.0483335203123025e-05 0.014945721494530212 0 -3.2378409684952515e-05 0.014943608166928229 0 -2.7797779747082832e-05 0.014983380812249081 0 -9.0483335203123025e-05 0.014945721494530212 0 -8.2312927927063266e-05 0.014996828187992608 0 -9.0483335203123025e-05 0.014945721494530212 0 -0.00026174795094420055 0.014967740628668418 0 -0.0014724370901444696 0.012279243155072447 0 -0.001455942379093793 0.012108439194021329 0 -0.0013006484700168292 0.012275707434092798 0 -0.001455942379093793 0.012108439194021329 0 -0.0014509277372483234 0.011937005594917505 0 -0.001265261627925053 0.012096905832894684 0 -0.00093305442243807324 0.013587728973721826 0 -0.00049985641138344924 0.013644427893755813 0 -0.0014724370901444696 0.012279243155072447 0 -0.001455942379093793 0.012108439194021329 0 -0.0016105073774893243 0.012100417636767325 0 -8.2312927927063266e-05 0.014996828187992608 0 -0.00026174795094420055 0.014967740628668418 0 -8.3155238735075544e-05 0.015025699060869663 0 -1.9052093944816481e-05 0.014437173886949583 0 -0.00049985641138344924 0.013644427893755813 0 -4.4956087381649565e-05 0.01501316312528456 0 -3.5857699297924613e-05 0.014994234671319912 0 -8.0361803801338615e-06 0.015001337244517127 0 -5.003255315183333e-05 0.015009878255258114 0 -4.4956087381649565e-05 0.01501316312528456 0 -3.5857699297924613e-05 0.014994234671319912 0 -5.003255315183333e-05 0.015009878255258114 0 -3.5857699297924613e-05 0.014994234671319912 0 -3.9460901828853096e-05 0.014999197694738575 0 -0.00049985641138344924 0.013644427893755813 0 -0.00077919021481561617 0.013473319708095203 0 -0.001455942379093793 0.012108439194021329 0 -0.0016105073774893243 0.012100417636767325 0 -0.0014509277372483234 0.011937005594917505 0 -8.0361803801338615e-06 0.015001337244517127 0 0.0001014631441615205 0.014981946957385145 0 -3.4857730735541076e-05 0.014942633625040986 0 -3.5857699297924613e-05 0.014994234671319912 0 -3.3919833022197322e-05 0.014982445480741926 0 -3.4857730735541076e-05 0.014942633625040986 0 -3.5857699297924613e-05 0.014994234671319912 0 -8.0361803801338615e-06 0.015001337244517127 0 -3.4857730735541076e-05 0.014942633625040986 0 -3.3919833022197322e-05 0.014982445480741926 0 -3.2749798268438512e-08 0.014999994433348233 0 -1.9477585865251268e-05 0.014980890869462089 0 -3.3919833022197322e-05 0.014982445480741926 0 -3.2749798268438512e-08 0.014999994433348233 0 -2.7939031913820546e-05 0.015002156214400268 0 -1.7252571536376955e-08 0.015000003886528709 0 -3.2749798268438512e-08 0.014999994433348233 0 -2.7939031913820546e-05 0.015002156214400268 0 -4.4252385473608066e-05 0.015007857063556573 0 -2.7939031913820546e-05 0.015002156214400268 0 -3.9460901828853096e-05 0.014999197694738575 0 -3.3919833022197322e-05 0.014982445480741926 0 -2.7939031913820546e-05 0.015002156214400268 0 -3.9460901828853096e-05 0.014999197694738575 0 -5.003255315183333e-05 0.015009878255258114 0 -4.4252385473608066e-05 0.015007857063556573 0 -3.9460901828853096e-05 0.014999197694738575 0 -3.5857699297924613e-05 0.014994234671319912 0 -3.3919833022197322e-05 0.014982445480741926 0 -3.9460901828853096e-05 0.014999197694738575 0 -0.00091482426794098337 0.011890582862122559 0 -0.0010745462891602359 0.011822553276621591 0 -0.00098512834147160278 0.012020548346764505 0 -0.00091482426794098337 0.011890582862122559 0 -0.00098512834147160278 0.012020548346764505 0 -0.00076459375561965597 0.011957047717649914 0 -0.00091482426794098337 0.011890582862122559 0 -0.00076459375561965597 0.011957047717649914 0 -0.00079574828930528111 0.011804568449881651 0 -0.00091482426794098337 0.011890582862122559 0 -0.00079574828930528111 0.011804568449881651 0 -0.00099954754962393636 0.011711872201210135 0 -0.00091482426794098337 0.011890582862122559 0 -0.0010745462891602359 0.011822553276621591 0 -0.00099954754962393636 0.011711872201210135 0 -0.0010745462891602359 0.011822553276621591 0 -0.0012678737459163832 0.011769691912466664 0 -0.0012099181902142464 0.011929433588021864 0 -0.0014509277372483234 0.011937005594917505 0 -0.0012678737459163832 0.011769691912466664 0 -0.0012099181902142464 0.011929433588021864 0 -0.00077919021481561617 0.013473319708095203 0 -0.00055733754251603598 0.013368435921774866 0 -0.0014509277372483234 0.011937005594917505 0 -0.0012099181902142464 0.011929433588021864 0 -0.001265261627925053 0.012096905832894684 0 -0.0012099181902142464 0.011929433588021864 0 -0.001265261627925053 0.012096905832894684 0 -0.00098512834147160278 0.012020548346764505 0 -0.0010745462891602359 0.011822553276621591 0 -0.0012099181902142464 0.011929433588021864 0 -0.00098512834147160278 0.012020548346764505 0 -0.001265261627925053 0.012096905832894684 0 -0.0010746776795345376 0.012228363049203092 0 -0.00098512834147160278 0.012020548346764505 0 -0.001455942379093793 0.012108439194021329 0 -0.001265261627925053 0.012096905832894684 0 -0.0013006484700168292 0.012275707434092798 0 -0.001265261627925053 0.012096905832894684 0 -0.0013006484700168292 0.012275707434092798 0 -0.0010746776795345376 0.012228363049203092 0 -0.0010746776795345376 0.012228363049203092 0 -0.00098512834147160278 0.012020548346764505 0 -0.00078068808802277394 0.012105346804427132 0 -0.00098512834147160278 0.012020548346764505 0 -0.00078068808802277394 0.012105346804427132 0 -0.00076459375561965597 0.011957047717649914 0 -0.0010746776795345376 0.012228363049203092 0 -0.00078068808802277394 0.012105346804427132 0 -0.00085032174334870791 0.012325622718921172 0 -0.0010746776795345376 0.012228363049203092 0 -0.00085032174334870791 0.012325622718921172 0 -0.0011289114680610658 0.012450827783633029 0 -0.00085862640304520997 0.012673600158955045 0 -0.0011289114680610658 0.012450827783633029 0 -0.0012463999476410217 0.012820199490491966 0 -0.00085032174334870791 0.012325622718921172 0 -0.00085862640304520997 0.012673600158955045 0 -0.0011289114680610658 0.012450827783633029 0 -0.00085032174334870791 0.012325622718921172 0 -0.00085862640304520997 0.012673600158955045 0 -0.00062087214143584943 0.012404771671601629 0 -0.0014724370901444696 0.012279243155072447 0 -0.0013006484700168292 0.012275707434092798 0 -0.0013606214957693342 0.012494817503627322 0 -0.0013006484700168292 0.012275707434092798 0 -0.0010746776795345376 0.012228363049203092 0 -0.0011289114680610658 0.012450827783633029 0 -0.0013006484700168292 0.012275707434092798 0 -0.0011289114680610658 0.012450827783633029 0 -0.0013606214957693342 0.012494817503627322 0 -0.0011289114680610658 0.012450827783633029 0 -0.0013606214957693342 0.012494817503627322 0 -0.0012463999476410217 0.012820199490491966 0 -0.0009202052376699085 0.01362220146981769 0 -0.00098720639961957421 0.013540839973416192 0 -0.00036158975629919319 0.014419853406462941 0 -0.00050899199412436538 0.014726785122101859 0 -0.00077498928847887589 0.014259261378161496 0 -0.00036158975629919319 0.014419853406462941 0 -0.00077498928847887589 0.014259261378161496 0 -0.00036362830653664975 0.014033847010017801 0 -0.00077498928847887589 0.014259261378161496 0 -0.00074501902913673868 0.013707190380183037 0 -0.00036362830653664975 0.014033847010017801 0 -0.00085862640304520997 0.012673600158955045 0 -0.0006917322175415422 0.013036376824387495 0 -0.00057630250985992023 0.012719830111067443 0 -0.00085862640304520997 0.012673600158955045 0 -0.0012463999476410217 0.012820199490491966 0 -0.00091078231690583519 0.013408368711794679 0 -0.00077498928847887589 0.014259261378161496 0 -0.00074501902913673868 0.013707190380183037 0 -0.00091078231690583519 0.013408368711794679 0 -0.00098720639961957421 0.013540839973416192 0 -0.00091403289727415326 0.01345135203835094 0 -0.00085862640304520997 0.012673600158955045 0 -0.00091078231690583519 0.013408368711794679 0 -0.0006917322175415422 0.013036376824387495 0 -0.00069791810231408695 0.013274132778987575 0 -0.00091078231690583519 0.013408368711794679 0 -0.0006917322175415422 0.013036376824387495 0 -0.00043634707356703963 0.013072096959722442 0 -0.00069791810231408695 0.013274132778987575 0 -0.0006917322175415422 0.013036376824387495 0 -0.00043634707356703963 0.013072096959722442 0 -0.0006917322175415422 0.013036376824387495 0 -0.00057630250985992023 0.012719830111067443 0 -0.00043634707356703963 0.013072096959722442 0 -0.00057630250985992023 0.012719830111067443 0 -0.00037185366100204168 0.012675827266097776 0 -0.00057630250985992023 0.012719830111067443 0 -0.00037185366100204168 0.012675827266097776 0 -0.00062087214143584943 0.012404771671601629 0 -0.00043634707356703963 0.013072096959722442 0 -0.00037185366100204168 0.012675827266097776 0 -0.00018958269839935589 0.012923553449425159 0 -0.00037185366100204168 0.012675827266097776 0 -0.00018958269839935589 0.012923553449425159 0 -0.00012798926107113881 0.012629238125676364 0 -3.8364819698744306e-05 0.012813475189912904 0 -0.00012798926107113881 0.012629238125676364 0 0.00010664009811876914 0.012517530826917705 0 -0.00018958269839935589 0.012923553449425159 0 -3.8364819698744306e-05 0.012813475189912904 0 -0.00012798926107113881 0.012629238125676364 0 -0.00012798926107113881 0.012629238125676364 0 -1.4508520964696115e-05 0.012374062363984157 0 0.00010664009811876914 0.012517530826917705 0 -0.00037185366100204168 0.012675827266097776 0 -0.00012798926107113881 0.012629238125676364 0 -0.00029587407514070454 0.012337714288581448 0 -0.00029587407514070454 0.012337714288581448 0 -1.4508520964696115e-05 0.012374062363984157 0 -2.2370661113533297e-05 0.012035409169509183 0 -0.00012798926107113881 0.012629238125676364 0 -0.00029587407514070454 0.012337714288581448 0 -1.4508520964696115e-05 0.012374062363984157 0 -2.2370661113533297e-05 0.012035409169509183 0 -0.00026304891438429722 0.012021049606313634 0 -0.00011889638500306482 0.011729840169901981 0 -0.00029587407514070454 0.012337714288581448 0 -2.2370661113533297e-05 0.012035409169509183 0 -0.00026304891438429722 0.012021049606313634 0 -0.00029587407514070454 0.012337714288581448 0 -0.00026304891438429722 0.012021049606313634 0 -0.00053282971986368577 0.012146336052018352 0 -0.00029587407514070454 0.012337714288581448 0 -0.00053282971986368577 0.012146336052018352 0 -0.00062087214143584943 0.012404771671601629 0 -0.00053282971986368577 0.012146336052018352 0 -0.00062087214143584943 0.012404771671601629 0 -0.00065995707653408731 0.012189544355747796 0 -0.00085032174334870791 0.012325622718921172 0 -0.00062087214143584943 0.012404771671601629 0 -0.00065995707653408731 0.012189544355747796 0 -0.00085862640304520997 0.012673600158955045 0 -0.00057630250985992023 0.012719830111067443 0 -0.00062087214143584943 0.012404771671601629 0 -0.00037185366100204168 0.012675827266097776 0 -0.00029587407514070454 0.012337714288581448 0 -0.00062087214143584943 0.012404771671601629 0 0.00074038991512545603 0.012176144541339065 0 0.00075673089475733262 0.012483995508187453 0 0.00050443826945895684 0.012401412847484359 0 0.00074038991512545603 0.012176144541339065 0 0.00050443826945895684 0.012401412847484359 0 0.00054644982340270394 0.012000881806243639 0 0.00074038991512545603 0.012176144541339065 0 0.00075673089475733262 0.012483995508187453 0 0.00096951548763327046 0.012333566605692972 0 0.00075673089475733262 0.012483995508187453 0 0.00055488209297348376 0.012616225911942329 0 0.00050443826945895684 0.012401412847484359 0 0.00075673089475733262 0.012483995508187453 0 0.00068626304757250583 0.012702534994712404 0 0.0008344911373871786 0.012642318177205798 0 0.00068626304757250583 0.012702534994712404 0 0.0008344911373871786 0.012642318177205798 0 0.00080584134272809022 0.012790870986335355 0 0.00048252800707384382 0.012792304263091858 0 0.00068626304757250583 0.012702534994712404 0 0.00055488209297348376 0.012616225911942329 0 0.00075673089475733262 0.012483995508187453 0 0.00068626304757250583 0.012702534994712404 0 0.00055488209297348376 0.012616225911942329 0 0.00038293127861771954 0.0126771950063109 0 0.00050443826945895684 0.012401412847484359 0 0.00026396798048722319 0.01255835948200105 0 0.00055488209297348376 0.012616225911942329 0 0.00038293127861771954 0.0126771950063109 0 0.00050443826945895684 0.012401412847484359 0 0.00048252800707384382 0.012792304263091858 0 0.00055488209297348376 0.012616225911942329 0 0.00038293127861771954 0.0126771950063109 0 0.00050443826945895684 0.012401412847484359 0 0.00038995291949327096 0.012261867966871991 0 0.00026396798048722319 0.01255835948200105 0 0.00050443826945895684 0.012401412847484359 0 0.00038995291949327096 0.012261867966871991 0 0.00054644982340270394 0.012000881806243639 0 0.00038995291949327096 0.012261867966871991 0 0.00023912384665235236 0.012307190976972337 0 0.00026396798048722319 0.01255835948200105 0 0.00023912384665235236 0.012307190976972337 0 0.00026396798048722319 0.01255835948200105 0 0.00010664009811876914 0.012517530826917705 0 0.00038293127861771954 0.0126771950063109 0 0.00025069250390951254 0.012772768664822087 0 0.00026396798048722319 0.01255835948200105 0 0.0003212941722337866 0.012883027638530551 0 0.00038293127861771954 0.0126771950063109 0 0.00025069250390951254 0.012772768664822087 0 0.00025069250390951254 0.012772768664822087 0 0.00026396798048722319 0.01255835948200105 0 0.00011880736153717654 0.012779610001576822 0 0.00026396798048722319 0.01255835948200105 0 0.00011880736153717654 0.012779610001576822 0 0.00010664009811876914 0.012517530826917705 0 -3.8364819698744306e-05 0.012813475189912904 0 0.00011880736153717654 0.012779610001576822 0 0.00010664009811876914 0.012517530826917705 0 -1.7615683416624662e-06 0.013003802896460016 0 -3.8364819698744306e-05 0.012813475189912904 0 0.00011880736153717654 0.012779610001576822 0 0.00023912384665235236 0.012307190976972337 0 0.00010664009811876914 0.012517530826917705 0 0.00014227618606529223 0.012178784659160106 0 -1.4508520964696115e-05 0.012374062363984157 0 0.00010664009811876914 0.012517530826917705 0 0.00014227618606529223 0.012178784659160106 0 -1.4508520964696115e-05 0.012374062363984157 0 -2.2370661113533297e-05 0.012035409169509183 0 0.00014227618606529223 0.012178784659160106 0 -2.2370661113533297e-05 0.012035409169509183 0 0.00014227618606529223 0.012178784659160106 0 0.00023854560327655236 0.01182327885861729 0 -2.2370661113533297e-05 0.012035409169509183 0 0.00023854560327655236 0.01182327885861729 0 0.00010284493578594023 0.011681606639960243 0 0.00023854560327655236 0.01182327885861729 0 0.00034401743578263004 0.012041388843100699 0 0.00050278661562840347 0.011705113043995963 0 0.00014227618606529223 0.012178784659160106 0 0.00023854560327655236 0.01182327885861729 0 0.00034401743578263004 0.012041388843100699 0 0.00023912384665235236 0.012307190976972337 0 0.00014227618606529223 0.012178784659160106 0 0.00034401743578263004 0.012041388843100699 0 0.00038995291949327096 0.012261867966871991 0 0.00023912384665235236 0.012307190976972337 0 0.00034401743578263004 0.012041388843100699 0 0.00038995291949327096 0.012261867966871991 0 0.00034401743578263004 0.012041388843100699 0 0.00054644982340270394 0.012000881806243639 0 0.00054644982340270394 0.012000881806243639 0 0.00050278661562840347 0.011705113043995963 0 0.00073823426201455582 0.011632952259069976 0 0.00034401743578263004 0.012041388843100699 0 0.00054644982340270394 0.012000881806243639 0 0.00050278661562840347 0.011705113043995963 0 0.00050278661562840347 0.011705113043995963 0 0.00073823426201455582 0.011632952259069976 0 0.00069065730075592636 0.011492788048608739 0 0.00074038991512545603 0.012176144541339065 0 0.00054644982340270394 0.012000881806243639 0 0.00079057094752923161 0.011815498103664798 0 0.00054644982340270394 0.012000881806243639 0 0.00073823426201455582 0.011632952259069976 0 0.00079057094752923161 0.011815498103664798 0 0.00061026348631998905 0.011357774363073159 0 0.00072995370633051619 0.011231939532185374 0 0.000816328420881731 0.011329825327136767 0 0.00069065730075592636 0.011492788048608739 0 0.00061026348631998905 0.011357774363073159 0 0.000816328420881731 0.011329825327136767 0 0.00073823426201455582 0.011632952259069976 0 0.00069065730075592636 0.011492788048608739 0 0.00085997886428061307 0.011449881593649392 0 0.00069065730075592636 0.011492788048608739 0 0.00085997886428061307 0.011449881593649392 0 0.000816328420881731 0.011329825327136767 0 0.00069065730075592636 0.011492788048608739 0 0.00054925456654193999 0.01151517924176442 0 0.00061026348631998905 0.011357774363073159 0 0.00050278661562840347 0.011705113043995963 0 0.00054925456654193999 0.01151517924176442 0 0.00038274223792495311 0.011533932324655181 0 0.00050278661562840347 0.011705113043995963 0 0.00069065730075592636 0.011492788048608739 0 0.00054925456654193999 0.01151517924176442 0 0.00054925456654193999 0.01151517924176442 0 0.00061026348631998905 0.011357774363073159 0 0.00038274223792495311 0.011533932324655181 0 0.00061026348631998905 0.011357774363073159 0 0.00038274223792495311 0.011533932324655181 0 0.00043927424923942892 0.011261439691845981 0 0.00061026348631998905 0.011357774363073159 0 0.00043927424923942892 0.011261439691845981 0 0.00072995370633051619 0.011231939532185374 0 0.00038274223792495311 0.011533932324655181 0 0.00015612404077437395 0.011460929609117361 0 0.00043927424923942892 0.011261439691845981 0 0.00023854560327655236 0.01182327885861729 0 0.00050278661562840347 0.011705113043995963 0 0.00038274223792495311 0.011533932324655181 0 0.00023854560327655236 0.01182327885861729 0 0.00038274223792495311 0.011533932324655181 0 0.00010284493578594023 0.011681606639960243 0 0.00038274223792495311 0.011533932324655181 0 0.00010284493578594023 0.011681606639960243 0 0.00015612404077437395 0.011460929609117361 0 0.00010284493578594023 0.011681606639960243 0 0.00015612404077437395 0.011460929609117361 0 -1.7001101361717019e-05 0.011479698873508793 0 0.00015612404077437395 0.011460929609117361 0 9.0380710249054027e-05 0.011327109261588609 0 0.00043927424923942892 0.011261439691845981 0 0.00018585663366101871 0.011470470729213957 0 -0.00019153787338292268 0.010629094570587564 0 0.00015612404077437395 0.011460929609117361 0 0.00010468065860654402 0.011328810268227003 0 -1.7001101361717019e-05 0.011479698873508793 0 -0.00065416464225133181 0.0088902888701340426 0 -0.00071362156485129823 0.0089587409389164686 0 -0.00061063685418509517 0.0089837164356359085 0 -0.00071362156485129823 0.0089587409389164686 0 -0.00061063685418509517 0.0089837164356359085 0 -0.00066785516338182702 0.0090501890417135078 0 -0.00071362156485129823 0.0089587409389164686 0 -0.00075935767578718294 0.0090130455644982111 0 -0.00066785516338182702 0.0090501890417135078 0 -0.00071362156485129823 0.0089587409389164686 0 -0.00075935767578718294 0.0090130455644982111 0 -0.00083036783616372673 0.008939774316224525 0 -0.00019153787338292268 0.010629094570587564 0 -0.00018341527139515969 0.010016019535095561 0 -0.00071362156485129823 0.0089587409389164686 0 -0.00077746491890644611 0.0088899106601314313 0 -0.00083036783616372673 0.008939774316224525 0 -0.00065416464225133181 0.0088902888701340426 0 -0.00071362156485129823 0.0089587409389164686 0 -0.00077746491890644611 0.0088899106601314313 0 -0.00018341527139515969 0.010016019535095561 0 -6.9658642634869597e-05 0.010135721452574435 0 -0.00077746491890644611 0.0088899106601314313 0 -0.00083036783616372673 0.008939774316224525 0 -0.00089609922727280141 0.0089115765974465914 0 -0.00075935767578718294 0.0090130455644982111 0 -0.00083036783616372673 0.008939774316224525 0 -0.00083075373928820882 0.0089899240741613973 0 -0.00083036783616372673 0.008939774316224525 0 -0.00087522326640629791 0.0089471160132513824 0 -0.00083075373928820882 0.0089899240741613973 0 -0.00090914289085145515 0.0088940618092050658 0 -0.00090683315708850866 0.0089316277974843053 0 -0.00074664641255690163 0.0089029885710769866 0 -0.00083036783616372673 0.008939774316224525 0 -0.00087522326640629791 0.0089471160132513824 0 -0.00090683315708850866 0.0089316277974843053 0 -0.00087522326640629791 0.0089471160132513824 0 -0.00090914289085145515 0.0088940618092050658 0 -0.00090683315708850866 0.0089316277974843053 0 -0.00083036783616372673 0.008939774316224525 0 -0.00090683315708850866 0.0089316277974843053 0 -0.00089609922727280141 0.0089115765974465914 0 -0.00078068808802277394 0.012105346804427132 0 -0.00058274381586766351 0.012063726411048064 0 -0.00076459375561965597 0.011957047717649914 0 -0.00078068808802277394 0.012105346804427132 0 -0.00085032174334870791 0.012325622718921172 0 -0.00065995707653408731 0.012189544355747796 0 -0.00078068808802277394 0.012105346804427132 0 -0.00058274381586766351 0.012063726411048064 0 -0.00065995707653408731 0.012189544355747796 0 -0.00053282971986368577 0.012146336052018352 0 -0.00058274381586766351 0.012063726411048064 0 -0.00065995707653408731 0.012189544355747796 0 -0.00053282971986368577 0.012146336052018352 0 -0.00082929551470562921 0.01149296155014454 0 -0.00038883292221054608 0.011717032332626479 0 -0.00056108151605070006 0.012119485312867188 0 -0.00069864435456776827 0.011771384341481615 0 -0.00026304891438429722 0.012021049606313634 0 -0.00053282971986368577 0.012146336052018352 0 -0.00038883292221054608 0.011717032332626479 0 -0.00026304891438429722 0.012021049606313634 0 -0.00038883292221054608 0.011717032332626479 0 -0.00011889638500306482 0.011729840169901981 0 -2.2370661113533297e-05 0.012035409169509183 0 0.00010284493578594023 0.011681606639960243 0 -0.00011889638500306482 0.011729840169901981 0 0.00010284493578594023 0.011681606639960243 0 -0.00011889638500306482 0.011729840169901981 0 -1.7001101361717019e-05 0.011479698873508793 0 0.00010468065860654402 0.011328810268227003 0 -0.00020384878910976794 0.011317449464145236 0 -1.7001101361717019e-05 0.011479698873508793 0 -0.00011889638500306482 0.011729840169901981 0 -0.00020384878910976794 0.011317449464145236 0 -1.7001101361717019e-05 0.011479698873508793 0 -0.00019153787338292268 0.010629094570587564 0 -2.3969624566296024e-05 0.01135934920723284 0 -0.00082929551470562921 0.01149296155014454 0 -0.00020384878910976794 0.011317449464145236 0 -0.00046401020613809574 0.010749681281483172 0 -0.00082929551470562921 0.01149296155014454 0 -0.00038883292221054608 0.011717032332626479 0 -0.00020384878910976794 0.011317449464145236 0 -0.00038883292221054608 0.011717032332626479 0 -0.00011889638500306482 0.011729840169901981 0 -0.00020384878910976794 0.011317449464145236 0 -0.00019153787338292268 0.010629094570587564 0 -0.00026821469405593541 0.0096781210785796459 0 0.00042974338297521465 0.01122551216781428 0 -0.00020384878910976794 0.011317449464145236 0 0.00011755727003356764 0.01057062550513449 0 -0.00020384878910976794 0.011317449464145236 0 -0.00046401020613809574 0.010749681281483172 0 0.00011755727003356764 0.01057062550513449 0 -0.00026821469405593541 0.0096781210785796459 0 -0.00040153114409391475 0.0095196014875049591 0 -0.00061063685418509517 0.0089837164356359085 0 -0.00057744941643556784 0.0091034826198794494 0 -0.00066785516338182702 0.0090501890417135078 0 -0.00046401020613809574 0.010749681281483172 0 0.00011755727003356764 0.01057062550513449 0 -0.00021622628404423616 0.0099001668027829965 0 -0.00046401020613809574 0.010749681281483172 0 -0.0007198245881050114 0.010126290864802719 0 -0.00021622628404423616 0.0099001668027829965 0 -0.001038896206978428 0.010743817879045981 0 -0.0007198245881050114 0.010126290864802719 0 -0.0011926509729830834 0.0099359110971834856 0 -0.00082881367154301311 0.011316094358728138 0 -0.00093610739685296199 0.010754709725820724 0 -0.00046401020613809574 0.010749681281483172 0 -0.001038896206978428 0.010743817879045981 0 -0.0007198245881050114 0.010126290864802719 0 -0.00058274381586766351 0.012063726411048064 0 -0.0006259899333501659 0.011873379655327596 0 -0.00076459375561965597 0.011957047717649914 0 -0.00069864435456776827 0.011771384341481615 0 -0.00082881367154301311 0.011316094358728138 0 -0.00082929551470562921 0.01149296155014454 0 -0.00046401020613809574 0.010749681281483172 0 -0.001038896206978428 0.010743817879045981 0 -0.0006259899333501659 0.011873379655327596 0 -0.00076459375561965597 0.011957047717649914 0 -0.00079574828930528111 0.011804568449881651 0 -0.0006259899333501659 0.011873379655327596 0 -0.00079574828930528111 0.011804568449881651 0 -0.00071534591232210354 0.011758373254055154 0 -0.0006259899333501659 0.011873379655327596 0 -0.00071534591232210354 0.011758373254055154 0 -0.00066796639743815778 0.011673542954057294 0 -0.00079574828930528111 0.011804568449881651 0 -0.00071534591232210354 0.011758373254055154 0 -0.00077101680464766059 0.011682911339007073 0 -0.00071534591232210354 0.011758373254055154 0 -0.00077101680464766059 0.011682911339007073 0 -0.00066796639743815778 0.011673542954057294 0 -0.00077101680464766059 0.011682911339007073 0 -0.00070660185350898208 0.011600594592776401 0 -0.00066796639743815778 0.011673542954057294 0 -0.00077101680464766059 0.011682911339007073 0 -0.00070660185350898208 0.011600594592776401 0 -0.0008193807694494025 0.011605108242857548 0 -0.00091105455722202005 0.010611638898882104 0 -0.00093610739685296199 0.010754709725820724 0 -0.00070660185350898208 0.011600594592776401 0 -0.00082799059195609169 0.011551583186060159 0 -0.00085419800181522605 0.011484911082005831 0 -0.00091105455722202005 0.010611638898882104 0 -0.00059590837069033089 0.01214029191707664 0 -0.00070660185350898208 0.011600594592776401 0 -0.00070426104143626032 0.011471905219075667 0 -0.00085589111182470955 0.011467929115521627 0 -0.00070660185350898208 0.011600594592776401 0 -0.00070426104143626032 0.011471905219075667 0 -0.00066796639743815778 0.011673542954057294 0 -0.00070660185350898208 0.011600594592776401 0 -0.0008193807694494025 0.011605108242857548 0 -0.00082799059195609169 0.011551583186060159 0 -0.00086769831816010121 0.011373032054600891 0 -0.00059590837069033089 0.01214029191707664 0 -0.00091105455722202005 0.010611638898882104 0 -0.0010941856769865325 0.010175030317866081 0 -0.0012372118920327591 0.0092474245996605458 0 -0.00088623481460871085 0.0095896590114408539 0 -0.0011926509729830834 0.0099359110971834856 0 -0.00084218461762259776 0.0092497958740702085 0 -0.00088623481460871085 0.0095896590114408539 0 -0.00062332177434071148 0.0092379052770063756 0 -0.00084218461762259776 0.0092497958740702085 0 -0.0010641029732174636 0.0092551034590795979 0 -0.00088623481460871085 0.0095896590114408539 0 -0.0012372118920327591 0.0092474245996605458 0 -0.0010641029732174636 0.0092551034590795979 0 -0.00088623481460871085 0.0095896590114408539 0 -0.00088623481460871085 0.0095896590114408539 0 -0.0007198245881050114 0.010126290864802719 0 -0.0011926509729830834 0.0099359110971834856 0 -0.00088623481460871085 0.0095896590114408539 0 -0.0007198245881050114 0.010126290864802719 0 -0.00021622628404423616 0.0099001668027829965 0 -0.00057744941643556784 0.0091034826198794494 0 -0.00066785516338182702 0.0090501890417135078 0 -0.00063550961649968759 0.0091398918822410136 0 -0.0005938409461339753 0.0091716489767556739 0 -0.00051840091384862191 0.0091009065253350244 0 -0.00063550961649968759 0.0091398918822410136 0 -0.00057744941643556784 0.0091034826198794494 0 -0.0005938409461339753 0.0091716489767556739 0 -0.00063550961649968759 0.0091398918822410136 0 -0.00088623481460871085 0.0095896590114408539 0 -0.00021622628404423616 0.0099001668027829965 0 -0.00062332177434071148 0.0092379052770063756 0 -0.00057744941643556784 0.0091034826198794494 0 -0.0005938409461339753 0.0091716489767556739 0 -0.00062332177434071148 0.0092379052770063756 0 -0.00040153114409391475 0.0095196014875049591 0 -0.00059652591086711479 0.0092425526862708381 0 -0.00062332177434071148 0.0092379052770063756 0 -0.00061329288361473616 0.0090829519925320849 0 -0.00083875361636878297 0.0090986089893669748 0 -0.00061329288361473616 0.0090829519925320849 0 -0.0007555107802474768 0.0089295163500000135 0 -0.00083875361636878297 0.0090986089893669748 0 -0.0005938409461339753 0.0091716489767556739 0 -0.00062332177434071148 0.0092379052770063756 0 -0.00061329288361473616 0.0090829519925320849 0 -0.00057024238008349971 0.0092354808172463096 0 -0.00063346989112574254 0.0090851557304765466 0 -0.0005938409461339753 0.0091716489767556739 0 -0.00061329288361473616 0.0090829519925320849 0 -0.00051840091384862191 0.0091009065253350244 0 -0.00061329288361473616 0.0090829519925320849 0 -0.00051840091384862191 0.0091009065253350244 0 -0.00049533438545069604 0.0088613887785040073 0 -0.00057024238008349971 0.0092354808172463096 0 -0.0009601155343706405 0.0084265853808509778 0 -0.00061329288361473616 0.0090829519925320849 0 -0.00049533438545069604 0.0088613887785040073 0 -0.0007555107802474768 0.0089295163500000135 0 -0.00049533438545069604 0.0088613887785040073 0 -0.0007555107802474768 0.0089295163500000135 0 -0.00081787637825922108 0.0086195076724875919 0 -0.0007555107802474768 0.0089295163500000135 0 -0.00095789278495160351 0.0088336482543403885 0 -0.00081787637825922108 0.0086195076724875919 0 -0.0007555107802474768 0.0089295163500000135 0 -0.00088440995590650549 0.0089678985865375462 0 -0.00083875361636878297 0.0090986089893669748 0 -0.0007555107802474768 0.0089295163500000135 0 -0.00088440995590650549 0.0089678985865375462 0 -0.00095789278495160351 0.0088336482543403885 0 -0.00095789278495160351 0.0088336482543403885 0 -0.0012030059912621616 0.0088514616560481721 0 -0.00099172527220166523 0.0090081913637236749 0 -0.00088440995590650549 0.0089678985865375462 0 -0.00095789278495160351 0.0088336482543403885 0 -0.00099172527220166523 0.0090081913637236749 0 -0.0012030059912621616 0.0088514616560481721 0 -0.0010665340714515238 0.0091063211076359216 0 -0.00099172527220166523 0.0090081913637236749 0 -0.0011315198971083411 0.0092528374392665119 0 -0.0012030059912621616 0.0088514616560481721 0 -0.0010665340714515238 0.0091063211076359216 0 -0.00091105455722202005 0.010611638898882104 0 -0.00086535405693591771 0.010520798819788048 0 -0.00058520519621204151 0.012033227686216855 0 -0.00054344413267347488 0.012193942771948813 0 -0.00052630548695011177 0.012067985674356142 0 -0.00058520519621204151 0.012033227686216855 0 -0.00052630548695011177 0.012067985674356142 0 -0.00046966130759059017 0.012046379230064892 0 -0.00054344413267347488 0.012193942771948813 0 -0.00052630548695011177 0.012067985674356142 0 -0.00049580418348742878 0.012112122651567827 0 -0.0011315198971083411 0.0092528374392665119 0 -0.0010641029732174636 0.0092551034590795979 0 -0.0010665340714515238 0.0091063211076359216 0 -0.00084218461762259776 0.0092497958740702085 0 -0.0010641029732174636 0.0092551034590795979 0 -0.00096100043146231243 0.009159673741047477 0 -0.0010641029732174636 0.0092551034590795979 0 -0.00096100043146231243 0.009159673741047477 0 -0.0010665340714515238 0.0091063211076359216 0 -0.00084218461762259776 0.0092497958740702085 0 -0.00096100043146231243 0.009159673741047477 0 -0.00083875361636878297 0.0090986089893669748 0 -0.00084218461762259776 0.0092497958740702085 0 -0.00062332177434071148 0.0092379052770063756 0 -0.00083875361636878297 0.0090986089893669748 0 -0.00088440995590650549 0.0089678985865375462 0 -0.00083875361636878297 0.0090986089893669748 0 -0.00099172527220166523 0.0090081913637236749 0 -0.00096100043146231243 0.009159673741047477 0 -0.00083875361636878297 0.0090986089893669748 0 -0.00099172527220166523 0.0090081913637236749 0 -0.00096100043146231243 0.009159673741047477 0 -0.0010665340714515238 0.0091063211076359216 0 -0.00099172527220166523 0.0090081913637236749 0 -0.00089431950762389558 0.0090554662441490325 0 -0.00082377204493058504 0.0091143684206089082 0 -0.00085418281267842834 0.0091435125452497407 0 -0.001016989041641804 0.0087103219063859889 0 -0.0010035389288879585 0.0088074279968962457 0 -0.0011251215208901756 0.008479331934639624 0 -0.00097813494862605561 0.0079129213873945434 0 -0.0012979438469564537 0.0079825458840424111 0 -0.00092567147915668772 0.0089015067739545897 0 -0.001016989041641804 0.0087103219063859889 0 -0.00090914289085145515 0.0088940618092050658 0 -0.0011251215208901756 0.008479331934639624 0 -0.00084197799984251102 0.0086301356461750602 0 -0.00087522326640629791 0.0089471160132513824 0 -0.00089431950762389558 0.0090554662441490325 0 -0.00083075373928820882 0.0089899240741613973 0 -0.00087522326640629791 0.0089471160132513824 0 -0.00090914289085145515 0.0088940618092050658 0 -0.00089431950762389558 0.0090554662441490325 0 -0.00089431950762389558 0.0090554662441490325 0 -0.00083075373928820882 0.0089899240741613973 0 -0.00079698534019596694 0.0090658984451508998 0 -0.00075935767578718294 0.0090130455644982111 0 -0.00083075373928820882 0.0089899240741613973 0 -0.00079698534019596694 0.0090658984451508998 0 -0.00089431950762389558 0.0090554662441490325 0 -0.00079698534019596694 0.0090658984451508998 0 -0.00082377204493058504 0.0091143684206089082 0 -0.00079698534019596694 0.0090658984451508998 0 -0.00082377204493058504 0.0091143684206089082 0 -0.00076473493182966951 0.0091302603400645384 0 -0.00082377204493058504 0.0091143684206089082 0 -0.00076473493182966951 0.0091302603400645384 0 -0.00081567499487417063 0.0091589626727999994 0 -0.00079698534019596694 0.0090658984451508998 0 -0.00071501727572610208 0.0090962126202594196 0 -0.00076473493182966951 0.0091302603400645384 0 -0.00071501727572610208 0.0090962126202594196 0 -0.00076473493182966951 0.0091302603400645384 0 -0.00068700808468601289 0.0091577955079453228 0 -0.00075935767578718294 0.0090130455644982111 0 -0.00071501727572610208 0.0090962126202594196 0 -0.00066785516338182702 0.0090501890417135078 0 -0.00075935767578718294 0.0090130455644982111 0 -0.00079698534019596694 0.0090658984451508998 0 -0.00071501727572610208 0.0090962126202594196 0 -0.00071501727572610208 0.0090962126202594196 0 -0.00066785516338182702 0.0090501890417135078 0 -0.00063550961649968759 0.0091398918822410136 0 -0.00071501727572610208 0.0090962126202594196 0 -0.00063550961649968759 0.0091398918822410136 0 -0.00068700808468601289 0.0091577955079453228 0 -0.00067209626954234597 0.0091595588197919478 0 -0.00063550961649968759 0.0091398918822410136 0 -0.00068700808468601289 0.0091577955079453228 0 -0.00067209626954234597 0.0091595588197919478 0 -0.00068700808468601289 0.0091577955079453228 0 -0.00068310517722806646 0.0091568439791968725 0 -0.0013658938362027654 0.0073421269551285084 0 -0.0013994560862482192 0.0073317732381417335 0 -0.0014047025517059909 0.0073551092072886449 0 -0.00067209626954234597 0.0091595588197919478 0 -0.00068228723965043563 0.0091489671794091725 0 -0.00068310517722806646 0.0091568439791968725 0 -0.0013994560862482192 0.0073317732381417335 0 -0.0014168786158479526 0.0073417966191846162 0 -0.0014047025517059909 0.0073551092072886449 0 -0.0009601155343706405 0.0084265853808509778 0 -0.0011095193005039687 0.0081948350160139932 0 -0.0013994560862482192 0.0073317732381417335 0 -0.0014165374728064516 0.0073332138201169014 0 -0.0014168786158479526 0.0073417966191846162 0 -0.0013994560862482192 0.0073317732381417335 0 -0.0014165374728064516 0.0073332138201169014 0 -0.001422826668794841 0.0073253240208591046 0 -0.0011095193005039687 0.0081948350160139932 0 -0.00097451981608388935 0.0088135869428576027 0 -0.0014168786158479526 0.0073417966191846162 0 -0.0014263540148879974 0.0073348576398795089 0 -0.0014320533536520048 0.00734068108604708 0 -0.0014165374728064516 0.0073332138201169014 0 -0.0014168786158479526 0.0073417966191846162 0 -0.0014263540148879974 0.0073348576398795089 0 -0.0014263540148879974 0.0073348576398795089 0 -0.001422826668794841 0.0073253240208591046 0 -0.0014350604673300496 0.0073333291863457136 0 -0.0014165374728064516 0.0073332138201169014 0 -0.0014263540148879974 0.0073348576398795089 0 -0.001422826668794841 0.0073253240208591046 0 -0.00068700808468601289 0.0091577955079453228 0 -0.00068310517722806646 0.0091568439791968725 0 -0.00069139054567043685 0.0091548808093047575 0 -0.00076473493182966951 0.0091302603400645384 0 -0.00068700808468601289 0.0091577955079453228 0 -0.00076645972776653013 0.009192000032038539 0 -0.0006909125204779045 0.0091499535244830166 0 -0.00097451981608388935 0.0088135869428576027 0 -0.00076473493182966951 0.0091302603400645384 0 -0.00076645972776653013 0.009192000032038539 0 -0.00081567499487417063 0.0091589626727999994 0 -0.00081567499487417063 0.0091589626727999994 0 -0.00083110790244672486 0.0091651619800642604 0 -0.00085418281267842834 0.0091435125452497407 0 -0.00081121154613651312 0.0091587235777182783 0 -0.00081567499487417063 0.0091589626727999994 0 -0.00083110790244672486 0.0091651619800642604 0 -0.0015935585938300799 0.0070428540170497256 0 -0.0010035389288879585 0.0088074279968962457 0 -0.00082377204493058504 0.0091143684206089082 0 -0.00081567499487417063 0.0091589626727999994 0 -0.00085418281267842834 0.0091435125452497407 0 -0.00097451981608388935 0.0088135869428576027 0 -0.00073595366650070469 0.0090985594343307788 0 -0.00097451981608388935 0.0088135869428576027 0 -0.0015935585938300799 0.0070428540170497256 0 -0.001422826668794841 0.0073253240208591046 0 -0.0014350604673300496 0.0073333291863457136 0 -0.0014476021355068851 0.0073305619462362753 0 -0.0013938044447416619 0.0073835951304920579 0 -0.0014531731594776636 0.0074214896827524092 0 -0.0012979438469564537 0.0079825458840424111 0 -0.0014263540148879974 0.0073348576398795089 0 -0.0014350604673300496 0.0073333291863457136 0 -0.0014320533536520048 0.00734068108604708 0 -0.0014350604673300496 0.0073333291863457136 0 -0.0014320533536520048 0.00734068108604708 0 -0.0014462403709154337 0.0073360964003866425 0 -0.0014350604673300496 0.0073333291863457136 0 -0.0014462403709154337 0.0073360964003866425 0 -0.0014476021355068851 0.0073305619462362753 0 -0.0015586913042694814 0.0060178034328226522 0 -0.0015464090501579623 0.0060341893761645749 0 -0.0015539316971146821 0.0060396747146414633 0 -0.0018781912821347218 0.0059618754209244213 0 -0.0015935585938300799 0.0070428540170497256 0 -0.0018781912821347218 0.0059618754209244213 0 -0.0019774506987944428 0.0057233592566498445 0 -0.0019774506987944428 0.0057233592566498445 0 -0.0015935585938300799 0.0070428540170497256 0 -0.0019774506987944428 0.0057233592566498445 0 -0.0027133326737010066 0.0034198574093594557 0 -0.0032166293536740583 0.0042194830714622957 0 -0.0029423384852495836 0.0045574736751146459 0 -0.0027820763068585508 0.0042310631416075852 0 -0.0019774506987944428 0.0057233592566498445 0 -0.002006193125575817 0.0062281720558082588 0 -0.0013938044447416619 0.0073835951304920579 0 -0.00097813494862605561 0.0079129213873945434 0 -0.0012979438469564537 0.0079825458840424111 0 -0.0025265596169834086 0.0033098253731339892 0 -0.0025298082082189323 0.0034325822499099963 0 -0.0026241832869529236 0.0033594082913738638 0 -0.0025265596169834086 0.0033098253731339892 0 -0.0025298082082189323 0.0034325822499099963 0 -0.0024395704369117189 0.0033387123554983926 0 -0.0025925878566163624 0.0035600786548007726 0 -0.0025666569535839922 0.0035906935029397652 0 -0.0025298082082189323 0.0034325822499099963 0 -0.0025666569535839922 0.0035906935029397652 0 -0.0025298082082189323 0.0034325822499099963 0 -0.0024233764467806547 0.0034599574192888728 0 -0.0018781912821347218 0.0059618754209244213 0 -0.0021611225780264949 0.0051785924063076699 0 -0.0017263452532038548 0.0069373568595330311 0 -0.0015930955395155554 0.0073269524024380103 0 -0.0015366973085389739 0.0071582538780856284 0 -0.0025925878566163624 0.0035600786548007726 0 -0.0025298082082189323 0.0034325822499099963 0 -0.0026241832869529236 0.0033594082913738638 0 -0.0018781912821347218 0.0059618754209244213 0 -0.0013667633486682666 0.0074275949540590176 0 -0.0014320533536520048 0.00734068108604708 0 -0.0014462403709154337 0.0073360964003866425 0 -0.0014315222519021443 0.0073582152546744608 0 -0.0015930955395155554 0.0073269524024380103 0 -0.0014326403754440131 0.0073731022640741621 0 -0.0015366973085389739 0.0071582538780856284 0 -0.0014810999696024413 0.0072977690019509524 0 -0.0013667633486682666 0.0074275949540590176 0 -0.0014168786158479526 0.0073417966191846162 0 -0.0014315222519021443 0.0073582152546744608 0 -0.0014047025517059909 0.0073551092072886449 0 -0.0014326403754440131 0.0073731022640741621 0 -0.0014315222519021443 0.0073582152546744608 0 -0.0014047025517059909 0.0073551092072886449 0 -0.0014168786158479526 0.0073417966191846162 0 -0.0014320533536520048 0.00734068108604708 0 -0.0014315222519021443 0.0073582152546744608 0 -0.0013658938362027654 0.0073421269551285084 0 -0.0014047025517059909 0.0073551092072886449 0 -0.0013775319571394705 0.0073620070848970515 0 -0.0014047025517059909 0.0073551092072886449 0 -0.0013775319571394705 0.0073620070848970515 0 -0.0013908905817369298 0.0073754701225742011 0 -0.0014326403754440131 0.0073731022640741621 0 -0.0014047025517059909 0.0073551092072886449 0 -0.0013908905817369298 0.0073754701225742011 0 -0.0013908905817369298 0.0073754701225742011 0 -0.0013857222197876081 0.0074188040626792535 0 -0.0013449455004058584 0.0073788598218250618 0 -0.0014326403754440131 0.0073731022640741621 0 -0.0013908905817369298 0.0073754701225742011 0 -0.0013857222197876081 0.0074188040626792535 0 -0.0013857222197876081 0.0074188040626792535 0 -0.0014128234997081684 0.0074657322816142208 0 -0.0013714915032117339 0.0074902998734677493 0 -0.0014326403754440131 0.0073731022640741621 0 -0.0013857222197876081 0.0074188040626792535 0 -0.0014128234997081684 0.0074657322816142208 0 -0.0014128234997081684 0.0074657322816142208 0 -0.0013976531953621709 0.0075386604491351882 0 -0.0013714915032117339 0.0074902998734677493 0 -0.0013976531953621709 0.0075386604491351882 0 -0.0013714915032117339 0.0074902998734677493 0 -0.0013574363534843363 0.0075612728573401095 0 -0.0013976531953621709 0.0075386604491351882 0 -0.0014897488345902274 0.0075103427619724874 0 -0.0014203842181718144 0.0075676958031962501 0 -0.0014128234997081684 0.0074657322816142208 0 -0.0013976531953621709 0.0075386604491351882 0 -0.0014897488345902274 0.0075103427619724874 0 -0.0014326403754440131 0.0073731022640741621 0 -0.0014128234997081684 0.0074657322816142208 0 -0.0014897488345902274 0.0075103427619724874 0 -0.0015930955395155554 0.0073269524024380103 0 -0.0014326403754440131 0.0073731022640741621 0 -0.0014897488345902274 0.0075103427619724874 0 -0.0025265596169834086 0.0033098253731339892 0 -0.0026241832869529236 0.0033594082913738638 0 -0.0025458970715257758 0.0032009427634992018 0 -0.0021611225780264949 0.0051785924063076699 0 -0.0020335900564911313 0.0053825631953306318 0 -0.0026241832869529236 0.0033594082913738638 0 -0.0025994797149399024 0.0031913701686936821 0 -0.0025458970715257758 0.0032009427634992018 0 -0.0025994797149399024 0.0031913701686936821 0 -0.0025458970715257758 0.0032009427634992018 0 -0.0025343311456005185 0.0031012076983601314 0 -0.0025458970715257758 0.0032009427634992018 0 -0.0024767679549316545 0.0032316572806472391 0 -0.0024547882191787453 0.003090805725071913 0 -0.0025458970715257758 0.0032009427634992018 0 -0.0024547882191787453 0.003090805725071913 0 -0.0025343311456005185 0.0031012076983601314 0 -0.0025265596169834086 0.0033098253731339892 0 -0.0025458970715257758 0.0032009427634992018 0 -0.0024767679549316545 0.0032316572806472391 0 -0.0025265596169834086 0.0033098253731339892 0 -0.0024767679549316545 0.0032316572806472391 0 -0.0024395704369117189 0.0033387123554983926 0 -0.0012411116957102158 0.008297376028726931 0 -0.0012395863779476495 0.0083203012802949075 0 -0.0012338112471649838 0.0082746030609983281 0 -0.0012649057379422017 0.0083361542622024387 0 -0.00099576943067401997 0.0085069508407132465 0 -0.0012477906359658058 0.0083211350953137989 0 -0.0012541089756135421 0.0083461710761544433 0 -0.0012395863779476495 0.0083203012802949075 0 -0.0012411116957102158 0.008297376028726931 0 -0.0012477906359658058 0.0083211350953137989 0 -0.0012395863779476495 0.0083203012802949075 0 -0.0012411116957102158 0.008297376028726931 0 -0.0012418286651847666 0.0082898586514893319 0 -0.0012379514367097508 0.0082751757001902747 0 -0.0012411116957102158 0.008297376028726931 0 -0.0012338112471649838 0.0082746030609983281 0 -0.0012379514367097508 0.0082751757001902747 0 -0.0012411116957102158 0.008297376028726931 0 -0.0012446949917218797 0.0083029349032161838 0 -0.0012477906359658058 0.0083211350953137989 0 -0.0012411116957102158 0.008297376028726931 0 -0.0012446949917218797 0.0083029349032161838 0 -0.0012418286651847666 0.0082898586514893319 0 -0.0012446949917218797 0.0083029349032161838 0 -0.0012485472253785609 0.0083099844086357271 0 -0.001244989363850422 0.0082964378437232408 0 -0.0012446949917218797 0.0083029349032161838 0 -0.0012477906359658058 0.0083211350953137989 0 -0.0012485472253785609 0.0083099844086357271 0 -0.0012485472253785609 0.0083099844086357271 0 -0.0012518636314336113 0.0083228974120309572 0 -0.0012544434202186583 0.008314159873020914 0 -0.0012477906359658058 0.0083211350953137989 0 -0.0012525861971163456 0.008330455263826364 0 -0.0012541089756135421 0.0083461710761544433 0 -0.0012477906359658058 0.0083211350953137989 0 -0.0012485472253785609 0.0083099844086357271 0 -0.0012518636314336113 0.0083228974120309572 0 -0.0012518636314336113 0.0083228974120309572 0 -0.0012525861971163456 0.008330455263826364 0 -0.0012591750672735515 0.0083290710010220526 0 -0.0012518636314336113 0.0083228974120309572 0 -0.0012591750672735515 0.0083290710010220526 0 -0.0012544434202186583 0.008314159873020914 0 -0.0012477906359658058 0.0083211350953137989 0 -0.0012518636314336113 0.0083228974120309572 0 -0.0012525861971163456 0.008330455263826364 0 -0.0012591750672735515 0.0083290710010220526 0 -0.0012891817319378074 0.0083525184805200298 0 -0.0012634146645867917 0.0083054829932864942 0 -0.0012591750672735515 0.0083290710010220526 0 -0.0012541089756135421 0.0083461710761544433 0 -0.0012891817319378074 0.0083525184805200298 0 -0.0012525861971163456 0.008330455263826364 0 -0.0012591750672735515 0.0083290710010220526 0 -0.0012541089756135421 0.0083461710761544433 0 -0.0012541089756135421 0.0083461710761544433 0 -0.0012891817319378074 0.0083525184805200298 0 -0.0011028786560985499 0.0086007353630647102 0 -0.0012030059912621616 0.0088514616560481721 0 -0.0012891817319378074 0.0083525184805200298 0 -0.0011028786560985499 0.0086007353630647102 0 -0.00054344413267347488 0.012193942771948813 0 -0.00050326936082431984 0.012301969132500274 0 -0.00048551332356545679 0.012264281757833779 0 -0.00086535405693591771 0.010520798819788048 0 -0.00090264355479909345 0.010358432597125836 0 -0.00095789278495160351 0.0088336482543403885 0 -0.0012030059912621616 0.0088514616560481721 0 -0.0011028786560985499 0.0086007353630647102 0 -0.0012541089756135421 0.0083461710761544433 0 -0.0011028786560985499 0.0086007353630647102 0 -0.00081787637825922108 0.0086195076724875919 0 -0.00095789278495160351 0.0088336482543403885 0 -0.0011028786560985499 0.0086007353630647102 0 -0.00081787637825922108 0.0086195076724875919 0 -0.0009601155343706405 0.0084265853808509778 0 -0.00099576943067401997 0.0085069508407132465 0 -0.0013658938362027654 0.0073421269551285084 0 -0.0013775319571394705 0.0073620070848970515 0 -0.0013449455004058584 0.0073788598218250618 0 -0.0009601155343706405 0.0084265853808509778 0 -0.0012779798817648836 0.0077267544188842361 0 -0.0011400563047852161 0.0083800702984891985 0 -0.0012395863779476495 0.0083203012802949075 0 -0.0011545658463292788 0.0083074022157662835 0 -0.0013775319571394705 0.0073620070848970515 0 -0.0013908905817369298 0.0073754701225742011 0 -0.0013449455004058584 0.0073788598218250618 0 -0.0012779798817648836 0.0077267544188842361 0 -0.0012381048537280957 0.007820589623181981 0 -0.0013449455004058584 0.0073788598218250618 0 -0.0013519335366202056 0.0074358172906821536 0 -0.0013108310359289104 0.0074688210175954187 0 -0.0011545658463292788 0.0083074022157662835 0 -0.0012158031525674139 0.0082592678685188114 0 -0.0012050149932519316 0.0081845335070903739 0 -0.0011545658463292788 0.0083074022157662835 0 -0.0012050149932519316 0.0081845335070903739 0 -0.0011468450720216294 0.0081373461279990681 0 -0.0013857222197876081 0.0074188040626792535 0 -0.0013449455004058584 0.0073788598218250618 0 -0.0013519335366202056 0.0074358172906821536 0 -0.0012395863779476495 0.0083203012802949075 0 -0.0011545658463292788 0.0083074022157662835 0 -0.0012158031525674139 0.0082592678685188114 0 -0.0012395863779476495 0.0083203012802949075 0 -0.0012158031525674139 0.0082592678685188114 0 -0.0012338112471649838 0.0082746030609983281 0 -0.0012158031525674139 0.0082592678685188114 0 -0.0012338112471649838 0.0082746030609983281 0 -0.0012275317759409866 0.0082394134544296893 0 -0.0012275317759409866 0.0082394134544296893 0 -0.0012050149932519316 0.0081845335070903739 0 -0.0012374689262316049 0.0082662560573113063 0 -0.0012338112471649838 0.0082746030609983281 0 -0.0012339988486838667 0.0082588118127255011 0 -0.0012275317759409866 0.0082394134544296893 0 -0.0012339988486838667 0.0082588118127255011 0 -0.0012275317759409866 0.0082394134544296893 0 -0.0012374689262316049 0.0082662560573113063 0 -0.0012158031525674139 0.0082592678685188114 0 -0.0012275317759409866 0.0082394134544296893 0 -0.0012050149932519316 0.0081845335070903739 0 -0.0012223445047658138 0.0081859763812930364 0 -0.0013712740856850218 0.0081316474480907196 0 -0.0012050149932519316 0.0081845335070903739 0 -0.0013606743308321311 0.00797401173373323 0 -0.0015278510499266268 0.0079823986881445829 0 -0.0012050149932519316 0.0081845335070903739 0 -0.0012478586693595172 0.0080641959915904882 0 -0.0013606743308321311 0.00797401173373323 0 -0.0012478586693595172 0.0080641959915904882 0 -0.0013038136836398383 0.0079308685841799897 0 -0.0011468450720216294 0.0081373461279990681 0 -0.0012478586693595172 0.0080641959915904882 0 -0.0013038136836398383 0.0079308685841799897 0 -0.0013606743308321311 0.00797401173373323 0 -0.0013038136836398383 0.0079308685841799897 0 -0.0013606743308321311 0.00797401173373323 0 -0.0013899287612066781 0.0078198251623059749 0 -0.0013606743308321311 0.00797401173373323 0 -0.0015278510499266268 0.0079823986881445829 0 -0.0014785398436209043 0.0078522855655777813 0 -0.0013519335366202056 0.0074358172906821536 0 -0.0013108310359289104 0.0074688210175954187 0 -0.0013714915032117339 0.0074902998734677493 0 -0.0013857222197876081 0.0074188040626792535 0 -0.0013519335366202056 0.0074358172906821536 0 -0.0013714915032117339 0.0074902998734677493 0 -0.0012050149932519316 0.0081845335070903739 0 -0.0012478586693595172 0.0080641959915904882 0 -0.0011468450720216294 0.0081373461279990681 0 -0.0013108310359289104 0.0074688210175954187 0 -0.0013714915032117339 0.0074902998734677493 0 -0.0013574363534843363 0.0075612728573401095 0 -0.0012381048537280957 0.007820589623181981 0 -0.0013030036212533264 0.0076446952544231015 0 -0.0013574363534843363 0.0075612728573401095 0 -0.0013223844808169377 0.0076358267604748169 0 -0.0013687372573050339 0.0075912219680311591 0 -0.0013108310359289104 0.0074688210175954187 0 -0.0013574363534843363 0.0075612728573401095 0 -0.0013223844808169377 0.0076358267604748169 0 -0.0013976531953621709 0.0075386604491351882 0 -0.0013574363534843363 0.0075612728573401095 0 -0.0013687372573050339 0.0075912219680311591 0 -0.0013038136836398383 0.0079308685841799897 0 -0.0011468450720216294 0.0081373461279990681 0 -0.0013223844808169377 0.0076358267604748169 0 -0.0013223844808169377 0.0076358267604748169 0 -0.00145716317036873 0.007741782379041634 0 -0.0014766535527780675 0.0076703990532619995 0 -0.0014785398436209043 0.0078522855655777813 0 -0.0013899287612066781 0.0078198251623059749 0 -0.00145716317036873 0.007741782379041634 0 -0.0013606743308321311 0.00797401173373323 0 -0.0014785398436209043 0.0078522855655777813 0 -0.0013899287612066781 0.0078198251623059749 0 -0.0013038136836398383 0.0079308685841799897 0 -0.0013899287612066781 0.0078198251623059749 0 -0.0013223844808169377 0.0076358267604748169 0 -0.0013899287612066781 0.0078198251623059749 0 -0.0013223844808169377 0.0076358267604748169 0 -0.00145716317036873 0.007741782379041634 0 -0.00145716317036873 0.007741782379041634 0 -0.0015830954710996021 0.0078059536276441953 0 -0.0014766535527780675 0.0076703990532619995 0 -0.0015442313219919521 0.007856942896375313 0 -0.0016467037183344455 0.0081681726251365584 0 -0.0014785398436209043 0.0078522855655777813 0 -0.00145716317036873 0.007741782379041634 0 -0.0015830954710996021 0.0078059536276441953 0 -0.0012374689262316049 0.0082662560573113063 0 -0.0012445692202169853 0.0082809959600764517 0 -0.0012413652844344264 0.0082799231392366203 0 -0.0013712740856850218 0.0081316474480907196 0 -0.0016467037183344455 0.0081681726251365584 0 -0.0012374689262316049 0.0082662560573113063 0 -0.0012413652844344264 0.0082799231392366203 0 -0.0012373169895044814 0.0082699845649102325 0 -0.0015278510499266268 0.0079823986881445829 0 -0.0014785398436209043 0.0078522855655777813 0 -0.0018721764115643136 0.0078150995595616841 0 -0.0012339988486838667 0.0082588118127255011 0 -0.0012374689262316049 0.0082662560573113063 0 -0.0012373169895044814 0.0082699845649102325 0 -0.0012445692202169853 0.0082809959600764517 0 -0.0012413652844344264 0.0082799231392366203 0 -0.0012489012922723868 0.0082965936111178019 0 -0.0012413652844344264 0.0082799231392366203 0 -0.001244989363850422 0.0082964378437232408 0 -0.0012418286651847666 0.0082898586514893319 0 -0.0012413652844344264 0.0082799231392366203 0 -0.001244989363850422 0.0082964378437232408 0 -0.0012489012922723868 0.0082965936111178019 0 -0.0012485472253785609 0.0083099844086357271 0 -0.001244989363850422 0.0082964378437232408 0 -0.0012489012922723868 0.0082965936111178019 0 -0.0012446949917218797 0.0083029349032161838 0 -0.001244989363850422 0.0082964378437232408 0 -0.0012418286651847666 0.0082898586514893319 0 -0.0012413652844344264 0.0082799231392366203 0 -0.0012418286651847666 0.0082898586514893319 0 -0.0012379514367097508 0.0082751757001902747 0 -0.0012338112471649838 0.0082746030609983281 0 -0.0012339988486838667 0.0082588118127255011 0 -0.0012379514367097508 0.0082751757001902747 0 -0.0012339988486838667 0.0082588118127255011 0 -0.0012379514367097508 0.0082751757001902747 0 -0.0012373169895044814 0.0082699845649102325 0 -0.0012413652844344264 0.0082799231392366203 0 -0.0012379514367097508 0.0082751757001902747 0 -0.0012373169895044814 0.0082699845649102325 0 -0.0012891817319378074 0.0083525184805200298 0 -0.0012634146645867917 0.0083054829932864942 0 -0.0012725363765093299 0.0082845125309713528 0 -0.0012445692202169853 0.0082809959600764517 0 -0.0012634146645867917 0.0083054829932864942 0 -0.0012725363765093299 0.0082845125309713528 0 -0.0012591750672735515 0.0083290710010220526 0 -0.0012634146645867917 0.0083054829932864942 0 -0.0012544434202186583 0.008314159873020914 0 -0.0012634146645867917 0.0083054829932864942 0 -0.0012544434202186583 0.008314159873020914 0 -0.0012489012922723868 0.0082965936111178019 0 -0.0012485472253785609 0.0083099844086357271 0 -0.0012544434202186583 0.008314159873020914 0 -0.0012489012922723868 0.0082965936111178019 0 -0.0012445692202169853 0.0082809959600764517 0 -0.0012634146645867917 0.0083054829932864942 0 -0.0012489012922723868 0.0082965936111178019 0 -0.0017667747269275143 0.0090092299501409838 0 -0.000886215396980934 0.0094479575358480238 0 -0.00094491486009804632 0.0091083368914131324 0 -0.0016467037183344455 0.0081681726251365584 0 -0.0012989923637475634 0.009494743705833841 0 -0.0016467037183344455 0.0081681726251365584 0 -0.0008117283455748804 0.010206325046507347 0 -0.0015830954710996021 0.0078059536276441953 0 -0.0017402912324213074 0.0077392558792007526 0 -0.0015377109134700384 0.0075794521491174341 0 -0.0012989923637475634 0.009494743705833841 0 -0.0008117283455748804 0.010206325046507347 0 -0.00094242802088937198 0.010754752715664876 0 -0.00097523809272987674 0.010564078472682932 0 -0.00082454399033348477 0.010813817913491747 0 -0.00097523809272987674 0.010564078472682932 0 -0.00044800554108929757 0.010633466980276066 0 -0.00082454399033348477 0.010813817913491747 0 -0.0008117283455748804 0.010206325046507347 0 -0.00023571055849073207 0.011755871690319905 0 -0.0012989923637475634 0.009494743705833841 0 -0.0012700598958288979 0.0096277417321518344 0 -0.0012989923637475634 0.009494743705833841 0 -0.00090304047136993768 0.010591066184689586 0 -0.00047888179680565402 0.012384333570839212 0 -0.00039906382458982888 0.012406455294798037 0 -0.00041645855626155145 0.012373216580798208 0 -0.00023571055849073207 0.011755871690319905 0 -0.00090304047136993768 0.010591066184689586 0 -0.00039906382458982888 0.012406455294798037 0 -0.00041645855626155145 0.012373216580798208 0 -0.00037582612493113044 0.012371549264437514 0 -0.00041645855626155145 0.012373216580798208 0 -0.00044971426279742009 0.012352704280085589 0 -0.00043180371328670149 0.012332843161529744 0 -0.00041645855626155145 0.012373216580798208 0 -0.00043180371328670149 0.012332843161529744 0 -0.00039202770277616602 0.012342453168672888 0 -0.00041645855626155145 0.012373216580798208 0 -0.00039202770277616602 0.012342453168672888 0 -0.00037582612493113044 0.012371549264437514 0 -0.00047888179680565402 0.012384333570839212 0 -0.00041645855626155145 0.012373216580798208 0 -0.00044971426279742009 0.012352704280085589 0 -0.00090264355479909345 0.010358432597125836 0 -0.0008117283455748804 0.010206325046507347 0 -0.00047888179680565402 0.012384333570839212 0 -0.00044971426279742009 0.012352704280085589 0 -0.00046795566918424289 0.012326212255758943 0 -0.00050326936082431984 0.012301969132500274 0 -0.00047888179680565402 0.012384333570839212 0 -0.00046795566918424289 0.012326212255758943 0 -0.00044971426279742009 0.012352704280085589 0 -0.00046795566918424289 0.012326212255758943 0 -0.00043180371328670149 0.012332843161529744 0 -0.00050326936082431984 0.012301969132500274 0 -0.00046795566918424289 0.012326212255758943 0 -0.00047711025654866425 0.012298585090943706 0 -0.00047711025654866425 0.012298585090943706 0 -0.00045231724278770117 0.012298753649652858 0 -0.00048551332356545679 0.012264281757833779 0 -0.00050326936082431984 0.012301969132500274 0 -0.00047711025654866425 0.012298585090943706 0 -0.00048551332356545679 0.012264281757833779 0 -0.00046795566918424289 0.012326212255758943 0 -0.00047711025654866425 0.012298585090943706 0 -0.00045231724278770117 0.012298753649652858 0 -0.00046795566918424289 0.012326212255758943 0 -0.00045231724278770117 0.012298753649652858 0 -0.00043180371328670149 0.012332843161529744 0 -0.00043180371328670149 0.012332843161529744 0 -0.00039202770277616602 0.012342453168672888 0 -0.00041285571674994721 0.012294612579360032 0 -0.00039202770277616602 0.012342453168672888 0 -0.00041285571674994721 0.012294612579360032 0 -0.00037016555587846792 0.012317084887468155 0 -0.00045231724278770117 0.012298753649652858 0 -0.00043180371328670149 0.012332843161529744 0 -0.00041285571674994721 0.012294612579360032 0 -0.00037935446420085835 0.012271035424103715 0 -0.00044122965048074789 0.012244143877071696 0 -0.00036889748610849854 0.012193354810510124 0 -0.00045231724278770117 0.012298753649652858 0 -0.00041285571674994721 0.012294612579360032 0 -0.00044122965048074789 0.012244143877071696 0 -0.00041285571674994721 0.012294612579360032 0 -0.00037935446420085835 0.012271035424103715 0 -0.00044122965048074789 0.012244143877071696 0 -0.00041285571674994721 0.012294612579360032 0 -0.00037935446420085835 0.012271035424103715 0 -0.00037016555587846792 0.012317084887468155 0 -0.00044122965048074789 0.012244143877071696 0 -0.0004869945864627342 0.012220938676299704 0 -0.00048551332356545679 0.012264281757833779 0 -0.00054344413267347488 0.012193942771948813 0 -0.0004869945864627342 0.012220938676299704 0 -0.00048551332356545679 0.012264281757833779 0 -0.00045231724278770117 0.012298753649652858 0 -0.00044122965048074789 0.012244143877071696 0 -0.00048551332356545679 0.012264281757833779 0 -0.00037935446420085835 0.012271035424103715 0 -0.00031186087577941086 0.012303096490186167 0 -0.00036889748610849854 0.012193354810510124 0 -0.00037935446420085835 0.012271035424103715 0 -0.00031186087577941086 0.012303096490186167 0 -0.00037016555587846792 0.012317084887468155 0 -0.00031186087577941086 0.012303096490186167 0 -0.00037016555587846792 0.012317084887468155 0 -0.00034794720615824486 0.012358764045531125 0 -0.00039202770277616602 0.012342453168672888 0 -0.00037016555587846792 0.012317084887468155 0 -0.00034794720615824486 0.012358764045531125 0 1.5593308810226822e-05 0.012700542709426962 0 -0.00028928013384955459 0.012469046115029614 0 -0.00031186087577941086 0.012303096490186167 0 -0.00031745359133973855 0.012388665124206803 0 -0.00031715921630304374 0.01245737048450025 0 -0.00031186087577941086 0.012303096490186167 0 -0.00034794720615824486 0.012358764045531125 0 -0.00031745359133973855 0.012388665124206803 0 -0.00018315973253898893 0.012326365425401213 0 -0.00033031039963516546 0.012367440163941302 0 -4.7516737444871922e-05 0.012147856733422328 0 -0.00020668457380142613 0.012113381620793489 0 -0.00027456140634298057 0.012218338196574413 0 -4.7516737444871922e-05 0.012147856733422328 0 -0.00027456140634298057 0.012218338196574413 0 -0.00033340017018842767 0.0123921795010703 0 -0.00031745359133973855 0.012388665124206803 0 -0.00032811626808606733 0.012385363108467466 0 -0.00033340017018842767 0.0123921795010703 0 -0.00034794720615824486 0.012358764045531125 0 -0.00031745359133973855 0.012388665124206803 0 -0.00032811626808606733 0.012385363108467466 0 -4.7516737444871922e-05 0.012147856733422328 0 -0.00020668457380142613 0.012113381620793489 0 -9.7058960358359763e-05 0.012048741803870324 0 -0.00034794720615824486 0.012358764045531125 0 -0.00032811626808606733 0.012385363108467466 0 -0.00037582612493113044 0.012371549264437514 0 -0.00039906382458982888 0.012406455294798037 0 -0.00032811626808606733 0.012385363108467466 0 -0.00037582612493113044 0.012371549264437514 0 -0.00039202770277616602 0.012342453168672888 0 -0.00034794720615824486 0.012358764045531125 0 -0.00037582612493113044 0.012371549264437514 0 -0.00023571055849073207 0.011755871690319905 0 -0.00018315973253898893 0.012326365425401213 0 0.00021875936746839131 0.011997879966133339 0 -4.7516737444871922e-05 0.012147856733422328 0 3.8337406428710574e-05 0.011981120623253291 0 -0.00016182699312561363 0.011902305424399249 0 -0.00016524238603302506 0.011905290321883352 0 -0.0001699201024090939 0.01190200750990167 0 -0.00016182699312561363 0.011902305424399249 0 -0.00016524238603302506 0.011905290321883352 0 -0.00016621795872213735 0.011912194584882419 0 -0.00023571055849073207 0.011755871690319905 0 -2.7426166967516705e-05 0.011940803276819756 0 -0.00018626189229895603 0.011880026079781218 0 -0.00016182699312561363 0.011902305424399249 0 -0.0001699201024090939 0.01190200750990167 0 -0.00020668457380142613 0.012113381620793489 0 -0.00017364550537648629 0.011950729793286546 0 -0.00025567824374920085 0.011990280632433641 0 -0.00020668457380142613 0.012113381620793489 0 -9.7058960358359763e-05 0.012048741803870324 0 -0.00017364550537648629 0.011950729793286546 0 3.8337406428710574e-05 0.011981120623253291 0 -9.7058960358359763e-05 0.012048741803870324 0 -0.00017364550537648629 0.011950729793286546 0 -4.7516737444871922e-05 0.012147856733422328 0 3.8337406428710574e-05 0.011981120623253291 0 -9.7058960358359763e-05 0.012048741803870324 0 -2.7426166967516705e-05 0.011940803276819756 0 -0.0001736752566944453 0.011942118113601895 0 -0.00016182699312561363 0.011902305424399249 0 -0.00017364550537648629 0.011950729793286546 0 -0.00016621795872213735 0.011912194584882419 0 -0.00017364550537648629 0.011950729793286546 0 -0.00025567824374920085 0.011990280632433641 0 -0.00019309870804685411 0.011887742371646068 0 -0.00025567824374920085 0.011990280632433641 0 -0.00038724392311946813 0.011996064198697708 0 -0.00019309870804685411 0.011887742371646068 0 -0.00025107561277527217 0.012773616869609049 0 -0.00011290542539186268 0.012205888728439553 0 -0.00025567824374920085 0.011990280632433641 0 -0.00031407449900367114 0.012063308889278737 0 -0.00038724392311946813 0.011996064198697708 0 -0.00020668457380142613 0.012113381620793489 0 -0.00025567824374920085 0.011990280632433641 0 -0.00031407449900367114 0.012063308889278737 0 -0.0004475536017253133 0.012006104228406351 0 -0.00049122705658129976 0.011986210973882678 0 -0.00048325597047098583 0.012096631884742496 0 -0.00035737837577541669 0.012560589878895764 0 -0.0003259158627684136 0.012334918221330312 0 -0.00044553183970498728 0.012029351094971144 0 -0.00042919272108733281 0.012079945601195859 0 -0.00048325597047098583 0.012096631884742496 0 -0.00035737837577541669 0.012560589878895764 0 -0.00042272098620938794 0.012469847653235134 0 -0.00035737837577541669 0.012560589878895764 0 -0.00020100865268068901 0.012911830007211167 0 -0.00044553183970498728 0.012029351094971144 0 -0.00042919272108733281 0.012079945601195859 0 -0.00037632963146498871 0.01206553282276435 0 -0.00031407449900367114 0.012063308889278737 0 -0.00037632963146498871 0.01206553282276435 0 -0.00038724392311946813 0.011996064198697708 0 -0.00031407449900367114 0.012063308889278737 0 -0.00037632963146498871 0.01206553282276435 0 -0.00035825279588544233 0.012117850947965622 0 -0.00023127024272887471 0.012952252874861899 0 -0.00015410622380421446 0.012751945894729048 0 -0.00033164328023516359 0.012907146210674568 0 -0.00035737837577541669 0.012560589878895764 0 -0.00025107561277527217 0.012773616869609049 0 -8.2423993469131823e-05 0.013532016911821064 0 -3.4412789451957706e-05 0.013520281281796631 0 -5.6254325890848501e-05 0.013509561715462972 0 -0.00041209857789711304 0.012046819511881936 0 -0.00037632963146498871 0.01206553282276435 0 -0.00038724392311946813 0.011996064198697708 0 -0.00025107561277527217 0.012773616869609049 0 -0.00020100865268068901 0.012911830007211167 0 -3.4412789451957706e-05 0.013520281281796631 0 2.1618443801563057e-05 0.013629281736003447 0 0.00015380804210786574 0.013614320692375885 0 0.00020091298451588156 0.014117731223936763 0 0.00017282257788349347 0.014189529137389648 0 -0.00010444201225523135 0.013986089837710915 0 -8.2423993469131823e-05 0.013532016911821064 0 -3.4412789451957706e-05 0.013520281281796631 0 -4.0940714097898798e-05 0.013619003347151064 0 -3.4412789451957706e-05 0.013520281281796631 0 2.1618443801563057e-05 0.013629281736003447 0 -4.0940714097898798e-05 0.013619003347151064 0 3.9595294763713881e-05 0.013398800177113706 0 -0.00020100865268068901 0.012911830007211167 0 3.9595294763713881e-05 0.013398800177113706 0 -0.00012394458046000647 0.013205923077237275 0 -0.0001218035996193184 0.012984992772741634 0 -2.5076683517687012e-05 0.01302834153434663 0 -0.00020046458021374475 0.013181996331494233 0 -0.00049122705658129976 0.011986210973882678 0 -0.00060846435227846743 0.012073878617017773 0 -0.00048325597047098583 0.012096631884742496 0 -0.00020100865268068901 0.012911830007211167 0 -0.00012394458046000647 0.013205923077237275 0 -0.00012394458046000647 0.013205923077237275 0 -0.00046137415351658938 0.012947207455462705 0 -0.00060846435227846743 0.012073878617017773 0 -0.00048325597047098583 0.012096631884742496 0 -0.00047954937515061984 0.012189666301842299 0 -0.00060846435227846743 0.012073878617017773 0 -0.00056677264526388204 0.012293593484342287 0 -0.00084756483742680995 0.012450795722195823 0 -0.00060846435227846743 0.012073878617017773 0 -0.00056677264526388204 0.012293593484342287 0 -0.00047954937515061984 0.012189666301842299 0 -9.5351387966642351e-07 0.013375102642221333 0 -0.00022449883984640729 0.013573500495103068 0 -0.00013707109196250475 0.013718332792563601 0 -0.00012394458046000647 0.013205923077237275 0 -0.00012000630389962094 0.013952023500295422 0 -0.00056677264526388204 0.012293593484342287 0 -0.00042821934502259874 0.012299764471039315 0 -0.0005024747381004301 0.012437784807298936 0 -0.00042821934502259874 0.012299764471039315 0 -0.00027456140634298057 0.012218338196574413 0 -0.00033340017018842767 0.0123921795010703 0 -0.00042821934502259874 0.012299764471039315 0 -0.00033340017018842767 0.0123921795010703 0 -0.0005024747381004301 0.012437784807298936 0 -0.00042821934502259874 0.012299764471039315 0 -0.00027456140634298057 0.012218338196574413 0 -0.0003813876187206535 0.01219484077497318 0 -0.00056677264526388204 0.012293593484342287 0 -0.00042821934502259874 0.012299764471039315 0 -0.00047954937515061984 0.012189666301842299 0 -0.00027456140634298057 0.012218338196574413 0 -0.00031459838546066087 0.012150532124877596 0 -0.0003813876187206535 0.01219484077497318 0 -0.00020668457380142613 0.012113381620793489 0 -0.00027456140634298057 0.012218338196574413 0 -0.00031459838546066087 0.012150532124877596 0 -0.00020668457380142613 0.012113381620793489 0 -0.00031407449900367114 0.012063308889278737 0 -0.00031459838546066087 0.012150532124877596 0 -0.00031407449900367114 0.012063308889278737 0 -0.00031459838546066087 0.012150532124877596 0 -0.00035825279588544233 0.012117850947965622 0 -0.00042919272108733281 0.012079945601195859 0 -0.00037632963146498871 0.01206553282276435 0 -0.0004112351239791481 0.012127682239071999 0 -0.00031459838546066087 0.012150532124877596 0 -0.00035825279588544233 0.012117850947965622 0 -0.0003813876187206535 0.01219484077497318 0 -0.00037632963146498871 0.01206553282276435 0 -0.00035825279588544233 0.012117850947965622 0 -0.0004112351239791481 0.012127682239071999 0 -0.00035825279588544233 0.012117850947965622 0 -0.0004112351239791481 0.012127682239071999 0 -0.0003813876187206535 0.01219484077497318 0 -0.0004112351239791481 0.012127682239071999 0 -0.00048325597047098583 0.012096631884742496 0 -0.00047954937515061984 0.012189666301842299 0 -0.00042919272108733281 0.012079945601195859 0 -0.0004112351239791481 0.012127682239071999 0 -0.00048325597047098583 0.012096631884742496 0 -0.00042821934502259874 0.012299764471039315 0 -0.00047954937515061984 0.012189666301842299 0 -0.0003813876187206535 0.01219484077497318 0 -0.0004112351239791481 0.012127682239071999 0 -0.00047954937515061984 0.012189666301842299 0 -0.0003813876187206535 0.01219484077497318 0 -3.9234483576511786e-10 0.014999995903439121 0 -5.7499548305537205e-08 0.01499886066185881 0 5.7337796541624506e-08 0.014996185400201032 0 -3.9234483576511786e-10 0.014999995903439121 0 5.7337796541624506e-08 0.014996185400201032 0 -6.6207673826754128e-11 0.014999996029410068 0 -0.00011597124087005474 0.014667120912164967 0 -7.8702129502061316e-06 0.014430165825344232 0 0.00017282257788349347 0.014189529137389648 0 3.7721502598457461e-05 0.01431191149831944 0 -0.00010444201225523135 0.013986089837710915 0 3.9595294763713881e-05 0.013398800177113706 0 -7.8702129502061316e-06 0.014430165825344232 0 3.7721502598457461e-05 0.01431191149831944 0 -8.9653994591970459e-05 0.014289426907736429 0 -0.00010444201225523135 0.013986089837710915 0 3.7721502598457461e-05 0.01431191149831944 0 -8.9653994591970459e-05 0.014289426907736429 0 -9.7204392502658698e-05 0.014437825371325151 0 -8.9653994591970459e-05 0.014289426907736429 0 -0.00021270614804761492 0.014325514060646225 0 -0.00010444201225523135 0.013986089837710915 0 -3.9234483576511786e-10 0.014999995903439121 0 -5.7499548305537205e-08 0.01499886066185881 0 -5.3012551924441264e-12 0.014999997400411379 0 -8.9653994591970459e-05 0.014289426907736429 0 -0.00021270614804761492 0.014325514060646225 0 -9.7204392502658698e-05 0.014437825371325151 0 -0.00021270614804761492 0.014325514060646225 0 -9.7204392502658698e-05 0.014437825371325151 0 -0.0003015601906141798 0.014613933959433138 0 -5.7499548305537205e-08 0.01499886066185881 0 -5.3012551924441264e-12 0.014999997400411379 0 -9.3224374157414279e-08 0.01499991113547585 0 -5.3012551924441264e-12 0.014999997400411379 0 -8.6664972760720176e-10 0.014999999761050939 0 -9.3224374157414279e-08 0.01499991113547585 0 -8.8659263329022683e-05 0.014380291738032113 0 -0.00012335725075530892 0.014870146158935206 0 -0.00011597124087005474 0.014667120912164967 0 -0.00012335725075530892 0.014870146158935206 0 -3.9056432233169107e-06 0.014983854706713623 0 -3.5829648783027327e-06 0.014991455084352573 0 -3.1077467947625605e-06 0.014996295902856501 0 -0.00022449883984640729 0.013573500495103068 0 -0.0004467062946456236 0.0137717935630953 0 -0.00013707109196250475 0.013718332792563601 0 -0.0004467062946456236 0.0137717935630953 0 -0.00027291437381635441 0.014061176568596991 0 -0.00013707109196250475 0.013718332792563601 0 -0.00032320395616253141 0.014178521693597974 0 -0.00046137415351658938 0.012947207455462705 0 -8.8659263329022683e-05 0.014380291738032113 0 -0.00032320395616253141 0.014178521693597974 0 -3.9056432233169107e-06 0.014983854706713623 0 -2.1709589917961013e-06 0.01498916314347548 0 -3.5829648783027327e-06 0.014991455084352573 0 -0.00012000630389962094 0.013952023500295422 0 -8.8659263329022683e-05 0.014380291738032113 0 -2.1709589917961013e-06 0.01498916314347548 0 -3.5829648783027327e-06 0.014991455084352573 0 -6.5216042509955419e-06 0.014996394639664998 0 -0.00032320395616253141 0.014178521693597974 0 -6.1093915369135382e-05 0.015072143168361344 0 -3.5829648783027327e-06 0.014991455084352573 0 -3.4416536043202651e-06 0.014996587841810207 0 -6.5216042509955419e-06 0.014996394639664998 0 -3.5829648783027327e-06 0.014991455084352573 0 -3.4416536043202651e-06 0.014996587841810207 0 -3.1077467947625605e-06 0.014996295902856501 0 -3.4416536043202651e-06 0.014996587841810207 0 -1.757442276630251e-08 0.014999991220168414 0 -3.3429026833244194e-06 0.014997115924690031 0 -3.4416536043202651e-06 0.014996587841810207 0 -1.757442276630251e-08 0.014999991220168414 0 -3.1077467947625605e-06 0.014996295902856501 0 -2.2914298520722418e-07 0.014999877241326254 0 -0.00012335725075530892 0.014870146158935206 0 -0.00031715921630304374 0.01245737048450025 0 -0.00052664576616764773 0.012742086344438037 0 -0.00027859267974854714 0.013081442436592185 0 -0.00031745359133973855 0.012388665124206803 0 -0.00033340017018842767 0.0123921795010703 0 -0.00031715921630304374 0.01245737048450025 0 -0.00033340017018842767 0.0123921795010703 0 -0.00031715921630304374 0.01245737048450025 0 -0.0005024747381004301 0.012437784807298936 0 -0.00031715921630304374 0.01245737048450025 0 -0.0005024747381004301 0.012437784807298936 0 -0.00052664576616764773 0.012742086344438037 0 -0.00084756483742680995 0.012450795722195823 0 -0.00052664576616764773 0.012742086344438037 0 -0.00072815002350206011 0.013046077900685547 0 -0.0011186770894720702 0.013015360418032562 0 -0.00084756483742680995 0.012450795722195823 0 -0.00072815002350206011 0.013046077900685547 0 -0.00056677264526388204 0.012293593484342287 0 -0.0005024747381004301 0.012437784807298936 0 -0.00084756483742680995 0.012450795722195823 0 -0.0005024747381004301 0.012437784807298936 0 -0.00084756483742680995 0.012450795722195823 0 -0.00052664576616764773 0.012742086344438037 0 -0.00052664576616764773 0.012742086344438037 0 -0.00072815002350206011 0.013046077900685547 0 -0.00027859267974854714 0.013081442436592185 0 -0.00072815002350206011 0.013046077900685547 0 -0.00039957892156525433 0.013469704212552412 0 -0.00076829461900168637 0.013658826579689001 0 -0.0011186770894720702 0.013015360418032562 0 -0.00072815002350206011 0.013046077900685547 0 -0.00076829461900168637 0.013658826579689001 0 -0.00032320395616253141 0.014178521693597974 0 -0.00043101158607311785 0.014265170925738091 0 -0.00027859267974854714 0.013081442436592185 0 -4.3313840111043005e-05 0.013562396636839034 0 -0.00039957892156525433 0.013469704212552412 0 -0.00072815002350206011 0.013046077900685547 0 -0.00027859267974854714 0.013081442436592185 0 -0.00039957892156525433 0.013469704212552412 0 0.00041053395030457535 0.013137530538780621 0 -0.00027859267974854714 0.013081442436592185 0 -4.3313840111043005e-05 0.013562396636839034 0 0.00041053395030457535 0.013137530538780621 0 -0.00031715921630304374 0.01245737048450025 0 -0.00027859267974854714 0.013081442436592185 0 -0.00039957892156525433 0.013469704212552412 0 -0.00076829461900168637 0.013658826579689001 0 -0.00016878285589477218 0.014015456143110136 0 -4.3313840111043005e-05 0.013562396636839034 0 -0.00039957892156525433 0.013469704212552412 0 -0.00016878285589477218 0.014015456143110136 0 -2.150718186976774e-05 0.014967135031213967 0 -1.8791324319479492e-05 0.014970589578279597 0 -1.9512289941647808e-05 0.014962978596222932 0 -2.150718186976774e-05 0.014967135031213967 0 -2.790344401027626e-05 0.014951568184010767 0 -4.6810845354446851e-05 0.014948944248058701 0 -0.00043101158607311785 0.014265170925738091 0 -0.00018786544431388441 0.014648852822812539 0 -2.150718186976774e-05 0.014967135031213967 0 -2.790344401027626e-05 0.014951568184010767 0 -1.9512289941647808e-05 0.014962978596222932 0 -2.790344401027626e-05 0.014951568184010767 0 -1.9512289941647808e-05 0.014962978596222932 0 -2.5346745509014962e-05 0.014936871065648387 0 -2.790344401027626e-05 0.014951568184010767 0 -4.6810845354446851e-05 0.014948944248058701 0 -3.3517508453181621e-05 0.014910378722720883 0 -0.00076829461900168637 0.013658826579689001 0 -0.00035259855356578027 0.014337985890729578 0 -0.00016878285589477218 0.014015456143110136 0 -0.00035259855356578027 0.014337985890729578 0 -0.00022069717448169505 0.014386649861844739 0 -0.00016878285589477218 0.014015456143110136 0 -0.00022069717448169505 0.014386649861844739 0 -0.00016878285589477218 0.014015456143110136 0 0.0003430174992977964 0.014008641416486509 0 -1.757442276630251e-08 0.014999991220168414 0 -3.3429026833244194e-06 0.014997115924690031 0 -4.3490201187185831e-10 0.014999975233206102 0 -3.4416536043202651e-06 0.014996587841810207 0 -3.3429026833244194e-06 0.014997115924690031 0 -6.5216042509955419e-06 0.014996394639664998 0 -3.3429026833244194e-06 0.014997115924690031 0 -6.5216042509955419e-06 0.014996394639664998 0 -1.1640853744779825e-05 0.014984328787552223 0 -3.3429026833244194e-06 0.014997115924690031 0 -1.1640853744779825e-05 0.014984328787552223 0 -4.3490201187185831e-10 0.014999975233206102 0 -2.150718186976774e-05 0.014967135031213967 0 -2.4643725977026502e-05 0.014964254740072272 0 -1.8791324319479492e-05 0.014970589578279597 0 -2.4750222787346234e-05 0.014946269312088738 0 -2.150718186976774e-05 0.014967135031213967 0 -2.4643725977026502e-05 0.014964254740072272 0 -6.1093915369135382e-05 0.015072143168361344 0 -3.0558055399983939e-07 0.01495031450654875 0 -2.4643725977026502e-05 0.014964254740072272 0 -1.8791324319479492e-05 0.014970589578279597 0 -1.1640853744779825e-05 0.014984328787552223 0 -1.9512289941647808e-05 0.014962978596222932 0 -1.1640853744779825e-05 0.014984328787552223 0 -1.6531931874051758e-05 0.014970149411256576 0 -1.8791324319479492e-05 0.014970589578279597 0 -1.9512289941647808e-05 0.014962978596222932 0 -1.1640853744779825e-05 0.014984328787552223 0 -1.1640853744779825e-05 0.014984328787552223 0 -6.2922735045878285e-06 0.014988083612365578 0 -1.6531931874051758e-05 0.014970149411256576 0 -1.1640853744779825e-05 0.014984328787552223 0 -4.3490201187185831e-10 0.014999975233206102 0 -6.2922735045878285e-06 0.014988083612365578 0 -6.2922735045878285e-06 0.014988083612365578 0 -1.6531931874051758e-05 0.014970149411256576 0 -1.5079580269333636e-08 0.014999955478752186 0 -4.3490201187185831e-10 0.014999975233206102 0 -6.2922735045878285e-06 0.014988083612365578 0 -1.5079580269333636e-08 0.014999955478752186 0 -1.6531931874051758e-05 0.014970149411256576 0 -2.5346745509014962e-05 0.014936871065648387 0 -3.1654775856327981e-05 0.014947696532801433 0 -1.9512289941647808e-05 0.014962978596222932 0 -1.6531931874051758e-05 0.014970149411256576 0 -2.5346745509014962e-05 0.014936871065648387 0 -3.3919833022197322e-05 0.014982445480741926 0 -1.9477585865251268e-05 0.014980890869462089 0 -3.1654775856327981e-05 0.014947696532801433 0 -1.6531931874051758e-05 0.014970149411256576 0 -1.9477585865251268e-05 0.014980890869462089 0 -3.1654775856327981e-05 0.014947696532801433 0 -3.2749798268438512e-08 0.014999994433348233 0 -1.9477585865251268e-05 0.014980890869462089 0 -1.5079580269333636e-08 0.014999955478752186 0 -1.6531931874051758e-05 0.014970149411256576 0 -1.9477585865251268e-05 0.014980890869462089 0 -1.5079580269333636e-08 0.014999955478752186 0 -4.6810845354446851e-05 0.014948944248058701 0 -4.0276259292496957e-05 0.014816865060328388 0 -3.3517508453181621e-05 0.014910378722720883 0 -0.00018786544431388441 0.014648852822812539 0 -5.9522817084196341e-05 0.014808815285063117 0 -0.00035259855356578027 0.014337985890729578 0 -0.00022069717448169505 0.014386649861844739 0 -4.0276259292496957e-05 0.014816865060328388 0 -3.5642235145475813e-05 0.014893342656676843 0 -4.0276259292496957e-05 0.014816865060328388 0 -3.3517508453181621e-05 0.014910378722720883 0 -3.5642235145475813e-05 0.014893342656676843 0 -2.5346745509014962e-05 0.014936871065648387 0 -3.1654775856327981e-05 0.014947696532801433 0 -2.790344401027626e-05 0.014951568184010767 0 -3.3517508453181621e-05 0.014910378722720883 0 -2.5346745509014962e-05 0.014936871065648387 0 -3.5642235145475813e-05 0.014893342656676843 0 -3.3517508453181621e-05 0.014910378722720883 0 -2.5346745509014962e-05 0.014936871065648387 0 -3.3919833022197322e-05 0.014982445480741926 0 -3.1654775856327981e-05 0.014947696532801433 0 -3.4857730735541076e-05 0.014942633625040986 0 -3.5642235145475813e-05 0.014893342656676843 0 -3.1654775856327981e-05 0.014947696532801433 0 -3.4857730735541076e-05 0.014942633625040986 0 -3.5642235145475813e-05 0.014893342656676843 0 -4.0276259292496957e-05 0.014816865060328388 0 -3.4857730735541076e-05 0.014942633625040986 0 0.0001014631441615205 0.014981946957385145 0 -4.0276259292496957e-05 0.014816865060328388 0 -3.4857730735541076e-05 0.014942633625040986 0 0.0001014631441615205 0.014981946957385145 0 -4.0276259292496957e-05 0.014816865060328388 0 0.00020536939187305184 0.014754972182730121 0 -0.00022069717448169505 0.014386649861844739 0 0.00020536939187305184 0.014754972182730121 0 0.00030218128033811757 0.0144893763795612 0 -0.00022069717448169505 0.014386649861844739 0 -4.0276259292496957e-05 0.014816865060328388 0 0.00020536939187305184 0.014754972182730121 0 0.00020536939187305184 0.014754972182730121 0 0.0004293668891477695 0.014795383414771976 0 0.00030218128033811757 0.0144893763795612 0 0.0001014631441615205 0.014981946957385145 0 0.00020536939187305184 0.014754972182730121 0 0.0004293668891477695 0.014795383414771976 0 -0.0010745462891602359 0.011822553276621591 0 -0.0012678737459163832 0.011769691912466664 0 -0.0010825780632024611 0.011618192324069946 0 -0.00055733754251603598 0.013368435921774866 0 -0.00039536419575963706 0.013185131247142455 0 -0.0010745462891602359 0.011822553276621591 0 -0.0010825780632024611 0.011618192324069946 0 -0.00099954754962393636 0.011711872201210135 0 -0.00099954754962393636 0.011711872201210135 0 -0.00088235136788324348 0.011655035340986896 0 -0.00095218520677894459 0.011603297747590982 0 -0.0010825780632024611 0.011618192324069946 0 -0.00099954754962393636 0.011711872201210135 0 -0.00095218520677894459 0.011603297747590982 0 -0.00079574828930528111 0.011804568449881651 0 -0.00099954754962393636 0.011711872201210135 0 -0.00088235136788324348 0.011655035340986896 0 -0.00079574828930528111 0.011804568449881651 0 -0.00077101680464766059 0.011682911339007073 0 -0.00088235136788324348 0.011655035340986896 0 -0.00077101680464766059 0.011682911339007073 0 -0.00088235136788324348 0.011655035340986896 0 -0.0008193807694494025 0.011605108242857548 0 -0.0008193807694494025 0.011605108242857548 0 -0.00082799059195609169 0.011551583186060159 0 -0.00088822420220919314 0.011554229026784059 0 -0.00088235136788324348 0.011655035340986896 0 -0.0008193807694494025 0.011605108242857548 0 -0.00088822420220919314 0.011554229026784059 0 -0.00088822420220919314 0.011554229026784059 0 -0.00095218520677894459 0.011603297747590982 0 -0.00090936368767401913 0.011481625471864204 0 -0.00088235136788324348 0.011655035340986896 0 -0.00088822420220919314 0.011554229026784059 0 -0.00095218520677894459 0.011603297747590982 0 -0.00088822420220919314 0.011554229026784059 0 -0.00087169430209585029 0.011512957992991542 0 -0.00090936368767401913 0.011481625471864204 0 -0.00087169430209585029 0.011512957992991542 0 -0.00085419800181522605 0.011484911082005831 0 -0.00090936368767401913 0.011481625471864204 0 -0.00082799059195609169 0.011551583186060159 0 -0.00088822420220919314 0.011554229026784059 0 -0.00087169430209585029 0.011512957992991542 0 -0.00082799059195609169 0.011551583186060159 0 -0.00087169430209585029 0.011512957992991542 0 -0.00085419800181522605 0.011484911082005831 0 0.0004293668891477695 0.014795383414771976 0 0.00074393237485633216 0.014501777137065309 0 0.00030218128033811757 0.0144893763795612 0 -0.0010825780632024611 0.011618192324069946 0 -0.00095218520677894459 0.011603297747590982 0 -0.00090936368767401913 0.011481625471864204 0 -0.00039536419575963706 0.013185131247142455 0 0.00037981414139505606 0.013268233156141219 0 0.00010752866682176797 0.012957285998800555 0 0.00041692329141017592 0.013026921898000123 0 0.0011907296291754478 0.014174944445147305 0 0.0015717094930189771 0.014265159668185865 0 0.0010208122424677356 0.013746925252310723 0 -0.00045308899201413504 0.012089476251055012 0 -0.00036889748610849854 0.012193354810510124 0 -0.0004328487530599795 0.012162174065246672 0 0.0011907296291754478 0.014174944445147305 0 0.0014807219415558005 0.014345412308164971 0 0.00068212654926143768 0.014344503876134137 0 0.00037981414139505606 0.013268233156141219 0 0.00065919162153517375 0.014577199742701736 0 0.0011907296291754478 0.014174944445147305 0 0.0015717094930189771 0.014265159668185865 0 0.0014807219415558005 0.014345412308164971 0 -0.0004904442035937349 0.012073950233490423 0 -0.0004440051931516451 0.01206962460816997 0 -0.00049580418348742878 0.012112122651567827 0 0.00010752866682176797 0.012957285998800555 0 -0.00022661613719935519 0.012365432113913877 0 -0.00052630548695011177 0.012067985674356142 0 -0.00046966130759059017 0.012046379230064892 0 -0.0004904442035937349 0.012073950233490423 0 -0.00052630548695011177 0.012067985674356142 0 -0.0004904442035937349 0.012073950233490423 0 -0.00049580418348742878 0.012112122651567827 0 -0.00046966130759059017 0.012046379230064892 0 -0.0004904442035937349 0.012073950233490423 0 -0.0004440051931516451 0.01206962460816997 0 -0.00016911495907086582 0.012733176280765408 0 1.5631651737926681e-05 0.012897874504237331 0 0.00017942188016331336 0.01275469064485474 0 -0.00059590837069033089 0.01214029191707664 0 0.00037981414139505606 0.013268233156141219 0 -0.00059590837069033089 0.01214029191707664 0 0.00010752866682176797 0.012957285998800555 0 0.00010752866682176797 0.012957285998800555 0 0.00037981414139505606 0.013268233156141219 0 -0.00045308899201413504 0.012089476251055012 0 -0.00046514262208801233 0.012135098312140753 0 -0.0004328487530599795 0.012162174065246672 0 -0.00045308899201413504 0.012089476251055012 0 -0.00046514262208801233 0.012135098312140753 0 -0.00049580418348742878 0.012112122651567827 0 -0.00046514262208801233 0.012135098312140753 0 -0.00049580418348742878 0.012112122651567827 0 -0.00048021148677356782 0.012178440948596644 0 -0.00044122965048074789 0.012244143877071696 0 -0.00048021148677356782 0.012178440948596644 0 -0.0004328487530599795 0.012162174065246672 0 -0.00054344413267347488 0.012193942771948813 0 -0.00049580418348742878 0.012112122651567827 0 -0.00048021148677356782 0.012178440948596644 0 -0.00046514262208801233 0.012135098312140753 0 -0.00048021148677356782 0.012178440948596644 0 -0.0004328487530599795 0.012162174065246672 0 -0.00044122965048074789 0.012244143877071696 0 -0.0004869945864627342 0.012220938676299704 0 -0.00048021148677356782 0.012178440948596644 0 -0.00054344413267347488 0.012193942771948813 0 -0.0004869945864627342 0.012220938676299704 0 -0.00048021148677356782 0.012178440948596644 0 -0.00044122965048074789 0.012244143877071696 0 -0.00036889748610849854 0.012193354810510124 0 -0.0004328487530599795 0.012162174065246672 0 1.5593308810226822e-05 0.012700542709426962 0 0.00041692329141017592 0.013026921898000123 0 0.00041053395030457535 0.013137530538780621 0 0.0010208122424677356 0.013746925252310723 0 0.0003430174992977964 0.014008641416486509 0 0.00041053395030457535 0.013137530538780621 0 -4.3313840111043005e-05 0.013562396636839034 0 0.0003430174992977964 0.014008641416486509 0 -4.3313840111043005e-05 0.013562396636839034 0 -0.00016878285589477218 0.014015456143110136 0 0.0003430174992977964 0.014008641416486509 0 -0.00022069717448169505 0.014386649861844739 0 0.0003430174992977964 0.014008641416486509 0 0.00068212654926143768 0.014344503876134137 0 -0.00027299886442723464 0.014342592142874601 0 0.00065919162153517375 0.014577199742701736 0 0.0011907296291754478 0.014174944445147305 0 0.0010208122424677356 0.013746925252310723 0 0.00068212654926143768 0.014344503876134137 0 0.0010208122424677356 0.013746925252310723 0 0.0003430174992977964 0.014008641416486509 0 0.00068212654926143768 0.014344503876134137 0 -0.0026547560840716571 0.0013759294290109744 0 -0.0026697745102067178 0.0012937519196736347 0 -0.0025994581607684253 0.0013898192816722517 0 -0.0026697745102067178 0.0012937519196736347 0 -0.0025713874425868062 0.0012652914176513586 0 -0.0025488632170301857 0.0011687401096835638 0 -0.0026697745102067178 0.0012937519196736347 0 -0.0025994581607684253 0.0013898192816722517 0 -0.0025713874425868062 0.0012652914176513586 0 -0.002673744540856835 0.0012687472423893182 0 -0.0027000520122123853 0.00122171776930494 0 -0.0026697745102067178 0.0012937519196736347 0 -0.0026739624254798898 0.0014065260245325175 0 -0.0027410616998321999 0.0014490400367840159 0 -0.0026697745102067178 0.0012937519196736347 0 -0.0025676702729848636 0.0010739224535215174 0 -0.0026513000204284763 0.0009257091240720631 0 -0.0026697745102067178 0.0012937519196736347 0 -0.0025488632170301857 0.0011687401096835638 0 -0.0025676702729848636 0.0010739224535215174 0 -0.0026547560840716571 0.0013759294290109744 0 -0.0026697745102067178 0.0012937519196736347 0 -0.0026564386681485327 0.0014150105393952123 0 -0.0026564386681485327 0.0014150105393952123 0 -0.0026739624254798898 0.0014065260245325175 0 -0.0026597257903428102 0.0014516115515973843 0 -0.0026697745102067178 0.0012937519196736347 0 -0.0026564386681485327 0.0014150105393952123 0 -0.0026739624254798898 0.0014065260245325175 0 -0.0026564386681485327 0.0014150105393952123 0 -0.0026629278361109485 0.0014741883122169569 0 -0.0026566372747372866 0.0014442240174411009 0 -0.0026564386681485327 0.0014150105393952123 0 -0.0026629278361109485 0.0014741883122169569 0 -0.0026597257903428102 0.0014516115515973843 0 -0.0026629278361109485 0.0014741883122169569 0 -0.0026566372747372866 0.0014442240174411009 0 -0.0026548815653628689 0.0015156144180672286 0 -0.0026547560840716571 0.0013759294290109744 0 -0.0026564386681485327 0.0014150105393952123 0 -0.0026566372747372866 0.0014442240174411009 0 -0.0026547560840716571 0.0013759294290109744 0 -0.0026566372747372866 0.0014442240174411009 0 -0.0026467569920826943 0.0014267269034558311 0 -0.0026467569920826943 0.0014267269034558311 0 -0.0026464991787906638 0.0014618937494496934 0 -0.0026388465137351302 0.0014635322723073128 0 -0.0026566372747372866 0.0014442240174411009 0 -0.0026467569920826943 0.0014267269034558311 0 -0.0026464991787906638 0.0014618937494496934 0 -0.0026464991787906638 0.0014618937494496934 0 -0.0026388465137351302 0.0014635322723073128 0 -0.002643459021310743 0.0015025977668709949 0 -0.0026388465137351302 0.0014635322723073128 0 -0.0026093077610904038 0.0014553122702309711 0 -0.0026209351561005947 0.0014962361205412438 0 -0.0026467569920826943 0.0014267269034558311 0 -0.0026388465137351302 0.0014635322723073128 0 -0.0026093077610904038 0.0014553122702309711 0 -0.0026467569920826943 0.0014267269034558311 0 -0.0026093077610904038 0.0014553122702309711 0 -0.0025994581607684253 0.0013898192816722517 0 -0.0026547560840716571 0.0013759294290109744 0 -0.0026467569920826943 0.0014267269034558311 0 -0.0025994581607684253 0.0013898192816722517 0 -0.00258560619317386 0.001390312240259579 0 -0.0025141358061911922 0.0014077876721231637 0 -0.0025994581607684253 0.0013898192816722517 0 -0.00255006607455737 0.0013437832290205439 0 -0.0025713874425868062 0.0012652914176513586 0 -0.0025994581607684253 0.0013898192816722517 0 -0.0025500548878328419 0.0014521662202820148 0 -0.0024896636392419728 0.00140833697556644 0 -0.0026093077610904038 0.0014553122702309711 0 -0.0025994581607684253 0.0013898192816722517 0 -0.0025500548878328419 0.0014521662202820148 0 -0.0026093077610904038 0.0014553122702309711 0 -0.0025500548878328419 0.0014521662202820148 0 -0.0025553647076720898 0.0015107627472419731 0 -0.0025500548878328419 0.0014521662202820148 0 -0.0024896636392419728 0.00140833697556644 0 -0.0024746957028937435 0.0014901411199777933 0 -0.0024091169052711044 0.0014307261746689119 0 -0.0024896636392419728 0.00140833697556644 0 -0.0024746957028937435 0.0014901411199777933 0 -0.0023295762325087383 0.0014247067704524238 0 -0.0025141358061911922 0.0014077876721231637 0 -0.0023295762325087383 0.0014247067704524238 0 -0.002474734404927527 0.0013147165035979492 0 -0.0023317226799837373 0.0015051966801974718 0 -0.0022976178365948646 0.0013717663961750231 0 -0.0024776704359556192 0.0012880934684893731 0 -0.0023784022510276266 0.0014528066761061804 0 -0.002514075220623383 0.0014081054420084591 0 -0.0024776704359556192 0.0012880934684893731 0 -0.002514075220623383 0.0014081054420084591 0 -0.00255006607455737 0.0013437832290205439 0 -0.0024776704359556192 0.0012880934684893731 0 -0.0025994581607684253 0.0013898192816722517 0 -0.002514075220623383 0.0014081054420084591 0 -0.00255006607455737 0.0013437832290205439 0 -0.0026865155249950735 0.00056990147254432912 0 -0.0027790482787327484 0.00071723927901840977 0 -0.0028587041019379703 0.00063266240805847566 0 -0.0026865155249950735 0.00056990147254432912 0 -0.0028578960481523436 0.00053418011425799183 0 -0.0028587041019379703 0.00063266240805847566 0 -0.0023642480637121733 0.001243864446130252 0 -0.0021845419108753889 0.0013017839600105742 0 -0.0022764509251915147 0.0013895750197132793 0 -0.0023317226799837373 0.0015051966801974718 0 -0.0021732373468113936 0.0015532722095650449 0 -0.0022976178365948646 0.0013717663961750231 0 -0.0023892088843175101 0.001126788155451463 0 -0.0024300100317958245 0.0010573714822148909 0 -0.0023295762325087383 0.0014247067704524238 0 -0.0023892088843175101 0.001126788155451463 0 -0.0023295762325087383 0.0014247067704524238 0 -0.0023783142598654268 0.0013542622789254365 0 -0.0026865155249950735 0.00056990147254432912 0 -0.0025261745571801167 0.0007680799805235512 0 -0.0026732621342337626 0.00074769989573736178 0 -0.0025261745571801167 0.0007680799805235512 0 -0.0026732621342337626 0.00074769989573736178 0 -0.0026273089323297309 0.00087943011518524389 0 -0.0026865155249950735 0.00056990147254432912 0 -0.0026732621342337626 0.00074769989573736178 0 -0.0027790482787327484 0.00071723927901840977 0 -0.0026732621342337626 0.00074769989573736178 0 -0.0027790482787327484 0.00071723927901840977 0 -0.0027632214434655943 0.00080184989193406002 0 -0.0026732621342337626 0.00074769989573736178 0 -0.0027632214434655943 0.00080184989193406002 0 -0.0026273089323297309 0.00087943011518524389 0 -0.0027790482787327484 0.00071723927901840977 0 -0.0027632214434655943 0.00080184989193406002 0 -0.0028877570636332505 0.00073530478970943933 0 -0.0027632214434655943 0.00080184989193406002 0 -0.0027279067697299642 0.0009102076445265618 0 -0.0028622832230498223 0.00082450608799392565 0 -0.0027279067697299642 0.0009102076445265618 0 -0.0027957615104856406 0.00094768083818720184 0 -0.0028622832230498223 0.00082450608799392565 0 -0.0027632214434655943 0.00080184989193406002 0 -0.0027279067697299642 0.0009102076445265618 0 -0.0026273089323297309 0.00087943011518524389 0 -0.0026273089323297309 0.00087943011518524389 0 -0.0025490517628093787 0.0010024065801493276 0 -0.0026303063238931339 0.00097915544818642309 0 -0.0027279067697299642 0.0009102076445265618 0 -0.0026273089323297309 0.00087943011518524389 0 -0.0026303063238931339 0.00097915544818642309 0 -0.0025261745571801167 0.0007680799805235512 0 -0.0026273089323297309 0.00087943011518524389 0 -0.0025247601294888988 0.00096864780856454604 0 -0.0026273089323297309 0.00087943011518524389 0 -0.0025490517628093787 0.0010024065801493276 0 -0.0025247601294888988 0.00096864780856454604 0 -0.0025490517628093787 0.0010024065801493276 0 -0.0025468517014107404 0.0010518257283489783 0 -0.0024933450724646858 0.0010726693740017714 0 -0.0025490517628093787 0.0010024065801493276 0 -0.0025468517014107404 0.0010518257283489783 0 -0.0026303063238931339 0.00097915544818642309 0 -0.0025468517014107404 0.0010518257283489783 0 -0.0026363639406957484 0.0010368344341524787 0 -0.002510929053424447 0.0011110734511586085 0 -0.0025468517014107404 0.0010518257283489783 0 -0.0024933450724646858 0.0010726693740017714 0 -0.0025073781677721779 0.0010777121810987811 0 -0.0025468517014107404 0.0010518257283489783 0 -0.0025073781677721779 0.0010777121810987811 0 -0.002510929053424447 0.0011110734511586085 0 -0.0026363639406957484 0.0010368344341524787 0 -0.0026303063238931339 0.00097915544818642309 0 -0.0026978916489678265 0.00098717138738244536 0 -0.0025468517014107404 0.0010518257283489783 0 -0.0026363639406957484 0.0010368344341524787 0 -0.0026303063238931339 0.00097915544818642309 0 -0.0028834060068620841 -0.0017237247715784466 0 -0.0025217901334563548 0.0012236108636058335 0 -0.0026363639406957484 0.0010368344341524787 0 -0.0028096605842806953 0.0010258292167345119 0 -0.002510929053424447 0.0011110734511586085 0 -0.0025721935915570628 0.00064293751399363444 0 -0.0026787037172435369 0.0005566066558467986 0 -0.0028086756249864281 0.00055217818657449344 0 -0.0027279067697299642 0.0009102076445265618 0 -0.0026978916489678265 0.00098717138738244536 0 -0.0028096605842806953 0.0010258292167345119 0 -0.0027279067697299642 0.0009102076445265618 0 -0.0026303063238931339 0.00097915544818642309 0 -0.0026978916489678265 0.00098717138738244536 0 -0.0026363639406957484 0.0010368344341524787 0 -0.0026978916489678265 0.00098717138738244536 0 -0.0028096605842806953 0.0010258292167345119 0 -0.0025721935915570628 0.00064293751399363444 0 -0.0025615576857399205 0.00049252707495720026 0 -0.0026787037172435369 0.0005566066558467986 0 -0.003335041850157908 0.00099914922771293852 0 -0.0028834060068620841 -0.0017237247715784466 0 -0.0025713874425868062 0.0012652914176513586 0 -0.0024776704359556192 0.0012880934684893731 0 -0.0024509522655621068 0.0011218334528115216 0 -0.0025713874425868062 0.0012652914176513586 0 -0.0024509522655621068 0.0011218334528115216 0 -0.0025488632170301857 0.0011687401096835638 0 -0.00255006607455737 0.0013437832290205439 0 -0.0025713874425868062 0.0012652914176513586 0 -0.0024776704359556192 0.0012880934684893731 0 -0.0022976178365948646 0.0013717663961750231 0 -0.0024776704359556192 0.0012880934684893731 0 -0.0024509522655621068 0.0011218334528115216 0 -0.0025261745571801167 0.0007680799805235512 0 -0.0025247601294888988 0.00096864780856454604 0 -0.0024509522655621068 0.0011218334528115216 0 -0.0024300100317958245 0.0010573714822148909 0 -0.0024426765477660937 0.0011113374949794376 0 -0.0025247601294888988 0.00096864780856454604 0 -0.0024509522655621068 0.0011218334528115216 0 -0.0024931612010411974 0.0010553470884761822 0 -0.0025490517628093787 0.0010024065801493276 0 -0.0025247601294888988 0.00096864780856454604 0 -0.0024931612010411974 0.0010553470884761822 0 -0.0024509522655621068 0.0011218334528115216 0 -0.0024752210575792739 0.0010859187629687289 0 -0.0024982453859885736 0.0010873923938027807 0 -0.0024509522655621068 0.0011218334528115216 0 -0.0024752210575792739 0.0010859187629687289 0 -0.0024931612010411974 0.0010553470884761822 0 -0.0025490517628093787 0.0010024065801493276 0 -0.0024931612010411974 0.0010553470884761822 0 -0.0024933450724646858 0.0010726693740017714 0 -0.0024752210575792739 0.0010859187629687289 0 -0.0024931612010411974 0.0010553470884761822 0 -0.0024933450724646858 0.0010726693740017714 0 -0.0024967928297242739 0.0010686876253362676 0 -0.0025073781677721779 0.0010777121810987811 0 -0.002510929053424447 0.0011110734511586085 0 -0.0024933450724646858 0.0010726693740017714 0 -0.0024967928297242739 0.0010686876253362676 0 -0.002486481034134431 0.0010682661882592064 0 -0.0024933450724646858 0.0010726693740017714 0 -0.0024967928297242739 0.0010686876253362676 0 -0.0025073781677721779 0.0010777121810987811 0 -0.0024752210575792739 0.0010859187629687289 0 -0.002486481034134431 0.0010682661882592064 0 -0.0024982453859885736 0.0010873923938027807 0 -0.0024752210575792739 0.0010859187629687289 0 -0.0024933450724646858 0.0010726693740017714 0 -0.002486481034134431 0.0010682661882592064 0 -0.0024982453859885736 0.0010873923938027807 0 -0.0025676702729848636 0.0010739224535215174 0 -0.0025076509229717365 0.0010204257292118774 0 -0.002486481034134431 0.0010682661882592064 0 -0.0024982453859885736 0.0010873923938027807 0 -0.0024968153871129249 0.0010390515909239157 0 -0.0024509522655621068 0.0011218334528115216 0 -0.0024982453859885736 0.0010873923938027807 0 -0.0025488632170301857 0.0011687401096835638 0 -0.0024982453859885736 0.0010873923938027807 0 -0.0025488632170301857 0.0011687401096835638 0 -0.0025676702729848636 0.0010739224535215174 0 -0.0025108164848730266 0.00093111713078431922 0 -0.0025852971088500955 0.00088248018286641336 0 -0.0023959785459351066 0.0010245006170365811 0 -0.0027620178237249024 0.0008953957531441755 0 -0.0028633605449850325 0.0012848317201612819 0 -0.0025676702729848636 0.0010739224535215174 0 -0.0025124764906947678 0.00095231201585599921 0 -0.0026513000204284763 0.0009257091240720631 0 -0.0025676702729848636 0.0010739224535215174 0 -0.0025124764906947678 0.00095231201585599921 0 -0.0025076509229717365 0.0010204257292118774 0 -0.0025124764906947678 0.00095231201585599921 0 -0.0025108164848730266 0.00093111713078431922 0 -0.0023959785459351066 0.0010245006170365811 0 -0.0025002502864138881 0.001027428660807098 0 -0.0027000520122123853 0.00122171776930494 0 -0.0025108164848730266 0.00093111713078431922 0 -0.0025052075144379369 0.00099004023763973425 0 -0.0025032573410883616 0.0010336566257163871 0 -0.0025124764906947678 0.00095231201585599921 0 -0.0025108164848730266 0.00093111713078431922 0 -0.0025087631935705309 0.00097101173628970935 0 -0.0025108164848730266 0.00093111713078431922 0 -0.0025087631935705309 0.00097101173628970935 0 -0.0025052075144379369 0.00099004023763973425 0 -0.0024982453859885736 0.0010873923938027807 0 -0.0025076509229717365 0.0010204257292118774 0 -0.0024968153871129249 0.0010390515909239157 0 -0.0025087631935705309 0.00097101173628970935 0 -0.0025052075144379369 0.00099004023763973425 0 -0.0025076509229717365 0.0010204257292118774 0 -0.0025052075144379369 0.00099004023763973425 0 -0.0025076509229717365 0.0010204257292118774 0 -0.0024968153871129249 0.0010390515909239157 0 -0.0025124764906947678 0.00095231201585599921 0 -0.0025087631935705309 0.00097101173628970935 0 -0.0025076509229717365 0.0010204257292118774 0 -0.0025108164848730266 0.00093111713078431922 0 -0.0027005608814571762 0.00073105891635418451 0 -0.0025852971088500955 0.00088248018286641336 0 -0.0026201887161696447 0.00079254171593035776 0 -0.0025217901334563548 0.0012236108636058335 0 -0.0027005608814571762 0.00073105891635418451 0 -0.0025852971088500955 0.00088248018286641336 0 -0.0028496491840326234 0.0007016415001289294 0 -0.002486481034134431 0.0010682661882592064 0 -0.0024968153871129249 0.0010390515909239157 0 -0.0025032573410883616 0.0010336566257163871 0 -0.0025108164848730266 0.00093111713078431922 0 -0.0027005608814571762 0.00073105891635418451 0 -0.0028086756249864281 0.00055217818657449344 0 -0.0027620178237249024 0.0008953957531441755 0 -0.0030435401349917113 0.00067908623870350669 0 -0.0025108164848730266 0.00093111713078431922 0 -0.0025032573410883616 0.0010336566257163871 0 -0.002510929053424447 0.0011110734511586085 0 -0.0024967928297242739 0.0010686876253362676 0 -0.002486481034134431 0.0010682661882592064 0 -0.0025032573410883616 0.0010336566257163871 0 -0.0025052075144379369 0.00099004023763973425 0 -0.0024968153871129249 0.0010390515909239157 0 -0.0025032573410883616 0.0010336566257163871 0 -0.0024967928297242739 0.0010686876253362676 0 -0.0025032573410883616 0.0010336566257163871 0 -0.002510929053424447 0.0011110734511586085 0 -0.003027847409758731 0.00093136947532010276 0 -0.0030201913110188424 0.00091376819098118022 0 -0.0030279631050941676 0.0009053877328462236 0 -0.003027847409758731 0.00093136947532010276 0 -0.0030279631050941676 0.0009053877328462236 0 -0.0030638987272151711 0.00089102831284588069 0 -0.003027847409758731 0.00093136947532010276 0 -0.0030201913110188424 0.00091376819098118022 0 -0.0030203157161554808 0.00090870673475949165 0 -0.0030201913110188424 0.00091376819098118022 0 -0.0030213205535311542 0.00092248648018077668 0 -0.0030085518509004924 0.00094421831430265165 0 -0.0030201913110188424 0.00091376819098118022 0 -0.0030279631050941676 0.0009053877328462236 0 -0.0030085518509004924 0.00094421831430265165 0 -0.0030279631050941676 0.0009053877328462236 0 -0.0030638987272151711 0.00089102831284588069 0 -0.0030532366333216646 0.00086056343136861895 0 -0.0030279631050941676 0.0009053877328462236 0 -0.0030532366333216646 0.00086056343136861895 0 -0.0030085518509004924 0.00094421831430265165 0 -0.0030068584805746602 0.0012720818174182383 0 -0.0028633605449850325 0.0012848317201612819 0 -0.003027847409758731 0.00093136947532010276 0 -0.0030638987272151711 0.00089102831284588069 0 -0.0031495609664567818 0.00095232125467785162 0 -0.0030638987272151711 0.00089102831284588069 0 -0.0030552355125572478 0.00074307103730571861 0 -0.0031495609664567818 0.00095232125467785162 0 -0.0026099258368890129 0.00036812244217311781 0 -0.0027176381625318314 0.00047817277769285132 0 -0.0028106698458639804 0.00045553800145184837 0 -0.0027041027282061155 0.00028030485897840055 0 -0.0030435401349917113 0.00067908623870350669 0 -0.0026099258368890129 0.00036812244217311781 0 -0.0025615576857399205 0.00049252707495720026 0 -0.0026419314221937029 0.00047296832878037883 0 -0.0026787037172435369 0.0005566066558467986 0 -0.0026419314221937029 0.00047296832878037883 0 -0.0027176381625318314 0.00047817277769285132 0 -0.0025615576857399205 0.00049252707495720026 0 -0.0026787037172435369 0.0005566066558467986 0 -0.0026419314221937029 0.00047296832878037883 0 -0.0026099258368890129 0.00036812244217311781 0 -0.0026419314221937029 0.00047296832878037883 0 -0.0027176381625318314 0.00047817277769285132 0 -0.0027768036166291731 0.00051526174685294867 0 -0.0027176381625318314 0.00047817277769285132 0 -0.0028106698458639804 0.00045553800145184837 0 -0.0027768036166291731 0.00051526174685294867 0 -0.0027663373341503166 0.00053786518397074185 0 -0.0028192610031359819 0.00058045616387546639 0 -0.0027768036166291731 0.00051526174685294867 0 -0.0028192610031359819 0.00058045616387546639 0 -0.0028106698458639804 0.00045553800145184837 0 -0.0027768036166291731 0.00051526174685294867 0 -0.0027176381625318314 0.00047817277769285132 0 -0.0027663373341503166 0.00053786518397074185 0 -0.0026787037172435369 0.0005566066558467986 0 -0.0027663373341503166 0.00053786518397074185 0 -0.0028086756249864281 0.00055217818657449344 0 -0.0026787037172435369 0.0005566066558467986 0 -0.0027176381625318314 0.00047817277769285132 0 -0.0027663373341503166 0.00053786518397074185 0 -0.0027663373341503166 0.00053786518397074185 0 -0.0028086756249864281 0.00055217818657449344 0 -0.0028192610031359819 0.00058045616387546639 0 -0.0027005608814571762 0.00073105891635418451 0 -0.0028086756249864281 0.00055217818657449344 0 -0.0027838063517370316 0.00063266584618542764 0 -0.0028086756249864281 0.00055217818657449344 0 -0.0027838063517370316 0.00063266584618542764 0 -0.0028192610031359819 0.00058045616387546639 0 -0.0027005608814571762 0.00073105891635418451 0 -0.0027838063517370316 0.00063266584618542764 0 -0.0028496491840326234 0.0007016415001289294 0 -0.0027838063517370316 0.00063266584618542764 0 -0.0028192610031359819 0.00058045616387546639 0 -0.0028496491840326234 0.0007016415001289294 0 -0.0029594814035815951 0.00058307741548338401 0 -0.0030435401349917113 0.00067908623870350669 0 -0.0033371864526825739 0.00018030933051288399 0 -0.0032552407910938362 -0.00028487822902824994 0 -0.0030395018914777211 5.219882702032706e-07 0 -0.0030435401349917113 0.00067908623870350669 0 -0.0030396857472501948 -0.0012385896456814267 0 -0.0030203157161554808 0.00090870673475949165 0 -0.0030230245084144364 0.00091489987795487975 0 -0.0030349603452299364 0.00091944849588969043 0 -0.0030201913110188424 0.00091376819098118022 0 -0.0030203157161554808 0.00090870673475949165 0 -0.0030230245084144364 0.00091489987795487975 0 -0.0030213205535311542 0.00092248648018077668 0 -0.0030349603452299364 0.00091944849588969043 0 -0.0030085518509004924 0.00094421831430265165 0 -0.0030201913110188424 0.00091376819098118022 0 -0.0030230245084144364 0.00091489987795487975 0 -0.0030213205535311542 0.00092248648018077668 0 -0.0030230245084144364 0.00091489987795487975 0 -0.0030213205535311542 0.00092248648018077668 0 -0.0030349603452299364 0.00091944849588969043 0 -0.0032552407910938362 -0.00028487822902824994 0 -0.0030395018914777211 5.219882702032706e-07 0 -0.0026861959987926763 -7.5115945469468167e-05 0 -0.0030396857472501948 -0.0012385896456814267 0 -0.0024311172177104963 -0.0027594502401105049 0 -0.0019080659782970944 -0.0053617231651901 0 -0.0024405530071806786 -0.0055796196918688539 0 -0.0023207429128241355 -0.0052220505024488011 0 -0.0028242115845904269 0.00019834222235234742 0 -0.0033371864526825739 0.00018030933051288399 0 -0.0030395018914777211 5.219882702032706e-07 0 -0.0024405530071806786 -0.0055796196918688539 0 -0.0023207429128241355 -0.0052220505024488011 0 -0.0025703713872316947 -0.0052981681426091769 0 -0.0028242115845904269 0.00019834222235234742 0 -0.0030395018914777211 5.219882702032706e-07 0 -0.0026861959987926763 -7.5115945469468167e-05 0 -0.0019080659782970944 -0.0053617231651901 0 -0.0022261235942169577 -0.0049696589831431165 0 -0.0019458485359888545 -0.0046027310480421246 0 -0.0023207429128241355 -0.0052220505024488011 0 -0.0022261235942169577 -0.0049696589831431165 0 -0.0025695695533793882 -0.0049503355820378929 0 -0.0019080659782970944 -0.0053617231651901 0 -0.0023207429128241355 -0.0052220505024488011 0 -0.0022261235942169577 -0.0049696589831431165 0 -0.0028532466674529131 0.0010935868819644803 0 -0.0029997041190797857 0.00083049019997883744 0 -0.0023505096257638095 0.00064960907756660266 0 -0.0030396857472501948 -0.0012385896456814267 0 -0.0020481545273475779 -0.0022421996074503342 0 -0.0028532466674529131 0.0010935868819644803 0 -0.0029997041190797857 0.00083049019997883744 0 -0.0030085518509004924 0.00094421831430265165 0 -0.0030396857472501948 -0.0012385896456814267 0 -0.002656699580595728 0.0005204580324597119 0 -0.0029997041190797857 0.00083049019997883744 0 -0.0023505096257638095 0.00064960907756660266 0 -0.0033048758641708088 0.00038816786813482913 0 -0.0022261235942169577 -0.0049696589831431165 0 -0.0019458485359888545 -0.0046027310480421246 0 -0.0024472042733163679 -0.0046266623333121584 0 -0.0019458485359888545 -0.0046027310480421246 0 -0.0024472042733163679 -0.0046266623333121584 0 -0.0023436690927887208 -0.0041729681642587169 0 -0.0022261235942169577 -0.0049696589831431165 0 -0.0024472042733163679 -0.0046266623333121584 0 -0.0025695695533793882 -0.0049503355820378929 0 -0.0030638987272151711 0.00089102831284588069 0 -0.0030552355125572478 0.00074307103730571861 0 -0.0030532366333216646 0.00086056343136861895 0 -0.0030552355125572478 0.00074307103730571861 0 -0.0030532366333216646 0.00086056343136861895 0 -0.0030790459583464043 0.00082718494727992877 0 -0.0030532366333216646 0.00086056343136861895 0 -0.0030085518509004924 0.00094421831430265165 0 -0.0030790459583464043 0.00082718494727992877 0 -0.0029997041190797857 0.00083049019997883744 0 -0.0030085518509004924 0.00094421831430265165 0 -0.0030790459583464043 0.00082718494727992877 0 -0.0029997041190797857 0.00083049019997883744 0 -0.0031482430198992491 0.00075371872746598156 0 -0.0033048758641708088 0.00038816786813482913 0 -0.0029997041190797857 0.00083049019997883744 0 -0.0030790459583464043 0.00082718494727992877 0 -0.0031482430198992491 0.00075371872746598156 0 -0.0030552355125572478 0.00074307103730571861 0 -0.0031482430198992491 0.00075371872746598156 0 -0.0029232716328827942 0.0012139896838876661 0 -0.0030068584805746602 0.0012720818174182383 0 -0.0029262901748783078 0.0012207698877499096 0 -0.0028963887346428619 0.0017257168543563951 0 -0.0029569061648686296 0.0015094126081184156 0 -0.0029232716328827942 0.0012139896838876661 0 -0.0030552355125572478 0.00074307103730571861 0 -0.0030790459583464043 0.00082718494727992877 0 -0.0031482430198992491 0.00075371872746598156 0 -0.0028963887346428619 0.0017257168543563951 0 -0.0029889688324556268 0.0016884658360277786 0 -0.0029569061648686296 0.0015094126081184156 0 -0.0029889688324556268 0.0016884658360277786 0 -0.0029906728235324816 0.0017684910162903368 0 -0.0029794995857322371 0.0018062671808722328 0 -0.0029889688324556268 0.0016884658360277786 0 -0.0029794995857322371 0.0018062671808722328 0 -0.0029666698869846371 0.0018149116322563317 0 -0.0029889688324556268 0.0016884658360277786 0 -0.0029906728235324816 0.0017684910162903368 0 -0.0029712429944643254 0.0017743647315476281 0 -0.0029906728235324816 0.0017684910162903368 0 -0.0029712429944643254 0.0017743647315476281 0 -0.0029849812459557244 0.0017792886254089505 0 -0.0028963887346428619 0.0017257168543563951 0 -0.0029889688324556268 0.0016884658360277786 0 -0.0029712429944643254 0.0017743647315476281 0 -0.0028963887346428619 0.0017257168543563951 0 -0.0029712429944643254 0.0017743647315476281 0 -0.002940295601119392 0.0018045194963730474 0 -0.0027906405659170646 0.0015589585140424118 0 -0.0028633605449850325 0.0012848317201612819 0 -0.0029712429944643254 0.0017743647315476281 0 -0.0029860896442626349 0.0017807616937489264 0 -0.002940295601119392 0.0018045194963730474 0 -0.0029712429944643254 0.0017743647315476281 0 -0.0029849812459557244 0.0017792886254089505 0 -0.0029860896442626349 0.0017807616937489264 0 -0.0026582816627895457 0.0014662765122035804 0 -0.0026739624254798898 0.0014065260245325175 0 -0.0026597257903428102 0.0014516115515973843 0 -0.0026582816627895457 0.0014662765122035804 0 -0.0026739624254798898 0.0014065260245325175 0 -0.0027410616998321999 0.0014490400367840159 0 -0.0027906405659170646 0.0015589585140424118 0 -0.0027000520122123853 0.00122171776930494 0 -0.0027780996652498318 0.0013853939775597167 0 -0.0027817959221489988 0.001379944023567532 0 -0.0027820530074877635 0.0013804844799405259 0 -0.0025124764906947678 0.00095231201585599921 0 -0.0023843251578221859 0.00098243936298540897 0 -0.0023959785459351066 0.0010245006170365811 0 -0.0027000520122123853 0.00122171776930494 0 -0.0028633605449850325 0.0012848317201612819 0 -0.0026655857335356721 0.0014891399035493467 0 -0.0026702709951382545 0.0015069693068428683 0 -0.0026705762190879297 0.0015284808254086516 0 -0.0026629278361109485 0.0014741883122169569 0 -0.0026655857335356721 0.0014891399035493467 0 -0.0026705762190879297 0.0015284808254086516 0 -0.0026629278361109485 0.0014741883122169569 0 -0.0026655857335356721 0.0014891399035493467 0 -0.0026597257903428102 0.0014516115515973843 0 -0.0026582816627895457 0.0014662765122035804 0 -0.0026597257903428102 0.0014516115515973843 0 -0.0026640693660853355 0.0014815269875249829 0 -0.0026655857335356721 0.0014891399035493467 0 -0.0026597257903428102 0.0014516115515973843 0 -0.0026640693660853355 0.0014815269875249829 0 -0.0029860896442626349 0.0017807616937489264 0 -0.0029753672601343026 0.0017783944690725505 0 -0.0029504962171117521 0.0017501490280684663 0 -0.0026592481324224054 0.0014602976069940476 0 -0.0026640693660853355 0.0014815269875249829 0 -0.0026702709951382545 0.0015069693068428683 0 -0.0026655857335356721 0.0014891399035493467 0 -0.0026640693660853355 0.0014815269875249829 0 -0.0026702709951382545 0.0015069693068428683 0 -0.0027906405659170646 0.0015589585140424118 0 -0.0028081848644298832 0.0016354229680990331 0 -0.0027906405659170646 0.0015589585140424118 0 -0.0026542032848138708 0.0015118138533908745 0 -0.0029849812459557244 0.0017792886254089505 0 -0.0029860896442626349 0.0017807616937489264 0 -0.0029753672601343026 0.0017783944690725505 0 -0.0029753672601343026 0.0017783944690725505 0 -0.0029591242402800689 0.0017887276683795979 0 -0.0029504962171117521 0.0017501490280684663 0 -0.0028081848644298832 0.0016354229680990331 0 -0.0027489452816949612 0.0016714152421311744 0 -0.0029591242402800689 0.0017887276683795979 0 -0.0029504962171117521 0.0017501490280684663 0 -0.002924725277950263 0.0018207439647344096 0 -0.0029504962171117521 0.0017501490280684663 0 -0.002924725277950263 0.0018207439647344096 0 -0.0028490401877485335 0.0017415761496460561 0 -0.0026702709951382545 0.0015069693068428683 0 -0.0026705762190879297 0.0015284808254086516 0 -0.0026753347947957285 0.0015915003984787084 0 -0.002924725277950263 0.0018207439647344096 0 -0.0029765740722040605 0.0017994641433420851 0 -0.002947391914169237 0.0018800276607246083 0 -0.0029591242402800689 0.0017887276683795979 0 -0.002924725277950263 0.0018207439647344096 0 -0.0029765740722040605 0.0017994641433420851 0 -0.0029906728235324816 0.0017684910162903368 0 -0.0029765740722040605 0.0017994641433420851 0 -0.0029794995857322371 0.0018062671808722328 0 -0.0029849812459557244 0.0017792886254089505 0 -0.0029753672601343026 0.0017783944690725505 0 -0.0029765740722040605 0.0017994641433420851 0 -0.0029906728235324816 0.0017684910162903368 0 -0.0029849812459557244 0.0017792886254089505 0 -0.0029765740722040605 0.0017994641433420851 0 -0.0029753672601343026 0.0017783944690725505 0 -0.0029591242402800689 0.0017887276683795979 0 -0.0029765740722040605 0.0017994641433420851 0 -0.0029765740722040605 0.0017994641433420851 0 -0.0029794995857322371 0.0018062671808722328 0 -0.002947391914169237 0.0018800276607246083 0 -0.0029794995857322371 0.0018062671808722328 0 -0.002947391914169237 0.0018800276607246083 0 -0.002954420051543275 0.0019257362258875879 0 -0.002947391914169237 0.0018800276607246083 0 -0.0028655373743631416 0.0019484568314261923 0 -0.0029144464217617985 0.0019904095292228299 0 -0.002924725277950263 0.0018207439647344096 0 -0.002947391914169237 0.0018800276607246083 0 -0.0028655373743631416 0.0019484568314261923 0 -0.0028655373743631416 0.0019484568314261923 0 -0.0027380605228428051 0.002096296484414009 0 -0.002837168191662986 0.0021162423515004697 0 -0.0028655373743631416 0.0019484568314261923 0 -0.0028225607078224274 0.0018438319858808225 0 -0.0027360957965604244 0.0019361441307712767 0 -0.002924725277950263 0.0018207439647344096 0 -0.0028225607078224274 0.0018438319858808225 0 -0.0028490401877485335 0.0017415761496460561 0 -0.002924725277950263 0.0018207439647344096 0 -0.0028655373743631416 0.0019484568314261923 0 -0.0028225607078224274 0.0018438319858808225 0 -0.0028225607078224274 0.0018438319858808225 0 -0.0027360957965604244 0.0019361441307712767 0 -0.0026582851505178653 0.0017310917231231635 0 -0.0027360957965604244 0.0019361441307712767 0 -0.002576295783718575 0.0018343467057539474 0 -0.0026582851505178653 0.0017310917231231635 0 -0.0028655373743631416 0.0019484568314261923 0 -0.0027360957965604244 0.0019361441307712767 0 -0.0027380605228428051 0.002096296484414009 0 -0.0027360957965604244 0.0019361441307712767 0 -0.0027380605228428051 0.002096296484414009 0 -0.0026038388896124746 0.0020628219964306787 0 -0.0027380605228428051 0.002096296484414009 0 -0.0026038388896124746 0.0020628219964306787 0 -0.0026202143871690967 0.0022677849154069075 0 -0.0026038388896124746 0.0020628219964306787 0 -0.0024821681383254061 0.0021401509644901257 0 -0.0026202143871690967 0.0022677849154069075 0 -0.0024821681383254061 0.0021401509644901257 0 -0.0024738545217062404 0.0019594914229818781 0 -0.0022846766766200133 0.0020826798233882556 0 -0.0024821681383254061 0.0021401509644901257 0 -0.0022846766766200133 0.0020826798233882556 0 -0.002485311774686012 0.0024061670867967294 0 -0.0026038388896124746 0.0020628219964306787 0 -0.0024821681383254061 0.0021401509644901257 0 -0.0024738545217062404 0.0019594914229818781 0 -0.0024738545217062404 0.0019594914229818781 0 -0.0024137504553981368 0.0017175303451495314 0 -0.0022846766766200133 0.0020826798233882556 0 -0.0024738545217062404 0.0019594914229818781 0 -0.002576295783718575 0.0018343467057539474 0 -0.0024137504553981368 0.0017175303451495314 0 -0.0020610247452085874 0.0026509827173888572 0 -0.0021384201430298482 0.0025949209467433215 0 -0.0026038388896124746 0.0020628219964306787 0 -0.0024738545217062404 0.0019594914229818781 0 -0.002576295783718575 0.0018343467057539474 0 -0.0027360957965604244 0.0019361441307712767 0 -0.0026038388896124746 0.0020628219964306787 0 -0.002576295783718575 0.0018343467057539474 0 -0.002576295783718575 0.0018343467057539474 0 -0.0025625289006334971 0.0016451091219815224 0 -0.0024137504553981368 0.0017175303451495314 0 -0.002576295783718575 0.0018343467057539474 0 -0.0025625289006334971 0.0016451091219815224 0 -0.0026582851505178653 0.0017310917231231635 0 -0.0020610247452085874 0.0026509827173888572 0 -0.0020116648097497193 0.00282494920847143 0 -0.0017077811986674176 0.0035736925276826374 0 -0.0020110987255341183 0.0039139431733037459 0 -0.0014795325091140838 0.0041136076541202589 0 -0.0025625289006334971 0.0016451091219815224 0 -0.0024137504553981368 0.0017175303451495314 0 -0.0025427640951848074 0.0015306418926423337 0 -0.0025625289006334971 0.0016451091219815224 0 -0.0026465118902120849 0.0015923765262823835 0 -0.0025427640951848074 0.0015306418926423337 0 -0.0026465118902120849 0.0015923765262823835 0 -0.0026548815653628689 0.0015156144180672286 0 -0.0025427640951848074 0.0015306418926423337 0 -0.0026465118902120849 0.0015923765262823835 0 -0.0026705762190879297 0.0015284808254086516 0 -0.0026753347947957285 0.0015915003984787084 0 -0.0026465118902120849 0.0015923765262823835 0 -0.0026705762190879297 0.0015284808254086516 0 -0.0026548815653628689 0.0015156144180672286 0 -0.0026629278361109485 0.0014741883122169569 0 -0.0026705762190879297 0.0015284808254086516 0 -0.0026548815653628689 0.0015156144180672286 0 -0.0025625289006334971 0.0016451091219815224 0 -0.0026465118902120849 0.0015923765262823835 0 -0.0026582851505178653 0.0017310917231231635 0 -0.0027489452816949612 0.0016714152421311744 0 -0.0026557020540970144 0.0017192017287977668 0 -0.0028225607078224274 0.0018438319858808225 0 -0.0028490401877485335 0.0017415761496460561 0 -0.0026582851505178653 0.0017310917231231635 0 -0.0026465118902120849 0.0015923765262823835 0 -0.0026753347947957285 0.0015915003984787084 0 -0.0026582851505178653 0.0017310917231231635 0 -0.0024767679549316545 0.0032316572806472391 0 -0.0024547882191787453 0.003090805725071913 0 -0.0023801573384067075 0.0032243123200627259 0 -0.0024767679549316545 0.0032316572806472391 0 -0.0023801573384067075 0.0032243123200627259 0 -0.0024395704369117189 0.0033387123554983926 0 -0.0024547882191787453 0.003090805725071913 0 -0.0023383917440998074 0.0030731084641667443 0 -0.0023801573384067075 0.0032243123200627259 0 -0.0024547882191787453 0.003090805725071913 0 -0.0023383917440998074 0.0030731084641667443 0 -0.0023736703644320596 0.0029352771552700906 0 -0.0023383917440998074 0.0030731084641667443 0 -0.0023801573384067075 0.0032243123200627259 0 -0.0022023709871995009 0.0031834417495669957 0 -0.0022023709871995009 0.0031834417495669957 0 -0.0019388724048044329 0.0032931931375010117 0 -0.0022760827524117258 0.003380185833298353 0 -0.0023801573384067075 0.0032243123200627259 0 -0.0022023709871995009 0.0031834417495669957 0 -0.0022760827524117258 0.003380185833298353 0 -0.0022023709871995009 0.0031834417495669957 0 -0.0022533949365130708 0.002980123621895819 0 -0.0019695122135690861 0.003091590518264574 0 -0.0023383917440998074 0.0030731084641667443 0 -0.0022023709871995009 0.0031834417495669957 0 -0.0022533949365130708 0.002980123621895819 0 -0.0023383917440998074 0.0030731084641667443 0 -0.0022533949365130708 0.002980123621895819 0 -0.0023736703644320596 0.0029352771552700906 0 -0.0017077811986674176 0.0035736925276826374 0 -0.0019695122135690861 0.003091590518264574 0 -0.0019388724048044329 0.0032931931375010117 0 -0.0022023709871995009 0.0031834417495669957 0 -0.0019695122135690861 0.003091590518264574 0 -0.0019388724048044329 0.0032931931375010117 0 -0.0019388724048044329 0.0032931931375010117 0 -0.0020007411740965782 0.0035929836542866285 0 -0.0023314725406946204 0.0035978490754037282 0 -0.0017077811986674176 0.0035736925276826374 0 -0.0019388724048044329 0.0032931931375010117 0 -0.0020007411740965782 0.0035929836542866285 0 -0.0017077811986674176 0.0035736925276826374 0 -0.0020007411740965782 0.0035929836542866285 0 -0.0020110987255341183 0.0039139431733037459 0 -0.0020110987255341183 0.0039139431733037459 0 -0.0023314725406946204 0.0035978490754037282 0 -0.0024225482638475459 0.0040570376051378655 0 -0.0020007411740965782 0.0035929836542866285 0 -0.0020110987255341183 0.0039139431733037459 0 -0.0023314725406946204 0.0035978490754037282 0 -0.0019540335746165492 0.0032831877031466094 0 -0.0022809861560152914 0.0035268175886704113 0 -0.0022760827524117258 0.003380185833298353 0 -0.0024233764467806547 0.0034599574192888728 0 -0.0024395704369117189 0.0033387123554983926 0 -0.0023801573384067075 0.0032243123200627259 0 -0.0022760827524117258 0.003380185833298353 0 -0.0024395704369117189 0.0033387123554983926 0 -0.0023314725406946204 0.0035978490754037282 0 -0.0027748291219392902 0.0039067620874770979 0 -0.0024225482638475459 0.0040570376051378655 0 -0.0022809861560152914 0.0035268175886704113 0 -0.0027133326737010066 0.0034198574093594557 0 -0.0025298082082189323 0.0034325822499099963 0 -0.0024233764467806547 0.0034599574192888728 0 -0.0024395704369117189 0.0033387123554983926 0 -0.0029423384852495836 0.0045574736751146459 0 -0.0027820763068585508 0.0042310631416075852 0 -0.0025586627244033105 0.0044273321892667125 0 -0.0029423384852495836 0.0045574736751146459 0 -0.0025586627244033105 0.0044273321892667125 0 -0.0026711303901577775 0.0049128473848502763 0 -0.0027748291219392902 0.0039067620874770979 0 -0.0027820763068585508 0.0042310631416075852 0 -0.0024225482638475459 0.0040570376051378655 0 -0.0032166293536740583 0.0042194830714622957 0 -0.0027748291219392902 0.0039067620874770979 0 -0.0027820763068585508 0.0042310631416075852 0 -0.0027820763068585508 0.0042310631416075852 0 -0.0024225482638475459 0.0040570376051378655 0 -0.0025586627244033105 0.0044273321892667125 0 -0.0024225482638475459 0.0040570376051378655 0 -0.0025586627244033105 0.0044273321892667125 0 -0.0021959803366364593 0.004397428059563703 0 -0.0025586627244033105 0.0044273321892667125 0 -0.0021959803366364593 0.004397428059563703 0 -0.0023666002017323339 0.0047762892336433976 0 -0.0020110987255341183 0.0039139431733037459 0 -0.0024225482638475459 0.0040570376051378655 0 -0.0021959803366364593 0.004397428059563703 0 -0.0020110987255341183 0.0039139431733037459 0 -0.0021959803366364593 0.004397428059563703 0 -0.0017359749080892173 0.0044622189303354766 0 -0.0021959803366364593 0.004397428059563703 0 -0.0020123433786839468 0.0048904655320179151 0 -0.0017359749080892173 0.0044622189303354766 0 -0.0020123433786839468 0.0048904655320179151 0 -0.0017359749080892173 0.0044622189303354766 0 -0.0015724768037570702 0.0048351199429592069 0 -0.0020123433786839468 0.0048904655320179151 0 -0.0020674804975542053 0.0054304620175872403 0 -0.0017657068347705232 0.0053083300357691359 0 -0.0020123433786839468 0.0048904655320179151 0 -0.0015724768037570702 0.0048351199429592069 0 -0.0017657068347705232 0.0053083300357691359 0 -0.0020123433786839468 0.0048904655320179151 0 -0.0023666002017323339 0.0047762892336433976 0 -0.0023962987005823944 0.005314304059107015 0 -0.0020123433786839468 0.0048904655320179151 0 -0.0023962987005823944 0.005314304059107015 0 -0.0020674804975542053 0.0054304620175872403 0 -0.0021959803366364593 0.004397428059563703 0 -0.0020123433786839468 0.0048904655320179151 0 -0.0023666002017323339 0.0047762892336433976 0 -0.0025586627244033105 0.0044273321892667125 0 -0.0023666002017323339 0.0047762892336433976 0 -0.0026711303901577775 0.0049128473848502763 0 -0.0023666002017323339 0.0047762892336433976 0 -0.0026711303901577775 0.0049128473848502763 0 -0.0023962987005823944 0.005314304059107015 0 -0.00069529178095952861 0.0087252045992784605 0 -0.00063785927261571273 0.0083903589634415441 0 -0.00045880636418503437 0.0087369687353829814 0 -0.0016505233103154215 0.0066578104607352799 0 -0.0014396117657548681 0.0070036309361455676 0 -0.00084197799984251102 0.0086301356461750602 0 -0.00069529178095952861 0.0087252045992784605 0 -0.00063785927261571273 0.0083903589634415441 0 -0.00090914289085145515 0.0088940618092050658 0 -0.00084197799984251102 0.0086301356461750602 0 -0.00069529178095952861 0.0087252045992784605 0 -0.0011251215208901756 0.008479331934639624 0 -0.00084197799984251102 0.0086301356461750602 0 -0.00063785927261571273 0.0083903589634415441 0 -0.0011251215208901756 0.008479331934639624 0 -0.00097813494862605561 0.0079129213873945434 0 -0.00063785927261571273 0.0083903589634415441 0 -0.002006193125575817 0.0062281720558082588 0 -0.0016505233103154215 0.0066578104607352799 0 -0.0026158782438375902 0.0014947632433883356 0 -0.0026548815653628689 0.0015156144180672286 0 -0.0025427640951848074 0.0015306418926423337 0 -0.0026158782438375902 0.0014947632433883356 0 -0.0026412554528744158 0.0014679293207823217 0 -0.0026548815653628689 0.0015156144180672286 0 -0.0026158782438375902 0.0014947632433883356 0 -0.0026412554528744158 0.0014679293207823217 0 -0.0026125135656804186 0.0014795272596952239 0 -0.0026566372747372866 0.0014442240174411009 0 -0.0026412554528744158 0.0014679293207823217 0 -0.0026548815653628689 0.0015156144180672286 0 -0.0020110987255341183 0.0039139431733037459 0 -0.0014795325091140838 0.0041136076541202589 0 -0.0017359749080892173 0.0044622189303354766 0 -0.0014795325091140838 0.0041136076541202589 0 -0.0017359749080892173 0.0044622189303354766 0 -0.0013356908227375008 0.0046288023686267468 0 -0.0026158782438375902 0.0014947632433883356 0 -0.0025427640951848074 0.0015306418926423337 0 -0.0026125135656804186 0.0014795272596952239 0 -0.0020116648097497193 0.00282494920847143 0 -0.0019783981821350047 0.0030533789181396744 0 -0.0013356908227375008 0.0046288023686267468 0 -0.0015724768037570702 0.0048351199429592069 0 -0.0014444989698658625 0.0048628080112289983 0 -0.0017359749080892173 0.0044622189303354766 0 -0.0013356908227375008 0.0046288023686267468 0 -0.0015724768037570702 0.0048351199429592069 0 -0.0015724768037570702 0.0048351199429592069 0 -0.0012444035351319865 0.0055555812766374807 0 -0.0017657068347705232 0.0053083300357691359 0 -0.0015295272675935948 0.0049108823345756607 0 -0.0014005770472404731 0.0050972697703806063 0 -0.0015724768037570702 0.0048351199429592069 0 -0.0014444989698658625 0.0048628080112289983 0 -0.001446535209329297 0.0049167564374496637 0 -0.0013356908227375008 0.0046288023686267468 0 -0.0014444989698658625 0.0048628080112289983 0 -0.0013616273247839441 0.0048697780711098142 0 -0.0026412554528744158 0.0014679293207823217 0 -0.0026125135656804186 0.0014795272596952239 0 -0.0026524715727023768 0.001492872748228728 0 -0.0019783981821350047 0.0030533789181396744 0 -0.0019992553546809657 0.0031635582582331106 0 -0.0026464991787906638 0.0014618937494496934 0 -0.0026412554528744158 0.0014679293207823217 0 -0.0026524715727023768 0.001492872748228728 0 -0.0026566372747372866 0.0014442240174411009 0 -0.0026464991787906638 0.0014618937494496934 0 -0.0026412554528744158 0.0014679293207823217 0 -0.0026464991787906638 0.0014618937494496934 0 -0.0026524715727023768 0.001492872748228728 0 -0.002643459021310743 0.0015025977668709949 0 -0.0026524715727023768 0.001492872748228728 0 -0.002643459021310743 0.0015025977668709949 0 -0.0026595392334112702 0.0015517015801041608 0 -0.002643459021310743 0.0015025977668709949 0 -0.0026407232067427143 0.0015386071276916962 0 -0.0026595392334112702 0.0015517015801041608 0 -0.0026407232067427143 0.0015386071276916962 0 -0.0026595392334112702 0.0015517015801041608 0 -0.0026354369469083197 0.0015628447412150974 0 -0.0013979914035299236 0.0049230694938314648 0 -0.0014014302917242664 0.0049197987432241302 0 -0.0013912287547285524 0.0049320108104907836 0 -0.0013616273247839441 0.0048697780711098142 0 -0.0013979914035299236 0.0049230694938314648 0 -0.0014014302917242664 0.0049197987432241302 0 -0.0019992553546809657 0.0031635582582331106 0 -0.0020820904390311023 0.0033074760635788416 0 -0.0014444989698658625 0.0048628080112289983 0 -0.0014014302917242664 0.0049197987432241302 0 -0.001446535209329297 0.0049167564374496637 0 -0.0014444989698658625 0.0048628080112289983 0 -0.0013616273247839441 0.0048697780711098142 0 -0.0014014302917242664 0.0049197987432241302 0 -0.0012444035351319865 0.0055555812766374807 0 -0.0017657068347705232 0.0053083300357691359 0 -0.0016510200477367588 0.0056952077916432335 0 -0.0012444035351319865 0.0055555812766374807 0 -0.0014231471772272403 0.0060189905749795684 0 -0.0016510200477367588 0.0056952077916432335 0 -0.0012444035351319865 0.0055555812766374807 0 -0.0014231471772272403 0.0060189905749795684 0 -0.00099086494238958926 0.0063096542923191824 0 -0.0014231471772272403 0.0060189905749795684 0 -0.0016510200477367588 0.0056952077916432335 0 -0.0017429076943884672 0.0059886338006935446 0 -0.0014231471772272403 0.0060189905749795684 0 -0.0016287132189358562 0.0064320606812531562 0 -0.0017429076943884672 0.0059886338006935446 0 -0.0014014302917242664 0.0049197987432241302 0 -0.0014050975699549161 0.0049517794670395666 0 -0.0013912287547285524 0.0049320108104907836 0 -0.0014014302917242664 0.0049197987432241302 0 -0.001446535209329297 0.0049167564374496637 0 -0.0014050975699549161 0.0049517794670395666 0 -0.0014005770472404731 0.0050972697703806063 0 -0.00099531472072307493 0.0061959839478136075 0 -0.001359884752923986 0.0049284622511705746 0 -0.0013620274824970263 0.0049219329078640586 0 -0.0013912287547285524 0.0049320108104907836 0 -0.0014231471772272403 0.0060189905749795684 0 -0.00099086494238958926 0.0063096542923191824 0 -0.0010306244389091169 0.0063297552871936901 0 -0.00099531472072307493 0.0061959839478136075 0 -0.001195452426708271 0.0052283162207602141 0 -0.00088664083805333773 0.0066843507044883656 0 -0.00080246454449307207 0.0070907907220032112 0 -0.00099531472072307493 0.0061959839478136075 0 -0.00080246454449307207 0.0070907907220032112 0 -0.0011867042252282271 0.0069840022646805019 0 -0.0009732713484234979 0.0068768591128982627 0 -0.00129855698563885 0.0066185185533728704 0 -0.00099531472072307493 0.0061959839478136075 0 -0.00088664083805333773 0.0066843507044883656 0 -0.00018017406098766152 0.010639350151999682 0 0.00014563733820518974 0.010177825200064272 0 -0.00030318485774697096 0.010541175137826316 0 0.00014563733820518974 0.010177825200064272 0 -0.00030318485774697096 0.010541175137826316 0 -0.00015722575630335345 0.0097815452797451879 0 -0.0014231471772272403 0.0060189905749795684 0 -0.00133050913355402 0.006573521165007686 0 -0.0016287132189358562 0.0064320606812531562 0 0.00014563733820518974 0.010177825200064272 0 0.00049666080140089357 0.010324098153322645 0 0.0012298212100552567 0.0099578383779166686 0 -0.0014231471772272403 0.0060189905749795684 0 -0.00095374831467650298 0.0063862991891554567 0 -0.00133050913355402 0.006573521165007686 0 -0.0014523050159927875 0.0059867947370566901 0 -0.00088664083805333773 0.0066843507044883656 0 -0.00018017406098766152 0.010639350151999682 0 0.00014563733820518974 0.010177825200064272 0 0.00049666080140089357 0.010324098153322645 0 -0.00088664083805333773 0.0066843507044883656 0 -0.00016236560560506697 0.0096430702289950956 0 -0.00016236560560506697 0.0096430702289950956 0 -0.00054519074649299782 0.0086871466445630242 0 0.00094707710238753557 0.01129916421758826 0 0.00095358896742848824 0.011305157470153584 0 0.00095804343027001482 0.011317786622993629 0 -0.00016236560560506697 0.0096430702289950956 0 0.0010845137050674977 0.010541266170373074 0 0.00014563733820518974 0.010177825200064272 0 0.00061850422099799527 0.009740413218273871 0 0.0012298212100552567 0.0099578383779166686 0 0.00061850422099799527 0.009740413218273871 0 0.00098871554124005433 0.0094298923494627006 0 0.0012298212100552567 0.0099578383779166686 0 0.00014563733820518974 0.010177825200064272 0 0.00061850422099799527 0.009740413218273871 0 0.00023365215599671608 0.0097746556398455829 0 0.00023365215599671608 0.0097746556398455829 0 0.00047649178224462167 0.009375397169555889 0 2.5754405616048857e-05 0.0094708842183419423 0 0.00047649178224462167 0.009375397169555889 0 2.5754405616048857e-05 0.0094708842183419423 0 0.00018297130586230516 0.0090353708548779194 0 0.00061850422099799527 0.009740413218273871 0 0.00023365215599671608 0.0097746556398455829 0 0.00047649178224462167 0.009375397169555889 0 0.00061850422099799527 0.009740413218273871 0 0.00047649178224462167 0.009375397169555889 0 0.00098871554124005433 0.0094298923494627006 0 -0.00030318485774697096 0.010541175137826316 0 -0.00015722575630335345 0.0097815452797451879 0 -0.00066771724970672835 0.0094000220478469027 0 -0.00080246454449307207 0.0070907907220032112 0 -0.0010697400165394179 0.0080023181917474699 0 0.00014563733820518974 0.010177825200064272 0 0.00023365215599671608 0.0097746556398455829 0 -0.00015722575630335345 0.0097815452797451879 0 -0.00015722575630335345 0.0097815452797451879 0 2.5754405616048857e-05 0.0094708842183419423 0 -0.00036823411194853074 0.0093254521052680006 0 2.5754405616048857e-05 0.0094708842183419423 0 -0.00036823411194853074 0.0093254521052680006 0 0.00018297130586230516 0.0090353708548779194 0 0.00023365215599671608 0.0097746556398455829 0 -0.00015722575630335345 0.0097815452797451879 0 2.5754405616048857e-05 0.0094708842183419423 0 -0.00082459497483480923 0.0083390260735203836 0 -0.0010697400165394179 0.0080023181917474699 0 -0.00015722575630335345 0.0097815452797451879 0 -0.00036823411194853074 0.0093254521052680006 0 -0.00066771724970672835 0.0094000220478469027 0 -0.00093177430033147151 0.0071400416831777676 0 -0.0011256932803238794 0.0065149166509938681 0 -0.0015708851965261852 0.0066294512538004023 0 -0.0019234890082616548 0.0061816265037233599 0 -0.0023380368925429939 0.0062821172737525331 0 -0.0022058313694466761 0.0059609071500018925 0 -0.00080246454449307207 0.0070907907220032112 0 -0.0018798922284196174 0.0054061890419934448 0 -0.0010697400165394179 0.0080023181917474699 0 -0.0018798922284196174 0.0054061890419934448 0 -0.0014076488318119484 0.0048713346746846135 0 -0.0014388239359453599 0.0048712877140650286 0 -0.001401143489000772 0.0049063567478175099 0 -0.001570030960120206 0.0039831322491533285 0 -0.001721046881456644 0.0040178469170257646 0 -0.0018095295192462023 0.003779376910418482 0 -0.0018798922284196174 0.0054061890419934448 0 -0.0016100039635271281 0.002854773149229297 0 -0.0020820904390311023 0.0033074760635788416 0 -0.0016100039635271281 0.002854773149229297 0 -0.0026595392334112702 0.0015517015801041608 0 -0.0026356085043372029 0.0016124497441259579 0 -0.0026354369469083197 0.0015628447412150974 0 -0.0013979914035299236 0.0049230694938314648 0 -0.0014388239359453599 0.0048712877140650286 0 -0.001401143489000772 0.0049063567478175099 0 -0.0013979914035299236 0.0049230694938314648 0 -0.001401143489000772 0.0049063567478175099 0 -0.0013912287547285524 0.0049320108104907836 0 -0.0013620274824970263 0.0049219329078640586 0 -0.0014076488318119484 0.0048713346746846135 0 -0.001401143489000772 0.0049063567478175099 0 -0.0013620274824970263 0.0049219329078640586 0 -0.001401143489000772 0.0049063567478175099 0 -0.0013912287547285524 0.0049320108104907836 0 -0.0012076765500365445 0.0087475910857796584 0 -9.0644585739386622e-05 0.0095726922446222485 0 -0.00090683315708850866 0.0089316277974843053 0 -0.00089609922727280141 0.0089115765974465914 0 -0.0008921284156850548 0.0089340762980183314 0 -6.9658642634869597e-05 0.010135721452574435 0 -9.0644585739386622e-05 0.0095726922446222485 0 0.00072995370633051619 0.011231939532185374 0 0.00089016652692070917 0.011250585449508601 0 0.000816328420881731 0.011329825327136767 0 -0.00090683315708850866 0.0089316277974843053 0 -0.00074664641255690163 0.0089029885710769866 0 -0.00065581508494535524 0.009041190635733963 0 -0.00090914289085145515 0.0088940618092050658 0 -0.00069529178095952861 0.0087252045992784605 0 -0.00074664641255690163 0.0089029885710769866 0 -0.00045880636418503437 0.0087369687353829814 0 -0.00065581508494535524 0.009041190635733963 0 -0.0002736945103765076 0.0089679265978928266 0 -0.00069529178095952861 0.0087252045992784605 0 -0.00074664641255690163 0.0089029885710769866 0 -0.00045880636418503437 0.0087369687353829814 0 -0.00074664641255690163 0.0089029885710769866 0 -0.00045880636418503437 0.0087369687353829814 0 -0.00065581508494535524 0.009041190635733963 0 -9.0644585739386622e-05 0.0095726922446222485 0 -0.001114204517797653 0.0074837494524200455 0 -9.0644585739386622e-05 0.0095726922446222485 0 0.00063800136662386009 0.010376153161905748 0 -6.0155847427813607e-05 0.0090235810953687417 0 -0.00028735055095572529 0.0089373126671703686 0 -0.00034975836612878477 0.0090503222426994209 0 -0.0014396117657548681 0.0070036309361455676 0 -0.001114204517797653 0.0074837494524200455 0 -0.0023962987005823944 0.005314304059107015 0 -0.0020780713718518552 0.0057968204133600808 0 -0.0020674804975542053 0.0054304620175872403 0 -0.0020780713718518552 0.0057968204133600808 0 -0.0020674804975542053 0.0054304620175872403 0 -0.0019212780696033771 0.0055782348446563731 0 -0.0020674804975542053 0.0054304620175872403 0 -0.0019212780696033771 0.0055782348446563731 0 -0.0017657068347705232 0.0053083300357691359 0 -0.0019212780696033771 0.0055782348446563731 0 -0.0017657068347705232 0.0053083300357691359 0 -0.0016510200477367588 0.0056952077916432335 0 -0.0019212780696033771 0.0055782348446563731 0 -0.0016510200477367588 0.0056952077916432335 0 -0.0018081889534720022 0.0057849496289585833 0 -0.00051636348925498976 0.0088536874427522869 0 -0.00028735055095572529 0.0089373126671703686 0 -0.00034975836612878477 0.0090503222426994209 0 -0.0016287132189358562 0.0064320606812531562 0 -0.0020927131094559764 0.0058050655933755847 0 -0.0017429076943884672 0.0059886338006935446 0 -0.0016510200477367588 0.0056952077916432335 0 -0.0018081889534720022 0.0057849496289585833 0 -0.0017429076943884672 0.0059886338006935446 0 -0.00054519074649299782 0.0086871466445630242 0 -0.001114204517797653 0.0074837494524200455 0 -0.0018081889534720022 0.0057849496289585833 0 -0.0020025247906226939 0.0057925940738114004 0 -0.0017429076943884672 0.0059886338006935446 0 -0.0019212780696033771 0.0055782348446563731 0 -0.0018081889534720022 0.0057849496289585833 0 -0.0020025247906226939 0.0057925940738114004 0 -0.0020927131094559764 0.0058050655933755847 0 -0.0020025247906226939 0.0057925940738114004 0 -0.0017429076943884672 0.0059886338006935446 0 -0.0020780713718518552 0.0057968204133600808 0 -0.0019212780696033771 0.0055782348446563731 0 -0.0020025247906226939 0.0057925940738114004 0 -0.001114204517797653 0.0074837494524200455 0 -0.0013531702911988926 0.0073437984462518292 0 0.00095358896742848824 0.011305157470153584 0 0.00094319445158740176 0.011299698169647409 0 0.00094383814417341074 0.011330797910229473 0 -0.00054519074649299782 0.0086871466445630242 0 0.00063800136662386009 0.010376153161905748 0 0.00095358896742848824 0.011305157470153584 0 0.00095804343027001482 0.011317786622993629 0 0.00094383814417341074 0.011330797910229473 0 0.0010845137050674977 0.010541266170373074 0 0.0016486240769709899 0.010562237068411282 0 0.0012298212100552567 0.0099578383779166686 0 0.0015068389548182507 0.009525947109178208 0 0.0023321531905039715 0.0095778268937412071 0 0.00098871554124005433 0.0094298923494627006 0 0.0012298212100552567 0.0099578383779166686 0 0.0015068389548182507 0.009525947109178208 0 0.00098871554124005433 0.0094298923494627006 0 0.0015068389548182507 0.009525947109178208 0 0.0014824671751451498 0.0091532298270924593 0 0.00095804343027001482 0.011317786622993629 0 0.00092980857236545458 0.011374262104261155 0 0.00094383814417341074 0.011330797910229473 0 0.0012298212100552567 0.0099578383779166686 0 0.0023321531905039715 0.0095778268937412071 0 0.0023866117687691675 0.0096266458622262883 0 0.00092980857236545458 0.011374262104261155 0 0.00094383814417341074 0.011330797910229473 0 0.00092690609242769757 0.011347758352505235 0 0.00094319445158740176 0.011299698169647409 0 0.00094383814417341074 0.011330797910229473 0 0.00092690609242769757 0.011347758352505235 0 0.00089016652692070917 0.011250585449508601 0 0.00092690609242769757 0.011347758352505235 0 0.00089115911432418259 0.011374397897466724 0 0.00089016652692070917 0.011250585449508601 0 0.00094319445158740176 0.011299698169647409 0 0.00092690609242769757 0.011347758352505235 0 0.00092980857236545458 0.011374262104261155 0 0.00092690609242769757 0.011347758352505235 0 0.00092027862958621819 0.011396577525719261 0 0.00092690609242769757 0.011347758352505235 0 0.00092027862958621819 0.011396577525719261 0 0.00089115911432418259 0.011374397897466724 0 0.00089115911432418259 0.011374397897466724 0 0.00085997886428061307 0.011449881593649392 0 0.000816328420881731 0.011329825327136767 0 0.00092027862958621819 0.011396577525719261 0 0.00089115911432418259 0.011374397897466724 0 0.00085997886428061307 0.011449881593649392 0 0.00089016652692070917 0.011250585449508601 0 0.00089115911432418259 0.011374397897466724 0 0.000816328420881731 0.011329825327136767 0 0.00074038991512545603 0.012176144541339065 0 0.00079057094752923161 0.011815498103664798 0 0.0010553926510257499 0.011934954648505932 0 0.00079057094752923161 0.011815498103664798 0 0.0010553926510257499 0.011934954648505932 0 0.00096255339043530062 0.011373197838414565 0 0.00092027862958621819 0.011396577525719261 0 0.00085997886428061307 0.011449881593649392 0 0.00096255339043530062 0.011373197838414565 0 0.00073823426201455582 0.011632952259069976 0 0.00085997886428061307 0.011449881593649392 0 0.00096255339043530062 0.011373197838414565 0 0.00073823426201455582 0.011632952259069976 0 0.00079057094752923161 0.011815498103664798 0 0.00096255339043530062 0.011373197838414565 0 0.0023866117687691675 0.0096266458622262883 0 0.00096255339043530062 0.011373197838414565 0 0.0020344040090155978 0.011422050812871048 0 0.00092980857236545458 0.011374262104261155 0 0.00092027862958621819 0.011396577525719261 0 0.00096255339043530062 0.011373197838414565 0 0.0016486240769709899 0.010562237068411282 0 0.0010324034510681812 0.01123562636056913 0 0.0010553926510257499 0.011934954648505932 0 0.00096255339043530062 0.011373197838414565 0 0.0020344040090155978 0.011422050812871048 0 0.0023388673085432939 0.0097531567048093539 0 0.0021640787417779635 0.0098275410222802822 0 0.0010553926510257499 0.011934954648505932 0 0.0020344040090155978 0.011422050812871048 0 0.0014901686886128276 0.012234741010567084 0 0.0027349752385010971 0.0081397043834881156 0 0.0018644691769228688 0.0083924790805407594 0 0.0019712032020575334 0.0071680643989187392 0 0.0027349752385010971 0.0081397043834881156 0 0.0019712032020575334 0.0071680643989187392 0 0.0028487524772166793 0.0071589965363317593 0 0.0023321531905039715 0.0095778268937412071 0 0.0023866117687691675 0.0096266458622262883 0 0.0020344040090155978 0.011422050812871048 0 0.0023321531905039715 0.0095778268937412071 0 0.0018644691769228688 0.0083924790805407594 0 0.0014824671751451498 0.0091532298270924593 0 0.0023321531905039715 0.0095778268937412071 0 0.0027349752385010971 0.0081397043834881156 0 0.0018644691769228688 0.0083924790805407594 0 0.002336662847894775 0.00966581596478726 0 0.0023388673085432939 0.0097531567048093539 0 0.0018644691769228688 0.0083924790805407594 0 0.0014824671751451498 0.0091532298270924593 0 0.00085204937486281311 0.0086870186191231619 0 0.0015068389548182507 0.009525947109178208 0 0.0023321531905039715 0.0095778268937412071 0 0.0014824671751451498 0.0091532298270924593 0 0.00098871554124005433 0.0094298923494627006 0 0.0014824671751451498 0.0091532298270924593 0 0.00085204937486281311 0.0086870186191231619 0 0.0018644691769228688 0.0083924790805407594 0 0.0012470824856366598 0.0077797499401944577 0 0.0019712032020575334 0.0071680643989187392 0 0.0018644691769228688 0.0083924790805407594 0 0.0012470824856366598 0.0077797499401944577 0 0.00085204937486281311 0.0086870186191231619 0 0.0017561884834099218 0.0063357590428622266 0 0.0019712032020575334 0.0071680643989187392 0 0.0008767614748339933 0.0068375382629671582 0 0.0012470824856366598 0.0077797499401944577 0 0.0019712032020575334 0.0071680643989187392 0 0.0008767614748339933 0.0068375382629671582 0 0.0017561884834099218 0.0063357590428622266 0 0.0008767614748339933 0.0068375382629671582 0 0.0012109586781814342 0.0057676884141009393 0 0.0017561884834099218 0.0063357590428622266 0 0.0019712032020575334 0.0071680643989187392 0 0.0024205574918805223 0.0064613682323357968 0 0.0017561884834099218 0.0063357590428622266 0 0.0024205574918805223 0.0064613682323357968 0 0.0020234265215679716 0.0055430645260484187 0 0.0019712032020575334 0.0071680643989187392 0 0.0028487524772166793 0.0071589965363317593 0 0.0024205574918805223 0.0064613682323357968 0 0.0021640787417779635 0.0098275410222802822 0 0.0014086885267856131 0.00861902377651887 0 0.0028487524772166793 0.0071589965363317593 0 0.0026120791792051991 0.0064110064225630101 0 0.0028746751320961241 0.0064944498493123889 0 0.0028487524772166793 0.0071589965363317593 0 0.0024205574918805223 0.0064613682323357968 0 0.0026120791792051991 0.0064110064225630101 0 0.0024205574918805223 0.0064613682323357968 0 0.0026120791792051991 0.0064110064225630101 0 0.0024653415190921614 0.0062332526245184473 0 0.0026120791792051991 0.0064110064225630101 0 0.0028746751320961241 0.0064944498493123889 0 0.0024653415190921614 0.0062332526245184473 0 0.0014901686886128276 0.012234741010567084 0 0.0010277550581372734 0.012501442751642668 0 0.0011246888666027054 0.01261771016961887 0 0.0010663239136947606 0.012602078191175616 0 0.0010282573232273863 0.01257149016177846 0 0.0011246888666027054 0.01261771016961887 0 0.0010277550581372734 0.012501442751642668 0 0.0010282573232273863 0.01257149016177846 0 0.0011246888666027054 0.01261771016961887 0 0.0010663239136947606 0.012602078191175616 0 0.0010282573232273863 0.01257149016177846 0 0.00099476581026106429 0.01262896043797228 0 0.0010663239136947606 0.012602078191175616 0 0.0011246888666027054 0.01261771016961887 0 0.00099476581026106429 0.01262896043797228 0 0.00099476581026106429 0.01262896043797228 0 0.0008344911373871786 0.012642318177205798 0 0.00080584134272809022 0.012790870986335355 0 0.0011246888666027054 0.01261771016961887 0 0.00099476581026106429 0.01262896043797228 0 0.00080584134272809022 0.012790870986335355 0 0.00075673089475733262 0.012483995508187453 0 0.00093318128144659546 0.012529337299229231 0 0.00096951548763327046 0.012333566605692972 0 0.0010277550581372734 0.012501442751642668 0 0.00093318128144659546 0.012529337299229231 0 0.00096951548763327046 0.012333566605692972 0 0.00075673089475733262 0.012483995508187453 0 0.0008344911373871786 0.012642318177205798 0 0.00093318128144659546 0.012529337299229231 0 0.00099476581026106429 0.01262896043797228 0 0.0008344911373871786 0.012642318177205798 0 0.00093318128144659546 0.012529337299229231 0 0.0010277550581372734 0.012501442751642668 0 0.0010282573232273863 0.01257149016177846 0 0.00093318128144659546 0.012529337299229231 0 0.0010282573232273863 0.01257149016177846 0 0.00099476581026106429 0.01262896043797228 0 0.00093318128144659546 0.012529337299229231 0 0.0010553926510257499 0.011934954648505932 0 0.0014901686886128276 0.012234741010567084 0 0.00096951548763327046 0.012333566605692972 0 0.00074038991512545603 0.012176144541339065 0 0.0010553926510257499 0.011934954648505932 0 0.00096951548763327046 0.012333566605692972 0 0.0014901686886128276 0.012234741010567084 0 0.0010277550581372734 0.012501442751642668 0 0.00096951548763327046 0.012333566605692972 0 -0.0017083597826953935 0.00675209534814204 0 -0.0020558991625684751 0.0056222769205682803 0 -0.0021191488741930577 0.0055681323360039919 0 -0.0025633097520989649 0.0054911434444931519 0 -0.0023053707343287529 0.0049639199391117751 0 -0.0021191488741930577 0.0055681323360039919 0 -0.0025633097520989649 0.0054911434444931519 0 -0.0024425497888888106 0.00581245901388184 0 -0.0026749719224872137 0.005165128692690933 0 -0.0029669851561322891 0.0052124953873068317 0 -0.0028908965109144453 0.0054091040865230722 0 -0.0025633097520989649 0.0054911434444931519 0 -0.0026749719224872137 0.005165128692690933 0 -0.0028908965109144453 0.0054091040865230722 0 -0.0025633097520989649 0.0054911434444931519 0 -0.0028908965109144453 0.0054091040865230722 0 -0.0029783019637279512 0.005743958038123235 0 -0.0025633097520989649 0.0054911434444931519 0 -0.0024425497888888106 0.00581245901388184 0 -0.0029783019637279512 0.005743958038123235 0 -0.0023380368925429939 0.0062821172737525331 0 -0.0024425497888888106 0.00581245901388184 0 -0.0029783019637279512 0.005743958038123235 0 -0.0018798922284196174 0.0054061890419934448 0 -0.001479504389694253 0.0033905844287672455 0 -0.0010697400165394179 0.0080023181917474699 0 -0.0017083597826953935 0.00675209534814204 0 -0.0023380368925429939 0.0062821172737525331 0 -0.0024425497888888106 0.00581245901388184 0 -0.0022058313694466761 0.0059609071500018925 0 -0.0019234890082616548 0.0061816265037233599 0 -0.0021191488741930577 0.0055681323360039919 0 -0.0022058313694466761 0.0059609071500018925 0 -0.0021191488741930577 0.0055681323360039919 0 -0.0024425497888888106 0.00581245901388184 0 -0.0022058313694466761 0.0059609071500018925 0 -0.00036823411194853074 0.0093254521052680006 0 -0.0007261070489415866 0.0094283078936554746 0 -9.7360210231652931e-05 0.0083158651723107112 0 -0.00036823411194853074 0.0093254521052680006 0 -9.7360210231652931e-05 0.0083158651723107112 0 0.00018297130586230516 0.0090353708548779194 0 -0.0007261070489415866 0.0094283078936554746 0 -0.0012304680984100951 0.0080374267405510791 0 -9.7360210231652931e-05 0.0083158651723107112 0 -9.7360210231652931e-05 0.0083158651723107112 0 0.00018297130586230516 0.0090353708548779194 0 0.00085204937486281311 0.0086870186191231619 0 0.00047649178224462167 0.009375397169555889 0 0.00098871554124005433 0.0094298923494627006 0 0.00085204937486281311 0.0086870186191231619 0 0.00047649178224462167 0.009375397169555889 0 0.00018297130586230516 0.0090353708548779194 0 0.00085204937486281311 0.0086870186191231619 0 0.0012470824856366598 0.0077797499401944577 0 -9.7360210231652931e-05 0.0083158651723107112 0 0.00085204937486281311 0.0086870186191231619 0 0.0012470824856366598 0.0077797499401944577 0 -9.7360210231652931e-05 0.0083158651723107112 0 0.0008767614748339933 0.0068375382629671582 0 -9.7360210231652931e-05 0.0083158651723107112 0 -0.00049032051078610691 0.0065591796963010377 0 0.0008767614748339933 0.0068375382629671582 0 -0.0012304680984100951 0.0080374267405510791 0 -9.7360210231652931e-05 0.0083158651723107112 0 -0.00049032051078610691 0.0065591796963010377 0 0.00087912217131793074 0.0067006113976919813 0 0.00037970657040621358 0.0048870389886531184 0 0.0008767614748339933 0.0068375382629671582 0 0.0012109586781814342 0.0057676884141009393 0 0.00037736325320877689 0.0058085909659033493 0 -0.00049032051078610691 0.0065591796963010377 0 -0.0010391821308408731 0.0048646785327465403 0 0.00044115745741598044 0.0039565237246028959 0 -0.00049032051078610691 0.0065591796963010377 0 0.0008767614748339933 0.0068375382629671582 0 0.00044115745741598044 0.0039565237246028959 0 -0.0020558991625684751 0.0056222769205682803 0 -0.0023888476381431741 0.0042655633300992231 0 -0.0010391821308408731 0.0048646785327465403 0 -0.0018385209604445648 0.0063455654660439387 0 -0.0023877486331866193 0.0041487032540352747 0 -0.00049032051078610691 0.0065591796963010377 0 -0.0010391821308408731 0.0048646785327465403 0 -0.0018385209604445648 0.0063455654660439387 0 -0.0012304680984100951 0.0080374267405510791 0 -0.00049032051078610691 0.0065591796963010377 0 -0.0018385209604445648 0.0063455654660439387 0 -0.0025633097520989649 0.0054911434444931519 0 -0.0023053707343287529 0.0049639199391117751 0 -0.0026749719224872137 0.005165128692690933 0 -0.0026749719224872137 0.005165128692690933 0 -0.0025475481341028709 0.0047651106663240649 0 -0.0027796648692986949 0.0047234118986417793 0 -0.0023053707343287529 0.0049639199391117751 0 -0.0026749719224872137 0.005165128692690933 0 -0.0025475481341028709 0.0047651106663240649 0 -0.0026749719224872137 0.005165128692690933 0 -0.0027796648692986949 0.0047234118986417793 0 -0.0031577212213238955 0.0050319537890878563 0 -0.0023053707343287529 0.0049639199391117751 0 -0.0025475481341028709 0.0047651106663240649 0 -0.0023877486331866193 0.0041487032540352747 0 -0.0025475481341028709 0.0047651106663240649 0 -0.0026374399445390976 0.004459945533557926 0 -0.0023877486331866193 0.0041487032540352747 0 -0.0027796648692986949 0.0047234118986417793 0 -0.0031577212213238955 0.0050319537890878563 0 -0.0028428634665557222 0.004132761199022417 0 -0.0025475481341028709 0.0047651106663240649 0 -0.0027796648692986949 0.0047234118986417793 0 -0.0026374399445390976 0.004459945533557926 0 -0.0026374399445390976 0.004459945533557926 0 -0.0028428634665557222 0.004132761199022417 0 -0.0023877486331866193 0.0041487032540352747 0 -0.0027796648692986949 0.0047234118986417793 0 -0.0026374399445390976 0.004459945533557926 0 -0.0028428634665557222 0.004132761199022417 0 -0.00070477973247613855 0.0010008639236995147 0 -0.00067505629559760981 0.00096225194886417247 0 -0.00081719019357551421 0.0010028033646169211 0 -0.00070477973247613855 0.0010008639236995147 0 -0.00070438434858354014 0.0010519087654603508 0 -0.00081719019357551421 0.0010028033646169211 0 -0.0018488367870277901 0.0033791337075650594 0 -0.0017890289923126223 0.0024746666868850084 0 -0.00066271943151450521 0.00098937799884787209 0 -0.0006595849553518952 0.0010118153123520534 0 -0.0006188816300190912 0.0010183297562988138 0 -0.00070477973247613855 0.0010008639236995147 0 -0.00066271943151450521 0.00098937799884787209 0 -0.0006595849553518952 0.0010118153123520534 0 -0.00070477973247613855 0.0010008639236995147 0 -0.0006595849553518952 0.0010118153123520534 0 -0.00064264314624824792 0.0010410997192786091 0 -0.0006595849553518952 0.0010118153123520534 0 -0.00064264314624824792 0.0010410997192786091 0 -0.0006188816300190912 0.0010183297562988138 0 -0.00070477973247613855 0.0010008639236995147 0 -0.00064264314624824792 0.0010410997192786091 0 -0.00070438434858354014 0.0010519087654603508 0 -0.00061606296751233686 0.0010163117998622613 0 -0.00062756849464928801 0.0010448870933865081 0 -0.00060930578267277531 0.0010325877009130572 0 -0.0006188816300190912 0.0010183297562988138 0 -0.00061606296751233686 0.0010163117998622613 0 -0.00060930578267277531 0.0010325877009130572 0 -0.0006188816300190912 0.0010183297562988138 0 -0.00060930578267277531 0.0010325877009130572 0 -0.00060801853466661718 0.0010598878977495564 0 -0.00064264314624824792 0.0010410997192786091 0 -0.0006188816300190912 0.0010183297562988138 0 -0.00060801853466661718 0.0010598878977495564 0 -0.00079566722296628271 0.0010097656467246642 0 -0.00083563469839779806 0.0016740120548489842 0 -0.00066271943151450521 0.00098937799884787209 0 -0.0006188816300190912 0.0010183297562988138 0 -0.00064592953479378364 0.00096653669661731715 0 -0.00083563469839779806 0.0016740120548489842 0 -0.00052540709565617935 0.00097996700846726464 0 -0.00027613149846908078 0.0011936447047577001 0 -0.00042404606988878326 0.0012855297134422227 0 -0.00056372386209124412 0.0010807200358414735 0 -0.00027613149846908078 0.0011936447047577001 0 -0.00042404606988878326 0.0012855297134422227 0 -0.00031791855488710142 0.0012815730614346892 0 -0.00027613149846908078 0.0011936447047577001 0 -0.00031791855488710142 0.0012815730614346892 0 -0.0002328819611123981 0.0013037092819509679 0 -0.0012095411392133882 0.0024955378566773718 0 -0.0010205171350712514 0.0025616035726372861 0 -0.0011217210978451985 0.002726829445197304 0 -0.00083563469839779806 0.0016740120548489842 0 -0.0011009295494472167 0.0028540148603379066 0 -0.0030474167996161045 0.0050233038571986166 0 -0.0029669851561322891 0.0052124953873068317 0 -0.0031689949745085768 0.0052108631604730615 0 -0.0018488367870277901 0.0033791337075650594 0 -0.0011009295494472167 0.0028540148603379066 0 -0.002886511686628475 0.0049544694375485933 0 -0.0018488367870277901 0.0033791337075650594 0 -0.0026749719224872137 0.005165128692690933 0 -0.0030474167996161045 0.0050233038571986166 0 -0.0029669851561322891 0.0052124953873068317 0 -0.00083563469839779806 0.0016740120548489842 0 -0.0018488367870277901 0.0033791337075650594 0 -0.00066271943151450521 0.00098937799884787209 0 -0.00064592953479378364 0.00096653669661731715 0 -0.00067505629559760981 0.00096225194886417247 0 -0.00070477973247613855 0.0010008639236995147 0 -0.00066271943151450521 0.00098937799884787209 0 -0.00067505629559760981 0.00096225194886417247 0 -0.00056372386209124412 0.0010807200358414735 0 -0.00075190568358213228 0.0011716805186264545 0 -0.00080048181709103071 0.00096059922505416847 0 -0.00052540709565617935 0.00097996700846726464 0 -0.00081981822197837941 0.00098907212076675415 0 -0.00062756849464928801 0.0010448870933865081 0 -0.00080048181709103071 0.00096059922505416847 0 -0.00065458282399847841 0.00096783452405767518 0 -0.00062756849464928801 0.0010448870933865081 0 -0.00060930578267277531 0.0010325877009130572 0 -0.00065458282399847841 0.00096783452405767518 0 -0.00042404606988878326 0.0012855297134422227 0 -0.00056372386209124412 0.0010807200358414735 0 -0.00060776691635282905 0.0012759328877679312 0 -0.00056372386209124412 0.0010807200358414735 0 -0.00060776691635282905 0.0012759328877679312 0 -0.00075190568358213228 0.0011716805186264545 0 -0.00060776691635282905 0.0012759328877679312 0 -0.00074886110038701161 0.0014054850862118202 0 -0.00075190568358213228 0.0011716805186264545 0 -0.00060776691635282905 0.0012759328877679312 0 -0.00053236180294999097 0.0014506083862352826 0 -0.00074886110038701161 0.0014054850862118202 0 -0.00042404606988878326 0.0012855297134422227 0 -0.00060776691635282905 0.0012759328877679312 0 -0.00053236180294999097 0.0014506083862352826 0 -0.00042404606988878326 0.0012855297134422227 0 -0.00053236180294999097 0.0014506083862352826 0 -0.00041244524658700711 0.0014097838492400112 0 -0.00053236180294999097 0.0014506083862352826 0 -0.00041244524658700711 0.0014097838492400112 0 -0.00043640186052561127 0.0015122992933951018 0 -0.00053236180294999097 0.0014506083862352826 0 -0.00046071939337699548 0.0016621866435221932 0 -0.00065175558196008457 0.0016291433748463642 0 -0.00053236180294999097 0.0014506083862352826 0 -0.00043640186052561127 0.0015122992933951018 0 -0.00046071939337699548 0.0016621866435221932 0 -0.00053236180294999097 0.0014506083862352826 0 -0.00065175558196008457 0.0016291433748463642 0 -0.00074886110038701161 0.0014054850862118202 0 -0.00049451000001048053 0.0017680633220706024 0 -0.00050518613795899365 0.0018568066683539656 0 -0.00056403099504102471 0.0017261821037006457 0 -0.0011009295494472167 0.0028540148603379066 0 -0.001479504389694253 0.0033905844287672455 0 -0.0028908965109144453 0.0054091040865230722 0 -0.0031689949745085768 0.0052108631604730615 0 -0.0029783019637279512 0.005743958038123235 0 -0.0029669851561322891 0.0052124953873068317 0 -0.0028908965109144453 0.0054091040865230722 0 -0.0031689949745085768 0.0052108631604730615 0 -0.0002328819611123981 0.0013037092819509679 0 -0.00033881358607871636 0.001343703551223491 0 -0.000322787992801604 0.0014650550326241634 0 -0.00031791855488710142 0.0012815730614346892 0 -0.0002328819611123981 0.0013037092819509679 0 -0.00033881358607871636 0.001343703551223491 0 -0.0011009295494472167 0.0028540148603379066 0 -0.00026016286160389818 0.0013883425559121565 0 -0.00042404606988878326 0.0012855297134422227 0 -0.00031791855488710142 0.0012815730614346892 0 -0.00033881358607871636 0.001343703551223491 0 -0.00042404606988878326 0.0012855297134422227 0 -0.00033881358607871636 0.001343703551223491 0 -0.00041244524658700711 0.0014097838492400112 0 -0.00033881358607871636 0.001343703551223491 0 -0.00041244524658700711 0.0014097838492400112 0 -0.000322787992801604 0.0014650550326241634 0 -0.00041244524658700711 0.0014097838492400112 0 -0.000322787992801604 0.0014650550326241634 0 -0.00043640186052561127 0.0015122992933951018 0 -0.00049451000001048053 0.0017680633220706024 0 -0.00050518613795899365 0.0018568066683539656 0 -0.00045534846513859437 0.0017443226948079676 0 -0.00049451000001048053 0.0017680633220706024 0 -0.00045534846513859437 0.0017443226948079676 0 -0.00048323827652155732 0.0017346283420624992 0 -0.00045534846513859437 0.0017443226948079676 0 -0.00047400486865014447 0.0017024829320234371 0 -0.00048323827652155732 0.0017346283420624992 0 -0.00026016286160389818 0.0013883425559121565 0 -0.00049296760487286704 0.0017335709674376008 0 -0.000322787992801604 0.0014650550326241634 0 -0.00043640186052561127 0.0015122992933951018 0 -0.00046071939337699548 0.0016621866435221932 0 -0.00045534846513859437 0.0017443226948079676 0 -0.00046071939337699548 0.0016621866435221932 0 -0.00047400486865014447 0.0017024829320234371 0 -0.00049218041269456488 0.0017152466842714682 0 -0.00047400486865014447 0.0017024829320234371 0 -0.00050128597327453082 0.0017311982209444196 0 -0.0016100039635271281 0.002854773149229297 0 -0.001479504389694253 0.0033905844287672455 0 -0.00047400486865014447 0.0017024829320234371 0 -0.00048323827652155732 0.0017346283420624992 0 -0.00050128597327453082 0.0017311982209444196 0 -0.00088896074714789406 0.0021712906168709946 0 -0.001479504389694253 0.0033905844287672455 0 -0.00049451000001048053 0.0017680633220706024 0 -0.00048323827652155732 0.0017346283420624992 0 -0.00050128597327453082 0.0017311982209444196 0 -0.00049218041269456488 0.0017152466842714682 0 -0.00047400486865014447 0.0017024829320234371 0 -0.0004643845729573815 0.0017403869951141946 0 -0.0016100039635271281 0.002854773149229297 0 -0.001495577581064191 0.0014921893811121287 0 -0.0026356085043372029 0.0016124497441259579 0 -0.0026155804265755238 0.0015672435829836905 0 -0.0026354369469083197 0.0015628447412150974 0 -0.0026356085043372029 0.0016124497441259579 0 -0.0026155804265755238 0.0015672435829836905 0 -0.0025911226537244838 0.001585801621898251 0 -0.0026155804265755238 0.0015672435829836905 0 -0.0025911226537244838 0.001585801621898251 0 -0.0025946567218967402 0.0015420185362482607 0 -0.00046071939337699548 0.0016621866435221932 0 -0.00047400486865014447 0.0017024829320234371 0 -0.0004643845729573815 0.0017403869951141946 0 -0.00046071939337699548 0.0016621866435221932 0 -0.00054681528798368191 0.0017280622968651859 0 -0.00065175558196008457 0.0016291433748463642 0 -0.00046071939337699548 0.0016621866435221932 0 -0.0004643845729573815 0.0017403869951141946 0 -0.00054681528798368191 0.0017280622968651859 0 -0.00054681528798368191 0.0017280622968651859 0 -0.00065175558196008457 0.0016291433748463642 0 -0.0006513754508183123 0.00187981122268554 0 -0.00065175558196008457 0.0016291433748463642 0 -0.0006513754508183123 0.00187981122268554 0 -0.00087973769883023815 0.0016882009514960631 0 -0.0025911226537244838 0.001585801621898251 0 -0.0025370666507560004 0.0015802612650221213 0 -0.0025946567218967402 0.0015420185362482607 0 -0.001495577581064191 0.0014921893811121287 0 -0.0016069306383717228 0.0017551333287346 0 -0.0004643845729573815 0.0017403869951141946 0 -0.00054681528798368191 0.0017280622968651859 0 -0.0006513754508183123 0.00187981122268554 0 -0.0025370666507560004 0.0015802612650221213 0 -0.0025553647076720898 0.0015107627472419731 0 -0.0025946567218967402 0.0015420185362482607 0 -0.0025370666507560004 0.0015802612650221213 0 -0.0025553647076720898 0.0015107627472419731 0 -0.0025042888996649076 0.001540593721307409 0 -0.0025500548878328419 0.0014521662202820148 0 -0.0025553647076720898 0.0015107627472419731 0 -0.0024746957028937435 0.0014901411199777933 0 -0.0025553647076720898 0.0015107627472419731 0 -0.00259639868689084 0.0015012794171627697 0 -0.0025946567218967402 0.0015420185362482607 0 -0.0026093077610904038 0.0014553122702309711 0 -0.0025553647076720898 0.0015107627472419731 0 -0.00259639868689084 0.0015012794171627697 0 -0.0026093077610904038 0.0014553122702309711 0 -0.00259639868689084 0.0015012794171627697 0 -0.0026209351561005947 0.0014962361205412438 0 -0.00259639868689084 0.0015012794171627697 0 -0.0026209351561005947 0.0014962361205412438 0 -0.0025946567218967402 0.0015420185362482607 0 -0.002643459021310743 0.0015025977668709949 0 -0.0026209351561005947 0.0014962361205412438 0 -0.0026255908995860763 0.0015370364624225231 0 -0.0026388465137351302 0.0014635322723073128 0 -0.002643459021310743 0.0015025977668709949 0 -0.0026209351561005947 0.0014962361205412438 0 -0.002643459021310743 0.0015025977668709949 0 -0.0026407232067427143 0.0015386071276916962 0 -0.0026255908995860763 0.0015370364624225231 0 -0.0026155804265755238 0.0015672435829836905 0 -0.0026354369469083197 0.0015628447412150974 0 -0.0026255908995860763 0.0015370364624225231 0 -0.0026407232067427143 0.0015386071276916962 0 -0.0026354369469083197 0.0015628447412150974 0 -0.0026255908995860763 0.0015370364624225231 0 -0.0026155804265755238 0.0015672435829836905 0 -0.0026255908995860763 0.0015370364624225231 0 -0.0025946567218967402 0.0015420185362482607 0 -0.0026209351561005947 0.0014962361205412438 0 -0.0026255908995860763 0.0015370364624225231 0 -0.0025946567218967402 0.0015420185362482607 0 -0.0017764037092901847 0.0018295643798275588 0 -0.0017127395157872278 0.0017905342825598083 0 -0.0013163562039660115 0.0021311033388380501 0 -0.00096430707864028652 0.0020090732328733717 0 -0.0011692419854145448 0.0018647061909468422 0 -0.0023280008837438223 0.0015528332491678129 0 -0.0023700369030553339 0.0014907449100412121 0 -0.0024445802258551293 0.0015756610382543724 0 -0.0013371183162579946 0.0021435705913466696 0 -0.0015300916461564733 0.0021986331792946071 0 -0.0014628307854368183 0.0019160702815361108 0 -0.0017764037092901847 0.0018295643798275588 0 -0.0013315053736721806 0.0020798764172416076 0 -0.0017764037092901847 0.0018295643798275588 0 -0.0021582007602536949 0.0013945716736631572 0 -0.0021845419108753889 0.0013017839600105742 0 -0.0021866646370738364 0.0015378025264575137 0 -0.0020422739348070836 0.0014973450305598894 0 -0.0023892088843175101 0.001126788155451463 0 -0.002726750392120759 0.00079286769331439976 0 -0.0023250305702828458 0.0011727635609782923 0 -0.0024978179508549428 0.00093283942305793805 0 -0.0025641304327968417 0.0010937598257308929 0 -0.0023892088843175101 0.001126788155451463 0 -0.0021582007602536949 0.0013945716736631572 0 -0.0021845419108753889 0.0013017839600105742 0 -0.0021866646370738364 0.0015378025264575137 0 -0.0022764509251915147 0.0013895750197132793 0 -0.0017764037092901847 0.0018295643798275588 0 -0.0023783142598654268 0.0013542622789254365 0 -0.0024091169052711044 0.0014307261746689119 0 -0.0023700369030553339 0.0014907449100412121 0 -0.0024746957028937435 0.0014901411199777933 0 -0.0023700369030553339 0.0014907449100412121 0 -0.0024746957028937435 0.0014901411199777933 0 -0.0024445802258551293 0.0015756610382543724 0 -0.0025553647076720898 0.0015107627472419731 0 -0.0024746957028937435 0.0014901411199777933 0 -0.0025042888996649076 0.001540593721307409 0 -0.0025370666507560004 0.0015802612650221213 0 -0.0025042888996649076 0.001540593721307409 0 -0.0024445802258551293 0.0015756610382543724 0 -0.0024746957028937435 0.0014901411199777933 0 -0.0025042888996649076 0.001540593721307409 0 -0.0024445802258551293 0.0015756610382543724 0 -0.00096430707864028652 0.0020090732328733717 0 -0.00087973769883023815 0.0016882009514960631 0 -0.0011692419854145448 0.0018647061909468422 0 -0.0006513754508183123 0.00187981122268554 0 -0.00096430707864028652 0.0020090732328733717 0 -0.00087973769883023815 0.0016882009514960631 0 -0.0016069306383717228 0.0017551333287346 0 -0.0017127395157872278 0.0017905342825598083 0 -0.00087973769883023815 0.0016882009514960631 0 -0.0010918427221755823 0.0016158338251859999 0 -0.0011692419854145448 0.0018647061909468422 0 -0.0010918427221755823 0.0016158338251859999 0 -0.0011692419854145448 0.0018647061909468422 0 -0.0013534052956750736 0.0016789259328745824 0 -0.0013163562039660115 0.0021311033388380501 0 -0.0011692419854145448 0.0018647061909468422 0 -0.0014628307854368183 0.0019160702815361108 0 -0.0011692419854145448 0.0018647061909468422 0 -0.0014628307854368183 0.0019160702815361108 0 -0.0013534052956750736 0.0016789259328745824 0 -0.0013534052956750736 0.0016789259328745824 0 -0.0016132124842427617 0.0017656914655770409 0 -0.0015877117982939374 0.0015357234343261591 0 -0.0014628307854368183 0.0019160702815361108 0 -0.0013534052956750736 0.0016789259328745824 0 -0.0016132124842427617 0.0017656914655770409 0 -0.0013534052956750736 0.0016789259328745824 0 -0.0012779670487136747 0.0013196348895797099 0 -0.0015877117982939374 0.0015357234343261591 0 -0.0010918427221755823 0.0016158338251859999 0 -0.0012779670487136747 0.0013196348895797099 0 -0.00095109701640454507 0.0014225891499780458 0 -0.0010918427221755823 0.0016158338251859999 0 -0.0013534052956750736 0.0016789259328745824 0 -0.0012779670487136747 0.0013196348895797099 0 -0.00087973769883023815 0.0016882009514960631 0 -0.00095109701640454507 0.0014225891499780458 0 -0.00074886110038701161 0.0014054850862118202 0 -0.00065175558196008457 0.0016291433748463642 0 -0.00087973769883023815 0.0016882009514960631 0 -0.00074886110038701161 0.0014054850862118202 0 -0.00087973769883023815 0.0016882009514960631 0 -0.0010918427221755823 0.0016158338251859999 0 -0.00095109701640454507 0.0014225891499780458 0 -0.0012779670487136747 0.0013196348895797099 0 -0.00095109701640454507 0.0014225891499780458 0 -0.00097460522881717714 0.0011919778559938354 0 -0.00095109701640454507 0.0014225891499780458 0 -0.00074886110038701161 0.0014054850862118202 0 -0.00097460522881717714 0.0011919778559938354 0 -0.00097460522881717714 0.0011919778559938354 0 -0.00080048181709103071 0.00096059922505416847 0 -0.0011504509871342237 0.00089816981353948327 0 -0.00075190568358213228 0.0011716805186264545 0 -0.00097460522881717714 0.0011919778559938354 0 -0.00080048181709103071 0.00096059922505416847 0 -0.00074886110038701161 0.0014054850862118202 0 -0.00075190568358213228 0.0011716805186264545 0 -0.00097460522881717714 0.0011919778559938354 0 -0.0012779670487136747 0.0013196348895797099 0 -0.0011504509871342237 0.00089816981353948327 0 -0.0015065755295680917 0.00096881994740462382 0 -0.0012779670487136747 0.0013196348895797099 0 -0.00097460522881717714 0.0011919778559938354 0 -0.0011504509871342237 0.00089816981353948327 0 -0.0011504509871342237 0.00089816981353948327 0 -0.0014884661061351665 0.00071272918442066055 0 -0.0015065755295680917 0.00096881994740462382 0 -0.0011504509871342237 0.00089816981353948327 0 -0.0011432156634047805 0.00053463444261067162 0 -0.0014884661061351665 0.00071272918442066055 0 -0.0011504509871342237 0.00089816981353948327 0 -0.0011432156634047805 0.00053463444261067162 0 -0.00093012257859934316 0.00075170671379095981 0 -0.0011432156634047805 0.00053463444261067162 0 -0.00087235800863491076 0.00061302329421520068 0 -0.00093012257859934316 0.00075170671379095981 0 -0.0011432156634047805 0.00053463444261067162 0 -0.0010008157667588781 0.00048267926609175401 0 -0.0012533802152973068 0.00051610669639569611 0 -0.0011432156634047805 0.00053463444261067162 0 -0.0010008157667588781 0.00048267926609175401 0 -0.00087235800863491076 0.00061302329421520068 0 -0.0010008157667588781 0.00048267926609175401 0 -0.00087235800863491076 0.00061302329421520068 0 -0.00085633421066382985 0.00039602735344640736 0 -0.0010008157667588781 0.00048267926609175401 0 -0.00093482375688647937 0.00028287694389029675 0 -0.00085633421066382985 0.00039602735344640736 0 -0.0010008157667588781 0.00048267926609175401 0 -0.00093482375688647937 0.00028287694389029675 0 -0.0012533802152973068 0.00051610669639569611 0 -0.00078550813257588525 0.00058480458132092355 0 -0.00087235800863491076 0.00061302329421520068 0 -0.0006746233663023029 0.00084631349697076479 0 -0.00087235800863491076 0.00061302329421520068 0 -0.00077117111718882794 0.00082757640722696927 0 -0.0006746233663023029 0.00084631349697076479 0 -0.00078550813257588525 0.00058480458132092355 0 -0.00087235800863491076 0.00061302329421520068 0 -0.00085633421066382985 0.00039602735344640736 0 -0.00080048181709103071 0.00096059922505416847 0 -0.0011504509871342237 0.00089816981353948327 0 -0.00093012257859934316 0.00075170671379095981 0 -0.00087235800863491076 0.00061302329421520068 0 -0.00077117111718882794 0.00082757640722696927 0 -0.00093012257859934316 0.00075170671379095981 0 -0.00080048181709103071 0.00096059922505416847 0 -0.00077117111718882794 0.00082757640722696927 0 -0.00093012257859934316 0.00075170671379095981 0 -0.00080048181709103071 0.00096059922505416847 0 -0.00077117111718882794 0.00082757640722696927 0 -0.00065458282399847841 0.00096783452405767518 0 -0.00060930578267277531 0.0010325877009130572 0 -0.00065458282399847841 0.00096783452405767518 0 -0.0005849308461170705 0.0010408587502016538 0 -0.0005849308461170705 0.0010408587502016538 0 -0.0006746233663023029 0.00084631349697076479 0 -0.00054542453444126964 0.0010516829526593739 0 -0.00065458282399847841 0.00096783452405767518 0 -0.0005849308461170705 0.0010408587502016538 0 -0.0006746233663023029 0.00084631349697076479 0 -0.00077117111718882794 0.00082757640722696927 0 -0.00065458282399847841 0.00096783452405767518 0 -0.0006746233663023029 0.00084631349697076479 0 -0.00064764253445607502 0.0011054949886977977 0 -0.00066117533554246801 0.0011837091233307031 0 -0.00073288455103890911 0.0011721236870714607 0 -0.00070438434858354014 0.0010519087654603508 0 -0.00064764253445607502 0.0011054949886977977 0 -0.00073288455103890911 0.0011721236870714607 0 -0.00064264314624824792 0.0010410997192786091 0 -0.00070438434858354014 0.0010519087654603508 0 -0.00064764253445607502 0.0011054949886977977 0 -0.00064264314624824792 0.0010410997192786091 0 -0.00064764253445607502 0.0011054949886977977 0 -0.00060801853466661718 0.0010598878977495564 0 -0.00064764253445607502 0.0011054949886977977 0 -0.0006025876095097695 0.0011292956988420047 0 -0.00066117533554246801 0.0011837091233307031 0 -0.0005849308461170705 0.0010408587502016538 0 -0.00060801853466661718 0.0010598878977495564 0 -0.0006025876095097695 0.0011292956988420047 0 -0.00064764253445607502 0.0011054949886977977 0 -0.00060801853466661718 0.0010598878977495564 0 -0.0006025876095097695 0.0011292956988420047 0 -0.00060930578267277531 0.0010325877009130572 0 -0.0005849308461170705 0.0010408587502016538 0 -0.00060801853466661718 0.0010598878977495564 0 -0.0006025876095097695 0.0011292956988420047 0 -0.00062009640875995795 0.0012425009949848923 0 -0.00054542453444126964 0.0010516829526593739 0 -0.0005849308461170705 0.0010408587502016538 0 -0.0006025876095097695 0.0011292956988420047 0 -0.00054542453444126964 0.0010516829526593739 0 -0.0006025876095097695 0.0011292956988420047 0 -0.00066117533554246801 0.0011837091233307031 0 -0.00062009640875995795 0.0012425009949848923 0 -0.00066117533554246801 0.0011837091233307031 0 -0.00062009640875995795 0.0012425009949848923 0 -0.00077128579977001977 0.0012909213398814936 0 -0.00066117533554246801 0.0011837091233307031 0 -0.00073288455103890911 0.0011721236870714607 0 -0.00077128579977001977 0.0012909213398814936 0 -0.00062009640875995795 0.0012425009949848923 0 -0.0004110275266889686 0.0012624618963204663 0 -0.0007512714719849267 0.0013613929697413873 0 -0.00062009640875995795 0.0012425009949848923 0 -0.0004110275266889686 0.0012624618963204663 0 -0.00054542453444126964 0.0010516829526593739 0 -0.0004110275266889686 0.0012624618963204663 0 -0.00058498676374604841 0.00087946954939899572 0 -0.0004984435481408155 0.00070834261594990755 0 -0.0004110275266889686 0.0012624618963204663 0 -0.00054542453444126964 0.0010516829526593739 0 -0.00058498676374604841 0.00087946954939899572 0 -0.0003917007613120976 0.0012303302768198558 0 -0.00026279800694634076 0.0012177457560180668 0 -0.0004110275266889686 0.0012624618963204663 0 -0.0007512714719849267 0.0013613929697413873 0 -0.00054709128310672359 0.001666837563564866 0 -0.0006746233663023029 0.00084631349697076479 0 -0.00054542453444126964 0.0010516829526593739 0 -0.00058498676374604841 0.00087946954939899572 0 -0.0006746233663023029 0.00084631349697076479 0 -0.00058498676374604841 0.00087946954939899572 0 -0.00070248765474606749 0.00062925257661658658 0 -0.00078550813257588525 0.00058480458132092355 0 -0.0006746233663023029 0.00084631349697076479 0 -0.00070248765474606749 0.00062925257661658658 0 -0.00058498676374604841 0.00087946954939899572 0 -0.00070248765474606749 0.00062925257661658658 0 -0.0004984435481408155 0.00070834261594990755 0 -0.00070248765474606749 0.00062925257661658658 0 -0.00063269243654982084 0.00046148201256485187 0 -0.0004984435481408155 0.00070834261594990755 0 0.00010489066948499013 0.0019184862957548159 0 2.512846783657015e-05 0.0017256903357472445 0 -9.7857165610988941e-06 0.0019395102139278602 0 -0.00026766847068347726 0.001188258608272584 0 -0.00026279800694634076 0.0012177457560180668 0 -0.00070248765474606749 0.00062925257661658658 0 -0.00063269243654982084 0.00046148201256485187 0 -0.00077049833681370528 0.00039978821929811958 0 -0.00024990274741588979 0.0019915969512379617 0 -0.00054709128310672359 0.001666837563564866 0 -0.00052050867158266994 0.0022787923677148689 0 -0.0004110275266889686 0.0012624618963204663 0 -0.00024990274741588979 0.0019915969512379617 0 -0.00054709128310672359 0.001666837563564866 0 -0.0004110275266889686 0.0012624618963204663 0 2.512846783657015e-05 0.0017256903357472445 0 -0.00024990274741588979 0.0019915969512379617 0 -9.7857165610988941e-06 0.0019395102139278602 0 -0.00024990274741588979 0.0019915969512379617 0 -8.2958591216388767e-05 0.0020379734668640398 0 2.512846783657015e-05 0.0017256903357472445 0 -9.7857165610988941e-06 0.0019395102139278602 0 -0.00024990274741588979 0.0019915969512379617 0 -0.00024990274741588979 0.0019915969512379617 0 -0.00052050867158266994 0.0022787923677148689 0 -0.00029544874022696297 0.0021892756334046587 0 -0.00024990274741588979 0.0019915969512379617 0 -8.2958591216388767e-05 0.0020379734668640398 0 -0.00029544874022696297 0.0021892756334046587 0 -9.7857165610988941e-06 0.0019395102139278602 0 -8.2958591216388767e-05 0.0020379734668640398 0 0.00012015668367703277 0.0019051292139975389 0 -8.2958591216388767e-05 0.0020379734668640398 0 -1.8200200995084234e-06 0.00199964424047886 0 -0.00016761471271899061 0.0021318030995258921 0 -8.2958591216388767e-05 0.0020379734668640398 0 -0.00029544874022696297 0.0021892756334046587 0 -0.00016761471271899061 0.0021318030995258921 0 -0.00063269243654982084 0.00046148201256485187 0 -0.00075079459841160938 0.00036680997011273049 0 -0.00077049833681370528 0.00039978821929811958 0 -0.00026766847068347726 0.001188258608272584 0 -0.00035744212320204972 0.0011278519154386845 0 0.00010489066948499013 0.0019184862957548159 0 0.00012015668367703277 0.0019051292139975389 0 3.2152422209257214e-05 0.0018995809065547682 0 0.00010489066948499013 0.0019184862957548159 0 -9.7857165610988941e-06 0.0019395102139278602 0 0.00012015668367703277 0.0019051292139975389 0 0.00012015668367703277 0.0019051292139975389 0 0.00024448136805956726 0.0017374849860154462 0 -1.8200200995084234e-06 0.00199964424047886 0 -8.2958591216388767e-05 0.0020379734668640398 0 0.00012015668367703277 0.0019051292139975389 0 -1.8200200995084234e-06 0.00199964424047886 0 0.00012015668367703277 0.0019051292139975389 0 0.00024448136805956726 0.0017374849860154462 0 3.2152422209257214e-05 0.0018995809065547682 0 0.00024448136805956726 0.0017374849860154462 0 3.2152422209257214e-05 0.0018995809065547682 0 4.1011840324311862e-05 0.0010803846662760528 0 3.2152422209257214e-05 0.0018995809065547682 0 -0.00034211783302405909 0.0013138307852853964 0 4.1011840324311862e-05 0.0010803846662760528 0 -0.00035744212320204972 0.0011278519154386845 0 -0.00053396213055121331 0.00087029350812693317 0 -0.00075079459841160938 0.00036680997011273049 0 -0.00076845904119414367 0.00035993629181924785 0 -0.00077063204530529493 0.00043048532573503929 0 -0.00075079459841160938 0.00036680997011273049 0 -0.00076845904119414367 0.00035993629181924785 0 -0.00077049833681370528 0.00039978821929811958 0 -0.00076845904119414367 0.00035993629181924785 0 -0.00073187783836736666 0.00039285280545457295 0 -0.00074214688766661866 0.00036043785102941888 0 -0.00073187783836736666 0.00039285280545457295 0 -0.00077063204530529493 0.00043048532573503929 0 -0.0006656397315033247 0.00045866837961621094 0 -0.00076845904119414367 0.00035993629181924785 0 -0.00073187783836736666 0.00039285280545457295 0 -0.00077063204530529493 0.00043048532573503929 0 -0.0006656397315033247 0.00045866837961621094 0 -0.00062643281859457928 0.00046559464283750025 0 -0.00070425645925786373 0.00038068510151435917 0 -0.00073187783836736666 0.00039285280545457295 0 -0.0006656397315033247 0.00045866837961621094 0 -0.00070425645925786373 0.00038068510151435917 0 -0.00062643281859457928 0.00046559464283750025 0 -0.00070425645925786373 0.00038068510151435917 0 -0.0006893842988028126 0.00033626793331563469 0 -0.0006656397315033247 0.00045866837961621094 0 -0.00062643281859457928 0.00046559464283750025 0 -0.00064328283082295266 0.00046977269009510549 0 -0.00055690870457071747 -0.00037878453071763326 0 -0.00062624321143187143 0.00012420392045385276 0 -0.0004049075719176025 -0.0011894670536216811 0 -0.0006419397585071861 -0.0001057187124064576 0 -0.00066686176342125464 0.0001969458959159766 0 -0.0004049075719176025 -0.0011894670536216811 0 -0.0006419397585071861 -0.0001057187124064576 0 -0.00072595594640283991 -0.00076988377637440136 0 -0.00062643281859457928 0.00046559464283750025 0 -0.0006893842988028126 0.00033626793331563469 0 -0.00066686176342125464 0.0001969458959159766 0 -0.00059930906447713882 -9.9954753333173429e-05 0 -0.0010324818425684246 -0.00065315491089750724 0 -0.0006419397585071861 -0.0001057187124064576 0 -0.00072595594640283991 -0.00076988377637440136 0 -0.00095251637236145323 -0.00063709290026114343 0 -0.00073187783836736666 0.00039285280545457295 0 -0.00074214688766661866 0.00036043785102941888 0 -0.00070425645925786373 0.00038068510151435917 0 -0.00074214688766661866 0.00036043785102941888 0 -0.00070425645925786373 0.00038068510151435917 0 -0.00075393795200344742 0.00030756923237975508 0 -0.00070425645925786373 0.00038068510151435917 0 -0.0006893842988028126 0.00033626793331563469 0 -0.00075393795200344742 0.00030756923237975508 0 -0.0006893842988028126 0.00033626793331563469 0 -0.00075393795200344742 0.00030756923237975508 0 -0.00066686176342125464 0.0001969458959159766 0 -0.00076845904119414367 0.00035993629181924785 0 -0.00074214688766661866 0.00036043785102941888 0 -0.00075393795200344742 0.00030756923237975508 0 -0.00075393795200344742 0.00030756923237975508 0 -0.0007580799134883075 0.00025667466702823964 0 -0.00079271326487235128 0.0003290806976138316 0 -0.00075393795200344742 0.00030756923237975508 0 -0.0007580799134883075 0.00025667466702823964 0 -0.00066686176342125464 0.0001969458959159766 0 -0.0007580799134883075 0.00025667466702823964 0 -0.00084819111589666313 0.0002544247552803798 0 -0.00083138255878433822 0.00030232245764795908 0 -0.0007580799134883075 0.00025667466702823964 0 -0.00083138255878433822 0.00030232245764795908 0 -0.00079271326487235128 0.0003290806976138316 0 -0.0006419397585071861 -0.0001057187124064576 0 -0.00081180555453506476 0.00016277535066989334 0 -0.00092604987513580082 1.7399123371780179e-05 0 -0.0006419397585071861 -0.0001057187124064576 0 -0.00081180555453506476 0.00016277535066989334 0 -0.00066686176342125464 0.0001969458959159766 0 -0.00081180555453506476 0.00016277535066989334 0 -0.00066686176342125464 0.0001969458959159766 0 -0.00084819111589666313 0.0002544247552803798 0 -0.0007580799134883075 0.00025667466702823964 0 -0.00066686176342125464 0.0001969458959159766 0 -0.00084819111589666313 0.0002544247552803798 0 -0.00081180555453506476 0.00016277535066989334 0 -0.00084819111589666313 0.0002544247552803798 0 -0.00095535739909478694 0.00019982447120336705 0 -0.00084819111589666313 0.0002544247552803798 0 -0.00093482375688647937 0.00028287694389029675 0 -0.00095535739909478694 0.00019982447120336705 0 -0.00084819111589666313 0.0002544247552803798 0 -0.00093482375688647937 0.00028287694389029675 0 -0.00083138255878433822 0.00030232245764795908 0 -0.00085633421066382985 0.00039602735344640736 0 -0.00083138255878433822 0.00030232245764795908 0 -0.00079271326487235128 0.0003290806976138316 0 -0.00093482375688647937 0.00028287694389029675 0 -0.00085633421066382985 0.00039602735344640736 0 -0.00083138255878433822 0.00030232245764795908 0 -0.00085633421066382985 0.00039602735344640736 0 -0.00079098670537476308 0.00046167573193181229 0 -0.00079271326487235128 0.0003290806976138316 0 -0.00078550813257588525 0.00058480458132092355 0 -0.00085633421066382985 0.00039602735344640736 0 -0.00079098670537476308 0.00046167573193181229 0 -0.00078550813257588525 0.00058480458132092355 0 -0.00070248765474606749 0.00062925257661658658 0 -0.00079098670537476308 0.00046167573193181229 0 -0.00070248765474606749 0.00062925257661658658 0 -0.00079098670537476308 0.00046167573193181229 0 -0.00077049833681370528 0.00039978821929811958 0 -0.00076845904119414367 0.00035993629181924785 0 -0.00077049833681370528 0.00039978821929811958 0 -0.00079271326487235128 0.0003290806976138316 0 -0.00079098670537476308 0.00046167573193181229 0 -0.00077049833681370528 0.00039978821929811958 0 -0.00079271326487235128 0.0003290806976138316 0 -0.00076845904119414367 0.00035993629181924785 0 -0.00075393795200344742 0.00030756923237975508 0 -0.00079271326487235128 0.0003290806976138316 0 0.001347754237010804 0.0055124078975396238 0 0.00097769791749864978 0.0058336570980282495 0 0.0009636114058387006 0.0053601171514905521 0 0.0014800376921401996 0.0056623007565556466 0 0.0012530832934071548 0.0051050267734332241 0 0.00097769791749864978 0.0058336570980282495 0 0.0012802092409205503 0.0060065436494958751 0 0.0010378465952372571 0.0064043345950519706 0 0.001347754237010804 0.0055124078975396238 0 0.00097769791749864978 0.0058336570980282495 0 0.0012802092409205503 0.0060065436494958751 0 0.0015854965679631475 0.0059336240583671351 0 0.001347754237010804 0.0055124078975396238 0 0.0012802092409205503 0.0060065436494958751 0 0.0015854965679631475 0.0059336240583671351 0 0.0012802092409205503 0.0060065436494958751 0 0.0014442234499447099 0.0064667298772564143 0 0.0012802092409205503 0.0060065436494958751 0 0.0014442234499447099 0.0064667298772564143 0 0.0010378465952372571 0.0064043345950519706 0 0.0014086885267856131 0.00861902377651887 0 0.0010222707360034056 0.0099631576411068432 0 0.0011968245123339149 0.0070789990701693277 0 0.0014442234499447099 0.0064667298772564143 0 0.0010378465952372571 0.0064043345950519706 0 0.0011246888666027054 0.01261771016961887 0 0.00076916061729164886 0.01297370694947611 0 0.00080584134272809022 0.012790870986335355 0 0.0028746751320961241 0.0064944498493123889 0 0.0024653415190921614 0.0062332526245184473 0 0.0024193788963682602 0.0058523638672616099 0 0.0014086885267856131 0.00861902377651887 0 0.0017626800699691249 0.005775699052138576 0 0.0024653415190921614 0.0062332526245184473 0 0.0024193788963682602 0.0058523638672616099 0 0.0018050905513181713 0.0060493118528663799 0 0.0019553861063437827 0.005294527417742197 0 0.0024193788963682602 0.0058523638672616099 0 0.0018430138466153214 0.0056267943634934489 0 0.0014800376921401996 0.0056623007565556466 0 0.0017626800699691249 0.005775699052138576 0 0.0024193788963682602 0.0058523638672616099 0 0.0018430138466153214 0.0056267943634934489 0 0.0018050905513181713 0.0060493118528663799 0 0.0018430138466153214 0.0056267943634934489 0 0.0018050905513181713 0.0060493118528663799 0 0.0013427937172969106 0.0055872752623313988 0 0.0023628246434452883 0.0064016263378294889 0 0.0019010355737477556 0.0057671039520995468 0 0.0024205574918805223 0.0064613682323357968 0 0.0024653415190921614 0.0062332526245184473 0 0.0018050905513181713 0.0060493118528663799 0 0.0020234265215679716 0.0055430645260484187 0 0.0012109586781814342 0.0057676884141009393 0 0.0015122467175917613 0.0052717485405136752 0 0.0017561884834099218 0.0063357590428622266 0 0.0020234265215679716 0.0055430645260484187 0 0.0012109586781814342 0.0057676884141009393 0 0.0012109586781814342 0.0057676884141009393 0 0.0015122467175917613 0.0052717485405136752 0 0.0010829559347087642 0.0048653495949284005 0 0.0020234265215679716 0.0055430645260484187 0 0.0015122467175917613 0.0052717485405136752 0 0.0015258039601766117 0.0046703532508656654 0 0.0019010355737477556 0.0057671039520995468 0 0.0014903202795849247 0.0052302033540282166 0 0.0015122467175917613 0.0052717485405136752 0 0.0015258039601766117 0.0046703532508656654 0 0.0010829559347087642 0.0048653495949284005 0 0.0015258039601766117 0.0046703532508656654 0 0.0010192222353279841 0.0038877172005812983 0 0.0010829559347087642 0.0048653495949284005 0 0.0014903202795849247 0.0052302033540282166 0 0.0008095077573893395 0.0039910850476823139 0 0.0013427937172969106 0.0055872752623313988 0 0.0014468400890910488 0.0052101655156823355 0 0.001031524598707334 0.0051997919566171818 0 0.0018430138466153214 0.0056267943634934489 0 0.0013427937172969106 0.0055872752623313988 0 0.0014468400890910488 0.0052101655156823355 0 0.0019553861063437827 0.005294527417742197 0 0.0018430138466153214 0.0056267943634934489 0 0.0014468400890910488 0.0052101655156823355 0 0.0019553861063437827 0.005294527417742197 0 0.0014468400890910488 0.0052101655156823355 0 0.001535429138872588 0.0048391073100694437 0 0.0014468400890910488 0.0052101655156823355 0 0.0012228151303647298 0.0049771860435310119 0 0.001535429138872588 0.0048391073100694437 0 0.0014468400890910488 0.0052101655156823355 0 0.001031524598707334 0.0051997919566171818 0 0.0012228151303647298 0.0049771860435310119 0 0.001031524598707334 0.0051997919566171818 0 0.0008529479688282062 0.0048970051604386201 0 0.0012228151303647298 0.0049771860435310119 0 0.0008095077573893395 0.0039910850476823139 0 0.00013818889746925576 0.0025820174944249474 0 0.00097874548189312918 0.0037904277586370788 0 0.00016269408104567458 0.0037558168223880122 0 0.00023001175370611642 0.0028389439272595803 0 0.0008095077573893395 0.0039910850476823139 0 0.00049929693361773573 0.0038216192387558511 0 0.00016269408104567458 0.0037558168223880122 0 -0.00043964034694219929 0.0033748277936189474 0 0.00023001175370611642 0.0028389439272595803 0 0.00016269408104567458 0.0037558168223880122 0 0.00048142344769231147 0.0042495411741386799 0 -0.00013571646602520587 0.0045498422554103388 0 0.0008095077573893395 0.0039910850476823139 0 0.0011081651431539804 0.0047449209823384134 0 0.00097874548189312918 0.0037904277586370788 0 0.00016269408104567458 0.0037558168223880122 0 0.00048142344769231147 0.0042495411741386799 0 0.00097874548189312918 0.0037904277586370788 0 0.00048142344769231147 0.0042495411741386799 0 0.0010829559347087642 0.0048653495949284005 0 0.0012109586781814342 0.0057676884141009393 0 0.0010829559347087642 0.0048653495949284005 0 0.00037736325320877689 0.0058085909659033493 0 0.00044115745741598044 0.0039565237246028959 0 -0.00061493688429487274 0.0013702203713572261 0 -0.00091743045909349521 0.003148320566288216 0 -0.0010391821308408731 0.0048646785327465403 0 0.00044115745741598044 0.0039565237246028959 0 -0.00091743045909349521 0.003148320566288216 0 0.00048142344769231147 0.0042495411741386799 0 0.0010829559347087642 0.0048653495949284005 0 -0.00013571646602520587 0.0045498422554103388 0 0.00037970657040621358 0.0048870389886531184 0 -0.00036616112135912831 0.0030017911248438923 0 0.0010829559347087642 0.0048653495949284005 0 0.00037736325320877689 0.0058085909659033493 0 -0.00013571646602520587 0.0045498422554103388 0 -0.00061493688429487274 0.0013702203713572261 0 -0.0011598789998392234 0.0016592876869425746 0 -0.00091743045909349521 0.003148320566288216 0 -0.00061493688429487274 0.0013702203713572261 0 -0.0011598789998392234 0.0016592876869425746 0 -0.00090912788783464773 0.001398337780521641 0 -0.0011598789998392234 0.0016592876869425746 0 -0.00086890093652126639 0.0014128961858121984 0 -0.00090912788783464773 0.001398337780521641 0 -0.0011598789998392234 0.0016592876869425746 0 -0.00091743045909349521 0.003148320566288216 0 -0.0023877486331866193 0.0041487032540352747 0 -0.0010391821308408731 0.0048646785327465403 0 -0.00091743045909349521 0.003148320566288216 0 -0.0023877486331866193 0.0041487032540352747 0 -0.0012201776309016012 0.0017369402306803053 0 -0.0017890289923126223 0.0024746666868850084 0 -0.0011598789998392234 0.0016592876869425746 0 -0.00081719019357551421 0.0010028033646169211 0 -0.00085583560694385736 0.0013353873735130631 0 -0.00081719019357551421 0.0010028033646169211 0 -0.00073288455103890911 0.0011721236870714607 0 -0.00085583560694385736 0.0013353873735130631 0 -0.0011598789998392234 0.0016592876869425746 0 -0.0028428634665557222 0.004132761199022417 0 -0.0023877486331866193 0.0041487032540352747 0 -0.00070438434858354014 0.0010519087654603508 0 -0.00081719019357551421 0.0010028033646169211 0 -0.00073288455103890911 0.0011721236870714607 0 -0.00062009640875995795 0.0012425009949848923 0 -0.00077128579977001977 0.0012909213398814936 0 -0.00086890093652126639 0.0014128961858121984 0 -0.00077128579977001977 0.0012909213398814936 0 -0.00085583560694385736 0.0013353873735130631 0 -0.00086890093652126639 0.0014128961858121984 0 -0.00073288455103890911 0.0011721236870714607 0 -0.00077128579977001977 0.0012909213398814936 0 -0.00085583560694385736 0.0013353873735130631 0 -0.0011598789998392234 0.0016592876869425746 0 -0.00085583560694385736 0.0013353873735130631 0 -0.00086890093652126639 0.0014128961858121984 0 -0.0007512714719849267 0.0013613929697413873 0 -0.00090912788783464773 0.001398337780521641 0 -0.00095098400026421474 0.0014750499106908558 0 -0.00062009640875995795 0.0012425009949848923 0 -0.00086890093652126639 0.0014128961858121984 0 -0.0007512714719849267 0.0013613929697413873 0 -0.00086890093652126639 0.0014128961858121984 0 -0.0007512714719849267 0.0013613929697413873 0 -0.00090912788783464773 0.001398337780521641 0 -0.00061493688429487274 0.0013702203713572261 0 -0.00090912788783464773 0.001398337780521641 0 -0.00095098400026421474 0.0014750499106908558 0 -0.00036616112135912831 0.0030017911248438923 0 -0.00065905150718905195 0.0024358680865948011 0 0.00016269408104567458 0.0037558168223880122 0 -0.00013571646602520587 0.0045498422554103388 0 -0.00043964034694219929 0.0033748277936189474 0 -0.0007512714719849267 0.0013613929697413873 0 -0.00095098400026421474 0.0014750499106908558 0 -0.00054709128310672359 0.001666837563564866 0 -0.00095098400026421474 0.0014750499106908558 0 -0.00054709128310672359 0.001666837563564866 0 -0.00052050867158266994 0.0022787923677148689 0 -0.00065905150718905195 0.0024358680865948011 0 -0.00055461423868440984 0.0023013778543900325 0 -0.00043964034694219929 0.0033748277936189474 0 -0.00016723981324184316 0.0026305995525078979 0 0.00023001175370611642 0.0028389439272595803 0 -0.00043964034694219929 0.0033748277936189474 0 -0.00016723981324184316 0.0026305995525078979 0 -0.00052050867158266994 0.0022787923677148689 0 -0.00016723981324184316 0.0026305995525078979 0 -0.00022854899927523398 0.0023311022632285902 0 5.0443641124927458e-05 0.0026745431633387762 0 -0.00016723981324184316 0.0026305995525078979 0 -0.00052050867158266994 0.0022787923677148689 0 -0.00022854899927523398 0.0023311022632285902 0 -0.00052050867158266994 0.0022787923677148689 0 -0.00029544874022696297 0.0021892756334046587 0 -0.00022854899927523398 0.0023311022632285902 0 -0.00029544874022696297 0.0021892756334046587 0 -0.00021729574194278268 0.0021874332845012241 0 -0.00016761471271899061 0.0021318030995258921 0 -0.00029544874022696297 0.0021892756334046587 0 -0.00021729574194278268 0.0021874332845012241 0 -0.00022854899927523398 0.0023311022632285902 0 -0.00021729574194278268 0.0021874332845012241 0 -0.000151341172532082 0.0022365223272963982 0 -0.00022854899927523398 0.0023311022632285902 0 -0.00022854899927523398 0.0023311022632285902 0 -2.5436022810389728e-05 0.0024530670804868144 0 5.0443641124927458e-05 0.0026745431633387762 0 -2.5436022810389728e-05 0.0024530670804868144 0 0.00035668104996982187 0.0030416252226947273 0 5.0443641124927458e-05 0.0026745431633387762 0 -0.000151341172532082 0.0022365223272963982 0 -0.00022854899927523398 0.0023311022632285902 0 -2.5436022810389728e-05 0.0024530670804868144 0 -2.5436022810389728e-05 0.0024530670804868144 0 -3.425348855606704e-05 0.002206745415552104 0 0.00026934637822098058 0.0022344165998108463 0 -0.000151341172532082 0.0022365223272963982 0 -2.5436022810389728e-05 0.0024530670804868144 0 -3.425348855606704e-05 0.002206745415552104 0 0.00064491820368247688 0.0035490810252691457 0 0.00097537110540866926 0.004183944835172303 0 0.00026934637822098058 0.0022344165998108463 0 0.00035668104996982187 0.0030416252226947273 0 0.0010133472686054536 0.0042192432095309066 0 -2.5436022810389728e-05 0.0024530670804868144 0 0.00026934637822098058 0.0022344165998108463 0 0.00035668104996982187 0.0030416252226947273 0 0.00035668104996982187 0.0030416252226947273 0 0.00023394715198165521 0.0028365081803976124 0 0.00020752588414368648 0.0028161092701394367 0 0.00035668104996982187 0.0030416252226947273 0 0.0010133472686054536 0.0042192432095309066 0 0.0008529479688282062 0.0048970051604386201 0 0.00038544402421592173 0.0030621724292683936 0 0.00049929693361773573 0.0038216192387558511 0 0.00035668104996982187 0.0030416252226947273 0 0.00023394715198165521 0.0028365081803976124 0 5.0443641124927458e-05 0.0026745431633387762 0 0.00023394715198165521 0.0028365081803976124 0 0.00023001175370611642 0.0028389439272595803 0 0.00020752588414368648 0.0028161092701394367 0 -0.00016723981324184316 0.0026305995525078979 0 5.0443641124927458e-05 0.0026745431633387762 0 0.00023001175370611642 0.0028389439272595803 0 0.00023394715198165521 0.0028365081803976124 0 5.0443641124927458e-05 0.0026745431633387762 0 0.00023001175370611642 0.0028389439272595803 0 0.00022570598576008032 0.0028536312306476782 0 0.00023001175370611642 0.0028389439272595803 0 0.00020752588414368648 0.0028161092701394367 0 0.0008529479688282062 0.0048970051604386201 0 0.001241621866737014 0.0047435577327597503 0 0.0012228151303647298 0.0049771860435310119 0 0.001241621866737014 0.0047435577327597503 0 0.0012228151303647298 0.0049771860435310119 0 0.001535429138872588 0.0048391073100694437 0 0.001241621866737014 0.0047435577327597503 0 0.001535429138872588 0.0048391073100694437 0 0.0010846409721059519 0.0047477478340960336 0 0.0012530832934071548 0.0051050267734332241 0 0.0011130551057195934 0.0048073748309359265 0 0.0010133472686054536 0.0042192432095309066 0 0.0008529479688282062 0.0048970051604386201 0 0.001241621866737014 0.0047435577327597503 0 0.0010133472686054536 0.0042192432095309066 0 0.001241621866737014 0.0047435577327597503 0 0.0010846409721059519 0.0047477478340960336 0 0.0010133472686054536 0.0042192432095309066 0 0.0010846409721059519 0.0047477478340960336 0 0.00098655764793642011 0.0046720723128974807 0 0.0010308872330072351 0.0048018967964517456 0 0.0010133472686054536 0.0042192432095309066 0 0.00098655764793642011 0.0046720723128974807 0 0.0010308872330072351 0.0048018967964517456 0 0.0010017311694752961 0.0047788657338121796 0 0.00094509094083134783 0.0047510000722970338 0 0.0010308872330072351 0.0048018967964517456 0 0.00098655764793642011 0.0046720723128974807 0 0.0010017311694752961 0.0047788657338121796 0 0.00098655764793642011 0.0046720723128974807 0 0.0010017311694752961 0.0047788657338121796 0 0.0010610044799148717 0.0047928830888780876 0 0.0010017311694752961 0.0047788657338121796 0 0.0010610044799148717 0.0047928830888780876 0 0.0010667908928726295 0.004750557324048818 0 0.0010610044799148717 0.0047928830888780876 0 0.0012084508619328775 0.0049065007740942933 0 0.0011495820178213901 0.0047822343220472272 0 0.00098655764793642011 0.0046720723128974807 0 0.0010610044799148717 0.0047928830888780876 0 0.0011006977916289597 0.0048186851240336883 0 0.0010610044799148717 0.0047928830888780876 0 0.0011006977916289597 0.0048186851240336883 0 0.0012084508619328775 0.0049065007740942933 0 0.0010846409721059519 0.0047477478340960336 0 0.0011006977916289597 0.0048186851240336883 0 0.0012034159672660498 0.004970245671673792 0 0.0010846409721059519 0.0047477478340960336 0 0.00098655764793642011 0.0046720723128974807 0 0.0011006977916289597 0.0048186851240336883 0 0.0011006977916289597 0.0048186851240336883 0 0.0012034159672660498 0.004970245671673792 0 0.0012084508619328775 0.0049065007740942933 0 0.0013705426451461917 0.0050503500889474461 0 0.0012084508619328775 0.0049065007740942933 0 0.0013121531781837192 0.0049674393605286145 0 0.0013705426451461917 0.0050503500889474461 0 0.0012084508619328775 0.0049065007740942933 0 0.0013353074165351835 0.0050620640107866778 0 0.0012034159672660498 0.004970245671673792 0 0.0012084508619328775 0.0049065007740942933 0 0.0013353074165351835 0.0050620640107866778 0 0.0012034159672660498 0.004970245671673792 0 0.0013353074165351835 0.0050620640107866778 0 0.0013806537693630597 0.0051978942986459159 0 0.0012034159672660498 0.004970245671673792 0 0.0013806537693630597 0.0051978942986459159 0 0.0012162518061917121 0.0051954988741065161 0 0.0009636114058387006 0.0053601171514905521 0 0.0010846409721059519 0.0047477478340960336 0 0.0012162518061917121 0.0051954988741065161 0 0.0010846409721059519 0.0047477478340960336 0 0.0012034159672660498 0.004970245671673792 0 0.0012162518061917121 0.0051954988741065161 0 0.001347754237010804 0.0055124078975396238 0 0.0009636114058387006 0.0053601171514905521 0 0.0012162518061917121 0.0051954988741065161 0 0.001347754237010804 0.0055124078975396238 0 0.0013806537693630597 0.0051978942986459159 0 0.0012162518061917121 0.0051954988741065161 0 3.0107833602055184e-06 0.0058829371537734649 0 0.00017669913658747215 0.0057508474603403491 0 0.00016502508280841343 0.0060210797420172006 0 0.00017669913658747215 0.0057508474603403491 0 0.00033092657019900948 0.0058705925188360384 0 0.00016502508280841343 0.0060210797420172006 0 0.00017669913658747215 0.0057508474603403491 0 0.00033092657019900948 0.0058705925188360384 0 0.00037003382844333073 0.0055929774829710996 0 0.00037003382844333073 0.0055929774829710996 0 0.00046807308672037248 0.0056082406943663574 0 0.00049095030471552547 0.0055489672857281548 0 0.00033092657019900948 0.0058705925188360384 0 0.00037003382844333073 0.0055929774829710996 0 0.00055984798824758883 0.0059557481800411359 0 0.00039065507627865592 0.005597885507913636 0 0.00050696705399904166 0.0057363323236036337 0 0.0021013239144559467 0.0041634307810332911 0 0.0016215691758373531 0.0043930919429066599 0 0.0014916357855368934 0.0036696310003736777 0 0.00037003382844333073 0.0055929774829710996 0 0.00030219623417866313 0.0055530430666590148 0 0.00046807308672037248 0.0056082406943663574 0 0.0011173798590267258 0.0047438552556449956 0 0.001489806772849648 0.0045111317179532592 0 0.0011173798590267258 0.0047438552556449956 0 0.00099471404799061935 0.0046598740989850455 0 0.00017669913658747215 0.0057508474603403491 0 0.00037003382844333073 0.0055929774829710996 0 0.00030219623417866313 0.0055530430666590148 0 -9.7512999679400062e-05 0.0056842093164623467 0 0.00017669913658747215 0.0057508474603403491 0 0.00030219623417866313 0.0055530430666590148 0 0.0013456500788453438 0.0047804033511489163 0 0.0011867157607950405 0.0047650255649896106 0 0.0012737991444571842 0.0048145209811930132 0 0.00048917244467765793 0.0052981271969454666 0 0.0011173798590267258 0.0047438552556449956 0 0.0011173798590267258 0.0047438552556449956 0 0.0012621094479071083 0.0048186155573392399 0 0.0013312521681477325 0.0048822415050284789 0 0.0012737991444571842 0.0048145209811930132 0 0.0012765151471164852 0.0048641704645850789 0 0.0012737991444571842 0.0048145209811930132 0 0.0012240947396709686 0.0048071424870594409 0 0.0012765151471164852 0.0048641704645850789 0 0.0012373747514151264 0.0047612710096703835 0 0.0012737991444571842 0.0048145209811930132 0 0.0012240947396709686 0.0048071424870594409 0 0.0012240947396709686 0.0048071424870594409 0 0.0012765151471164852 0.0048641704645850789 0 0.0012360590583099158 0.0048715130172594474 0 0.0013475919762994469 0.004960152205054429 0 0.0012765151471164852 0.0048641704645850789 0 0.0012360590583099158 0.0048715130172594474 0 0.0013475919762994469 0.004960152205054429 0 0.0012360590583099158 0.0048715130172594474 0 0.0013121531781837192 0.0049674393605286145 0 0.0012084508619328775 0.0049065007740942933 0 0.0012360590583099158 0.0048715130172594474 0 0.0013121531781837192 0.0049674393605286145 0 0.0012084508619328775 0.0049065007740942933 0 0.0012360590583099158 0.0048715130172594474 0 0.0011495820178213901 0.0047822343220472272 0 0.0012240947396709686 0.0048071424870594409 0 0.0012360590583099158 0.0048715130172594474 0 0.0011495820178213901 0.0047822343220472272 0 0.0012240947396709686 0.0048071424870594409 0 0.0011628530394563756 0.0047382773785404914 0 0.0011495820178213901 0.0047822343220472272 0 0.0012373747514151264 0.0047612710096703835 0 0.0012240947396709686 0.0048071424870594409 0 0.0011628530394563756 0.0047382773785404914 0 0.001489806772849648 0.0045111317179532592 0 0.0010796325816526799 0.0046617496592302084 0 0.0011628530394563756 0.0047382773785404914 0 0.0011495820178213901 0.0047822343220472272 0 0.0010939397706848898 0.004633664123540355 0 0.0016215691758373531 0.0043930919429066599 0 0.0010939397706848898 0.004633664123540355 0 0.001205185811089125 0.004108468183388953 0 0.0011495820178213901 0.0047822343220472272 0 0.0010667908928726295 0.004750557324048818 0 0.0010939397706848898 0.004633664123540355 0 0.0010610044799148717 0.0047928830888780876 0 0.0011495820178213901 0.0047822343220472272 0 0.0010667908928726295 0.004750557324048818 0 0.00094509094083134783 0.0047510000722970338 0 0.0010939397706848898 0.004633664123540355 0 0.00083032883310824685 0.0045558266169089265 0 0.0010017311694752961 0.0047788657338121796 0 0.0010667908928726295 0.004750557324048818 0 0.00094509094083134783 0.0047510000722970338 0 0.0010667908928726295 0.004750557324048818 0 0.00094509094083134783 0.0047510000722970338 0 0.0010939397706848898 0.004633664123540355 0 0.0010939397706848898 0.004633664123540355 0 0.00084166127589013447 0.004186036246979644 0 0.00083032883310824685 0.0045558266169089265 0 0.0010939397706848898 0.004633664123540355 0 0.00084166127589013447 0.004186036246979644 0 0.001205185811089125 0.004108468183388953 0 0.00084166127589013447 0.004186036246979644 0 0.00090361994572164058 0.0037493199445638608 0 0.00053967236482657535 0.0038928913343602833 0 0.00084166127589013447 0.004186036246979644 0 0.001205185811089125 0.004108468183388953 0 0.00090361994572164058 0.0037493199445638608 0 0.0016215691758373531 0.0043930919429066599 0 0.001205185811089125 0.004108468183388953 0 0.0014916357855368934 0.0036696310003736777 0 0.001205185811089125 0.004108468183388953 0 0.0014916357855368934 0.0036696310003736777 0 0.00090361994572164058 0.0037493199445638608 0 0.0014916357855368934 0.0036696310003736777 0 0.00090361994572164058 0.0037493199445638608 0 0.00083348720401010617 0.0031086513430672925 0 0.00090361994572164058 0.0037493199445638608 0 0.00048639907520690254 0.0034709501842093956 0 0.00083348720401010617 0.0031086513430672925 0 0.00024757674011675066 0.0035989377800385337 0 0.00019315744228717084 0.0040632671548987741 0 0.00053967236482657535 0.0038928913343602833 0 0.00048639907520690254 0.0034709501842093956 0 0.00024757674011675066 0.0035989377800385337 0 0.00053967236482657535 0.0038928913343602833 0 0.00090361994572164058 0.0037493199445638608 0 0.00048639907520690254 0.0034709501842093956 0 0.00053967236482657535 0.0038928913343602833 0 0.00048639907520690254 0.0034709501842093956 0 0.00024757674011675066 0.0035989377800385337 0 0.00018218943674936725 0.0033458704573756299 0 -4.9798444849056707e-06 0.0032998908435806973 0 -0.00010692339635726626 0.003207969490018539 0 0.00024757674011675066 0.0035989377800385337 0 0.00019315744228717084 0.0040632671548987741 0 -0.00011747172650583816 0.0032063059765021543 0 0.00024757674011675066 0.0035989377800385337 0 -0.00011747172650583816 0.0032063059765021543 0 0.00018218943674936725 0.0033458704573756299 0 -0.0001317879376596172 0.0023587048837856064 0 -0.00021335085711556297 0.0027628893610452108 0 -0.00022664260619933196 0.0025445441282461877 0 -0.00011747172650583816 0.0032063059765021543 0 -9.9259586569667356e-05 0.0031964481199827184 0 -0.00022664260619933196 0.0025445441282461877 0 -2.7636576404591147e-06 0.002486606169308723 0 -9.9259586569667356e-05 0.0031964481199827184 0 -0.00022664260619933196 0.0025445441282461877 0 -2.7636576404591147e-06 0.002486606169308723 0 -0.00010247137543988022 0.0023048507636702605 0 0.00019315744228717084 0.0040632671548987741 0 0.00059908509288831213 0.0043015326885655833 0 0.00053967236482657535 0.0038928913343602833 0 0.00084166127589013447 0.004186036246979644 0 0.00059908509288831213 0.0043015326885655833 0 0.00053967236482657535 0.0038928913343602833 0 0.00019315744228717084 0.0040632671548987741 0 0.00059908509288831213 0.0043015326885655833 0 0.00063066615992106239 0.0046631963983257913 0 0.00084166127589013447 0.004186036246979644 0 0.00059908509288831213 0.0043015326885655833 0 0.00083032883310824685 0.0045558266169089265 0 0.00059908509288831213 0.0043015326885655833 0 0.00083032883310824685 0.0045558266169089265 0 0.00063066615992106239 0.0046631963983257913 0 0.0010308872330072351 0.0048018967964517456 0 0.00094509094083134783 0.0047510000722970338 0 0.00063066615992106239 0.0046631963983257913 0 -3.425348855606704e-05 0.002206745415552104 0 0.00026934637822098058 0.0022344165998108463 0 -0.00010490529961891297 0.0021740856450913125 0 0.00094509094083134783 0.0047510000722970338 0 0.00083032883310824685 0.0045558266169089265 0 0.00063066615992106239 0.0046631963983257913 0 0.00064491820368247688 0.0035490810252691457 0 0.00027003021113563788 0.0034085489229835932 0 -3.425348855606704e-05 0.002206745415552104 0 -0.00010490529961891297 0.0021740856450913125 0 -0.000114601238330336 0.0021690153192614491 0 -0.000151341172532082 0.0022365223272963982 0 -3.425348855606704e-05 0.002206745415552104 0 -0.000114601238330336 0.0021690153192614491 0 -0.0001317879376596172 0.0023587048837856064 0 -0.00011394835226459987 0.0021868733587682506 0 -2.7636576404591147e-06 0.002486606169308723 0 -0.000114601238330336 0.0021690153192614491 0 -0.00010247137543988022 0.0023048507636702605 0 -0.00010490529961891297 0.0021740856450913125 0 -0.000114601238330336 0.0021690153192614491 0 -0.00010247137543988022 0.0023048507636702605 0 -0.00022664260619933196 0.0025445441282461877 0 -0.00010490529961891297 0.0021740856450913125 0 -0.00010247137543988022 0.0023048507636702605 0 -4.9798444849056707e-06 0.0032998908435806973 0 0.00027003021113563788 0.0034085489229835932 0 -0.00024448297387839884 0.0021954908426420846 0 -0.000114601238330336 0.0021690153192614491 0 -0.0001810473981319863 0.0021739442869165904 0 -0.000114601238330336 0.0021690153192614491 0 -0.0001810473981319863 0.0021739442869165904 0 -0.00018827929010201152 0.0021648957764282412 0 -0.00021729574194278268 0.0021874332845012241 0 -0.000151341172532082 0.0022365223272963982 0 -0.000114601238330336 0.0021690153192614491 0 -0.00021729574194278268 0.0021874332845012241 0 -0.000114601238330336 0.0021690153192614491 0 -0.00018827929010201152 0.0021648957764282412 0 -0.00021729574194278268 0.0021874332845012241 0 -0.00018827929010201152 0.0021648957764282412 0 -0.00016761471271899061 0.0021318030995258921 0 -0.0001810473981319863 0.0021739442869165904 0 -0.00018827929010201152 0.0021648957764282412 0 -0.00017075286849327378 0.0021944904141911691 0 -0.00018827929010201152 0.0021648957764282412 0 -0.00017075286849327378 0.0021944904141911691 0 -0.00014290047116414077 0.0021765896166993119 0 -0.00017075286849327378 0.0021944904141911691 0 -0.00014355009837293612 0.0022548917547230442 0 -0.00010170839267096749 0.0022390004104587574 0 -0.00018428968549056204 0.0022272254571051803 0 -0.00017075286849327378 0.0021944904141911691 0 -0.00014355009837293612 0.0022548917547230442 0 -0.00017075286849327378 0.0021944904141911691 0 -0.00014290047116414077 0.0021765896166993119 0 -0.00010170839267096749 0.0022390004104587574 0 -0.00018428968549056204 0.0022272254571051803 0 -0.00017075286849327378 0.0021944904141911691 0 -0.00019755786821188304 0.0021989555845337593 0 -0.0001810473981319863 0.0021739442869165904 0 -0.00017075286849327378 0.0021944904141911691 0 -0.00019755786821188304 0.0021989555845337593 0 -0.00024448297387839884 0.0021954908426420846 0 -0.00021239452366153864 0.0022347116919224537 0 -0.00025237986206397105 0.0022997434833770852 0 -0.00024448297387839884 0.0021954908426420846 0 -0.0001810473981319863 0.0021739442869165904 0 -0.00019755786821188304 0.0021989555845337593 0 -0.00024448297387839884 0.0021954908426420846 0 -0.00019755786821188304 0.0021989555845337593 0 -0.00021239452366153864 0.0022347116919224537 0 -0.00018428968549056204 0.0022272254571051803 0 -0.00021239452366153864 0.0022347116919224537 0 -0.00019223080859370596 0.0022773126946507355 0 -0.00018428968549056204 0.0022272254571051803 0 -0.00019755786821188304 0.0021989555845337593 0 -0.00021239452366153864 0.0022347116919224537 0 -0.00021239452366153864 0.0022347116919224537 0 -0.00025237986206397105 0.0022997434833770852 0 -0.00019223080859370596 0.0022773126946507355 0 -0.00024448297387839884 0.0021954908426420846 0 -0.00025237986206397105 0.0022997434833770852 0 -0.00034021833099998663 0.0023828406837592144 0 -0.00025237986206397105 0.0022997434833770852 0 -0.00026118828316832471 0.0023635257807101545 0 -0.00034021833099998663 0.0023828406837592144 0 -0.00025237986206397105 0.0022997434833770852 0 -0.00021849047623119386 0.0023260229354534461 0 -0.00019223080859370596 0.0022773126946507355 0 -0.00025237986206397105 0.0022997434833770852 0 -0.00021849047623119386 0.0023260229354534461 0 -0.00026118828316832471 0.0023635257807101545 0 -0.00014355009837293612 0.0022548917547230442 0 -0.00019223080859370596 0.0022773126946507355 0 -0.00014975695078004898 0.0023367303357071348 0 -0.00021849047623119386 0.0023260229354534461 0 -0.00019223080859370596 0.0022773126946507355 0 -0.00014975695078004898 0.0023367303357071348 0 -0.00014355009837293612 0.0022548917547230442 0 -0.00014975695078004898 0.0023367303357071348 0 -5.6205985343727009e-05 0.0022771405556212352 0 -0.00018428968549056204 0.0022272254571051803 0 -0.00014355009837293612 0.0022548917547230442 0 -0.00019223080859370596 0.0022773126946507355 0 -0.00020828001019756163 0.0024274013145610513 0 -0.00014975695078004898 0.0023367303357071348 0 -0.00016280002181656402 0.002460882468967291 0 -0.00014975695078004898 0.0023367303357071348 0 -0.00016280002181656402 0.002460882468967291 0 -3.2478866221352008e-05 0.0023419330589812925 0 -0.00021849047623119386 0.0023260229354534461 0 -0.00014975695078004898 0.0023367303357071348 0 -0.00022139731681791031 0.0023766152506019544 0 -0.00020828001019756163 0.0024274013145610513 0 -0.00014975695078004898 0.0023367303357071348 0 -0.00022139731681791031 0.0023766152506019544 0 -0.00027804881380605307 0.0024569628636132335 0 -0.00023918764708709124 0.0026538687550891333 0 -0.00034021833099998663 0.0023828406837592144 0 -0.00022139731681791031 0.0023766152506019544 0 -0.00026118828316832471 0.0023635257807101545 0 -0.00027804881380605307 0.0024569628636132335 0 -0.00021849047623119386 0.0023260229354534461 0 -0.00022139731681791031 0.0023766152506019544 0 -0.00026118828316832471 0.0023635257807101545 0 -0.00026118828316832471 0.0023635257807101545 0 -0.00027804881380605307 0.0024569628636132335 0 -0.00034021833099998663 0.0023828406837592144 0 -0.00020828001019756163 0.0024274013145610513 0 -0.00027804881380605307 0.0024569628636132335 0 -0.00025461396089431165 0.0025140336021340468 0 -0.00020828001019756163 0.0024274013145610513 0 -0.00022139731681791031 0.0023766152506019544 0 -0.00027804881380605307 0.0024569628636132335 0 -0.00027804881380605307 0.0024569628636132335 0 -0.00025461396089431165 0.0025140336021340468 0 -0.00027637330590414393 0.0025686916724289577 0 -0.00027804881380605307 0.0024569628636132335 0 -0.00027637330590414393 0.0025686916724289577 0 -0.00023918764708709124 0.0026538687550891333 0 -0.00027637330590414393 0.0025686916724289577 0 -0.00032716279653897197 0.0026293093304479431 0 -0.00023918764708709124 0.0026538687550891333 0 -0.00025461396089431165 0.0025140336021340468 0 -0.00027637330590414393 0.0025686916724289577 0 -0.00032716279653897197 0.0026293093304479431 0 -0.00032716279653897197 0.0026293093304479431 0 -0.00016280002181656402 0.002460882468967291 0 -0.00017155259425313243 0.0027002048624324786 0 -0.00020828001019756163 0.0024274013145610513 0 -0.00025461396089431165 0.0025140336021340468 0 -0.00016280002181656402 0.002460882468967291 0 -0.00025461396089431165 0.0025140336021340468 0 -0.00032716279653897197 0.0026293093304479431 0 -0.00016280002181656402 0.002460882468967291 0 -0.00032716279653897197 0.0026293093304479431 0 -0.00017155259425313243 0.0027002048624324786 0 -0.00046933482066534332 0.0027735268403935851 0 -0.00014429991610887531 0.0046669268416838381 0 -0.00036282866715105011 0.0042573584355848218 0 -0.00039609166457189334 0.004786816466937318 0 -0.00043708866970733584 0.0049390364639349043 0 -0.00073242168063845383 0.0046941870838522427 0 -0.00017155259425313243 0.0027002048624324786 0 -0.00046933482066534332 0.0027735268403935851 0 -7.9707509012076468e-07 0.0036622327270362126 0 -9.9083551384721453e-08 0.0043525079071391245 0 -6.8790666747292843e-06 0.0045339446168005575 0 -1.4469867789495267e-08 0.0036646116637643251 0 -0.00043055526450845718 0.0038633882400272235 0 -0.00036282866715105011 0.0042573584355848218 0 -0.00039609166457189334 0.004786816466937318 0 -0.00043708866970733584 0.0049390364639349043 0 -6.2040549020216478e-05 0.0048830275573611978 0 -9.9083551384721453e-08 0.0043525079071391245 0 -6.8790666747292843e-06 0.0045339446168005575 0 2.6207458281034442e-07 0.0050022807148902733 0 -0.00032716279653897197 0.0026293093304479431 0 -0.00046933482066534332 0.0027735268403935851 0 -0.00023918764708709124 0.0026538687550891333 0 -0.00043708866970733584 0.0049390364639349043 0 -6.2040549020216478e-05 0.0048830275573611978 0 -0.0001266056076931054 0.0051949659411345073 0 -0.00043055526450845718 0.0038633882400272235 0 -7.7299575291933523e-05 0.0039235336819470916 0 -0.00046933482066534332 0.0027735268403935851 0 -5.2601960762086736e-05 0.0026092911741899651 0 -0.00023918764708709124 0.0026538687550891333 0 -6.8790666747292843e-06 0.0045339446168005575 0 2.6207458281034442e-07 0.0050022807148902733 0 6.2920966783447935e-05 0.0052334173645745387 0 -0.00014429991610887531 0.0046669268416838381 0 -3.1274099105056924e-05 0.0049636982582908443 0 2.6207458281034442e-07 0.0050022807148902733 0 6.2920966783447935e-05 0.0052334173645745387 0 -3.1252811617645936e-07 0.0056505144435020178 0 6.2920966783447935e-05 0.0052334173645745387 0 -0.00017677787262049513 0.0053249373128675037 0 -3.1252811617645936e-07 0.0056505144435020178 0 -3.1274099105056924e-05 0.0049636982582908443 0 0.00020674100597912435 0.0057655286217855413 0 -6.2040549020216478e-05 0.0048830275573611978 0 -0.0001266056076931054 0.0051949659411345073 0 0.00014046221575071105 0.0051568282215562148 0 -6.2040549020216478e-05 0.0048830275573611978 0 0.00014046221575071105 0.0051568282215562148 0 0.00027601480124261386 0.004983191486341733 0 -5.2601960762086736e-05 0.0026092911741899651 0 0.00028408265066580201 0.0030973401008783431 0 0.00083348720401010617 0.0031086513430672925 0 -0.0001266056076931054 0.0051949659411345073 0 0.00019675039521549386 0.0054495556032338813 0 0.00014046221575071105 0.0051568282215562148 0 -7.7299575291933523e-05 0.0039235336819470916 0 0.00050446823955384681 0.0042747888853740734 0 -0.00023628749269097912 0.0026542080416134392 0 -0.00021335085711556297 0.0027628893610452108 0 -5.2601960762086736e-05 0.0026092911741899651 0 4.2183317128987288e-05 0.0030432840595871966 0 0.00028408265066580201 0.0030973401008783431 0 -5.2601960762086736e-05 0.0026092911741899651 0 4.2183317128987288e-05 0.0030432840595871966 0 -0.00010167868286233876 0.0029550921546957882 0 -5.2601960762086736e-05 0.0026092911741899651 0 -0.00023918764708709124 0.0026538687550891333 0 -0.00010167868286233876 0.0029550921546957882 0 -0.00023918764708709124 0.0026538687550891333 0 -0.00010167868286233876 0.0029550921546957882 0 -9.9259586569667356e-05 0.0031964481199827184 0 4.2183317128987288e-05 0.0030432840595871966 0 -0.00010167868286233876 0.0029550921546957882 0 -0.00011747172650583816 0.0032063059765021543 0 -0.00010167868286233876 0.0029550921546957882 0 -0.00011747172650583816 0.0032063059765021543 0 -9.9259586569667356e-05 0.0031964481199827184 0 4.2183317128987288e-05 0.0030432840595871966 0 0.00018218943674936725 0.0033458704573756299 0 0.00028408265066580201 0.0030973401008783431 0 4.2183317128987288e-05 0.0030432840595871966 0 -0.00011747172650583816 0.0032063059765021543 0 0.00018218943674936725 0.0033458704573756299 0 0.00048639907520690254 0.0034709501842093956 0 0.00018218943674936725 0.0033458704573756299 0 0.00028408265066580201 0.0030973401008783431 0 0.00048639907520690254 0.0034709501842093956 0 0.00028408265066580201 0.0030973401008783431 0 0.00083348720401010617 0.0031086513430672925 0 0.00099471404799061935 0.0046598740989850455 0 0.00050446823955384681 0.0042747888853740734 0 0.00019675039521549386 0.0054495556032338813 0 0.00038344577508817479 0.0054732602821676458 0 0.00040681243835428917 0.005270747327961082 0 0.00050696705399904166 0.0057363323236036337 0 0.00058640798666281205 0.0057854666500736802 0 0.00038344577508817479 0.0054732602821676458 0 0.00049095030471552547 0.0055489672857281548 0 0.00040681243835428917 0.005270747327961082 0 0.00046807308672037248 0.0056082406943663574 0 0.00019675039521549386 0.0054495556032338813 0 0.00038344577508817479 0.0054732602821676458 0 0.00046807308672037248 0.0056082406943663574 0 0.00038344577508817479 0.0054732602821676458 0 0.00049095030471552547 0.0055489672857281548 0 0.00055984798824758883 0.0059557481800411359 0 0.00069429992959028333 0.0062691406812358866 0 0.0004345644090553133 0.0062323222212469463 0 0.00069429992959028333 0.0062691406812358866 0 0.00052476906178703785 0.006480801684257193 0 0.0004345644090553133 0.0062323222212469463 0 0.00019675039521549386 0.0054495556032338813 0 0.00040681243835428917 0.005270747327961082 0 0.00014046221575071105 0.0051568282215562148 0 0.00058640798666281205 0.0057854666500736802 0 0.00020674100597912435 0.0057655286217855413 0 0.00040681243835428917 0.005270747327961082 0 0.00014046221575071105 0.0051568282215562148 0 0.00027601480124261386 0.004983191486341733 0 -1.5245674238079263e-05 0.0062696240042100842 0 -3.8532461237398576e-07 0.0056524746787932614 0 2.541661834559197e-07 0.0061100922462043938 0 0.00020674100597912435 0.0057655286217855413 0 -1.3073375260472791e-07 0.0056515785820097581 0 -1.5245674238079263e-05 0.0062696240042100842 0 2.541661834559197e-07 0.0061100922462043938 0 3.7093066897828218e-05 0.0063454092412826603 0 2.541661834559197e-07 0.0061100922462043938 0 3.7093066897828218e-05 0.0063454092412826603 0 -9.6989779355901224e-08 0.006568030347741869 0 0.00069429992959028333 0.0062691406812358866 0 0.00082351276753320744 0.0065405419050226128 0 0.00052476906178703785 0.006480801684257193 0 0.00020674100597912435 0.0057655286217855413 0 0.00032977018386400931 0.0064922574873274904 0 -1.5245674238079263e-05 0.0062696240042100842 0 3.7093066897828218e-05 0.0063454092412826603 0 1.201684128741655e-05 0.0063741016217067513 0 1.201684128741655e-05 0.0063741016217067513 0 -5.4472716465474293e-05 0.0064210830550722109 0 -9.5032694568314072e-05 0.0064186315635112907 0 0.00032977018386400931 0.0064922574873274904 0 3.0437277926387996e-05 0.0064143470104125995 0 1.201684128741655e-05 0.0063741016217067513 0 -5.4472716465474293e-05 0.0064210830550722109 0 -2.5439266281713589e-05 0.006422742142654661 0 3.7093066897828218e-05 0.0063454092412826603 0 1.201684128741655e-05 0.0063741016217067513 0 -2.5439266281713589e-05 0.006422742142654661 0 -2.5439266281713589e-05 0.006422742142654661 0 -9.6989779355901224e-08 0.006568030347741869 0 -0.00010483108235620539 0.0064656636242748531 0 1.0990183841342003e-07 0.006568947641691413 0 7.2621306393319566e-06 0.0068981530164716268 0 3.7093066897828218e-05 0.0063454092412826603 0 -2.5439266281713589e-05 0.006422742142654661 0 -9.6989779355901224e-08 0.006568030347741869 0 -5.4472716465474293e-05 0.0064210830550722109 0 -2.5439266281713589e-05 0.006422742142654661 0 -0.00010483108235620539 0.0064656636242748531 0 -5.4454868870147495e-08 0.0065693949952600446 0 4.8556886710048442e-08 0.0074059946205016595 0 6.2523260280792454e-05 0.0073704866147184089 0 -8.3269277508117362e-06 0.0076135238437670394 0 4.8556886710048442e-08 0.0074059946205016595 0 6.2523260280792454e-05 0.0073704866147184089 0 -5.4472716465474293e-05 0.0064210830550722109 0 -0.00010483108235620539 0.0064656636242748531 0 -9.5032694568314072e-05 0.0064186315635112907 0 -0.00015260244125393072 0.0064592649711512108 0 -0.00010483108235620539 0.0064656636242748531 0 -9.5032694568314072e-05 0.0064186315635112907 0 5.9629144599090813e-05 0.0062523450374281477 0 -5.1185103850415442e-05 0.0063086376402402772 0 0.00019503323494400761 0.0064289784113241086 0 0.00019503323494400761 0.0064289784113241086 0 0.00021780775754699327 0.0061988053066811578 0 0.0004345644090553133 0.0062323222212469463 0 5.9629144599090813e-05 0.0062523450374281477 0 0.00019503323494400761 0.0064289784113241086 0 0.00021780775754699327 0.0061988053066811578 0 5.9629144599090813e-05 0.0062523450374281477 0 0.00021780775754699327 0.0061988053066811578 0 7.3165906165464749e-05 0.006134138366972298 0 0.00052476906178703785 0.006480801684257193 0 0.00019503323494400761 0.0064289784113241086 0 0.0004345644090553133 0.0062323222212469463 0 0.00021780775754699327 0.0061988053066811578 0 0.0004345644090553133 0.0062323222212469463 0 0.00034094990043394876 0.0060567744389034518 0 0.00055984798824758883 0.0059557481800411359 0 0.0004345644090553133 0.0062323222212469463 0 0.00034094990043394876 0.0060567744389034518 0 0.00033092657019900948 0.0058705925188360384 0 0.00055984798824758883 0.0059557481800411359 0 0.00034094990043394876 0.0060567744389034518 0 0.00033092657019900948 0.0058705925188360384 0 0.00034094990043394876 0.0060567744389034518 0 0.00016502508280841343 0.0060210797420172006 0 0.00021780775754699327 0.0061988053066811578 0 0.00016502508280841343 0.0060210797420172006 0 7.3165906165464749e-05 0.006134138366972298 0 0.00021780775754699327 0.0061988053066811578 0 0.00034094990043394876 0.0060567744389034518 0 0.00016502508280841343 0.0060210797420172006 0 -5.3776936419136685e-05 0.00036546253565502689 0 -0.00013695899598302629 -9.8628193433518015e-05 0 -0.00042693644518813385 0.00022040254478660734 0 -5.3776936419136685e-05 0.00036546253565502689 0 -0.00013695899598302629 -9.8628193433518015e-05 0 0.00025924399437503558 3.482166189844332e-05 0 -0.00013695899598302629 -9.8628193433518015e-05 0 0.00025924399437503558 3.482166189844332e-05 0 0.00013380349785256597 -0.00044951528341514009 0 -0.00013695899598302629 -9.8628193433518015e-05 0 -0.00041781327226919862 -0.0002308524636020669 0 -0.00042693644518813385 0.00022040254478660734 0 -0.00062079030304197376 -8.0913188134222335e-06 0 -0.00059727996110473555 -0.00053026422772107964 0 -0.00089683241206095596 -6.7299768421681517e-05 0 -0.00041781327226919862 -0.0002308524636020669 0 -0.00062079030304197376 -8.0913188134222335e-06 0 -0.00059727996110473555 -0.00053026422772107964 0 -0.00062079030304197376 -8.0913188134222335e-06 0 -0.0007104332082370487 0.00021819463492951007 0 -0.00089683241206095596 -6.7299768421681517e-05 0 -0.00062079030304197376 -8.0913188134222335e-06 0 -0.0007104332082370487 0.00021819463492951007 0 -0.00062062503122119596 0.00030107695045832636 0 -0.00062079030304197376 -8.0913188134222335e-06 0 -0.00042693644518813385 0.00022040254478660734 0 -0.00062062503122119596 0.00030107695045832636 0 -0.00041781327226919862 -0.0002308524636020669 0 -0.00062079030304197376 -8.0913188134222335e-06 0 -0.00042693644518813385 0.00022040254478660734 0 -0.00059592550632888482 0.00057291219925435799 0 -0.00062062503122119596 0.00030107695045832636 0 -0.00067049233978779834 0.00040234128270705049 0 -0.00042693644518813385 0.00022040254478660734 0 -0.00059592550632888482 0.00057291219925435799 0 -0.00062062503122119596 0.00030107695045832636 0 -0.0007104332082370487 0.00021819463492951007 0 -0.00062062503122119596 0.00030107695045832636 0 -0.00067049233978779834 0.00040234128270705049 0 -0.0007104332082370487 0.00021819463492951007 0 -0.00067049233978779834 0.00040234128270705049 0 -0.00078040494073618085 0.00040850457192902255 0 -0.00055690870457071747 -0.00037878453071763326 0 -0.00074220524644247831 -0.0010810872213954815 0 -0.00062643281859457928 0.00046559464283750025 0 -0.00064328283082295266 0.00046977269009510549 0 -0.00078040494073618085 0.00040850457192902255 0 -0.00067049233978779834 0.00040234128270705049 0 -0.00064328283082295266 0.00046977269009510549 0 -0.00078040494073618085 0.00040850457192902255 0 -0.0006656397315033247 0.00045866837961621094 0 -0.00059592550632888482 0.00057291219925435799 0 -0.00064328283082295266 0.00046977269009510549 0 -0.00059592550632888482 0.00057291219925435799 0 -0.00067049233978779834 0.00040234128270705049 0 -0.00064328283082295266 0.00046977269009510549 0 -0.00077063204530529493 0.00043048532573503929 0 -0.0006656397315033247 0.00045866837961621094 0 -0.00059592550632888482 0.00057291219925435799 0 -0.00053396213055121331 0.00087029350812693317 0 -0.00060401971084037616 0.00062145249074718604 0 -0.00034211783302405909 0.0013138307852853964 0 -0.00059592550632888482 0.00057291219925435799 0 -0.00026801508905171834 0.00072711821271570823 0 -0.00042693644518813385 0.00022040254478660734 0 -0.00059592550632888482 0.00057291219925435799 0 -0.00026801508905171834 0.00072711821271570823 0 -5.3776936419136685e-05 0.00036546253565502689 0 -0.00042693644518813385 0.00022040254478660734 0 -0.00026801508905171834 0.00072711821271570823 0 -5.3776936419136685e-05 0.00036546253565502689 0 -0.00026801508905171834 0.00072711821271570823 0 4.1011840324311862e-05 0.0010803846662760528 0 -5.3776936419136685e-05 0.00036546253565502689 0 4.1011840324311862e-05 0.0010803846662760528 0 0.00031734410499972241 0.00047808437783841852 0 -0.00034211783302405909 0.0013138307852853964 0 -0.00026801508905171834 0.00072711821271570823 0 4.1011840324311862e-05 0.0010803846662760528 0 0.00024448136805956726 0.0017374849860154462 0 4.1011840324311862e-05 0.0010803846662760528 0 0.00056920704478905274 0.00087298035363169953 0 0.00026842196294645404 0.0016983676959906923 0 0.00033312198453468227 0.0015126697687026878 0 0.00024448136805956726 0.0017374849860154462 0 -1.8200200995084234e-06 0.00199964424047886 0 0.00013160233528756605 0.0021204593705747826 0 -1.8200200995084234e-06 0.00199964424047886 0 0.00013160233528756605 0.0021204593705747826 0 -5.891333897731985e-05 0.002184886587666462 0 0.00013160233528756605 0.0021204593705747826 0 -5.891333897731985e-05 0.002184886587666462 0 6.6045163229387182e-05 0.0022322588301197854 0 0.00033312198453468227 0.0015126697687026878 0 0.00038722351983219299 0.0011490780540697023 0 0.00056920704478905274 0.00087298035363169953 0 0.00031734410499972241 0.00047808437783841852 0 0.00064413083481112748 0.00025361508321710275 0 4.1011840324311862e-05 0.0010803846662760528 0 0.00056920704478905274 0.00087298035363169953 0 0.00031734410499972241 0.00047808437783841852 0 -1.8200200995084234e-06 0.00199964424047886 0 -0.00016761471271899061 0.0021318030995258921 0 -5.891333897731985e-05 0.002184886587666462 0 -0.00018827929010201152 0.0021648957764282412 0 -0.00016761471271899061 0.0021318030995258921 0 -0.00014290047116414077 0.0021765896166993119 0 -0.00016761471271899061 0.0021318030995258921 0 -5.891333897731985e-05 0.002184886587666462 0 -0.00014290047116414077 0.0021765896166993119 0 -5.891333897731985e-05 0.002184886587666462 0 -0.00014290047116414077 0.0021765896166993119 0 -0.00010170839267096749 0.0022390004104587574 0 -5.891333897731985e-05 0.002184886587666462 0 -0.00010170839267096749 0.0022390004104587574 0 -1.9646057566549798e-05 0.0022406447106125861 0 -0.00010170839267096749 0.0022390004104587574 0 -1.9646057566549798e-05 0.0022406447106125861 0 -3.8702084841444488e-05 0.0022847964316505603 0 -5.891333897731985e-05 0.002184886587666462 0 -1.9646057566549798e-05 0.0022406447106125861 0 6.6045163229387182e-05 0.0022322588301197854 0 -1.9646057566549798e-05 0.0022406447106125861 0 -3.8702084841444488e-05 0.0022847964316505603 0 3.5501347582942481e-05 0.0023181170962959081 0 2.6901844197676654e-05 0.0022921558177248749 0 0.00011215798497072344 0.0015046421976445915 0 1.9211656671595741e-05 0.0022366722463242833 0 5.8989349792721956e-05 0.0022423569079471272 0 4.6241436677466464e-05 0.0022607760684111113 0 1.9211656671595741e-05 0.0022366722463242833 0 -5.6205985343727009e-05 0.0022771405556212352 0 4.6241436677466464e-05 0.0022607760684111113 0 -9.9682093648237547e-05 0.0022334994426194623 0 2.6901844197676654e-05 0.0022921558177248749 0 -0.00010170839267096749 0.0022390004104587574 0 1.9211656671595741e-05 0.0022366722463242833 0 -5.6205985343727009e-05 0.0022771405556212352 0 -0.00014355009837293612 0.0022548917547230442 0 -0.00010170839267096749 0.0022390004104587574 0 -5.6205985343727009e-05 0.0022771405556212352 0 -5.3776936419136685e-05 0.00036546253565502689 0 0.00031734410499972241 0.00047808437783841852 0 0.00025924399437503558 3.482166189844332e-05 0 0.00031734410499972241 0.00047808437783841852 0 0.00064413083481112748 0.00025361508321710275 0 0.00025924399437503558 3.482166189844332e-05 0 -1.9646057566549798e-05 0.0022406447106125861 0 6.6045163229387182e-05 0.0022322588301197854 0 3.5501347582942481e-05 0.0023181170962959081 0 0.00038722351983219299 0.0011490780540697023 0 0.00011215798497072344 0.0015046421976445915 0 0.00064413083481112748 0.00025361508321710275 0 0.00069296828922573166 -0.00021478427348130302 0 0.00025924399437503558 3.482166189844332e-05 0 0.00069296828922573166 -0.00021478427348130302 0 0.00025924399437503558 3.482166189844332e-05 0 0.00013380349785256597 -0.00044951528341514009 0 0.00011215798497072344 0.0015046421976445915 0 0.00019037564700067472 0.00065910693169060337 0 8.841762070736748e-05 0.002088732216335707 0 8.831683117356777e-05 0.0021925988112366196 0 0.00013573184853414986 0.0019361997973439276 0 0.00011215798497072344 0.0015046421976445915 0 4.5373567407525134e-05 0.0024048603564013832 0 5.8989349792721956e-05 0.0022423569079471272 0 8.831683117356777e-05 0.0021925988112366196 0 4.6241436677466464e-05 0.0022607760684111113 0 8.831683117356777e-05 0.0021925988112366196 0 0.00013323817001655209 0.0019745661167474178 0 7.3150904717793875e-05 0.0023352448918991069 0 8.831683117356777e-05 0.0021925988112366196 0 0.00013323817001655209 0.0019745661167474178 0 0.00013573184853414986 0.0019361997973439276 0 -0.00014975695078004898 0.0023367303357071348 0 -5.6205985343727009e-05 0.0022771405556212352 0 -3.2478866221352008e-05 0.0023419330589812925 0 -5.6205985343727009e-05 0.0022771405556212352 0 -3.2478866221352008e-05 0.0023419330589812925 0 4.6241436677466464e-05 0.0022607760684111113 0 -3.2478866221352008e-05 0.0023419330589812925 0 4.6241436677466464e-05 0.0022607760684111113 0 5.2915713051386366e-05 0.0023511225679964443 0 8.831683117356777e-05 0.0021925988112366196 0 4.6241436677466464e-05 0.0022607760684111113 0 5.2915713051386366e-05 0.0023511225679964443 0 8.831683117356777e-05 0.0021925988112366196 0 5.2915713051386366e-05 0.0023511225679964443 0 7.3150904717793875e-05 0.0023352448918991069 0 5.2915713051386366e-05 0.0023511225679964443 0 -5.0941830925374743e-05 0.0024830336825382984 0 5.6443938057616117e-05 0.0026604522073777103 0 -0.00016280002181656402 0.002460882468967291 0 -0.00017155259425313243 0.0027002048624324786 0 -5.0941830925374743e-05 0.0024830336825382984 0 -0.00016280002181656402 0.002460882468967291 0 -3.2478866221352008e-05 0.0023419330589812925 0 -5.0941830925374743e-05 0.0024830336825382984 0 -3.2478866221352008e-05 0.0023419330589812925 0 5.2915713051386366e-05 0.0023511225679964443 0 -5.0941830925374743e-05 0.0024830336825382984 0 -0.00017155259425313243 0.0027002048624324786 0 -5.0941830925374743e-05 0.0024830336825382984 0 5.6443938057616117e-05 0.0026604522073777103 0 5.6443938057616117e-05 0.0026604522073777103 0 7.3150904717793875e-05 0.0023352448918991069 0 4.9692907489931475e-07 0.0027680028407706639 0 5.2915713051386366e-05 0.0023511225679964443 0 5.6443938057616117e-05 0.0026604522073777103 0 7.3150904717793875e-05 0.0023352448918991069 0 5.6443938057616117e-05 0.0026604522073777103 0 -7.9707509012076468e-07 0.0036622327270362126 0 4.9692907489931475e-07 0.0027680028407706639 0 -0.00017155259425313243 0.0027002048624324786 0 5.6443938057616117e-05 0.0026604522073777103 0 -7.9707509012076468e-07 0.0036622327270362126 0 0.00013323817001655209 0.0019745661167474178 0 7.3150904717793875e-05 0.0023352448918991069 0 4.9692907489931475e-07 0.0027680028407706639 0 0.00013323817001655209 0.0019745661167474178 0 4.9692907489931475e-07 0.0027680028407706639 0 1.163241141302208e-07 0.0018711561359781217 0 1.163241141302208e-07 0.0018711561359781217 0 1.6576286566470258e-07 0.00097484848649596065 0 8.4235680760866375e-05 0.0014738010976792981 0 1.6576286566470258e-07 0.00097484848649596065 0 8.4235680760866375e-05 0.0014738010976792981 0 6.3487892715277403e-06 0.00095964707530569809 0 8.4235680760866375e-05 0.0014738010976792981 0 2.0683160732226599e-05 0.0014423320204561198 0 6.3487892715277403e-06 0.00095964707530569809 0 0.00013323817001655209 0.0019745661167474178 0 1.163241141302208e-07 0.0018711561359781217 0 8.4235680760866375e-05 0.0014738010976792981 0 8.4235680760866375e-05 0.0014738010976792981 0 2.0683160732226599e-05 0.0014423320204561198 0 0.00013573184853414986 0.0019361997973439276 0 -0.00013695899598302629 -9.8628193433518015e-05 0 -0.00041781327226919862 -0.0002308524636020669 0 -0.0002874226374593832 -0.00066063409685282687 0 0.00013323817001655209 0.0019745661167474178 0 8.4235680760866375e-05 0.0014738010976792981 0 0.00013573184853414986 0.0019361997973439276 0 -0.00013695899598302629 -9.8628193433518015e-05 0 -0.0002874226374593832 -0.00066063409685282687 0 0.00013380349785256597 -0.00044951528341514009 0 -0.00011869678020411826 0.00040238950066682111 0 0.00019037564700067472 0.00065910693169060337 0 -0.00041781327226919862 -0.0002308524636020669 0 -0.0002874226374593832 -0.00066063409685282687 0 -0.00059727996110473555 -0.00053026422772107964 0 -0.00011869678020411826 0.00040238950066682111 0 -0.00028928441653036321 -0.00014513161939576458 0 -0.0002874226374593832 -0.00066063409685282687 0 -0.00059727996110473555 -0.00053026422772107964 0 -0.00058007799727844236 -0.00087706802849696775 0 -9.6848640844880734e-05 0.00060744245711967255 0 6.3487892715277403e-06 0.00095964707530569809 0 -2.5550564920680419e-07 7.8046290753188295e-05 0 2.0683160732226599e-05 0.0014423320204561198 0 -9.6848640844880734e-05 0.00060744245711967255 0 6.3487892715277403e-06 0.00095964707530569809 0 1.6576286566470258e-07 0.00097484848649596065 0 6.3487892715277403e-06 0.00095964707530569809 0 -2.5550564920680419e-07 7.8046290753188295e-05 0 -9.6848640844880734e-05 0.00060744245711967255 0 -2.5550564920680419e-07 7.8046290753188295e-05 0 -0.00029677871995418447 -0.00077732082255608733 0 -2.5550564920680419e-07 7.8046290753188295e-05 0 -5.4948295733316294e-07 -0.0008185789591606316 0 -0.00029677871995418447 -0.00077732082255608733 0 -5.4948295733316294e-07 -0.0008185789591606316 0 -0.00029677871995418447 -0.00077732082255608733 0 -9.4728697889859406e-05 -0.0013222307772046548 0 -0.00039738281761331136 -0.0012366078910929904 0 -0.00029677871995418447 -0.00077732082255608733 0 -9.4728697889859406e-05 -0.0013222307772046548 0 -0.00039738281761331136 -0.0012366078910929904 0 -0.00029677871995418447 -0.00077732082255608733 0 -0.00056275746180616763 -0.00093848137004692747 0 -0.00058007799727844236 -0.00087706802849696775 0 -0.00029677871995418447 -0.00077732082255608733 0 -0.00056275746180616763 -0.00093848137004692747 0 -0.00028928441653036321 -0.00014513161939576458 0 -0.00027930659663817409 -0.00066387964532439931 0 8.592980432835921e-08 -0.0017151495306524599 0 -9.4728697889859406e-05 -0.0013222307772046548 0 -1.3661594668900634e-06 -0.0019434498202121134 0 -5.4948295733316294e-07 -0.0008185789591606316 0 8.592980432835921e-08 -0.0017151495306524599 0 -9.4728697889859406e-05 -0.0013222307772046548 0 -9.4728697889859406e-05 -0.0013222307772046548 0 -1.3661594668900634e-06 -0.0019434498202121134 0 -0.00015612158706111877 -0.0017814481037947455 0 -0.00039738281761331136 -0.0012366078910929904 0 -9.4728697889859406e-05 -0.0013222307772046548 0 -0.00015612158706111877 -0.0017814481037947455 0 8.592980432835921e-08 -0.0017151495306524599 0 -1.3661594668900634e-06 -0.0019434498202121134 0 5.4822525348657762e-05 -0.0023532016815723759 0 -1.3661594668900634e-06 -0.0019434498202121134 0 -3.5444022555152768e-05 -0.0021437785500157754 0 6.9833213414404672e-05 -0.0024127371189784645 0 -1.3661594668900634e-06 -0.0019434498202121134 0 -3.5444022555152768e-05 -0.0021437785500157754 0 -0.00015612158706111877 -0.0017814481037947455 0 -3.5444022555152768e-05 -0.0021437785500157754 0 -0.00015612158706111877 -0.0017814481037947455 0 -0.00017590103502047942 -0.0021947872561722671 0 -0.00017590103502047942 -0.0021947872561722671 0 -0.00065814249482463571 -0.0022002906467754458 0 -0.00023502596786912291 -0.0024579488959924098 0 -0.00015612158706111877 -0.0017814481037947455 0 -0.00017590103502047942 -0.0021947872561722671 0 -0.00065814249482463571 -0.0022002906467754458 0 -0.00017590103502047942 -0.0021947872561722671 0 -2.099377519748146e-05 -0.0023729172386125598 0 -0.00023502596786912291 -0.0024579488959924098 0 -3.5444022555152768e-05 -0.0021437785500157754 0 -2.099377519748146e-05 -0.0023729172386125598 0 6.9833213414404672e-05 -0.0024127371189784645 0 -3.5444022555152768e-05 -0.0021437785500157754 0 -0.00017590103502047942 -0.0021947872561722671 0 -2.099377519748146e-05 -0.0023729172386125598 0 -0.00059727996110473555 -0.00053026422772107964 0 -0.00058007799727844236 -0.00087706802849696775 0 -0.00056275746180616763 -0.00093848137004692747 0 -0.00044137026272812724 -0.0012085705496088406 0 -0.00071101041606868643 -0.0013853801600991649 0 -0.00039738281761331136 -0.0012366078910929904 0 -0.00056275746180616763 -0.00093848137004692747 0 -0.00082051436084127065 -0.00062374963129974235 0 -0.00039738281761331136 -0.0012366078910929904 0 -0.00015612158706111877 -0.0017814481037947455 0 -0.00065814249482463571 -0.0022002906467754458 0 -0.00059727996110473555 -0.00053026422772107964 0 -0.00056275746180616763 -0.00093848137004692747 0 -0.00082051436084127065 -0.00062374963129974235 0 -0.00059727996110473555 -0.00053026422772107964 0 -0.00082051436084127065 -0.00062374963129974235 0 -0.00089683241206095596 -6.7299768421681517e-05 0 -0.00052588197171032892 -0.0024969880076326119 0 -0.00039779449403926282 -0.0026180006155779611 0 -0.00073003503822733793 -0.0025759332559718755 0 -0.00073631478791508849 -0.002510671126188455 0 -0.00052588197171032892 -0.0024969880076326119 0 -0.00073003503822733793 -0.0025759332559718755 0 -0.00071101041606868643 -0.0013853801600991649 0 -0.00080896183239109233 -0.0012876908037765297 0 -0.00065814249482463571 -0.0022002906467754458 0 -0.00073631478791508849 -0.002510671126188455 0 -0.00052588197171032892 -0.0024969880076326119 0 -0.00065814249482463571 -0.0022002906467754458 0 -0.00052588197171032892 -0.0024969880076326119 0 -0.00023502596786912291 -0.0024579488959924098 0 -2.099377519748146e-05 -0.0023729172386125598 0 -0.00023502596786912291 -0.0024579488959924098 0 -6.3840225398885781e-06 -0.002532514241193324 0 -0.00023502596786912291 -0.0024579488959924098 0 -0.00012359990932037671 -0.0026368716398471616 0 -6.3840225398885781e-06 -0.002532514241193324 0 -0.00023502596786912291 -0.0024579488959924098 0 -0.00012359990932037671 -0.0026368716398471616 0 -0.00039779449403926282 -0.0026180006155779611 0 -0.00052588197171032892 -0.0024969880076326119 0 -0.00023502596786912291 -0.0024579488959924098 0 -0.00039779449403926282 -0.0026180006155779611 0 -0.00039779449403926282 -0.0026180006155779611 0 -0.00039796381094270739 -0.0027623063568634129 0 -0.00060271934157981439 -0.0026611574432388253 0 -0.00039779449403926282 -0.0026180006155779611 0 -0.00025017020122479743 -0.0027466810868715203 0 -0.00039796381094270739 -0.0027623063568634129 0 -0.00012359990932037671 -0.0026368716398471616 0 -0.00039779449403926282 -0.0026180006155779611 0 -0.00025017020122479743 -0.0027466810868715203 0 -0.00012359990932037671 -0.0026368716398471616 0 -0.00025017020122479743 -0.0027466810868715203 0 -0.00013584881517929588 -0.0027361116865882206 0 -0.00025017020122479743 -0.0027466810868715203 0 -0.00020083938337588312 -0.0028530150388662635 0 -0.00013584881517929588 -0.0027361116865882206 0 -0.00025017020122479743 -0.0027466810868715203 0 -0.00027690208580934177 -0.0028379470960731095 0 -0.00039796381094270739 -0.0027623063568634129 0 -0.00025017020122479743 -0.0027466810868715203 0 -0.00020083938337588312 -0.0028530150388662635 0 -0.00027690208580934177 -0.0028379470960731095 0 -0.00027690208580934177 -0.0028379470960731095 0 -0.00037244084183399583 -0.0028844498796843864 0 -0.00022826076074790473 -0.0029055705538752166 0 -0.00020083938337588312 -0.0028530150388662635 0 -0.00027690208580934177 -0.0028379470960731095 0 -0.00022826076074790473 -0.0029055705538752166 0 -0.00029316974290866007 -0.0028287839743094479 0 -0.00015309793516750776 -0.0027467841558986542 0 -0.00028700106501919304 -0.0028139794710627971 0 -0.00011475221242847843 -0.0027041622156882402 0 -0.0002391953982457522 -0.0026603596072144109 0 -0.00020083938337588312 -0.0028530150388662635 0 -0.00028700106501919304 -0.0028139794710627971 0 -0.00022826076074790473 -0.0029055705538752166 0 -0.00039796381094270739 -0.0027623063568634129 0 -0.00037244084183399583 -0.0028844498796843864 0 -0.00060940699433845581 -0.0028811827227171257 0 -0.00037244084183399583 -0.0028844498796843864 0 -0.00060940699433845581 -0.0028811827227171257 0 -0.00040603134336855771 -0.0030177761858618708 0 -0.00027690208580934177 -0.0028379470960731095 0 -0.00039796381094270739 -0.0027623063568634129 0 -0.00037244084183399583 -0.0028844498796843864 0 -0.00039796381094270739 -0.0027623063568634129 0 -0.00060940699433845581 -0.0028811827227171257 0 -0.00060271934157981439 -0.0026611574432388253 0 -0.0012609235850986054 -0.0023579992303018223 0 -0.00092636443732057358 -0.0025749063561974605 0 -0.00060940699433845581 -0.0028811827227171257 0 -0.0008957648478752178 -0.0025704663790700288 0 -0.00060271934157981439 -0.0026611574432388253 0 -0.0018403238233563257 -0.0019128070248169093 0 -0.001183758094673706 -0.0017498257125867626 0 -0.0008957648478752178 -0.0025704663790700288 0 -0.001183758094673706 -0.0017498257125867626 0 -0.00077242224507131745 -0.0018295025756801481 0 -0.00087266993086826308 -0.0022030028187147626 0 -0.0004049075719176025 -0.0011894670536216811 0 -0.00077242224507131745 -0.0018295025756801481 0 -0.00071799190518106906 -0.0025932110544151111 0 -0.00077242224507131745 -0.0018295025756801481 0 -0.00087266993086826308 -0.0022030028187147626 0 -0.00071799190518106906 -0.0025932110544151111 0 -0.001183758094673706 -0.0017498257125867626 0 -0.00087266993086826308 -0.0022030028187147626 0 -0.0008957648478752178 -0.0025704663790700288 0 -0.00087266993086826308 -0.0022030028187147626 0 -0.0008957648478752178 -0.0025704663790700288 0 -0.00071799190518106906 -0.0025932110544151111 0 -0.00073631478791508849 -0.002510671126188455 0 -0.00071799190518106906 -0.0025932110544151111 0 -0.00073003503822733793 -0.0025759332559718755 0 -0.0008957648478752178 -0.0025704663790700288 0 -0.00071799190518106906 -0.0025932110544151111 0 -0.00073003503822733793 -0.0025759332559718755 0 -0.0007104332082370487 0.00021819463492951007 0 -0.00089683241206095596 -6.7299768421681517e-05 0 -0.00078040494073618085 0.00040850457192902255 0 -0.00080896183239109233 -0.0012876908037765297 0 -0.00074220524644247831 -0.0010810872213954815 0 -0.00039779449403926282 -0.0026180006155779611 0 -0.00073003503822733793 -0.0025759332559718755 0 -0.00060271934157981439 -0.0026611574432388253 0 -0.0008957648478752178 -0.0025704663790700288 0 -0.00073003503822733793 -0.0025759332559718755 0 -0.00060271934157981439 -0.0026611574432388253 0 -0.00077831716429834624 -0.0030765342203393654 0 -0.0010250855459822954 -0.0030063346102211352 0 -0.00079159426533630995 -0.003326921743468444 0 -0.0008201278126616999 -0.0034635049797394025 0 -0.00036768590489432335 -0.0032140621423227774 0 -0.00077831716429834624 -0.0030765342203393654 0 -0.0010250855459822954 -0.0030063346102211352 0 -0.00086830955144756919 -0.0029347048202242845 0 -0.00077831716429834624 -0.0030765342203393654 0 -0.00086830955144756919 -0.0029347048202242845 0 -0.00065638712046960112 -0.0029333802468938016 0 -0.00072484404355864637 -0.0037501447845639676 0 -0.00073556549602690074 -0.0039967609948517455 0 -0.0010013326600106388 -0.0038679531099411412 0 -0.0010250855459822954 -0.0030063346102211352 0 -0.0010112093353406161 -0.0028222956890773809 0 -0.00086830955144756919 -0.0029347048202242845 0 -0.0008201278126616999 -0.0034635049797394025 0 -0.0017008308040863029 -0.0030934846134917254 0 -0.0010112093353406161 -0.0028222956890773809 0 -0.00083023357160874123 -0.0027877576632807932 0 -0.0011120746061546332 -0.0026515693098766858 0 -0.0010250855459822954 -0.0030063346102211352 0 -0.0010112093353406161 -0.0028222956890773809 0 -0.0012684391142375991 -0.0026782205135809948 0 -0.0010112093353406161 -0.0028222956890773809 0 -0.0011590294392131767 -0.0026606266277810447 0 -0.0011147249756133671 -0.0026538136688212008 0 -0.0010112093353406161 -0.0028222956890773809 0 -0.0012684391142375991 -0.0026782205135809948 0 -0.0011590294392131767 -0.0026606266277810447 0 -0.001124275953524334 -0.0029310545606400858 0 -0.0018050504567125362 -0.0025620446166668776 0 -0.0010112093353406161 -0.0028222956890773809 0 -0.00083023357160874123 -0.0027877576632807932 0 -0.00086830955144756919 -0.0029347048202242845 0 -0.00083023357160874123 -0.0027877576632807932 0 -0.00086830955144756919 -0.0029347048202242845 0 -0.00065638712046960112 -0.0029333802468938016 0 -0.00083023357160874123 -0.0027877576632807932 0 -0.00060258237880312791 -0.0027862158399308006 0 -0.00072438999901504092 -0.0026013525010576341 0 -0.00083023357160874123 -0.0027877576632807932 0 -0.00060258237880312791 -0.0027862158399308006 0 -0.00065638712046960112 -0.0029333802468938016 0 -0.00060258237880312791 -0.0027862158399308006 0 -0.00043515842568424832 -0.0027224479807260375 0 -0.00042387622474799236 -0.0029052021826450115 0 -0.00060258237880312791 -0.0027862158399308006 0 -0.00065638712046960112 -0.0029333802468938016 0 -0.00042387622474799236 -0.0029052021826450115 0 -0.00020083938337588312 -0.0028530150388662635 0 -0.00028700106501919304 -0.0028139794710627971 0 -0.00042387622474799236 -0.0029052021826450115 0 -0.00020083938337588312 -0.0028530150388662635 0 -0.00042387622474799236 -0.0029052021826450115 0 -0.00046659976103472531 -0.0030897121158886798 0 -0.00028700106501919304 -0.0028139794710627971 0 -0.00043515842568424832 -0.0027224479807260375 0 -0.0002391953982457522 -0.0026603596072144109 0 -0.00028700106501919304 -0.0028139794710627971 0 -0.00043515842568424832 -0.0027224479807260375 0 -0.00042387622474799236 -0.0029052021826450115 0 -0.00020852707322294587 -0.0028712457538371456 0 -0.00020659272512629055 -0.0028671030899285314 0 -0.00020083938337588312 -0.0028530150388662635 0 -0.00013584881517929588 -0.0027361116865882206 0 2.9052263233979884e-05 -0.0027157189215924302 0 -0.00012359990932037671 -0.0026368716398471616 0 -0.00013584881517929588 -0.0027361116865882206 0 2.9052263233979884e-05 -0.0027157189215924302 0 -0.00077831716429834624 -0.0030765342203393654 0 -0.00046659976103472531 -0.0030897121158886798 0 -0.00079159426533630995 -0.003326921743468444 0 -0.00077831716429834624 -0.0030765342203393654 0 -0.00065638712046960112 -0.0029333802468938016 0 -0.00046659976103472531 -0.0030897121158886798 0 -0.00065638712046960112 -0.0029333802468938016 0 -0.00042387622474799236 -0.0029052021826450115 0 -0.00046659976103472531 -0.0030897121158886798 0 -0.00020659272512629055 -0.0028671030899285314 0 -0.00036768590489432335 -0.0032140621423227774 0 2.9052263233979884e-05 -0.0027157189215924302 0 5.0306127525061389e-05 -0.0026072397325694547 0 9.0411489015432381e-05 -0.0026111272134459024 0 2.9052263233979884e-05 -0.0027157189215924302 0 9.0411489015432381e-05 -0.0026111272134459024 0 0.00010852642931502064 -0.0026397164819393004 0 -0.00012359990932037671 -0.0026368716398471616 0 5.0306127525061389e-05 -0.0026072397325694547 0 -6.3840225398885781e-06 -0.002532514241193324 0 -0.00012359990932037671 -0.0026368716398471616 0 2.9052263233979884e-05 -0.0027157189215924302 0 5.0306127525061389e-05 -0.0026072397325694547 0 5.0306127525061389e-05 -0.0026072397325694547 0 -6.3840225398885781e-06 -0.002532514241193324 0 9.5812297590150747e-05 -0.0026223166527042261 0 -6.3840225398885781e-06 -0.002532514241193324 0 9.5812297590150747e-05 -0.0026223166527042261 0 5.6556132798542371e-05 -0.0025122146193868127 0 8.5490131449217338e-05 -0.002635437549019356 0 9.5812297590150747e-05 -0.0026223166527042261 0 5.8507729577678809e-05 -0.0027063737847751635 0 5.0306127525061389e-05 -0.0026072397325694547 0 8.5490131449217338e-05 -0.002635437549019356 0 9.0411489015432381e-05 -0.0026111272134459024 0 5.0306127525061389e-05 -0.0026072397325694547 0 8.5490131449217338e-05 -0.002635437549019356 0 9.5812297590150747e-05 -0.0026223166527042261 0 5.8507729577678809e-05 -0.0027063737847751635 0 5.6532053952941039e-05 -0.0025498038674270506 0 -0.00021334989573630118 -0.002696247908835674 0 8.5490131449217338e-05 -0.002635437549019356 0 5.8507729577678809e-05 -0.0027063737847751635 0 9.0411489015432381e-05 -0.0026111272134459024 0 5.8507729577678809e-05 -0.0027063737847751635 0 9.0411489015432381e-05 -0.0026111272134459024 0 5.6532053952941039e-05 -0.0025498038674270506 0 -0.00026907390241963228 -0.0028983385889686177 0 -0.00036768590489432335 -0.0032140621423227774 0 -0.00072484404355864637 -0.0037501447845639676 0 -0.00060797798839385287 -0.0039898224894826884 0 -0.00073556549602690074 -0.0039967609948517455 0 -0.00060797798839385287 -0.0039898224894826884 0 -0.00073556549602690074 -0.0039967609948517455 0 -0.0007652867223338594 -0.0040593824447226583 0 -0.00036768590489432335 -0.0032140621423227774 0 -0.00052344215334891911 -0.0033212633531269605 0 -0.00073556549602690074 -0.0039967609948517455 0 -0.0007652867223338594 -0.0040593824447226583 0 -0.00077095034164593459 -0.0040311556899687677 0 5.8507729577678809e-05 -0.0027063737847751635 0 -0.00021334989573630118 -0.002696247908835674 0 -5.4932161007077457e-05 -0.0030401085569260579 0 -0.00021334989573630118 -0.002696247908835674 0 -5.4932161007077457e-05 -0.0030401085569260579 0 -0.0003407282920589417 -0.0031149326198932057 0 -5.4932161007077457e-05 -0.0030401085569260579 0 -0.0003407282920589417 -0.0031149326198932057 0 -0.00024634700875141724 -0.0037416020504850381 0 5.8507729577678809e-05 -0.0027063737847751635 0 -5.4932161007077457e-05 -0.0030401085569260579 0 7.1767512700534458e-05 -0.0028439660336156258 0 9.5812297590150747e-05 -0.0026223166527042261 0 5.8507729577678809e-05 -0.0027063737847751635 0 7.1767512700534458e-05 -0.0028439660336156258 0 -5.4932161007077457e-05 -0.0030401085569260579 0 7.1767512700534458e-05 -0.0028439660336156258 0 -1.2276597707323572e-05 -0.0032413800101493617 0 7.1767512700534458e-05 -0.0028439660336156258 0 -1.2276597707323572e-05 -0.0032413800101493617 0 8.6943443809326038e-05 -0.0027294775769967201 0 -1.2276597707323572e-05 -0.0032413800101493617 0 8.6943443809326038e-05 -0.0027294775769967201 0 4.3126938648817052e-05 -0.0028306707191467035 0 -1.2276597707323572e-05 -0.0032413800101493617 0 -0.00011127761300452449 -0.0040205316743402442 0 -0.00024634700875141724 -0.0037416020504850381 0 -5.4932161007077457e-05 -0.0030401085569260579 0 -1.2276597707323572e-05 -0.0032413800101493617 0 -0.00024634700875141724 -0.0037416020504850381 0 -2.099377519748146e-05 -0.0023729172386125598 0 5.6556132798542371e-05 -0.0025122146193868127 0 6.9833213414404672e-05 -0.0024127371189784645 0 -2.099377519748146e-05 -0.0023729172386125598 0 -6.3840225398885781e-06 -0.002532514241193324 0 5.6556132798542371e-05 -0.0025122146193868127 0 5.6556132798542371e-05 -0.0025122146193868127 0 9.0533039512813467e-05 -0.0026134432695799916 0 6.9833213414404672e-05 -0.0024127371189784645 0 9.5812297590150747e-05 -0.0026223166527042261 0 7.1767512700534458e-05 -0.0028439660336156258 0 9.0533039512813467e-05 -0.0026134432695799916 0 9.5812297590150747e-05 -0.0026223166527042261 0 5.6556132798542371e-05 -0.0025122146193868127 0 9.0533039512813467e-05 -0.0026134432695799916 0 7.1767512700534458e-05 -0.0028439660336156258 0 9.0533039512813467e-05 -0.0026134432695799916 0 8.6943443809326038e-05 -0.0027294775769967201 0 9.0533039512813467e-05 -0.0026134432695799916 0 8.6943443809326038e-05 -0.0027294775769967201 0 6.9833213414404672e-05 -0.0024127371189784645 0 -1.3661594668900634e-06 -0.0019434498202121134 0 6.9833213414404672e-05 -0.0024127371189784645 0 5.4822525348657762e-05 -0.0023532016815723759 0 8.6943443809326038e-05 -0.0027294775769967201 0 6.9833213414404672e-05 -0.0024127371189784645 0 5.4822525348657762e-05 -0.0023532016815723759 0 8.6943443809326038e-05 -0.0027294775769967201 0 5.4822525348657762e-05 -0.0023532016815723759 0 4.3126938648817052e-05 -0.0028306707191467035 0 5.4822525348657762e-05 -0.0023532016815723759 0 4.3126938648817052e-05 -0.0028306707191467035 0 9.8798865711136368e-08 -0.0026117414973754888 0 8.592980432835921e-08 -0.0017151495306524599 0 5.4822525348657762e-05 -0.0023532016815723759 0 9.8798865711136368e-08 -0.0026117414973754888 0 -1.2276597707323572e-05 -0.0032413800101493617 0 5.6770234446313715e-06 -0.0032494525448011242 0 -0.00011127761300452449 -0.0040205316743402442 0 -1.2276597707323572e-05 -0.0032413800101493617 0 4.3126938648817052e-05 -0.0028306707191467035 0 5.6770234446313715e-06 -0.0032494525448011242 0 4.3126938648817052e-05 -0.0028306707191467035 0 9.8798865711136368e-08 -0.0026117414973754888 0 5.6770234446313715e-06 -0.0032494525448011242 0 9.8798865711136368e-08 -0.0026117414973754888 0 5.6770234446313715e-06 -0.0032494525448011242 0 -3.2766683228706856e-08 -0.0035083587059670752 0 5.6770234446313715e-06 -0.0032494525448011242 0 -3.2766683228706856e-08 -0.0035083587059670752 0 -0.00011127761300452449 -0.0040205316743402442 0 -3.2766683228706856e-08 -0.0035083587059670752 0 -0.00011127761300452449 -0.0040205316743402442 0 -1.7294583818266637e-07 -0.0044046888809257416 0 -0.00011127761300452449 -0.0040205316743402442 0 -1.7294583818266637e-07 -0.0044046888809257416 0 -6.6107568150361234e-06 -0.004713412235890775 0 -0.00011127761300452449 -0.0040205316743402442 0 -6.6107568150361234e-06 -0.004713412235890775 0 -9.3000334570524711e-05 -0.0045595563007967037 0 -1.7294583818266637e-07 -0.0044046888809257416 0 3.1333197720751983e-07 -0.0053016616074886757 0 -6.6107568150361234e-06 -0.004713412235890775 0 3.1333197720751983e-07 -0.0053016616074886757 0 3.0298408770776288e-05 -0.005164035043928478 0 6.0388827374015794e-05 -0.0055132017940104482 0 3.0298408770776288e-05 -0.005164035043928478 0 7.3193645545728528e-05 -0.0053321214533916068 0 6.0388827374015794e-05 -0.0055132017940104482 0 3.1333197720751983e-07 -0.0053016616074886757 0 3.0298408770776288e-05 -0.005164035043928478 0 -6.6107568150361234e-06 -0.004713412235890775 0 3.0298408770776288e-05 -0.005164035043928478 0 -6.6107568150361234e-06 -0.004713412235890775 0 4.2404690946620281e-05 -0.005100708523887252 0 1.9790528293861679e-05 -0.0050163864854926915 0 -5.6097254131265282e-05 -0.0048849498736169639 0 -9.3000334570524711e-05 -0.0045595563007967037 0 -6.6107568150361234e-06 -0.004713412235890775 0 1.9790528293861679e-05 -0.0050163864854926915 0 -9.3000334570524711e-05 -0.0045595563007967037 0 -6.6107568150361234e-06 -0.004713412235890775 0 1.9790528293861679e-05 -0.0050163864854926915 0 4.2404690946620281e-05 -0.005100708523887252 0 3.0298408770776288e-05 -0.005164035043928478 0 7.3193645545728528e-05 -0.0053321214533916068 0 4.2404690946620281e-05 -0.005100708523887252 0 1.9790528293861679e-05 -0.0050163864854926915 0 7.3193645545728528e-05 -0.0053321214533916068 0 4.2404690946620281e-05 -0.005100708523887252 0 1.9790528293861679e-05 -0.0050163864854926915 0 7.3193645545728528e-05 -0.0053321214533916068 0 8.6063859854218689e-05 -0.0054395221805066049 0 7.3193645545728528e-05 -0.0053321214533916068 0 8.6063859854218689e-05 -0.0054395221805066049 0 8.4760311151053485e-05 -0.0055562257960221689 0 -3.1265514385748697e-05 -0.0050894980676632531 0 -0.0002342932125264146 -0.0049585214986844085 0 -3.9406041836042777e-05 -0.0054277426915123944 0 8.6063859854218689e-05 -0.0054395221805066049 0 -3.1265514385748697e-05 -0.0050894980676632531 0 -3.9406041836042777e-05 -0.0054277426915123944 0 1.9790528293861679e-05 -0.0050163864854926915 0 8.6063859854218689e-05 -0.0054395221805066049 0 -3.1265514385748697e-05 -0.0050894980676632531 0 1.9790528293861679e-05 -0.0050163864854926915 0 -5.6097254131265282e-05 -0.0048849498736169639 0 -3.1265514385748697e-05 -0.0050894980676632531 0 -0.00015192568164027124 -0.0048750376713993931 0 -0.00021449710818772147 -0.0048650262724778447 0 -0.00024634700875141724 -0.0037416020504850381 0 -3.1265514385748697e-05 -0.0050894980676632531 0 -0.00015192568164027124 -0.0048750376713993931 0 -0.0002342932125264146 -0.0049585214986844085 0 -5.6097254131265282e-05 -0.0048849498736169639 0 -3.1265514385748697e-05 -0.0050894980676632531 0 -0.00015192568164027124 -0.0048750376713993931 0 -0.00048089092746337616 -0.0043296120221675335 0 -0.00051359856491998946 -0.0041001796411539223 0 -0.00051359856491998946 -0.0041001796411539223 0 -0.00028657297829834557 -0.0038044610830861945 0 -0.00021334989573630118 -0.002696247908835674 0 -0.0009447236059006071 -0.0031009092228591983 0 -0.0003407282920589417 -0.0031149326198932057 0 -0.0009447236059006071 -0.0031009092228591983 0 -0.0003407282920589417 -0.0031149326198932057 0 -0.00024634700875141724 -0.0037416020504850381 0 -0.00011127761300452449 -0.0040205316743402442 0 -0.00024634700875141724 -0.0037416020504850381 0 -9.3000334570524711e-05 -0.0045595563007967037 0 -0.00015192568164027124 -0.0048750376713993931 0 -0.00024634700875141724 -0.0037416020504850381 0 -9.3000334570524711e-05 -0.0045595563007967037 0 -5.6097254131265282e-05 -0.0048849498736169639 0 -0.00015192568164027124 -0.0048750376713993931 0 -9.3000334570524711e-05 -0.0045595563007967037 0 7.3737576132247611e-05 -0.0069773353074251828 0 -1.0236886164623195e-06 -0.0066072945762497464 0 1.1493039856476896e-06 -0.0070345021595937017 0 7.3737576132247611e-05 -0.0069773353074251828 0 4.6807362766441799e-05 -0.0072755703702287681 0 1.1493039856476896e-06 -0.0070345021595937017 0 4.6807362766441799e-05 -0.0072755703702287681 0 5.4011965001774994e-07 -0.0070294370409637111 0 -2.2896363561821815e-07 -0.0078615364739586611 0 7.3737576132247611e-05 -0.0069773353074251828 0 4.6807362766441799e-05 -0.0072755703702287681 0 5.4011965001774994e-07 -0.0070294370409637111 0 7.3737576132247611e-05 -0.0069773353074251828 0 5.4011965001774994e-07 -0.0070294370409637111 0 0.00019426044777693299 -0.0068726811855026725 0 5.4011965001774994e-07 -0.0070294370409637111 0 0.00019426044777693299 -0.0068726811855026725 0 -3.0153414355656965e-07 -0.0061993942808358472 0 7.3737576132247611e-05 -0.0069773353074251828 0 0.00019426044777693299 -0.0068726811855026725 0 0.0001381828761619819 -0.0062185103143015535 0 -2.5117581663308699e-05 -0.0056331056092888609 0 6.0388827374015794e-05 -0.0055132017940104482 0 4.013398597228057e-05 -0.0057129072773916207 0 -2.5117581663308699e-05 -0.0056331056092888609 0 -3.6774848003236644e-07 -0.0061962676253074726 0 6.0388827374015794e-05 -0.0055132017940104482 0 8.8582633152625571e-05 -0.0062545507851600717 0 6.7379428057819503e-08 -0.0061981156665596232 0 3.1333197720751983e-07 -0.0053016616074886757 0 -3.6774848003236644e-07 -0.0061962676253074726 0 6.0388827374015794e-05 -0.0055132017940104482 0 7.3193645545728528e-05 -0.0053321214533916068 0 8.4760311151053485e-05 -0.0055562257960221689 0 4.013398597228057e-05 -0.0057129072773916207 0 7.3193645545728528e-05 -0.0053321214533916068 0 6.0388827374015794e-05 -0.0055132017940104482 0 4.013398597228057e-05 -0.0057129072773916207 0 8.4760311151053485e-05 -0.0055562257960221689 0 4.013398597228057e-05 -0.0057129072773916207 0 0.00010319239388286202 -0.0057454474899408386 0 8.6063859854218689e-05 -0.0054395221805066049 0 8.4760311151053485e-05 -0.0055562257960221689 0 0.00010319239388286202 -0.0057454474899408386 0 4.013398597228057e-05 -0.0057129072773916207 0 8.5450120922209654e-05 -0.0059767761923133697 0 0.00010319239388286202 -0.0057454474899408386 0 8.8582633152625571e-05 -0.0062545507851600717 0 0.00011390723427363922 -0.0061993374577678862 0 -2.5117581663308699e-05 -0.0056331056092888609 0 4.013398597228057e-05 -0.0057129072773916207 0 0.0001381828761619819 -0.0062185103143015535 0 4.013398597228057e-05 -0.0057129072773916207 0 0.0001381828761619819 -0.0062185103143015535 0 8.5450120922209654e-05 -0.0059767761923133697 0 0.0001381828761619819 -0.0062185103143015535 0 8.5450120922209654e-05 -0.0059767761923133697 0 -8.280894476948744e-05 -0.0060955292722819519 0 0.0001381828761619819 -0.0062185103143015535 0 -7.5864069448023034e-05 -0.0063160179914942601 0 -8.280894476948744e-05 -0.0060955292722819519 0 0.0001381828761619819 -0.0062185103143015535 0 -7.5864069448023034e-05 -0.0063160179914942601 0 -1.0236886164623195e-06 -0.0066072945762497464 0 7.3737576132247611e-05 -0.0069773353074251828 0 0.0001381828761619819 -0.0062185103143015535 0 -1.0236886164623195e-06 -0.0066072945762497464 0 -0.00011223506383170812 -0.0061184281274969613 0 -0.00024573524817063787 -0.0061127584656348538 0 -8.280894476948744e-05 -0.0060955292722819519 0 -0.00036051013091717942 -0.0064676385108942292 0 -0.00017983349297400237 -0.0062830113419478691 0 -7.5864069448023034e-05 -0.0063160179914942601 0 -8.280894476948744e-05 -0.0060955292722819519 0 -0.00017983349297400237 -0.0062830113419478691 0 8.5450120922209654e-05 -0.0059767761923133697 0 -8.280894476948744e-05 -0.0060955292722819519 0 5.5548556139047904e-05 -0.0058354832245890876 0 5.5548556139047904e-05 -0.0058354832245890876 0 -4.2583878081406497e-05 -0.0057092786876341579 0 -0.00017131439954820999 -0.0057295628080425006 0 -8.280894476948744e-05 -0.0060955292722819519 0 5.5548556139047904e-05 -0.0058354832245890876 0 -0.00017131439954820999 -0.0057295628080425006 0 5.5548556139047904e-05 -0.0058354832245890876 0 4.7611392433957416e-05 -0.0057175269361233417 0 -4.2583878081406497e-05 -0.0057092786876341579 0 0.00011254486593257431 -0.005720580976274924 0 0.0001017268480386683 -0.0057084490186351186 0 4.7611392433957416e-05 -0.0057175269361233417 0 5.5548556139047904e-05 -0.0058354832245890876 0 0.00011254486593257431 -0.005720580976274924 0 4.7611392433957416e-05 -0.0057175269361233417 0 8.5450120922209654e-05 -0.0059767761923133697 0 5.5548556139047904e-05 -0.0058354832245890876 0 0.00010319239388286202 -0.0057454474899408386 0 5.5548556139047904e-05 -0.0058354832245890876 0 0.00010319239388286202 -0.0057454474899408386 0 0.00011254486593257431 -0.005720580976274924 0 8.6063859854218689e-05 -0.0054395221805066049 0 0.00010319239388286202 -0.0057454474899408386 0 0.00011254486593257431 -0.005720580976274924 0 -0.00019480388806707811 -0.0049653347746392937 0 -0.00034045391754663036 -0.0048541917200538897 0 0.00011254486593257431 -0.005720580976274924 0 0.0001017268480386683 -0.0057084490186351186 0 6.2783863139454209e-05 -0.005667367261066431 0 -0.00048384325650875111 -0.0042580735852736674 0 -0.00056757362935699017 -0.0045325492897694405 0 -0.00069443320910863476 -0.004293768683374161 0 -0.00048384325650875111 -0.0042580735852736674 0 -0.00074807577763137299 -0.0040527771376705161 0 -0.00069443320910863476 -0.004293768683374161 0 -0.00048384325650875111 -0.0042580735852736674 0 -0.00056757362935699017 -0.0045325492897694405 0 -0.00020924344541952306 -0.0044886103912535683 0 -0.0010036137280656564 -0.0042997714686621022 0 -0.00073458535330141563 -0.0041898491726205522 0 -0.0015169820709564172 -0.002986105003770037 0 -0.0017313875738453775 -0.0031077219264920302 0 -0.0016040432800333432 -0.0032618510167494326 0 -0.00075083357343049136 -0.0054443278536153049 0 -0.00054565622795381711 -0.0055485052916246199 0 -0.00042535911125691166 -0.0054007488919957389 0 -0.00054565622795381711 -0.0055485052916246199 0 -0.00042535911125691166 -0.0054007488919957389 0 -0.00039625459773823116 -0.0056353053168637784 0 -0.0010036137280656564 -0.0042997714686621022 0 -0.00014759414865338552 -0.0052128340972033317 0 -0.00014759414865338552 -0.0052128340972033317 0 -0.00011169275170023296 -0.0052727185664343951 0 0.0001017268480386683 -0.0057084490186351186 0 2.7061289257152084e-06 -0.0056304757752970664 0 4.7611392433957416e-05 -0.0057175269361233417 0 2.7061289257152084e-06 -0.0056304757752970664 0 4.7611392433957416e-05 -0.0057175269361233417 0 -3.6373646357245483e-05 -0.0056358507844903689 0 -0.00019480388806707811 -0.0049653347746392937 0 -0.00014759414865338552 -0.0052128340972033317 0 -4.2583878081406497e-05 -0.0057092786876341579 0 -3.6373646357245483e-05 -0.0056358507844903689 0 -0.00012947890242990967 -0.0056426511326842814 0 4.7611392433957416e-05 -0.0057175269361233417 0 -4.2583878081406497e-05 -0.0057092786876341579 0 -3.6373646357245483e-05 -0.0056358507844903689 0 -0.00014759414865338552 -0.0052128340972033317 0 -0.00015703855913969586 -0.0056605527933106265 0 -0.00042535911125691166 -0.0054007488919957389 0 -0.00039625459773823116 -0.0056353053168637784 0 -0.00019029537349164017 -0.0056157082099227984 0 -1.5400648825750218e-06 -0.0056234497676761318 0 -3.6373646357245483e-05 -0.0056358507844903689 0 -0.00019029537349164017 -0.0056157082099227984 0 -3.6373646357245483e-05 -0.0056358507844903689 0 -0.00012947890242990967 -0.0056426511326842814 0 -0.00019029537349164017 -0.0056157082099227984 0 -0.00012947890242990967 -0.0056426511326842814 0 -0.00019029537349164017 -0.0056157082099227984 0 -0.0001339635463931315 -0.00561625765597873 0 -0.00024573524817063787 -0.0061127584656348538 0 -0.00025676926685112573 -0.0062439598694066494 0 -0.00012947890242990967 -0.0056426511326842814 0 -0.00017131439954820999 -0.0057295628080425006 0 -0.0001339635463931315 -0.00561625765597873 0 -4.2583878081406497e-05 -0.0057092786876341579 0 -0.00012947890242990967 -0.0056426511326842814 0 -0.00017131439954820999 -0.0057295628080425006 0 -0.0007854562387262609 -0.004047639006267134 0 -0.0007811928840985306 -0.0040453857916995899 0 -0.00077899295847895099 -0.0040291853542784965 0 -0.0007854562387262609 -0.004047639006267134 0 -0.0007811928840985306 -0.0040453857916995899 0 -0.00079106503740633462 -0.0040516761434621967 0 -0.00073556549602690074 -0.0039967609948517455 0 -0.00077095034164593459 -0.0040311556899687677 0 -0.00077899295847895099 -0.0040291853542784965 0 -0.00074215164683359551 -0.0040030059246615596 0 -0.00090037464790034482 -0.0039372340980813854 0 -0.00077095034164593459 -0.0040311556899687677 0 -0.0007811928840985306 -0.0040453857916995899 0 -0.00077899295847895099 -0.0040291853542784965 0 -0.00052344215334891911 -0.0033212633531269605 0 -0.00051359856491998946 -0.0041001796411539223 0 -0.0007652867223338594 -0.0040593824447226583 0 -0.00077095034164593459 -0.0040311556899687677 0 -0.0007811928840985306 -0.0040453857916995899 0 -0.0007652867223338594 -0.0040593824447226583 0 -0.00077978001567052943 -0.0040626805686462828 0 -0.0007811928840985306 -0.0040453857916995899 0 -0.00051359856491998946 -0.0041001796411539223 0 -0.00037671285420962244 -0.0047961882976807688 0 -0.00077978001567052943 -0.0040626805686462828 0 -0.0007811928840985306 -0.0040453857916995899 0 -0.00079106503740633462 -0.0040516761434621967 0 8.6063859854218689e-05 -0.0054395221805066049 0 0.00011254486593257431 -0.005720580976274924 0 6.2783863139454209e-05 -0.005667367261066431 0 -0.00037671285420962244 -0.0047961882976807688 0 -0.00034045391754663036 -0.0048541917200538897 0 8.6063859854218689e-05 -0.0054395221805066049 0 -3.9406041836042777e-05 -0.0054277426915123944 0 6.2783863139454209e-05 -0.005667367261066431 0 -0.00074807577763137299 -0.0040527771376705161 0 -0.00078229260618155859 -0.0040668885381499528 0 -0.00069443320910863476 -0.004293768683374161 0 -0.00079106503740633462 -0.0040516761434621967 0 -0.00074807577763137299 -0.0040527771376705161 0 -0.00078229260618155859 -0.0040668885381499528 0 -0.00078229260618155859 -0.0040668885381499528 0 -0.00078654986563397118 -0.0040548926326806345 0 -0.0007890935825330417 -0.0040554535655628506 0 -0.00079106503740633462 -0.0040516761434621967 0 -0.00078229260618155859 -0.0040668885381499528 0 -0.00078654986563397118 -0.0040548926326806345 0 -0.0007854562387262609 -0.004047639006267134 0 -0.00079106503740633462 -0.0040516761434621967 0 -0.00078654986563397118 -0.0040548926326806345 0 -0.0007854562387262609 -0.004047639006267134 0 -0.00078654986563397118 -0.0040548926326806345 0 -0.00078864591919536905 -0.0040481933027775698 0 -0.0007854562387262609 -0.004047639006267134 0 -0.00078864591919536905 -0.0040481933027775698 0 -0.00078368684965152916 -0.0040391738270236666 0 -0.00078864591919536905 -0.0040481933027775698 0 -0.00079863395456970701 -0.0040387612908392182 0 -0.00078368684965152916 -0.0040391738270236666 0 -0.00078654986563397118 -0.0040548926326806345 0 -0.00078864591919536905 -0.0040481933027775698 0 -0.0007890935825330417 -0.0040554535655628506 0 -0.00078653922097382241 -0.0040754578272999388 0 -0.00073458535330141563 -0.0041898491726205522 0 -0.00078864591919536905 -0.0040481933027775698 0 -0.0007890935825330417 -0.0040554535655628506 0 -0.00080725930915604956 -0.0040475707776163536 0 -0.00078229260618155859 -0.0040668885381499528 0 -0.0007890935825330417 -0.0040554535655628506 0 -0.00080725930915604956 -0.0040475707776163536 0 -0.00078864591919536905 -0.0040481933027775698 0 -0.00079863395456970701 -0.0040387612908392182 0 -0.00080725930915604956 -0.0040475707776163536 0 -0.0015169820709564172 -0.002986105003770037 0 -0.0018592181427903906 -0.0030355608192542175 0 -0.0017313875738453775 -0.0031077219264920302 0 -0.00082125930859736258 -0.0040300488310635128 0 -0.00079863395456970701 -0.0040387612908392182 0 -0.00080078838138942295 -0.0040263521326070559 0 -0.0010036137280656564 -0.0042997714686621022 0 -0.0014370619448949495 -0.0034644200805196207 0 -0.00082125930859736258 -0.0040300488310635128 0 -0.00079863395456970701 -0.0040387612908392182 0 -0.00080725930915604956 -0.0040475707776163536 0 -0.0018743766245744658 -0.003031287639428646 0 -0.0017313875738453775 -0.0031077219264920302 0 -0.0018634722967665355 -0.0031871075819574785 0 -0.0014370619448949495 -0.0034644200805196207 0 -0.0017871359055110622 -0.0031839415482251211 0 -0.00079863395456970701 -0.0040387612908392182 0 -0.00080078838138942295 -0.0040263521326070559 0 -0.00078368684965152916 -0.0040391738270236666 0 -0.0014370619448949495 -0.0034644200805196207 0 -0.0018454482303947159 -0.0033188562368441114 0 -0.0014370619448949495 -0.0034644200805196207 0 -0.00096267394572856755 -0.0039303185489625442 0 -0.0018743766245744658 -0.003031287639428646 0 -0.00224205004939023 -0.0031094436034122762 0 -0.0023183186268159275 -0.003097276904071316 0 -0.0018743766245744658 -0.003031287639428646 0 -0.00224205004939023 -0.0031094436034122762 0 -0.002114554576511548 -0.0031787007087162619 0 -0.001537007431753424 -0.0035641830979843145 0 -0.0012254526349274194 -0.0035188166655238224 0 -0.0012721631912945004 -0.0037187166178481662 0 -0.0012254526349274194 -0.0035188166655238224 0 -0.0012721631912945004 -0.0037187166178481662 0 -0.0010264743714799771 -0.0036654993966039979 0 -0.00096267394572856755 -0.0039303185489625442 0 -0.00090037464790034482 -0.0039372340980813854 0 -0.0012721631912945004 -0.0037187166178481662 0 -0.0010013326600106388 -0.0038679531099411412 0 -0.0010264743714799771 -0.0036654993966039979 0 -0.0007854562387262609 -0.004047639006267134 0 -0.00078368684965152916 -0.0040391738270236666 0 -0.00077899295847895099 -0.0040291853542784965 0 -0.00072484404355864637 -0.0037501447845639676 0 -0.0010013326600106388 -0.0038679531099411412 0 -0.0010264743714799771 -0.0036654993966039979 0 -0.0012254526349274194 -0.0035188166655238224 0 -0.0010264743714799771 -0.0036654993966039979 0 -0.00091368393209066462 -0.0034720908950063526 0 -0.00072484404355864637 -0.0037501447845639676 0 -0.0010264743714799771 -0.0036654993966039979 0 -0.00091368393209066462 -0.0034720908950063526 0 -0.0017008308040863029 -0.0030934846134917254 0 -0.0019264442818781016 -0.0027336016609570304 0 -0.0017008308040863029 -0.0030934846134917254 0 -0.0026821245015033663 -0.0029816679490828331 0 -0.0023183186268159275 -0.003097276904071316 0 -0.0026868351405116894 -0.0031543295516061943 0 -0.002603071313143677 -0.0032808095084949532 0 -0.0023163595154537106 -0.002903067588255921 0 -0.0022993577424570096 -0.002788052429604311 0 -0.0024401685947660137 -0.0027270778905132262 0 -0.0023163595154537106 -0.002903067588255921 0 -0.0022993577424570096 -0.002788052429604311 0 -0.0021738722935088486 -0.0028814981383359899 0 -0.0022993577424570096 -0.002788052429604311 0 -0.0024401685947660137 -0.0027270778905132262 0 -0.0022544893593953058 -0.0026342688372323784 0 -0.0029981918053294215 -0.0029126004298725794 0 -0.003237249575785037 -0.0030284925780873031 0 -0.0031820304041195848 -0.0031265370720940564 0 -0.0022993577424570096 -0.002788052429604311 0 -0.0022544893593953058 -0.0026342688372323784 0 -0.0021738722935088486 -0.0028814981383359899 0 -0.0026821245015033663 -0.0029816679490828331 0 -0.0027803582135375732 -0.0022801551633218143 0 -0.003508894927143152 -0.0012994732720334882 0 -0.0033873052054000253 -0.0012514652021974498 0 -0.0034883886629243949 -0.0012592735659012417 0 -0.0031820304041195848 -0.0031265370720940564 0 -0.0026314601988717346 -0.0034571093397446776 0 -0.0027775439010821875 -0.0038400993065793626 0 -0.0027803582135375732 -0.0022801551633218143 0 -0.0032013437960947346 -0.0022912710692079606 0 -0.0034966355723046053 -0.0013305217148471195 0 -0.003508894927143152 -0.0012994732720334882 0 -0.0034883886629243949 -0.0012592735659012417 0 -0.0032013437960947346 -0.0022912710692079606 0 -0.0028247800646508344 -0.0038101940670252996 0 -0.0029981918053294215 -0.0029126004298725794 0 -0.0031820304041195848 -0.0031265370720940564 0 -0.0026314601988717346 -0.0034571093397446776 0 -0.0027044618972242359 -0.0033233372795412322 0 -0.0024393059278976993 -0.0037134277639641598 0 -0.0023847599709634678 -0.0034189076889409001 0 -0.0026821245015033663 -0.0029816679490828331 0 -0.0025518440493226767 -0.0035980317463674295 0 -0.0024393059278976993 -0.0037134277639641598 0 -0.0023847599709634678 -0.0034189076889409001 0 -0.0022046653175571427 -0.0035310714110464211 0 -0.0023847599709634678 -0.0034189076889409001 0 -0.0023586353440655629 -0.0032739272243767908 0 -0.0022097632644501892 -0.0033054166919026834 0 -0.0023847599709634678 -0.0034189076889409001 0 -0.0022097632644501892 -0.0033054166919026834 0 -0.0022046653175571427 -0.0035310714110464211 0 -0.00224205004939023 -0.0031094436034122762 0 -0.0027044618972242359 -0.0033233372795412322 0 -0.0023586353440655629 -0.0032739272243767908 0 -0.0022826395812134345 -0.0031959773407727724 0 -0.0026821245015033663 -0.0029816679490828331 0 -0.0018454482303947159 -0.0033188562368441114 0 -0.0017008308040863029 -0.0030934846134917254 0 -0.0027044618972242359 -0.0033233372795412322 0 -0.0023847599709634678 -0.0034189076889409001 0 -0.0023586353440655629 -0.0032739272243767908 0 -0.00224205004939023 -0.0031094436034122762 0 -0.0023183186268159275 -0.003097276904071316 0 -0.002603071313143677 -0.0032808095084949532 0 -0.00224205004939023 -0.0031094436034122762 0 -0.0023586353440655629 -0.0032739272243767908 0 -0.0022306916356416018 -0.0032166835579798066 0 -0.0023586353440655629 -0.0032739272243767908 0 -0.0022306916356416018 -0.0032166835579798066 0 -0.0022097632644501892 -0.0033054166919026834 0 -0.002114554576511548 -0.0031787007087162619 0 -0.0019959309057894577 -0.0032410712955879763 0 -0.0022097632644501892 -0.0033054166919026834 0 -0.00224205004939023 -0.0031094436034122762 0 -0.0022306916356416018 -0.0032166835579798066 0 -0.002114554576511548 -0.0031787007087162619 0 -0.0022306916356416018 -0.0032166835579798066 0 -0.002114554576511548 -0.0031787007087162619 0 -0.0022097632644501892 -0.0033054166919026834 0 -0.0018743766245744658 -0.003031287639428646 0 -0.002114554576511548 -0.0031787007087162619 0 -0.0019959309057894577 -0.0032410712955879763 0 -0.0019959309057894577 -0.0032410712955879763 0 -0.0020387872337222779 -0.0034019516708226043 0 -0.0022097632644501892 -0.0033054166919026834 0 -0.0020387872337222779 -0.0034019516708226043 0 -0.0022097632644501892 -0.0033054166919026834 0 -0.0022046653175571427 -0.0035310714110464211 0 -0.0017313875738453775 -0.0031077219264920302 0 -0.0018074532000342946 -0.0033564865464339533 0 -0.0016040432800333432 -0.0032618510167494326 0 -0.0017313875738453775 -0.0031077219264920302 0 -0.0018634722967665355 -0.0031871075819574785 0 -0.0018074532000342946 -0.0033564865464339533 0 -0.0018743766245744658 -0.003031287639428646 0 -0.0019959309057894577 -0.0032410712955879763 0 -0.0018634722967665355 -0.0031871075819574785 0 -0.0019959309057894577 -0.0032410712955879763 0 -0.0018634722967665355 -0.0031871075819574785 0 -0.0018074532000342946 -0.0033564865464339533 0 -0.0019959309057894577 -0.0032410712955879763 0 -0.0020387872337222779 -0.0034019516708226043 0 -0.0018074532000342946 -0.0033564865464339533 0 -0.0018074532000342946 -0.0033564865464339533 0 -0.0016040432800333432 -0.0032618510167494326 0 -0.0015535927996506488 -0.003482010147120971 0 -0.0018074532000342946 -0.0033564865464339533 0 -0.001689946380775433 -0.0036598275048836679 0 -0.0015535927996506488 -0.003482010147120971 0 -0.0020387872337222779 -0.0034019516708226043 0 -0.0018074532000342946 -0.0033564865464339533 0 -0.0019732276123549386 -0.0035767023980307925 0 -0.0018074532000342946 -0.0033564865464339533 0 -0.001689946380775433 -0.0036598275048836679 0 -0.0019732276123549386 -0.0035767023980307925 0 -0.001689946380775433 -0.0036598275048836679 0 -0.0019732276123549386 -0.0035767023980307925 0 -0.0018626763901930837 -0.0038922366562304271 0 -0.0024393059278976993 -0.0037134277639641598 0 -0.0022046653175571427 -0.0035310714110464211 0 -0.0021277063303983485 -0.0037758004550166114 0 -0.0020387872337222779 -0.0034019516708226043 0 -0.0022046653175571427 -0.0035310714110464211 0 -0.0019732276123549386 -0.0035767023980307925 0 -0.0019732276123549386 -0.0035767023980307925 0 -0.0021277063303983485 -0.0037758004550166114 0 -0.0018626763901930837 -0.0038922366562304271 0 -0.0022046653175571427 -0.0035310714110464211 0 -0.0019732276123549386 -0.0035767023980307925 0 -0.0021277063303983485 -0.0037758004550166114 0 -0.0024393059278976993 -0.0037134277639641598 0 -0.0021277063303983485 -0.0037758004550166114 0 -0.0021947228880274442 -0.0041078598278810816 0 -0.0021277063303983485 -0.0037758004550166114 0 -0.0018626763901930837 -0.0038922366562304271 0 -0.0021947228880274442 -0.0041078598278810816 0 -0.0018626763901930837 -0.0038922366562304271 0 -0.0018432698010751197 -0.0041878812856498658 0 -0.0021947228880274442 -0.0041078598278810816 0 -0.001689946380775433 -0.0036598275048836679 0 -0.0018626763901930837 -0.0038922366562304271 0 -0.0014766160572284182 -0.004000013495542994 0 -0.0018626763901930837 -0.0038922366562304271 0 -0.0018432698010751197 -0.0041878812856498658 0 -0.0014766160572284182 -0.004000013495542994 0 -0.0018432698010751197 -0.0041878812856498658 0 -0.0015042980424760605 -0.0044777565600249329 0 -0.0019650556335346755 -0.0045207746811689467 0 -0.0022863731813102107 -0.0039883312250852902 0 -0.0023900592310983496 -0.0045053282633525996 0 -0.0019650556335346755 -0.0045207746811689467 0 -0.0018432698010751197 -0.0041878812856498658 0 -0.0021947228880274442 -0.0041078598278810816 0 -0.0019650556335346755 -0.0045207746811689467 0 -0.00223722982361356 -0.0040551487262558529 0 -0.0019786249320621462 -0.0044846690220506158 0 -0.0028247800646508344 -0.0038101940670252996 0 -0.0024170604124760684 -0.004421353726309204 0 -0.0030490945929010451 -0.0036109261328672914 0 -0.0028797582262775484 -0.0035502288363244787 0 -0.0026558908071414784 -0.004602953990242852 0 -0.0032641560709039449 -0.0023492484561636272 0 -0.0028092483699056967 -0.0031854180925238343 0 -0.0033873052054000253 -0.0012514652021974498 0 -0.0033151780414209893 -0.001624938942281026 0 -0.0029944243054476028 -0.0017104622021483261 0 -0.0022863731813102107 -0.0039883312250852902 0 -0.0027775439010821875 -0.0038400993065793626 0 -0.0023900592310983496 -0.0045053282633525996 0 -0.0028797582262775484 -0.0035502288363244787 0 -0.0026558908071414784 -0.004602953990242852 0 -0.0023900592310983496 -0.0045053282633525996 0 -0.0034363982488219758 -0.0014680194954409195 0 -0.0033873052054000253 -0.0012514652021974498 0 -0.0033151780414209893 -0.001624938942281026 0 -0.0034363982488219758 -0.0014680194954409195 0 -0.0034715344473501449 -0.0013422675879508474 0 -0.0035487451434274872 -0.0014119887016397622 0 -0.0034363982488219758 -0.0014680194954409195 0 -0.0034715344473501449 -0.0013422675879508474 0 -0.0033873052054000253 -0.0012514652021974498 0 -0.0032013437960947346 -0.0022912710692079606 0 -0.0032641560709039449 -0.0023492484561636272 0 -0.0033873052054000253 -0.0012514652021974498 0 -0.0034761465171876931 -0.0012754540440381406 0 -0.0034883886629243949 -0.0012592735659012417 0 -0.0034568930098087544 -0.002506258776472516 0 -0.0030490945929010451 -0.0036109261328672914 0 -0.0028797582262775484 -0.0035502288363244787 0 -0.0034715344473501449 -0.0013422675879508474 0 -0.0034761465171876931 -0.0012754540440381406 0 -0.0035092601741022796 -0.0013105002180871274 0 -0.0034715344473501449 -0.0013422675879508474 0 -0.0033873052054000253 -0.0012514652021974498 0 -0.0034761465171876931 -0.0012754540440381406 0 -0.0026314601988717346 -0.0034571093397446776 0 -0.0022863731813102107 -0.0039883312250852902 0 -0.0027775439010821875 -0.0038400993065793626 0 -0.0025518440493226767 -0.0035980317463674295 0 -0.00223722982361356 -0.0040551487262558529 0 -0.00025502699462263094 -0.005821845605293142 0 -0.00018144512529028213 -0.0060653351187768883 0 -2.3997320074755194e-05 -0.0058215980299136019 0 -0.00014072649242551205 -0.0057157535608302352 0 -0.00025502699462263094 -0.005821845605293142 0 -2.3997320074755194e-05 -0.0058215980299136019 0 -0.00014072649242551205 -0.0057157535608302352 0 -0.00019029537349164017 -0.0056157082099227984 0 -0.00025502699462263094 -0.005821845605293142 0 -0.00014072649242551205 -0.0057157535608302352 0 -0.00019029537349164017 -0.0056157082099227984 0 -0.0001339635463931315 -0.00561625765597873 0 -0.00039625459773823116 -0.0056353053168637784 0 -0.00025502699462263094 -0.005821845605293142 0 -0.00055918097372804085 -0.0057569076488648606 0 -0.00039625459773823116 -0.0056353053168637784 0 -0.00019029537349164017 -0.0056157082099227984 0 -0.00025502699462263094 -0.005821845605293142 0 -0.00025502699462263094 -0.005821845605293142 0 -0.00055918097372804085 -0.0057569076488648606 0 -0.00042158635698909258 -0.0060173167654420682 0 -0.0012433344031990228 -0.0034282256095739903 0 -0.0014021169827943133 -0.0036971526447431842 0 -0.00092488460329140658 -0.0038792762559427037 0 -0.00092278910362965881 -0.0045710685531105081 0 -0.00066702693595608643 -0.0049550176794169575 0 -0.00054565622795381711 -0.0055485052916246199 0 -0.00039625459773823116 -0.0056353053168637784 0 -0.00055918097372804085 -0.0057569076488648606 0 -0.0012433344031990228 -0.0034282256095739903 0 -0.0016040432800333432 -0.0032618510167494326 0 -0.0015535927996506488 -0.003482010147120971 0 -0.0015169820709564172 -0.002986105003770037 0 -0.0012433344031990228 -0.0034282256095739903 0 -0.0016040432800333432 -0.0032618510167494326 0 -0.0010036137280656564 -0.0042997714686621022 0 -0.00092278910362965881 -0.0045710685531105081 0 -0.00075083357343049136 -0.0054443278536153049 0 -0.00054565622795381711 -0.0055485052916246199 0 -0.00055918097372804085 -0.0057569076488648606 0 -0.0012433344031990228 -0.0034282256095739903 0 -0.0015535927996506488 -0.003482010147120971 0 -0.0014021169827943133 -0.0036971526447431842 0 -0.001689946380775433 -0.0036598275048836679 0 -0.0015535927996506488 -0.003482010147120971 0 -0.0014021169827943133 -0.0036971526447431842 0 -0.001689946380775433 -0.0036598275048836679 0 -0.0014021169827943133 -0.0036971526447431842 0 -0.0014766160572284182 -0.004000013495542994 0 -0.0018432698010751197 -0.0041878812856498658 0 -0.0014766160572284182 -0.004000013495542994 0 -0.0015042980424760605 -0.0044777565600249329 0 -0.0014766160572284182 -0.004000013495542994 0 -0.0010329493729999552 -0.0042871696566381323 0 -0.0015042980424760605 -0.0044777565600249329 0 -0.0014766160572284182 -0.004000013495542994 0 -0.0010329493729999552 -0.0042871696566381323 0 -0.00092488460329140658 -0.0038792762559427037 0 -0.0014021169827943133 -0.0036971526447431842 0 -0.0014766160572284182 -0.004000013495542994 0 -0.00092488460329140658 -0.0038792762559427037 0 -0.00025502699462263094 -0.005821845605293142 0 -0.00042158635698909258 -0.0060173167654420682 0 -0.00018144512529028213 -0.0060653351187768883 0 -0.0010329493729999552 -0.0042871696566381323 0 -0.00092488460329140658 -0.0038792762559427037 0 -0.00052512728725496408 -0.004388334460968874 0 -0.00066702693595608643 -0.0049550176794169575 0 -0.00040987149553084251 -0.0053584154191720365 0 -0.00042158635698909258 -0.0060173167654420682 0 -0.00031079893195375954 -0.0062848342137936056 0 -0.00018144512529028213 -0.0060653351187768883 0 -0.00031079893195375954 -0.0062848342137936056 0 -0.00018144512529028213 -0.0060653351187768883 0 -0.0001032520059350547 -0.0063488622241064836 0 -0.00040987149553084251 -0.0053584154191720365 0 -0.0001231705955481272 -0.0057220726186120339 0 -0.00031079893195375954 -0.0062848342137936056 0 -0.00018875446243711512 -0.006558671707845568 0 -0.0001032520059350547 -0.0063488622241064836 0 -0.0010329493729999552 -0.0042871696566381323 0 -0.00052512728725496408 -0.004388334460968874 0 -0.00094182510675482457 -0.0049061385033982814 0 -0.00052512728725496408 -0.004388334460968874 0 -4.7927848803042498e-05 -0.005033855129735915 0 -0.00094182510675482457 -0.0049061385033982814 0 -4.7927848803042498e-05 -0.005033855129735915 0 -0.00094182510675482457 -0.0049061385033982814 0 -0.00047282518610158408 -0.0056550022143127387 0 -0.00094182510675482457 -0.0049061385033982814 0 -0.0016354976017824594 -0.0050093655999790473 0 -0.0011785251813519241 -0.005778403276013408 0 -0.0010329493729999552 -0.0042871696566381323 0 -0.00094182510675482457 -0.0049061385033982814 0 -0.0015042980424760605 -0.0044777565600249329 0 -0.00094182510675482457 -0.0049061385033982814 0 -0.0015042980424760605 -0.0044777565600249329 0 -0.0016354976017824594 -0.0050093655999790473 0 -0.0016354976017824594 -0.0050093655999790473 0 -0.0016016897896587946 -0.0054446482297706555 0 -0.0011906297669933589 -0.0053454035151648902 0 -0.0016354976017824594 -0.0050093655999790473 0 -0.0016016897896587946 -0.0054446482297706555 0 -0.0018784756149738586 -0.0053485841322984309 0 -0.0016089924435695635 -0.0050485723843659023 0 -0.0011788857773066771 -0.0055677891508630105 0 -0.0016016897896587946 -0.0054446482297706555 0 -0.0018517898944196264 -0.0056964248535791157 0 -0.0014611819577287721 -0.006086248627462593 0 -0.0016016897896587946 -0.0054446482297706555 0 -0.0011906297669933589 -0.0053454035151648902 0 -0.0014611819577287721 -0.006086248627462593 0 -0.0011906297669933589 -0.0053454035151648902 0 -0.00059746297823611613 -0.0059019113757342884 0 -0.0014611819577287721 -0.006086248627462593 0 -0.00094182510675482457 -0.0049061385033982814 0 -0.0011785251813519241 -0.005778403276013408 0 -0.00047282518610158408 -0.0056550022143127387 0 -0.0011788857773066771 -0.0055677891508630105 0 -0.00059237184759051379 -0.0062836397209893747 0 -0.0011785251813519241 -0.005778403276013408 0 -0.00047282518610158408 -0.0056550022143127387 0 -0.00060286536302790858 -0.0066466246267704882 0 -0.00047282518610158408 -0.0056550022143127387 0 -6.2822300133409231e-05 -0.0060619830293063056 0 -0.00060286536302790858 -0.0066466246267704882 0 -6.2822300133409231e-05 -0.0060619830293063056 0 0.00029303594288525601 -0.0065221409700765261 0 -0.00060286536302790858 -0.0066466246267704882 0 -4.7927848803042498e-05 -0.005033855129735915 0 -0.00047282518610158408 -0.0056550022143127387 0 4.6345464874370638e-05 -0.0056568602516827507 0 -6.2822300133409231e-05 -0.0060619830293063056 0 4.6345464874370638e-05 -0.0056568602516827507 0 0.00041837591308343256 -0.005835503123431245 0 -0.00047282518610158408 -0.0056550022143127387 0 -6.2822300133409231e-05 -0.0060619830293063056 0 4.6345464874370638e-05 -0.0056568602516827507 0 -0.0028092483699056967 -0.0031854180925238343 0 -0.0023779244197167241 -0.0042098430676374993 0 -0.0030692343075002641 -0.0024204364007693086 0 -0.0029944243054476028 -0.0017104622021483261 0 -0.0023694194591057575 -0.0031636556811688705 0 -0.0030692343075002641 -0.0024204364007693086 0 -0.0029944243054476028 -0.0017104622021483261 0 -0.0032548329242184423 -0.0019737090787581208 0 -0.0030692343075002641 -0.0024204364007693086 0 -0.0034276269533442903 -0.0023034600863210486 0 -0.0032548329242184423 -0.0019737090787581208 0 -0.0030692343075002641 -0.0024204364007693086 0 -0.0032647157937411558 -0.0026879019653249596 0 -0.0034276269533442903 -0.0023034600863210486 0 -0.0030692343075002641 -0.0024204364007693086 0 -0.0032647157937411558 -0.0026879019653249596 0 -0.003050203879091419 -0.0031666195087206844 0 -0.0032647157937411558 -0.0026879019653249596 0 -0.0034276269533442903 -0.0023034600863210486 0 -0.0035184609342004407 -0.0027844757452682866 0 -0.0034276269533442903 -0.0023034600863210486 0 -0.0035184609342004407 -0.0027844757452682866 0 -0.0037930366353667354 -0.0018312062222349461 0 -0.0037648020636209746 -0.0024253930315265059 0 -0.0037387562630653119 -0.001144219222268405 0 -0.0034276269533442903 -0.0023034600863210486 0 -0.0034621257845540532 -0.0019561149955816641 0 -0.0037930366353667354 -0.0018312062222349461 0 -0.0035184609342004407 -0.0027844757452682866 0 -0.0035699697249339758 -0.0029580971931411851 0 -0.0037930366353667354 -0.0018312062222349461 0 -0.0034276269533442903 -0.0023034600863210486 0 -0.0034621257845540532 -0.0019561149955816641 0 -0.0032548329242184423 -0.0019737090787581208 0 -0.0034621257845540532 -0.0019561149955816641 0 -0.003518679555721077 -0.0016706264538220218 0 -0.0033151780414209893 -0.001624938942281026 0 -0.0034621257845540532 -0.0019561149955816641 0 -0.003518679555721077 -0.0016706264538220218 0 -0.0037930366353667354 -0.0018312062222349461 0 -0.0034621257845540532 -0.0019561149955816641 0 -0.0033151780414209893 -0.001624938942281026 0 -0.0032548329242184423 -0.0019737090787581208 0 -0.0034363982488219758 -0.0014680194954409195 0 -0.003518679555721077 -0.0016706264538220218 0 -0.0033151780414209893 -0.001624938942281026 0 -0.0034363982488219758 -0.0014680194954409195 0 -0.003518679555721077 -0.0016706264538220218 0 -0.0035487451434274872 -0.0014119887016397622 0 -0.0033151780414209893 -0.001624938942281026 0 -0.0029944243054476028 -0.0017104622021483261 0 -0.0032548329242184423 -0.0019737090787581208 0 -0.0026558908071414784 -0.004602953990242852 0 -0.0023900592310983496 -0.0045053282633525996 0 -0.0021541253154480442 -0.004870411142699281 0 -0.0023900592310983496 -0.0045053282633525996 0 -0.0019650556335346755 -0.0045207746811689467 0 -0.0021541253154480442 -0.004870411142699281 0 -0.0015042980424760605 -0.0044777565600249329 0 -0.0016354976017824594 -0.0050093655999790473 0 -0.0019650556335346755 -0.0045207746811689467 0 -0.0016354976017824594 -0.0050093655999790473 0 -0.0019650556335346755 -0.0045207746811689467 0 -0.0021541253154480442 -0.004870411142699281 0 -0.0016354976017824594 -0.0050093655999790473 0 -0.0021541253154480442 -0.004870411142699281 0 -0.0020336168908406979 -0.0051640132337622234 0 -0.0026558908071414784 -0.004602953990242852 0 -0.0021541253154480442 -0.004870411142699281 0 -0.0023175362891004136 -0.0052315415315711518 0 -0.0021541253154480442 -0.004870411142699281 0 -0.0023175362891004136 -0.0052315415315711518 0 -0.0020336168908406979 -0.0051640132337622234 0 -0.0023175362891004136 -0.0052315415315711518 0 -0.0020770756841606017 -0.00538895057827685 0 -0.0020336168908406979 -0.0051640132337622234 0 -0.0016354976017824594 -0.0050093655999790473 0 -0.0020336168908406979 -0.0051640132337622234 0 -0.0018784756149738586 -0.0053485841322984309 0 -0.0020770756841606017 -0.00538895057827685 0 -0.0020336168908406979 -0.0051640132337622234 0 -0.0018784756149738586 -0.0053485841322984309 0 -0.0018784756149738586 -0.0053485841322984309 0 -0.0020028867124393919 -0.0055194869583551024 0 -0.0018517898944196264 -0.0056964248535791157 0 -0.0016016897896587946 -0.0054446482297706555 0 -0.0018784756149738586 -0.0053485841322984309 0 -0.0018517898944196264 -0.0056964248535791157 0 -0.0020770756841606017 -0.00538895057827685 0 -0.0020028867124393919 -0.0055194869583551024 0 -0.0021166721779492014 -0.0056278980332143706 0 -0.0020770756841606017 -0.00538895057827685 0 -0.0018784756149738586 -0.0053485841322984309 0 -0.0020028867124393919 -0.0055194869583551024 0 -0.0020028867124393919 -0.0055194869583551024 0 -0.0018517898944196264 -0.0056964248535791157 0 -0.0021166721779492014 -0.0056278980332143706 0 -0.0023175362891004136 -0.0052315415315711518 0 -0.0020770756841606017 -0.00538895057827685 0 -0.0021166721779492014 -0.0056278980332143706 0 -0.0023779244197167241 -0.0042098430676374993 0 -0.0021020132338928771 -0.0055127527084814099 0 -0.0023694194591057575 -0.0031636556811688705 0 -0.0025530754006155248 -0.0054494603152206488 0 -0.0021166721779492014 -0.0056278980332143706 0 -0.0030136961652243587 -0.0049638550698565612 0 -0.0036424143372359601 -0.0054819796297788216 0 -0.0030158700200548119 -0.0054994568844271797 0 -0.0023694194591057575 -0.0031636556811688705 0 -0.0031580211997120451 -0.0042212944495114372 0 -0.0025530754006155248 -0.0054494603152206488 0 -0.0030136961652243587 -0.0049638550698565612 0 -0.0030158700200548119 -0.0054994568844271797 0 -0.0025530754006155248 -0.0054494603152206488 0 -0.0029142365652030165 -0.0047748766481590611 0 -0.0026090151543097708 -0.0052912949462258487 0 -0.0023694194591057575 -0.0031636556811688705 0 -0.0031580211997120451 -0.0042212944495114372 0 -0.003050203879091419 -0.0031666195087206844 0 -0.0029142365652030165 -0.0047748766481590611 0 -0.0037648020636209746 -0.0024253930315265059 0 -0.0031580211997120451 -0.0042212944495114372 0 -0.003050203879091419 -0.0031666195087206844 0 -0.0036587009203725759 -0.0031225986511731465 0 -0.003050203879091419 -0.0031666195087206844 0 -0.0033220442593921607 -0.0029560319741891014 0 -0.0036587009203725759 -0.0031225986511731465 0 -0.0032647157937411558 -0.0026879019653249596 0 -0.003050203879091419 -0.0031666195087206844 0 -0.0033220442593921607 -0.0029560319741891014 0 -0.0030692343075002641 -0.0024204364007693086 0 -0.0023694194591057575 -0.0031636556811688705 0 -0.003050203879091419 -0.0031666195087206844 0 -0.0032647157937411558 -0.0026879019653249596 0 -0.0033220442593921607 -0.0029560319741891014 0 -0.0035184609342004407 -0.0027844757452682866 0 -0.0033220442593921607 -0.0029560319741891014 0 -0.0035184609342004407 -0.0027844757452682866 0 -0.0036587009203725759 -0.0031225986511731465 0 -0.0037505236155465286 -0.002648378510100025 0 -0.0037648020636209746 -0.0024253930315265059 0 -0.0030136961652243587 -0.0049638550698565612 0 -0.0035117390292041467 -0.0044228793276363653 0 -0.0036424143372359601 -0.0054819796297788216 0 -0.0039648017313330414 -0.0002988242160395311 0 -0.0036619815967378635 -6.3455858888044231e-05 0 -0.0038157480724500584 0.00016400255234837646 0 -0.0037648020636209746 -0.0024253930315265059 0 -0.00371761640686175 -0.002645796084609292 0 -0.0036619815967378635 -6.3455858888044231e-05 0 -0.0033785671998040152 -0.00010207577509416931 0 -0.00343790757273194 0.00029894613018880881 0 -0.0036619815967378635 -6.3455858888044231e-05 0 -0.00343790757273194 0.00029894613018880881 0 -0.0038157480724500584 0.00016400255234837646 0 -0.0033785671998040152 -0.00010207577509416931 0 -0.0030747711694162991 0.00028874552171715881 0 -0.00343790757273194 0.00029894613018880881 0 -0.0033785671998040152 -0.00010207577509416931 0 -0.0036076692904944037 -0.00033386489493132605 0 -0.0033428645917780633 -0.0005142517140086948 0 -0.0036619815967378635 -6.3455858888044231e-05 0 -0.0033785671998040152 -0.00010207577509416931 0 -0.0036076692904944037 -0.00033386489493132605 0 -0.0039648017313330414 -0.0002988242160395311 0 -0.0036619815967378635 -6.3455858888044231e-05 0 -0.0036076692904944037 -0.00033386489493132605 0 -0.0036076692904944037 -0.00033386489493132605 0 -0.0036821561924749681 -0.00069415338630714597 0 -0.0033428645917780633 -0.0005142517140086948 0 -0.0039648017313330414 -0.0002988242160395311 0 -0.0036076692904944037 -0.00033386489493132605 0 -0.0036821561924749681 -0.00069415338630714597 0 -0.0036821561924749681 -0.00069415338630714597 0 -0.0033428645917780633 -0.0005142517140086948 0 -0.0034131423962388643 -0.00081511386295984292 0 -0.0036821561924749681 -0.00069415338630714597 0 -0.0034131423962388643 -0.00081511386295984292 0 -0.0034634937976639581 -0.0011401237424552397 0 -0.0037387562630653119 -0.001144219222268405 0 -0.0034501983588565463 -0.0012492702527172087 0 -0.0037930366353667354 -0.0018312062222349461 0 -0.0035729823829862262 -0.0012940071411834549 0 -0.0034634937976639581 -0.0011401237424552397 0 -0.0037930366353667354 -0.0018312062222349461 0 -0.0035729823829862262 -0.0012940071411834549 0 -0.0035487451434274872 -0.0014119887016397622 0 -0.003518679555721077 -0.0016706264538220218 0 -0.0037930366353667354 -0.0018312062222349461 0 -0.0035487451434274872 -0.0014119887016397622 0 -0.002645730461998889 -0.00023311417134049217 0 -0.0028567035433409377 -0.00047230994979145557 0 -0.003085296334469338 -0.00026899246245810264 0 -0.002645730461998889 -0.00023311417134049217 0 -0.0028567035433409377 -0.00047230994979145557 0 -0.0026458271460622642 -0.00058421395830515158 0 -0.0034131423962388643 -0.00081511386295984292 0 -0.0031246498503688068 -0.00090745226431508176 0 -0.0034634937976639581 -0.0011401237424552397 0 -0.0028567035433409377 -0.00047230994979145557 0 -0.003085296334469338 -0.00026899246245810264 0 -0.0030277067762985695 -0.00081546777999319856 0 -0.0033428645917780633 -0.0005142517140086948 0 -0.0034131423962388643 -0.00081511386295984292 0 -0.0031246498503688068 -0.00090745226431508176 0 -0.0031101916739230927 -0.0005937108725862332 0 -0.0028201782408892868 -2.3472924980711957e-05 0 -0.0033428645917780633 -0.0005142517140086948 0 -0.0031246498503688068 -0.00090745226431508176 0 -0.0028242052403143858 -0.00024194224522260536 0 -0.002645730461998889 -0.00023311417134049217 0 -0.003085296334469338 -0.00026899246245810264 0 -0.0028014152256991601 0.00018921440212180216 0 -0.0033785671998040152 -0.00010207577509416931 0 -0.0033428645917780633 -0.0005142517140086948 0 -0.0028242052403143858 -0.00024194224522260536 0 -0.0033785671998040152 -0.00010207577509416931 0 -0.0028242052403143858 -0.00024194224522260536 0 -0.0030747711694162991 0.00028874552171715881 0 -0.0028201782408892868 -2.3472924980711957e-05 0 -0.0026608083290733373 0.00043895228358751311 0 -0.0028242052403143858 -0.00024194224522260536 0 -0.0026554416694208531 0.00046782923102310078 0 -0.0030747711694162991 0.00028874552171715881 0 -0.0028014152256991601 0.00018921440212180216 0 -0.0023202613406895709 0.00036292845101181372 0 -0.0026554416694208531 0.00046782923102310078 0 -0.0023202613406895709 0.00036292845101181372 0 -0.0018598863577389878 0.0003855654849654378 0 -0.0022974045930861495 4.307673262712267e-05 0 -0.0028014152256991601 0.00018921440212180216 0 -0.0023202613406895709 0.00036292845101181372 0 -0.0022974045930861495 4.307673262712267e-05 0 -0.0011432156634047805 0.00053463444261067162 0 -0.0018598863577389878 0.0003855654849654378 0 -0.0017161675271231038 8.3900940388815751e-07 0 -0.0011432156634047805 0.00053463444261067162 0 -0.0014884661061351665 0.00071272918442066055 0 -0.0018598863577389878 0.0003855654849654378 0 -0.0014884661061351665 0.00071272918442066055 0 -0.0018598863577389878 0.0003855654849654378 0 -0.001884467907781062 0.00071988340354380898 0 -0.0023202613406895709 0.00036292845101181372 0 -0.0018598863577389878 0.0003855654849654378 0 -0.001884467907781062 0.00071988340354380898 0 -0.0018598863577389878 0.0003855654849654378 0 -0.0017161675271231038 8.3900940388815751e-07 0 -0.0022974045930861495 4.307673262712267e-05 0 -0.0011623705288135483 0.00051008641187572481 0 -0.0014911469240404185 0.00026305759207027765 0 -0.00093482375688647937 0.00028287694389029675 0 -0.0012533802152973068 0.00051610669639569611 0 -0.001349306757484909 -0.00014365881113185473 0 -0.0012533802152973068 0.00051610669639569611 0 -0.0016935057970403388 -0.00018928998301460798 0 -0.001349306757484909 -0.00014365881113185473 0 -0.0014911469240404185 0.00026305759207027765 0 -0.002042205009816494 -9.766874285983479e-05 0 -0.0012533802152973068 0.00051610669639569611 0 -0.001875073502447405 0.00013450990854009331 0 -0.0016935057970403388 -0.00018928998301460798 0 -0.002645730461998889 -0.00023311417134049217 0 -0.0028014152256991601 0.00018921440212180216 0 -0.0022974045930861495 4.307673262712267e-05 0 -0.002645730461998889 -0.00023311417134049217 0 -0.0022974045930861495 4.307673262712267e-05 0 -0.0022123481080339796 -0.00030302430317275669 0 -0.0017161675271231038 8.3900940388815751e-07 0 -0.0022974045930861495 4.307673262712267e-05 0 -0.0022123481080339796 -0.00030302430317275669 0 -0.002645730461998889 -0.00023311417134049217 0 -0.0022123481080339796 -0.00030302430317275669 0 -0.0026458271460622642 -0.00058421395830515158 0 -0.002042205009816494 -9.766874285983479e-05 0 -0.0026169377658414655 -0.00054201231482416937 0 -0.0022388041983656777 -0.00066007187341947772 0 -0.0024743925027184257 -0.00074493313136776934 0 -0.002104682783500211 -0.00054591175108627276 0 -0.0026458271460622642 -0.00058421395830515158 0 -0.0027660838229251407 -0.001126960991621755 0 -0.002104682783500211 -0.00054591175108627276 0 -0.0019955646335182283 -0.00062021048251239316 0 -0.002584921622612456 -0.00078572154136421655 0 -0.001875073502447405 0.00013450990854009331 0 -0.002104682783500211 -0.00054591175108627276 0 -0.0026458271460622642 -0.00058421395830515158 0 -0.001875073502447405 0.00013450990854009331 0 -0.002104682783500211 -0.00054591175108627276 0 -0.0016935057970403388 -0.00018928998301460798 0 -0.002104682783500211 -0.00054591175108627276 0 -0.0016935057970403388 -0.00018928998301460798 0 -0.0019955646335182283 -0.00062021048251239316 0 -0.0014757134599984656 0.00021923989489001583 0 -0.0014365181805089757 6.317522306141857e-05 0 -0.0015840404139005667 8.3386359918167851e-05 0 -0.0014757134599984656 0.00021923989489001583 0 -0.0014365181805089757 6.317522306141857e-05 0 -0.0012679072754668698 6.0875710412741758e-05 0 -0.0014365181805089757 6.317522306141857e-05 0 -0.0012679072754668698 6.0875710412741758e-05 0 -0.0014358091836430764 -0.0001158830195107441 0 -0.0014365181805089757 6.317522306141857e-05 0 -0.0015840404139005667 8.3386359918167851e-05 0 -0.0015360082541719985 -1.7697892381886648e-05 0 -0.0015360082541719985 -1.7697892381886648e-05 0 -0.0016639684492777609 9.3054511501472475e-06 0 -0.0016367620578518955 -6.0241060374782093e-05 0 -0.0015840404139005667 8.3386359918167851e-05 0 -0.0015360082541719985 -1.7697892381886648e-05 0 -0.0016639684492777609 9.3054511501472475e-06 0 -0.0015840404139005667 8.3386359918167851e-05 0 -0.0016639684492777609 9.3054511501472475e-06 0 -0.0018343290447385232 0.00011979954354278993 0 -0.0014757134599984656 0.00021923989489001583 0 -0.0015840404139005667 8.3386359918167851e-05 0 -0.0018343290447385232 0.00011979954354278993 0 -0.0016753975228313487 -0.00013138537912389824 0 -0.0024743925027184257 -0.00074493313136776934 0 -0.00093482375688647937 0.00028287694389029675 0 -0.0011036394289409578 0.00030120178050778678 0 -0.00095535739909478694 0.00019982447120336705 0 -0.00095369093562340155 0.000256750644703967 0 -0.0012633487567575072 6.3807522874980951e-05 0 -0.0016753975228313487 -0.00013138537912389824 0 -0.0012633487567575072 6.3807522874980951e-05 0 -0.0016935057970403388 -0.00018928998301460798 0 -0.0019955646335182283 -0.00062021048251239316 0 -0.001349306757484909 -0.00014365881113185473 0 -0.0011036394289409578 0.00030120178050778678 0 -0.0012679072754668698 6.0875710412741758e-05 0 -0.0011085759611646543 0.00014448437391363316 0 -0.0014757134599984656 0.00021923989489001583 0 -0.0011036394289409578 0.00030120178050778678 0 -0.0012679072754668698 6.0875710412741758e-05 0 -0.0012679072754668698 6.0875710412741758e-05 0 -0.0011085759611646543 0.00014448437391363316 0 -0.0011050689606178674 3.7773802278598896e-06 0 -0.0011036394289409578 0.00030120178050778678 0 -0.0011085759611646543 0.00014448437391363316 0 -0.00095535739909478694 0.00019982447120336705 0 -0.0011085759611646543 0.00014448437391363316 0 -0.0011050689606178674 3.7773802278598896e-06 0 -0.00095535739909478694 0.00019982447120336705 0 -0.0011050689606178674 3.7773802278598896e-06 0 -0.00092604987513580082 1.7399123371780179e-05 0 -0.00095535739909478694 0.00019982447120336705 0 -0.00081180555453506476 0.00016277535066989334 0 -0.00092604987513580082 1.7399123371780179e-05 0 -0.00095535739909478694 0.00019982447120336705 0 -0.0006419397585071861 -0.0001057187124064576 0 -0.00095251637236145323 -0.00063709290026114343 0 -0.0010040251560651911 -0.0006895537919485834 0 -0.0006419397585071861 -0.0001057187124064576 0 -0.00092604987513580082 1.7399123371780179e-05 0 -0.0010381805860223165 -0.00017126915341193262 0 -0.00072595594640283991 -0.00076988377637440136 0 -0.00095251637236145323 -0.00063709290026114343 0 -0.00099427852197720725 -0.0010818814026310676 0 -0.0011050689606178674 3.7773802278598896e-06 0 -0.00092604987513580082 1.7399123371780179e-05 0 -0.0010381805860223165 -0.00017126915341193262 0 -0.00095251637236145323 -0.00063709290026114343 0 -0.0010609256478616603 -0.0006550204774159158 0 -0.00099427852197720725 -0.0010818814026310676 0 -0.0010247077831297385 -0.00065224084833237007 0 -0.0010324818425684246 -0.00065315491089750724 0 -0.0011050689606178674 3.7773802278598896e-06 0 -0.0010381805860223165 -0.00017126915341193262 0 -0.0012879682548893479 -0.00020788707288803832 0 -0.0011322446980275708 -0.0011350531128629432 0 -0.0011371085757525313 -0.001150998717977144 0 -0.0011368738980269157 -0.0011500398682359652 0 -0.0012679072754668698 6.0875710412741758e-05 0 -0.0011050689606178674 3.7773802278598896e-06 0 -0.0012879682548893479 -0.00020788707288803832 0 -0.0010324818425684246 -0.00065315491089750724 0 -0.0012821295521997893 -0.0006497947519948764 0 -0.0010324818425684246 -0.00065315491089750724 0 -0.0015493432967295664 -0.0011143218333365019 0 -0.0018403238233563257 -0.0019128070248169093 0 -0.001183758094673706 -0.0017498257125867626 0 -0.0017701723573408537 -0.00097443135957706766 0 -0.0018403238233563257 -0.0019128070248169093 0 -0.0017701723573408537 -0.00097443135957706766 0 -0.0025445758685684414 -0.0013300507985734877 0 -0.001183758094673706 -0.0017498257125867626 0 -0.0017701723573408537 -0.00097443135957706766 0 -0.00099427852197720725 -0.0010818814026310676 0 -0.0010609256478616603 -0.0006550204774159158 0 -0.0017701723573408537 -0.00097443135957706766 0 -0.00099427852197720725 -0.0010818814026310676 0 -0.001183758094673706 -0.0017498257125867626 0 -0.00077242224507131745 -0.0018295025756801481 0 -0.00099427852197720725 -0.0010818814026310676 0 -0.0004049075719176025 -0.0011894670536216811 0 -0.00077242224507131745 -0.0018295025756801481 0 -0.00099427852197720725 -0.0010818814026310676 0 -0.0004049075719176025 -0.0011894670536216811 0 -0.00072595594640283991 -0.00076988377637440136 0 -0.00099427852197720725 -0.0010818814026310676 0 -0.00094119546133119723 -0.0017850270216670878 0 -0.0014304088070703101 -0.0018633557515053275 0 -0.0012465762852547416 -0.001541484277267149 0 -0.0015588002054404615 -0.0001314056400687715 0 -0.0015521585786728751 -0.00026045933175969463 0 -0.001754411222659289 -0.00010543340202552765 0 -0.00093291546082323871 -0.001453167508751916 0 -0.0015473969752883919 -0.00077383493861594142 0 -0.0016639684492777609 9.3054511501472475e-06 0 -0.0016367620578518955 -6.0241060374782093e-05 0 -0.001754411222659289 -0.00010543340202552765 0 -0.0015588002054404615 -0.0001314056400687715 0 -0.0016367620578518955 -6.0241060374782093e-05 0 -0.001754411222659289 -0.00010543340202552765 0 -0.0015360082541719985 -1.7697892381886648e-05 0 -0.0015588002054404615 -0.0001314056400687715 0 -0.0016367620578518955 -6.0241060374782093e-05 0 -0.0012679072754668698 6.0875710412741758e-05 0 -0.0012879682548893479 -0.00020788707288803832 0 -0.0014358091836430764 -0.0001158830195107441 0 -0.0015360082541719985 -1.7697892381886648e-05 0 -0.0015588002054404615 -0.0001314056400687715 0 -0.0014358091836430764 -0.0001158830195107441 0 -0.0014365181805089757 6.317522306141857e-05 0 -0.0015360082541719985 -1.7697892381886648e-05 0 -0.0014358091836430764 -0.0001158830195107441 0 -0.0012879682548893479 -0.00020788707288803832 0 -0.0014358091836430764 -0.0001158830195107441 0 -0.0015521585786728751 -0.00026045933175969463 0 -0.0015588002054404615 -0.0001314056400687715 0 -0.0014358091836430764 -0.0001158830195107441 0 -0.0015521585786728751 -0.00026045933175969463 0 -0.00094110285659965154 -0.0020312202615435006 0 -0.00093291546082323871 -0.001453167508751916 0 -0.0011371085757525313 -0.001150998717977144 0 -0.0011326209487872282 -0.0011546274526403021 0 -0.0011286987715062448 -0.0011579263520484862 0 -0.0012821295521997893 -0.0006497947519948764 0 -0.00093291546082323871 -0.001453167508751916 0 -0.0011371085757525313 -0.001150998717977144 0 -0.0011368738980269157 -0.0011500398682359652 0 -0.0011326209487872282 -0.0011546274526403021 0 -0.0015493432967295664 -0.0011143218333365019 0 -0.00094110285659965154 -0.0020312202615435006 0 -0.0012609235850986054 -0.0023579992303018223 0 -0.00094110285659965154 -0.0020312202615435006 0 -0.00037244084183399583 -0.0028844498796843864 0 -0.00040603134336855771 -0.0030177761858618708 0 -0.00022826076074790473 -0.0029055705538752166 0 -6.0024176452195716e-05 -0.0025291867346452614 0 -0.0002391953982457522 -0.0026603596072144109 0 -0.00035979334161725821 -0.0025657389489729043 0 -0.00094110285659965154 -0.0020312202615435006 0 -0.00015309793516750776 -0.0027467841558986542 0 -0.00093291546082323871 -0.001453167508751916 0 -0.00082205132213106203 -0.0022759498619467737 0 4.6815485874905913e-05 -0.0026197944670248493 0 -0.00011475221242847843 -0.0027041622156882402 0 -6.0024176452195716e-05 -0.0025291867346452614 0 -0.00011475221242847843 -0.0027041622156882402 0 -6.0024176452195716e-05 -0.0025291867346452614 0 -0.0002391953982457522 -0.0026603596072144109 0 -0.00043515842568424832 -0.0027224479807260375 0 -0.0002391953982457522 -0.0026603596072144109 0 -0.00035979334161725821 -0.0025657389489729043 0 -0.0014304088070703101 -0.0018633557515053275 0 -0.0015438241106885923 -0.0015918376793375997 0 -0.0012465762852547416 -0.001541484277267149 0 -0.0015438241106885923 -0.0015918376793375997 0 -0.0012465762852547416 -0.001541484277267149 0 -0.0015575942540151041 -0.0012886776727420548 0 -0.0014304088070703101 -0.0018633557515053275 0 -0.0015438241106885923 -0.0015918376793375997 0 -0.0017614862324726399 -0.0016762017441499604 0 -0.0015438241106885923 -0.0015918376793375997 0 -0.0017614862324726399 -0.0016762017441499604 0 -0.0017594202450522841 -0.0013912638170369344 0 -0.00043515842568424832 -0.0027224479807260375 0 -0.00035979334161725821 -0.0025657389489729043 0 -0.00072438999901504092 -0.0026013525010576341 0 -0.00060258237880312791 -0.0027862158399308006 0 -0.00043515842568424832 -0.0027224479807260375 0 -0.00072438999901504092 -0.0026013525010576341 0 -0.0014304088070703101 -0.0018633557515053275 0 -0.0017614862324726399 -0.0016762017441499604 0 -0.0019211442827224785 -0.0019422324162411742 0 -0.00082205132213106203 -0.0022759498619467737 0 -0.0013258000748909886 -0.0022460942724688722 0 -0.00083023357160874123 -0.0027877576632807932 0 -0.00072438999901504092 -0.0026013525010576341 0 -0.0011120746061546332 -0.0026515693098766858 0 -0.0013258000748909886 -0.0022460942724688722 0 -0.0018050504567125362 -0.0025620446166668776 0 -0.0019211442827224785 -0.0019422324162411742 0 -0.0022860403172500639 -0.0018081288464892866 0 -0.0021526524370731773 -0.0015918600722846488 0 -0.0019211442827224785 -0.0019422324162411742 0 -0.0024117428607134056 -0.0020208506373815874 0 -0.0022860403172500639 -0.0018081288464892866 0 -0.0023843825722627545 -0.0021876510637698376 0 -0.0022117732885758852 -0.0027181716602482056 0 -0.0020858744525875474 -0.0026994784929710511 0 -0.0019264442818781016 -0.0027336016609570304 0 -0.0018050504567125362 -0.0025620446166668776 0 -0.0025456849586286841 -0.0017921837492816386 0 -0.0024117428607134056 -0.0020208506373815874 0 -0.0022860403172500639 -0.0018081288464892866 0 -0.0027803582135375732 -0.0022801551633218143 0 -0.0019264442818781016 -0.0027336016609570304 0 -0.0027803582135375732 -0.0022801551633218143 0 -0.0018050504567125362 -0.0025620446166668776 0 -0.0027803582135375732 -0.0022801551633218143 0 -0.0027187770842023898 -0.0013926887542853495 0 -0.0025456849586286841 -0.0017921837492816386 0 -0.0022860403172500639 -0.0018081288464892866 0 -0.0021526524370731773 -0.0015918600722846488 0 -0.0034966355723046053 -0.0013305217148471195 0 -0.0034883886629243949 -0.0012592735659012417 0 -0.0032988567192861733 -0.0012992518437534258 0 -0.0027187770842023898 -0.0013926887542853495 0 -0.0024328131982106747 -0.0012460631678677953 0 -0.0034883886629243949 -0.0012592735659012417 0 -0.0032988567192861733 -0.0012992518437534258 0 -0.0031539941730485085 -0.0011397081113121788 0 -0.0017614862324726399 -0.0016762017441499604 0 -0.0019211442827224785 -0.0019422324162411742 0 -0.0021526524370731773 -0.0015918600722846488 0 -0.0032988567192861733 -0.0012992518437534258 0 -0.0031539941730485085 -0.0011397081113121788 0 -0.0030169767700386181 -0.0011771787241028797 0 -0.0017614862324726399 -0.0016762017441499604 0 -0.0021526524370731773 -0.0015918600722846488 0 -0.0017594202450522841 -0.0013912638170369344 0 -0.0035080301847656846 -0.0013658791335096523 0 -0.0035288869347651739 -0.0012808392191021678 0 -0.0035218325833833498 -0.0012852830001979074 0 -0.0035288869347651739 -0.0012808392191021678 0 -0.0035007234956461863 -0.0012640271090878286 0 -0.0035072600519277046 -0.0012375602579372078 0 -0.0035007234956461863 -0.0012640271090878286 0 -0.0035072600519277046 -0.0012375602579372078 0 -0.0034406758960446111 -0.0012016485057528223 0 -0.0035080301847656846 -0.0013658791335096523 0 -0.0035007234956461863 -0.0012640271090878286 0 -0.0034406758960446111 -0.0012016485057528223 0 -0.0035080301847656846 -0.0013658791335096523 0 -0.0035288869347651739 -0.0012808392191021678 0 -0.0035007234956461863 -0.0012640271090878286 0 -0.0034462522551433243 -0.0012464918500847842 0 -0.0033881938991217118 -0.0012960362086089686 0 -0.0034883886629243949 -0.0012592735659012417 0 -0.0035080301847656846 -0.0013658791335096523 0 -0.0035218325833833498 -0.0012852830001979074 0 -0.0034761465171876931 -0.0012754540440381406 0 -0.0034883886629243949 -0.0012592735659012417 0 -0.0035218325833833498 -0.0012852830001979074 0 -0.0035288869347651739 -0.0012808392191021678 0 -0.0035218325833833498 -0.0012852830001979074 0 -0.0035452008948017085 -0.0012996563920562292 0 -0.0034761465171876931 -0.0012754540440381406 0 -0.0035218325833833498 -0.0012852830001979074 0 -0.0035092601741022796 -0.0013105002180871274 0 -0.0035218325833833498 -0.0012852830001979074 0 -0.0035092601741022796 -0.0013105002180871274 0 -0.0035452008948017085 -0.0012996563920562292 0 -0.0034715344473501449 -0.0013422675879508474 0 -0.0035092601741022796 -0.0013105002180871274 0 -0.0035487451434274872 -0.0014119887016397622 0 -0.0035092601741022796 -0.0013105002180871274 0 -0.0035452008948017085 -0.0012996563920562292 0 -0.0035487451434274872 -0.0014119887016397622 0 -0.0035288869347651739 -0.0012808392191021678 0 -0.0035452008948017085 -0.0012996563920562292 0 -0.0035729823829862262 -0.0012940071411834549 0 -0.0035452008948017085 -0.0012996563920562292 0 -0.0035729823829862262 -0.0012940071411834549 0 -0.0035487451434274872 -0.0014119887016397622 0 -0.0035072600519277046 -0.0012375602579372078 0 -0.0034634937976639581 -0.0011401237424552397 0 -0.0034406758960446111 -0.0012016485057528223 0 -0.0035288869347651739 -0.0012808392191021678 0 -0.0035729823829862262 -0.0012940071411834549 0 -0.0035072600519277046 -0.0012375602579372078 0 -0.0035729823829862262 -0.0012940071411834549 0 -0.0035072600519277046 -0.0012375602579372078 0 -0.0034634937976639581 -0.0011401237424552397 0 -0.0031246498503688068 -0.00090745226431508176 0 -0.0034634937976639581 -0.0011401237424552397 0 -0.0034406758960446111 -0.0012016485057528223 0 -0.003085296334469338 -0.00026899246245810264 0 -0.0030277067762985695 -0.00081546777999319856 0 -0.0034406758960446111 -0.0012016485057528223 0 -0.0030277067762985695 -0.00081546777999319856 0 -0.0027660838229251407 -0.001126960991621755 0 -0.0034406758960446111 -0.0012016485057528223 0 -0.0031101916739230927 -0.0005937108725862332 0 -0.0034101360576190582 -0.0011675765330573327 0 -0.0028567035433409377 -0.00047230994979145557 0 -0.0030277067762985695 -0.00081546777999319856 0 -0.0026458271460622642 -0.00058421395830515158 0 -0.0030277067762985695 -0.00081546777999319856 0 -0.0026458271460622642 -0.00058421395830515158 0 -0.0027660838229251407 -0.001126960991621755 0 -0.0016639684492777609 9.3054511501472475e-06 0 -0.001754411222659289 -0.00010543340202552765 0 -0.0018343290447385232 0.00011979954354278993 0 -0.001754411222659289 -0.00010543340202552765 0 -0.0018343290447385232 0.00011979954354278993 0 -0.0019609157819232867 5.4464776396920135e-05 0 -0.0024743925027184257 -0.00074493313136776934 0 -0.0020161532156283478 -0.0007195492025159659 0 -0.0015473969752883919 -0.00077383493861594142 0 -0.0020161532156283478 -0.0007195492025159659 0 -0.0033881938991217118 -0.0012960362086089686 0 -0.0024743925027184257 -0.00074493313136776934 0 -0.0035080301847656846 -0.0013658791335096523 0 -0.0027660838229251407 -0.001126960991621755 0 -0.0034406758960446111 -0.0012016485057528223 0 -0.0031539941730485085 -0.0011397081113121788 0 -0.0028487011335178911 -0.0010922707553554878 0 -0.0030169767700386181 -0.0011771787241028797 0 -0.0031539941730485085 -0.0011397081113121788 0 -0.0026913920614581072 -0.0010109180053963864 0 -0.0028487011335178911 -0.0010922707553554878 0 -0.0015438241106885923 -0.0015918376793375997 0 -0.0015575942540151041 -0.0012886776727420548 0 -0.0017594202450522841 -0.0013912638170369344 0 -0.0020161532156283478 -0.0007195492025159659 0 -0.0024328131982106747 -0.0012460631678677953 0 -4.396471693119593e-05 -0.014816801537134008 0 -5.5301461243923804e-05 -0.014762302983231095 0 -0.00010458380824363086 -0.01475705423105861 0 -4.396471693119593e-05 -0.014816801537134008 0 -7.4999440203091408e-06 -0.014879966138088225 0 -2.8813952936391018e-05 -0.014812816136210459 0 -4.396471693119593e-05 -0.014816801537134008 0 -2.8813952936391018e-05 -0.014812816136210459 0 -5.5301461243923804e-05 -0.014762302983231095 0 -4.396471693119593e-05 -0.014816801537134008 0 -7.4999440203091408e-06 -0.014879966138088225 0 -3.2676354495761044e-05 -0.014864481416849835 0 -9.4149706004607321e-09 -0.015000047167354796 0 1.7350750965428122e-06 -0.015000993073907927 0 5.434073491260163e-09 -0.01499997818126469 0 -7.4999440203091408e-06 -0.014879966138088225 0 -2.6048207478374076e-05 -0.014801269338114631 0 -6.3263213668796597e-07 -0.015000127545946144 0 -8.242994122210753e-06 -0.014906481626627222 0 -7.2634862845381412e-09 -0.014999960450218805 0 -7.4999440203091408e-06 -0.014879966138088225 0 -1.9234984506610563e-05 -0.014826975595568384 0 -2.6048207478374076e-05 -0.014801269338114631 0 -7.4999440203091408e-06 -0.014879966138088225 0 -1.9234984506610563e-05 -0.014826975595568384 0 -2.8813952936391018e-05 -0.014812816136210459 0 -2.5921220749614688e-05 -0.014820573579330785 0 -1.9234984506610563e-05 -0.014826975595568384 0 -2.6048207478374076e-05 -0.014801269338114631 0 -9.4149706004607321e-09 -0.015000047167354796 0 1.7350750965428122e-06 -0.015000993073907927 0 4.8968300476728249e-07 -0.014965620141651733 0 -2.5921220749614688e-05 -0.014820573579330785 0 -1.9234984506610563e-05 -0.014826975595568384 0 -2.8813952936391018e-05 -0.014812816136210459 0 -2.6048207478374076e-05 -0.014801269338114631 0 -2.8544991250559702e-05 -0.014849080032981014 0 -2.1937559215822544e-05 -0.014893948060969883 0 -2.5921220749614688e-05 -0.014820573579330785 0 -2.8544991250559702e-05 -0.014849080032981014 0 -3.2862736779685708e-05 -0.014824426514843931 0 -2.5921220749614688e-05 -0.014820573579330785 0 -2.6048207478374076e-05 -0.014801269338114631 0 -2.8544991250559702e-05 -0.014849080032981014 0 -3.2862736779685708e-05 -0.014824426514843931 0 -2.8813952936391018e-05 -0.014812816136210459 0 -4.0249260058038465e-05 -0.014799354526499022 0 -2.8544991250559702e-05 -0.014849080032981014 0 -3.2862736779685708e-05 -0.014824426514843931 0 -3.477153483741765e-05 -0.014844385463809236 0 -3.2862736779685708e-05 -0.014824426514843931 0 -4.0249260058038465e-05 -0.014799354526499022 0 -3.477153483741765e-05 -0.014844385463809236 0 -2.5921220749614688e-05 -0.014820573579330785 0 -3.2862736779685708e-05 -0.014824426514843931 0 -2.8813952936391018e-05 -0.014812816136210459 0 -2.8813952936391018e-05 -0.014812816136210459 0 -4.0249260058038465e-05 -0.014799354526499022 0 -5.5301461243923804e-05 -0.014762302983231095 0 -4.0249260058038465e-05 -0.014799354526499022 0 -4.725568087266035e-05 -0.014753922455760387 0 -4.0039158268779654e-05 -0.014758054133977743 0 -4.725568087266035e-05 -0.014753922455760387 0 -5.7530316307244557e-05 -0.014698524248253752 0 -4.0039158268779654e-05 -0.014758054133977743 0 -4.725568087266035e-05 -0.014753922455760387 0 -5.7530316307244557e-05 -0.014698524248253752 0 -5.5301461243923804e-05 -0.014762302983231095 0 -4.0249260058038465e-05 -0.014799354526499022 0 -4.725568087266035e-05 -0.014753922455760387 0 -5.5301461243923804e-05 -0.014762302983231095 0 -5.7530316307244557e-05 -0.014698524248253752 0 -6.9168374288788696e-05 -0.01461785368264479 0 -4.607070802190016e-05 -0.014611046383395544 0 -5.7530316307244557e-05 -0.014698524248253752 0 -4.607070802190016e-05 -0.014611046383395544 0 -3.7536694525682687e-05 -0.014698088013726606 0 -5.7530316307244557e-05 -0.014698524248253752 0 -3.7536694525682687e-05 -0.014698088013726606 0 -4.0039158268779654e-05 -0.014758054133977743 0 -9.0334472788930232e-05 -0.01467678300535652 0 -0.00013834257663295971 -0.014652311917838797 0 -8.9760271233206598e-05 -0.014582103819828069 0 -5.7530316307244557e-05 -0.014698524248253752 0 -9.0334472788930232e-05 -0.01467678300535652 0 -6.9168374288788696e-05 -0.01461785368264479 0 -9.0334472788930232e-05 -0.01467678300535652 0 -6.9168374288788696e-05 -0.01461785368264479 0 -8.9760271233206598e-05 -0.014582103819828069 0 -9.0334472788930232e-05 -0.01467678300535652 0 -5.5301461243923804e-05 -0.014762302983231095 0 -0.00010458380824363086 -0.01475705423105861 0 -5.7530316307244557e-05 -0.014698524248253752 0 -9.0334472788930232e-05 -0.01467678300535652 0 -5.5301461243923804e-05 -0.014762302983231095 0 -0.00010458380824363086 -0.01475705423105861 0 -0.00013834257663295971 -0.014652311917838797 0 -0.00018282436041472885 -0.014677156074410079 0 -9.0334472788930232e-05 -0.01467678300535652 0 -0.00010458380824363086 -0.01475705423105861 0 -0.00013834257663295971 -0.014652311917838797 0 -0.00013834257663295971 -0.014652311917838797 0 -0.00010824499718703756 -0.014602492848599758 0 -8.9760271233206598e-05 -0.014582103819828069 0 -0.00013834257663295971 -0.014652311917838797 0 -0.00018282436041472885 -0.014677156074410079 0 -0.00012264824525538487 -0.014650908223386855 0 -9.0278217974333955e-05 -0.014060568616283659 0 7.3119876226739592e-05 -0.014052558912084259 0 -0.00018282436041472885 -0.014677156074410079 0 -0.0002637972630191494 -0.014602016122312681 0 -0.00012264824525538487 -0.014650908223386855 0 -0.00010458380824363086 -0.01475705423105861 0 -0.00018282436041472885 -0.014677156074410079 0 -0.00011032190531826038 -0.014732137084666594 0 -0.00018282436041472885 -0.014677156074410079 0 -0.00011032190531826038 -0.014732137084666594 0 -0.0002637972630191494 -0.014602016122312681 0 -0.00011032190531826038 -0.014732137084666594 0 -3.2676354495761044e-05 -0.014864481416849835 0 -1.0639565563985829e-05 -0.014870843140788004 0 -0.00011032190531826038 -0.014732137084666594 0 -1.0639565563985829e-05 -0.014870843140788004 0 -2.5682404361997827e-05 -0.014617025040909441 0 -4.396471693119593e-05 -0.014816801537134008 0 -0.00010458380824363086 -0.01475705423105861 0 -3.2676354495761044e-05 -0.014864481416849835 0 -0.00010458380824363086 -0.01475705423105861 0 -0.00011032190531826038 -0.014732137084666594 0 -3.2676354495761044e-05 -0.014864481416849835 0 -3.2676354495761044e-05 -0.014864481416849835 0 -6.3263213668796597e-07 -0.015000127545946144 0 -1.0639565563985829e-05 -0.014870843140788004 0 -7.4999440203091408e-06 -0.014879966138088225 0 -3.2676354495761044e-05 -0.014864481416849835 0 -6.3263213668796597e-07 -0.015000127545946144 0 -6.3263213668796597e-07 -0.015000127545946144 0 -1.0639565563985829e-05 -0.014870843140788004 0 1.0106670026729415e-06 -0.014998388917944402 0 1.0106670026729415e-06 -0.014998388917944402 0 -2.5682404361997827e-05 -0.014617025040909441 0 0.00013983572743891674 -0.014096443246691662 0 -1.0916149834255769e-07 -0.015000400135558074 0 -1.2273686790900282e-07 -0.014993620834513869 0 2.1932264914170404e-07 -0.014999056878790685 0 4.4724880417649963e-08 -0.014999787305363225 0 3.4552328251003253e-05 -0.01455133747807723 0 -1.0639565563985829e-05 -0.014870843140788004 0 1.0106670026729415e-06 -0.014998388917944402 0 -2.5682404361997827e-05 -0.014617025040909441 0 -0.00011032190531826038 -0.014732137084666594 0 -2.5682404361997827e-05 -0.014617025040909441 0 -0.00011984577294564342 -0.014084886054421845 0 -0.00011984577294564342 -0.014084886054421845 0 -3.8806770488963274e-05 -0.01377790852343946 0 -3.5675489287634077e-05 -0.013652219503927469 0 -0.00011984577294564342 -0.014084886054421845 0 -2.8890559519455845e-05 -0.013924916479667674 0 -3.8806770488963274e-05 -0.01377790852343946 0 -2.5682404361997827e-05 -0.014617025040909441 0 -0.00011984577294564342 -0.014084886054421845 0 0.00013983572743891674 -0.014096443246691662 0 -0.00011984577294564342 -0.014084886054421845 0 -2.8890559519455845e-05 -0.013924916479667674 0 0.00013983572743891674 -0.014096443246691662 0 3.4552328251003253e-05 -0.01455133747807723 0 -2.6281415806806207e-05 -0.014433093357537697 0 -2.8890559519455845e-05 -0.013924916479667674 0 0.00013983572743891674 -0.014096443246691662 0 -9.2859818549788606e-05 -0.01385009116172369 0 -1.2273686790900282e-07 -0.014993620834513869 0 -2.0587946818981782e-06 -0.014970459254219484 0 2.1932264914170404e-07 -0.014999056878790685 0 -2.8890559519455845e-05 -0.013924916479667674 0 -9.2859818549788606e-05 -0.01385009116172369 0 -3.8806770488963274e-05 -0.01377790852343946 0 -9.2859818549788606e-05 -0.01385009116172369 0 -3.8806770488963274e-05 -0.01377790852343946 0 3.2152421394527094e-05 -0.013880555760486782 0 -5.0559488481961359e-07 -0.014514574898607127 0 3.2152421394527094e-05 -0.013880555760486782 0 2.8955648881435127e-07 -0.013684388238735841 0 -9.2859818549788606e-05 -0.01385009116172369 0 -5.0559488481961359e-07 -0.014514574898607127 0 3.2152421394527094e-05 -0.013880555760486782 0 -2.6281415806806207e-05 -0.014433093357537697 0 -1.3472520421625911e-08 -0.014516000907387741 0 -2.0587946818981782e-06 -0.014970459254219484 0 -3.305250832997056e-07 -0.014517474904717472 0 2.1932264914170404e-07 -0.014999056878790685 0 6.9266235254835493e-05 -0.013208465546678918 0 2.8955648881435127e-07 -0.013684388238735841 0 1.6688450356761713e-07 -0.012852393460372468 0 6.9266235254835493e-05 -0.013208465546678918 0 2.8955648881435127e-07 -0.013684388238735841 0 1.9932328093339252e-05 -0.013566679683923671 0 3.2152421394527094e-05 -0.013880555760486782 0 2.8955648881435127e-07 -0.013684388238735841 0 1.9932328093339252e-05 -0.013566679683923671 0 -3.8806770488963274e-05 -0.01377790852343946 0 1.9932328093339252e-05 -0.013566679683923671 0 -3.5675489287634077e-05 -0.013652219503927469 0 -3.8806770488963274e-05 -0.01377790852343946 0 3.2152421394527094e-05 -0.013880555760486782 0 1.9932328093339252e-05 -0.013566679683923671 0 6.9266235254835493e-05 -0.013208465546678918 0 1.9932328093339252e-05 -0.013566679683923671 0 0.00010424762646915163 -0.013208851174537161 0 1.9932328093339252e-05 -0.013566679683923671 0 0.00010424762646915163 -0.013208851174537161 0 -3.5675489287634077e-05 -0.013652219503927469 0 0.00010424762646915163 -0.013208851174537161 0 -3.5675489287634077e-05 -0.013652219503927469 0 0.00018409825549282831 -0.012918514792950425 0 -0.00011984577294564342 -0.014084886054421845 0 -3.5675489287634077e-05 -0.013652219503927469 0 2.9449343200739531e-05 -0.013524683481878057 0 -8.633772120491466e-05 -0.014057958027065208 0 -9.0278217974333955e-05 -0.014060568616283659 0 -0.00011032190531826038 -0.014732137084666594 0 -0.00011984577294564342 -0.014084886054421845 0 -0.0002637972630191494 -0.014602016122312681 0 2.9449343200739531e-05 -0.013524683481878057 0 0.00025647680196106971 -0.013559819489910026 0 0.00029040390772357188 -0.013456636138886254 0 -3.5675489287634077e-05 -0.013652219503927469 0 2.9449343200739531e-05 -0.013524683481878057 0 0.00025647680196106971 -0.013559819489910026 0 -7.9737104682834543e-06 -0.013587675328096618 0 0.00023542406588134053 -0.013259492530329306 0 0.00018409825549282831 -0.012918514792950425 0 0.00025900159477151418 -0.012816041093053909 0 0.00020223102203630484 -0.012957210717112653 0 0.00023542406588134053 -0.013259492530329306 0 0.00030880794898319164 -0.013188525402451783 0 0.00018409825549282831 -0.012918514792950425 0 0.00025900159477151418 -0.012816041093053909 0 0.00033342663281280075 -0.012905211017745066 0 0.00025900159477151418 -0.012816041093053909 0 0.00020223102203630484 -0.012957210717112653 0 0.00017165591068722558 -0.012727003006180069 0 0.00025900159477151418 -0.012816041093053909 0 0.00017165591068722558 -0.012727003006180069 0 0.00020148590619636618 -0.012554578555171919 0 0.00010424762646915163 -0.013208851174537161 0 0.00020223102203630484 -0.012957210717112653 0 0.00017165591068722558 -0.012727003006180069 0 0.00010424762646915163 -0.013208851174537161 0 0.00018409825549282831 -0.012918514792950425 0 0.00020223102203630484 -0.012957210717112653 0 6.9266235254835493e-05 -0.013208465546678918 0 0.00010424762646915163 -0.013208851174537161 0 0.00017165591068722558 -0.012727003006180069 0 0.00017165591068722558 -0.012727003006180069 0 1.6688450356761713e-07 -0.012852393460372468 0 2.0405842637207791e-07 -0.012020839633514612 0 6.9266235254835493e-05 -0.013208465546678918 0 0.00017165591068722558 -0.012727003006180069 0 1.6688450356761713e-07 -0.012852393460372468 0 2.0405842637207791e-07 -0.012020839633514612 0 0.00010204724340967388 -0.012065229674974563 0 3.1217803589921483e-07 -0.011189202075665185 0 0.00010204724340967388 -0.012065229674974563 0 -4.6784177202454721e-05 -0.011510818472887135 0 3.1217803589921483e-07 -0.011189202075665185 0 0.00017165591068722558 -0.012727003006180069 0 2.0405842637207791e-07 -0.012020839633514612 0 0.00010204724340967388 -0.012065229674974563 0 0.00017165591068722558 -0.012727003006180069 0 0.00010204724340967388 -0.012065229674974563 0 0.00020148590619636618 -0.012554578555171919 0 0.00010204724340967388 -0.012065229674974563 0 7.3681741842364259e-05 -0.012330545327554777 0 0.00020148590619636618 -0.012554578555171919 0 0.00010204724340967388 -0.012065229674974563 0 7.3681741842364259e-05 -0.012330545327554777 0 -4.6784177202454721e-05 -0.011510818472887135 0 0.00025900159477151418 -0.012816041093053909 0 0.00020148590619636618 -0.012554578555171919 0 0.00022180403278337812 -0.012735784102160851 0 7.3681741842364259e-05 -0.012330545327554777 0 0.00020148590619636618 -0.012554578555171919 0 0.00022180403278337812 -0.012735784102160851 0 0.00025900159477151418 -0.012816041093053909 0 0.00022180403278337812 -0.012735784102160851 0 0.00033342663281280075 -0.012905211017745066 0 0.00022180403278337812 -0.012735784102160851 0 3.5481694873369817e-05 -0.012828548091557049 0 0.00033342663281280075 -0.012905211017745066 0 7.3681741842364259e-05 -0.012330545327554777 0 0.00022180403278337812 -0.012735784102160851 0 3.5481694873369817e-05 -0.012828548091557049 0 7.3681741842364259e-05 -0.012330545327554777 0 3.5481694873369817e-05 -0.012828548091557049 0 -0.00021023042467553741 -0.012578330390746451 0 3.5481694873369817e-05 -0.012828548091557049 0 -5.2857843947103939e-05 -0.01342203237211567 0 0.00033342663281280075 -0.012905211017745066 0 -5.2857843947103939e-05 -0.01342203237211567 0 -2.1618527786452243e-05 -0.014063015845167811 0 -0.00028912917043205096 -0.013891229745676173 0 -5.2857843947103939e-05 -0.01342203237211567 0 0.00038171577489937982 -0.013583403646755251 0 -2.1618527786452243e-05 -0.014063015845167811 0 0.00014721197580932981 -0.014033090726057249 0 -2.6381368596302447e-05 -0.01408338013062594 0 -5.3110205138406897e-05 -0.01341162883773517 0 0.00030880794898319164 -0.013188525402451783 0 -5.2857843947103939e-05 -0.01342203237211567 0 0.00034191175709041339 -0.013437542854745308 0 0.00038171577489937982 -0.013583403646755251 0 0.00034191175709041339 -0.013437542854745308 0 0.00029040390772357188 -0.013456636138886254 0 0.00038171577489937982 -0.013583403646755251 0 0.00025647680196106971 -0.013559819489910026 0 0.00034191175709041339 -0.013437542854745308 0 0.00029040390772357188 -0.013456636138886254 0 -0.00012264824525538487 -0.014650908223386855 0 -0.00010824499718703756 -0.014602492848599758 0 -7.8813813507784227e-05 -0.014542779796291705 0 -0.00013834257663295971 -0.014652311917838797 0 -0.00012264824525538487 -0.014650908223386855 0 -0.00010824499718703756 -0.014602492848599758 0 -0.00010824499718703756 -0.014602492848599758 0 -7.8813813507784227e-05 -0.014542779796291705 0 -8.9760271233206598e-05 -0.014582103819828069 0 7.3119876226739592e-05 -0.014052558912084259 0 0.00014721197580932981 -0.014033090726057249 0 -7.8813813507784227e-05 -0.014542779796291705 0 -2.6271038494806206e-05 -0.014468225153732726 0 -5.7470689883662062e-05 -0.014474926272603768 0 -0.00012264824525538487 -0.014650908223386855 0 -7.8813813507784227e-05 -0.014542779796291705 0 -2.6271038494806206e-05 -0.014468225153732726 0 -5.7470689883662062e-05 -0.014474926272603768 0 -6.1360875121282835e-05 -0.014544403976865359 0 -4.7226030644997382e-05 -0.014500375785413112 0 -2.6271038494806206e-05 -0.014468225153732726 0 -5.7470689883662062e-05 -0.014474926272603768 0 -3.0621879050966496e-05 -0.014323964333352285 0 -5.7470689883662062e-05 -0.014474926272603768 0 -8.9760271233206598e-05 -0.014582103819828069 0 -6.1360875121282835e-05 -0.014544403976865359 0 -7.8813813507784227e-05 -0.014542779796291705 0 -5.7470689883662062e-05 -0.014474926272603768 0 -8.9760271233206598e-05 -0.014582103819828069 0 -6.9168374288788696e-05 -0.01461785368264479 0 -8.9760271233206598e-05 -0.014582103819828069 0 -6.1360875121282835e-05 -0.014544403976865359 0 -6.1360875121282835e-05 -0.014544403976865359 0 -4.607070802190016e-05 -0.014611046383395544 0 -4.7226030644997382e-05 -0.014500375785413112 0 -6.9168374288788696e-05 -0.01461785368264479 0 -6.1360875121282835e-05 -0.014544403976865359 0 -4.607070802190016e-05 -0.014611046383395544 0 -5.7470689883662062e-05 -0.014474926272603768 0 -4.7226030644997382e-05 -0.014500375785413112 0 -3.0621879050966496e-05 -0.014323964333352285 0 -4.7226030644997382e-05 -0.014500375785413112 0 -3.0621879050966496e-05 -0.014323964333352285 0 -5.4777117240034156e-05 -0.014508773997911395 0 -3.0621879050966496e-05 -0.014323964333352285 0 -0.00013188969870016302 -0.014357661027186146 0 -9.5452341178002835e-05 -0.014472662167749154 0 -3.0621879050966496e-05 -0.014323964333352285 0 -9.5452341178002835e-05 -0.014472662167749154 0 -5.4777117240034156e-05 -0.014508773997911395 0 -3.0621879050966496e-05 -0.014323964333352285 0 -0.00013188969870016302 -0.014357661027186146 0 -2.1618527786452243e-05 -0.014063015845167811 0 -0.00013188969870016302 -0.014357661027186146 0 -2.1618527786452243e-05 -0.014063015845167811 0 -0.00027633645090543633 -0.0142403219154928 0 -0.00013188969870016302 -0.014357661027186146 0 -0.00027633645090543633 -0.0142403219154928 0 -0.0002510006999266399 -0.014435434005050041 0 -2.1618527786452243e-05 -0.014063015845167811 0 -0.00028912917043205096 -0.013891229745676173 0 -0.00027633645090543633 -0.0142403219154928 0 -2.6271038494806206e-05 -0.014468225153732726 0 -3.0621879050966496e-05 -0.014323964333352285 0 -2.1618527786452243e-05 -0.014063015845167811 0 -0.00053856564997325259 -0.013800851477273352 0 -0.00043208115215751414 -0.014060926059606947 0 -0.00062638598930233496 -0.01406807850276078 0 -0.00074704952458272997 -0.013790950479087297 0 -0.00062638598930233496 -0.01406807850276078 0 -0.00089965843618623937 -0.01411340684057673 0 -0.00074704952458272997 -0.013790950479087297 0 -0.00053856564997325259 -0.013800851477273352 0 -0.00062638598930233496 -0.01406807850276078 0 -0.00074704952458272997 -0.013790950479087297 0 -0.00053856564997325259 -0.013800851477273352 0 -0.00070480596315652293 -0.013529576220765071 0 -0.00028912917043205096 -0.013891229745676173 0 -0.00043208115215751414 -0.014060926059606947 0 -0.00027633645090543633 -0.0142403219154928 0 -0.00053856564997325259 -0.013800851477273352 0 -0.00028912917043205096 -0.013891229745676173 0 -0.00043208115215751414 -0.014060926059606947 0 -0.00043208115215751414 -0.014060926059606947 0 -0.00027633645090543633 -0.0142403219154928 0 -0.00048377723669770919 -0.014253905916975642 0 -0.00027633645090543633 -0.0142403219154928 0 -0.00048377723669770919 -0.014253905916975642 0 -0.00039388932206906626 -0.014418944520791094 0 -0.00048377723669770919 -0.014253905916975642 0 -0.00065612999343022413 -0.014275038917833396 0 -0.00056358518837051755 -0.014416325663913021 0 -0.00048377723669770919 -0.014253905916975642 0 -0.00062638598930233496 -0.01406807850276078 0 -0.00065612999343022413 -0.014275038917833396 0 -0.00043208115215751414 -0.014060926059606947 0 -0.00048377723669770919 -0.014253905916975642 0 -0.00062638598930233496 -0.01406807850276078 0 -0.00062638598930233496 -0.01406807850276078 0 -0.00065612999343022413 -0.014275038917833396 0 -0.00089965843618623937 -0.01411340684057673 0 -0.00099831257146395808 -0.012939170053611351 0 -0.0011414318270318775 -0.013146694051325562 0 -0.0012173741109341102 -0.012628857889446333 0 -0.00065612999343022413 -0.014275038917833396 0 -0.00089965843618623937 -0.01411340684057673 0 -0.00070497601783649558 -0.014471626735751881 0 -0.00099831257146395808 -0.012939170053611351 0 -0.0011414318270318775 -0.013146694051325562 0 -0.00092701548109355356 -0.01335992864960482 0 -0.0010122575812821044 -0.013566365083994237 0 -0.00099835353440569266 -0.013753697038395194 0 -0.00050170876650517966 -0.0067142378190365535 0 -0.00019392624417796783 -0.006430162360431515 0 -0.00037020478220968798 -0.0062281371356090734 0 -0.00099831257146395808 -0.012939170053611351 0 -0.00092701548109355356 -0.01335992864960482 0 -0.00075842324504781617 -0.012800339552098902 0 -0.00084353124436210641 -0.010162846728533259 0 0.00037512361706866439 -0.0089819838591690127 0 -0.00011148636445500274 -0.0065006216930778788 0 0.00037512361706866439 -0.0089819838591690127 0 -0.00050170876650517966 -0.0067142378190365535 0 -0.00019402505163184831 -0.0066824208061768862 0 -0.00019392624417796783 -0.006430162360431515 0 -0.00050170876650517966 -0.0067142378190365535 0 -0.00022305299972596128 -0.0068783840574524416 0 -0.00019402505163184831 -0.0066824208061768862 0 -0.0010122575812821044 -0.013566365083994237 0 -0.00102215288648787 -0.013478528367710945 0 -0.00074704952458272997 -0.013790950479087297 0 -0.00089965843618623937 -0.01411340684057673 0 -0.0010168228419949489 -0.013447672593731093 0 -0.0011414318270318775 -0.013146694051325562 0 -0.00092701548109355356 -0.01335992864960482 0 -0.0010168228419949489 -0.013447672593731093 0 -0.0010168228419949489 -0.013447672593731093 0 -0.0011076608122381085 -0.013291300143127762 0 -0.00077741805246838423 -0.013260735103513374 0 -0.00074704952458272997 -0.013790950479087297 0 -0.0010168228419949489 -0.013447672593731093 0 -0.00070480596315652293 -0.013529576220765071 0 -0.00092701548109355356 -0.01335992864960482 0 -0.0010168228419949489 -0.013447672593731093 0 -0.0011076608122381085 -0.013291300143127762 0 -0.0010168228419949489 -0.013447672593731093 0 -0.00077741805246838423 -0.013260735103513374 0 -0.00070480596315652293 -0.013529576220765071 0 -0.00050170876650517966 -0.0067142378190365535 0 -0.00068652164924890089 -0.0073579201926231626 0 -0.00022305299972596128 -0.0068783840574524416 0 -0.00068652164924890089 -0.0073579201926231626 0 -0.00030226482240943087 -0.0072679577581901749 0 -0.00022305299972596128 -0.0068783840574524416 0 -0.00084353124436210641 -0.010162846728533259 0 -0.00089148808144205694 -0.010272958040210502 0 -0.00068652164924890089 -0.0073579201926231626 0 -0.00030226482240943087 -0.0072679577581901749 0 -0.00050599750770621084 -0.0077774927934036904 0 -0.00030226482240943087 -0.0072679577581901749 0 -0.00050599750770621084 -0.0077774927934036904 0 -8.2919575729034051e-05 -0.0076376633628079402 0 -0.0011076608122381085 -0.013291300143127762 0 -0.00091311777538144651 -0.013015524594757515 0 -0.00077741805246838423 -0.013260735103513374 0 -0.00091311777538144651 -0.013015524594757515 0 -0.00077741805246838423 -0.013260735103513374 0 -0.00072118140491362899 -0.012856128401240827 0 -0.00077741805246838423 -0.013260735103513374 0 -0.00045700662747192179 -0.013490849830914881 0 -0.00039619560119963783 -0.013025284775711167 0 -0.00077741805246838423 -0.013260735103513374 0 -0.00039619560119963783 -0.013025284775711167 0 -0.00072118140491362899 -0.012856128401240827 0 -0.00077741805246838423 -0.013260735103513374 0 -0.00070480596315652293 -0.013529576220765071 0 -0.00045700662747192179 -0.013490849830914881 0 -0.00053856564997325259 -0.013800851477273352 0 -0.00070480596315652293 -0.013529576220765071 0 -0.00045700662747192179 -0.013490849830914881 0 -5.2857843947103939e-05 -0.01342203237211567 0 -0.00028912917043205096 -0.013891229745676173 0 -0.00045700662747192179 -0.013490849830914881 0 -0.00053856564997325259 -0.013800851477273352 0 -0.00028912917043205096 -0.013891229745676173 0 -0.00045700662747192179 -0.013490849830914881 0 -5.2857843947103939e-05 -0.01342203237211567 0 -0.00045700662747192179 -0.013490849830914881 0 -0.00039619560119963783 -0.013025284775711167 0 3.5481694873369817e-05 -0.012828548091557049 0 -5.2857843947103939e-05 -0.01342203237211567 0 -0.00039619560119963783 -0.013025284775711167 0 3.5481694873369817e-05 -0.012828548091557049 0 -0.00039619560119963783 -0.013025284775711167 0 -0.00021023042467553741 -0.012578330390746451 0 -0.00039619560119963783 -0.013025284775711167 0 -0.00021023042467553741 -0.012578330390746451 0 -0.00066417379210823447 -0.012720655210738903 0 -0.00021023042467553741 -0.012578330390746451 0 -0.00066417379210823447 -0.012720655210738903 0 -0.00025686698685529655 -0.012079699646943663 0 -0.00045642061658889352 -0.012970804629330921 0 -0.0005654913164200682 -0.012880287422352319 0 -0.00066417379210823447 -0.012720655210738903 0 -0.00066281691710922005 -0.012113921580348606 0 -0.00025686698685529655 -0.012079699646943663 0 7.3681741842364259e-05 -0.012330545327554777 0 -0.00021023042467553741 -0.012578330390746451 0 -0.00025686698685529655 -0.012079699646943663 0 7.3681741842364259e-05 -0.012330545327554777 0 -0.00025686698685529655 -0.012079699646943663 0 -4.6784177202454721e-05 -0.011510818472887135 0 -0.00066281691710922005 -0.012113921580348606 0 -0.00025686698685529655 -0.012079699646943663 0 -0.00022822632708641301 -0.011119447908004036 0 -0.00025686698685529655 -0.012079699646943663 0 -4.6784177202454721e-05 -0.011510818472887135 0 -0.00022822632708641301 -0.011119447908004036 0 -4.6784177202454721e-05 -0.011510818472887135 0 -0.00022822632708641301 -0.011119447908004036 0 -1.1324729149942739e-06 -0.010357323110792113 0 -0.00022822632708641301 -0.011119447908004036 0 -1.1324729149942739e-06 -0.010357323110792113 0 -9.0686644973123756e-05 -0.010196013990071147 0 -4.6784177202454721e-05 -0.011510818472887135 0 -1.1324729149942739e-06 -0.010357323110792113 0 3.1217803589921483e-07 -0.011189202075665185 0 3.1953156457850763e-07 -0.0095250717773842589 0 -1.1611256733148634e-05 -0.0095898661330779192 0 5.4082191701970157e-05 -0.0092317206242165349 0 3.1953156457850763e-07 -0.0095250717773842589 0 -1.1611256733148634e-05 -0.0095898661330779192 0 -9.0686644973123756e-05 -0.010196013990071147 0 -1.1611256733148634e-05 -0.0095898661330779192 0 4.8844974827787525e-05 -0.009264225206947925 0 5.4082191701970157e-05 -0.0092317206242165349 0 -0.00022822632708641301 -0.011119447908004036 0 -9.0686644973123756e-05 -0.010196013990071147 0 -0.0009113893800052513 -0.011575442897184476 0 -1.1324729149942739e-06 -0.010357323110792113 0 3.1953156457850763e-07 -0.0095250717773842589 0 -9.0686644973123756e-05 -0.010196013990071147 0 -1.1611256733148634e-05 -0.0095898661330779192 0 -9.0686644973123756e-05 -0.010196013990071147 0 -0.00022807709423685338 -0.0092865912557756648 0 -0.00020347295885660201 -0.010210131921657633 0 -0.00050557146338580815 -0.010473033885207162 0 -0.00066281691710922005 -0.012113921580348606 0 -0.00022822632708641301 -0.011119447908004036 0 -0.0009113893800052513 -0.011575442897184476 0 -1.1611256733148634e-05 -0.0095898661330779192 0 4.8844974827787525e-05 -0.009264225206947925 0 -1.2676623919595063e-05 -0.0089625042185560826 0 -1.1611256733148634e-05 -0.0095898661330779192 0 -0.00022807709423685338 -0.0092865912557756648 0 0.00018284095305422165 -0.009011921947446086 0 4.8844974827787525e-05 -0.009264225206947925 0 -1.2676623919595063e-05 -0.0089625042185560826 0 7.7056955816859229e-05 -0.0091467476903013059 0 2.8229680217349485e-05 -0.0097210565215852269 0 -0.00018044520961624366 -0.0085107106659655651 0 -0.00022807709423685338 -0.0092865912557756648 0 0.00018284095305422165 -0.009011921947446086 0 -0.00014781494092346132 -0.0088212425596723553 0 -0.00018044520961624366 -0.0085107106659655651 0 -0.00077329662386102353 -0.010460794708158873 0 -0.00050557146338580815 -0.010473033885207162 0 -0.00077329662386102353 -0.010460794708158873 0 -0.00066281691710922005 -0.012113921580348606 0 -0.0009113893800052513 -0.011575442897184476 0 -0.0010935658115473648 -0.012430116108609727 0 -0.0011076608122381085 -0.013291300143127762 0 -0.00091311777538144651 -0.013015524594757515 0 -0.001068303189123334 -0.012618319873362767 0 -0.00089148808144205694 -0.010272958040210502 0 -0.00077329662386102353 -0.010460794708158873 0 -0.00091311777538144651 -0.013015524594757515 0 -0.00072118140491362899 -0.012856128401240827 0 -0.001068303189123334 -0.012618319873362767 0 -0.00066417379210823447 -0.012720655210738903 0 -0.00066281691710922005 -0.012113921580348606 0 -0.0010935658115473648 -0.012430116108609727 0 -0.0005654913164200682 -0.012880287422352319 0 -0.00077329662386102353 -0.010460794708158873 0 -0.00037707534715176869 -0.0084366367551313576 0 -0.00084203569542066039 -0.0081497256133867546 0 -0.00050599750770621084 -0.0077774927934036904 0 -0.00037707534715176869 -0.0084366367551313576 0 -0.00050599750770621084 -0.0077774927934036904 0 -8.2919575729034051e-05 -0.0076376633628079402 0 -0.00068652164924890089 -0.0073579201926231626 0 -0.00084203569542066039 -0.0081497256133867546 0 -0.00050599750770621084 -0.0077774927934036904 0 -0.00032117998622488263 -0.0078102009512611746 0 -6.7222710808017414e-05 -0.0077628239598051749 0 -0.00011626685223725288 -0.007312420082730418 0 -0.00018044520961624366 -0.0085107106659655651 0 -0.0001176578268913817 -0.0073903445808402744 0 7.8924043520122028e-05 -0.0075470128849955678 0 -6.7222710808017414e-05 -0.0077628239598051749 0 -0.00011626685223725288 -0.007312420082730418 0 -0.00033692182648924955 -0.0064322325400538441 0 -0.00065847105433617021 -0.0065633517670807611 0 -0.00045822076361750242 -0.006680506380511082 0 -0.00065847105433617021 -0.0065633517670807611 0 -0.00058569900654516726 -0.0069229551850239421 0 -0.0010326091566825641 -0.0072120180719925419 0 -0.00045822076361750242 -0.006680506380511082 0 -0.00058569900654516726 -0.0069229551850239421 0 -0.00031755165692005081 -0.0069062691853894959 0 -0.00065847105433617021 -0.0065633517670807611 0 -0.00045822076361750242 -0.006680506380511082 0 -0.00058569900654516726 -0.0069229551850239421 0 -0.00018044520961624366 -0.0085107106659655651 0 -0.00021308026928030011 -0.0081406272027519256 0 7.8924043520122028e-05 -0.0075470128849955678 0 -6.7222710808017414e-05 -0.0077628239598051749 0 1.4690242472257068e-06 -0.0080134871318772987 0 -0.00032117998622488263 -0.0078102009512611746 0 -6.7222710808017414e-05 -0.0077628239598051749 0 1.4690242472257068e-06 -0.0080134871318772987 0 -0.0003099124729519483 -0.0069718707491075865 0 -0.00021308026928030011 -0.0081406272027519256 0 -1.2676623919595063e-05 -0.0089625042185560826 0 7.7056955816859229e-05 -0.0091467476903013059 0 0.00013481301113290662 -0.009123045350902392 0 4.8844974827787525e-05 -0.009264225206947925 0 8.0891235980834573e-05 -0.0091597326945606003 0 5.4082191701970157e-05 -0.0092317206242165349 0 7.7056955816859229e-05 -0.0091467476903013059 0 8.0891235980834573e-05 -0.0091597326945606003 0 0.00010090061983575167 -0.0091070942569288649 0 4.8844974827787525e-05 -0.009264225206947925 0 7.7056955816859229e-05 -0.0091467476903013059 0 8.0891235980834573e-05 -0.0091597326945606003 0 8.0891235980834573e-05 -0.0091597326945606003 0 7.3997221896154544e-05 -0.0090505923582678699 0 5.4082191701970157e-05 -0.0092317206242165349 0 0.00010090061983575167 -0.0091070942569288649 0 4.416366286760229e-05 -0.0092752171217536823 0 1.0626840125520549e-05 -0.0088073800805165119 0 7.3997221896154544e-05 -0.0090505923582678699 0 0.00010090061983575167 -0.0091070942569288649 0 1.0626840125520549e-05 -0.0088073800805165119 0 8.0891235980834573e-05 -0.0091597326945606003 0 7.3997221896154544e-05 -0.0090505923582678699 0 0.00010090061983575167 -0.0091070942569288649 0 7.7056955816859229e-05 -0.0091467476903013059 0 0.00010090061983575167 -0.0091070942569288649 0 0.00013481301113290662 -0.009123045350902392 0 -0.00021088215488161935 -0.0086080310916020978 0 -0.00021308026928030011 -0.0081406272027519256 0 -0.00058569900654516726 -0.0069229551850239421 0 -0.0010326091566825641 -0.0072120180719925419 0 -0.00040245952143813505 -0.0072596872721556486 0 4.416366286760229e-05 -0.0092752171217536823 0 1.0626840125520549e-05 -0.0088073800805165119 0 -0.00016885287233012498 -0.0080224285033688586 0 -0.0010326091566825641 -0.0072120180719925419 0 -0.00016885287233012498 -0.0080224285033688586 0 -0.00040245952143813505 -0.0072596872721556486 0 -0.00021308026928030011 -0.0081406272027519256 0 -0.0002447274978740769 -0.0081156342238843764 0 1.0626840125520549e-05 -0.0088073800805165119 0 -2.3387580670454213e-07 -0.0086931838160219758 0 -0.00016885287233012498 -0.0080224285033688586 0 1.0626840125520549e-05 -0.0088073800805165119 0 -2.3387580670454213e-07 -0.0086931838160219758 0 3.9030613753920324e-05 -0.0090020887830319345 0 3.1953156457850763e-07 -0.0095250717773842589 0 -2.3387580670454213e-07 -0.0086931838160219758 0 3.9030613753920324e-05 -0.0090020887830319345 0 3.1953156457850763e-07 -0.0095250717773842589 0 5.4082191701970157e-05 -0.0092317206242165349 0 3.9030613753920324e-05 -0.0090020887830319345 0 7.3997221896154544e-05 -0.0090505923582678699 0 5.4082191701970157e-05 -0.0092317206242165349 0 3.9030613753920324e-05 -0.0090020887830319345 0 7.3997221896154544e-05 -0.0090505923582678699 0 1.0626840125520549e-05 -0.0088073800805165119 0 3.9030613753920324e-05 -0.0090020887830319345 0 4.6807362766441799e-05 -0.0072755703702287681 0 -2.2896363561821815e-07 -0.0078615364739586611 0 -7.2642113737131516e-05 -0.0073456616658376366 0 -2.3387580670454213e-07 -0.0086931838160219758 0 -2.2896363561821815e-07 -0.0078615364739586611 0 -0.00016885287233012498 -0.0080224285033688586 0 -2.2896363561821815e-07 -0.0078615364739586611 0 -0.00016885287233012498 -0.0080224285033688586 0 -7.2642113737131516e-05 -0.0073456616658376366 0 -0.00016885287233012498 -0.0080224285033688586 0 -0.00040245952143813505 -0.0072596872721556486 0 -7.2642113737131516e-05 -0.0073456616658376366 0 -0.00040245952143813505 -0.0072596872721556486 0 -7.2642113737131516e-05 -0.0073456616658376366 0 -0.00031755165692005081 -0.0069062691853894959 0 -7.2642113737131516e-05 -0.0073456616658376366 0 1.1493039856476896e-06 -0.0070345021595937017 0 -0.00011469954392050847 -0.0066194214771374393 0 4.6807362766441799e-05 -0.0072755703702287681 0 -7.2642113737131516e-05 -0.0073456616658376366 0 1.1493039856476896e-06 -0.0070345021595937017 0 -1.0236886164623195e-06 -0.0066072945762497464 0 1.1493039856476896e-06 -0.0070345021595937017 0 -0.00011469954392050847 -0.0066194214771374393 0 -7.5864069448023034e-05 -0.0063160179914942601 0 -1.0236886164623195e-06 -0.0066072945762497464 0 -0.00011469954392050847 -0.0066194214771374393 0 -0.00011469954392050847 -0.0066194214771374393 0 -0.00031755165692005081 -0.0069062691853894959 0 -0.0002752452831416891 -0.0065813691886017732 0 -7.2642113737131516e-05 -0.0073456616658376366 0 -0.00011469954392050847 -0.0066194214771374393 0 -0.00031755165692005081 -0.0069062691853894959 0 -0.00058569900654516726 -0.0069229551850239421 0 -0.00040245952143813505 -0.0072596872721556486 0 -0.00031755165692005081 -0.0069062691853894959 0 -0.00045822076361750242 -0.006680506380511082 0 -0.00031755165692005081 -0.0069062691853894959 0 -0.0002752452831416891 -0.0065813691886017732 0 -0.00011469954392050847 -0.0066194214771374393 0 -0.0002752452831416891 -0.0065813691886017732 0 -0.00020116743838286352 -0.0063621607956518885 0 -0.00033692182648924955 -0.0064322325400538441 0 -0.00045822076361750242 -0.006680506380511082 0 -0.0002752452831416891 -0.0065813691886017732 0 -0.00033692182648924955 -0.0064322325400538441 0 -0.0002752452831416891 -0.0065813691886017732 0 -0.00020116743838286352 -0.0063621607956518885 0 -7.5864069448023034e-05 -0.0063160179914942601 0 -0.00011469954392050847 -0.0066194214771374393 0 -0.00020116743838286352 -0.0063621607956518885 0 -0.00017983349297400237 -0.0062830113419478691 0 -0.00019756092309109084 -0.0063729843048987321 0 -0.00020116743838286352 -0.0063621607956518885 0 -7.5864069448023034e-05 -0.0063160179914942601 0 -0.00017983349297400237 -0.0062830113419478691 0 -0.00020116743838286352 -0.0063621607956518885 0 -0.00017983349297400237 -0.0062830113419478691 0 -0.00019756092309109084 -0.0063729843048987321 0 -0.00024412203805342593 -0.0064900513725694277 0 -0.00036051013091717942 -0.0064676385108942292 0 -0.00017983349297400237 -0.0062830113419478691 0 -0.00024412203805342593 -0.0064900513725694277 0 -0.00019756092309109084 -0.0063729843048987321 0 -0.00016564398191857874 -0.0064272703564875857 0 -0.00015530501057470634 -0.0065545437573265716 0 -0.00019756092309109084 -0.0063729843048987321 0 -0.00024412203805342593 -0.0064900513725694277 0 -0.00015530501057470634 -0.0065545437573265716 0 -0.00019756092309109084 -0.0063729843048987321 0 -0.00016564398191857874 -0.0064272703564875857 0 -0.00023548836394794202 -0.0063639961865764299 0 -0.00019756092309109084 -0.0063729843048987321 0 -0.00023548836394794202 -0.0063639961865764299 0 -0.00020116743838286352 -0.0063621607956518885 0 -0.00033692182648924955 -0.0064322325400538441 0 -0.00023548836394794202 -0.0063639961865764299 0 -0.00020116743838286352 -0.0063621607956518885 0 -0.00033692182648924955 -0.0064322325400538441 0 -0.00065847105433617021 -0.0065633517670807611 0 -0.00025616560779096067 -0.0063351442308432647 0 -0.00033692182648924955 -0.0064322325400538441 0 -0.00023548836394794202 -0.0063639961865764299 0 -0.00025616560779096067 -0.0063351442308432647 0 -0.0003099124729519483 -0.0069718707491075865 0 -6.6102362989317584e-05 -0.0067674884223520512 0 -0.00016564398191857874 -0.0064272703564875857 0 -0.00023548836394794202 -0.0063639961865764299 0 -0.00025616560779096067 -0.0063351442308432647 0 0.00014919339530210167 -0.0070985873988799403 0 -0.00011626685223725288 -0.007312420082730418 0 5.9416021663024132e-05 -0.0068523921128935033 0 -0.0001176578268913817 -0.0073903445808402744 0 5.770027962776494e-05 -0.0069269390347418127 0 7.8924043520122028e-05 -0.0075470128849955678 0 0.00014919339530210167 -0.0070985873988799403 0 -0.00011626685223725288 -0.007312420082730418 0 -0.00030226482240943087 -0.0072679577581901749 0 -8.2919575729034051e-05 -0.0076376633628079402 0 -0.00012457784834924991 -0.0070622916580289855 0 -8.2919575729034051e-05 -0.0076376633628079402 0 -0.00012457784834924991 -0.0070622916580289855 0 5.9416021663024132e-05 -0.0068523921128935033 0 -0.00030226482240943087 -0.0072679577581901749 0 -0.00012457784834924991 -0.0070622916580289855 0 -0.00022305299972596128 -0.0068783840574524416 0 -0.00012457784834924991 -0.0070622916580289855 0 5.9416021663024132e-05 -0.0068523921128935033 0 -3.0071378414026311e-05 -0.0067823464347544424 0 -0.00012457784834924991 -0.0070622916580289855 0 -0.00022305299972596128 -0.0068783840574524416 0 -3.0071378414026311e-05 -0.0067823464347544424 0 0.00014919339530210167 -0.0070985873988799403 0 5.9416021663024132e-05 -0.0068523921128935033 0 4.6464819933898881e-05 -0.0066407253997074105 0 -0.00016564398191857874 -0.0064272703564875857 0 -0.00025616560779096067 -0.0063351442308432647 0 4.6464819933898881e-05 -0.0066407253997074105 0 -6.6102362989317584e-05 -0.0067674884223520512 0 2.67470563361342e-05 -0.0066595115948593787 0 5.9416021663024132e-05 -0.0068523921128935033 0 4.6464819933898881e-05 -0.0066407253997074105 0 7.0623264828855397e-05 -0.0066738191765749674 0 4.6464819933898881e-05 -0.0066407253997074105 0 7.0623264828855397e-05 -0.0066738191765749674 0 5.8227679240724467e-05 -0.0067521645367191888 0 7.0623264828855397e-05 -0.0066738191765749674 0 9.246936829914079e-05 -0.0067241245714525907 0 5.8227679240724467e-05 -0.0067521645367191888 0 4.6464819933898881e-05 -0.0066407253997074105 0 5.8227679240724467e-05 -0.0067521645367191888 0 -0.00010008180388867906 -0.0067813362492544988 0 -0.00022305299972596128 -0.0068783840574524416 0 -3.0071378414026311e-05 -0.0067823464347544424 0 -0.00019402505163184831 -0.0066824208061768862 0 5.9416021663024132e-05 -0.0068523921128935033 0 7.0623264828855397e-05 -0.0066738191765749674 0 -3.0071378414026311e-05 -0.0067823464347544424 0 -3.0071378414026311e-05 -0.0067823464347544424 0 5.9798938106397894e-05 -0.0066524609576933203 0 -0.00019402505163184831 -0.0066824208061768862 0 7.0623264828855397e-05 -0.0066738191765749674 0 -3.0071378414026311e-05 -0.0067823464347544424 0 5.9798938106397894e-05 -0.0066524609576933203 0 5.9798938106397894e-05 -0.0066524609576933203 0 0.00015667500970756296 -0.0067470731264840872 0 0.00039655741765237261 -0.0069478696428982934 0 0.00012553409766776795 -0.006734477784284665 0 -0.00011148636445500274 -0.0065006216930778788 0 7.0623264828855397e-05 -0.0066738191765749674 0 9.246936829914079e-05 -0.0067241245714525907 0 5.9798938106397894e-05 -0.0066524609576933203 0 9.246936829914079e-05 -0.0067241245714525907 0 5.9798938106397894e-05 -0.0066524609576933203 0 0.00015667500970756296 -0.0067470731264840872 0 9.246936829914079e-05 -0.0067241245714525907 0 0.00015667500970756296 -0.0067470731264840872 0 0.00013998663416472324 -0.0068058318767832398 0 5.9798938106397894e-05 -0.0066524609576933203 0 -0.00019402505163184831 -0.0066824208061768862 0 -0.00019392624417796783 -0.006430162360431515 0 0.00020934863579803769 -0.0067934899236876591 0 0.00041929021053023133 -0.0071749972036990782 0 0.00015667500970756296 -0.0067470731264840872 0 0.00023649923388922828 -0.0069080327083136123 0 0.00050204983777838092 -0.0070361710920695854 0 0.00015667500970756296 -0.0067470731264840872 0 0.00039655741765237261 -0.0069478696428982934 0 0.00038432731780403809 -0.007328548095368535 0 0.00015667500970756296 -0.0067470731264840872 0 0.00023649923388922828 -0.0069080327083136123 0 0.00013998663416472324 -0.0068058318767832398 0 0.00039655741765237261 -0.0069478696428982934 0 0.00038432731780403809 -0.007328548095368535 0 0.00070390471213751008 -0.0073186110519112601 0 5.8227679240724467e-05 -0.0067521645367191888 0 6.3521995904667263e-05 -0.0069437857062122988 0 -0.00010008180388867906 -0.0067813362492544988 0 5.8227679240724467e-05 -0.0067521645367191888 0 0.00013998663416472324 -0.0068058318767832398 0 6.3521995904667263e-05 -0.0069437857062122988 0 9.246936829914079e-05 -0.0067241245714525907 0 5.8227679240724467e-05 -0.0067521645367191888 0 0.00013998663416472324 -0.0068058318767832398 0 0.00023649923388922828 -0.0069080327083136123 0 6.3521995904667263e-05 -0.0069437857062122988 0 0.00026189978067369144 -0.0071030957735846419 0 0.00023649923388922828 -0.0069080327083136123 0 0.00013998663416472324 -0.0068058318767832398 0 6.3521995904667263e-05 -0.0069437857062122988 0 6.3521995904667263e-05 -0.0069437857062122988 0 -0.00010008180388867906 -0.0067813362492544988 0 -0.0002343254147156195 -0.0070421841910846905 0 -0.00010008180388867906 -0.0067813362492544988 0 -0.00026031351339685695 -0.0068821638162362688 0 -0.0002343254147156195 -0.0070421841910846905 0 -0.00010008180388867906 -0.0067813362492544988 0 -0.00026031351339685695 -0.0068821638162362688 0 -0.00022672510005515667 -0.0066982369660225569 0 -0.00026031351339685695 -0.0068821638162362688 0 -0.00039346307971674437 -0.0068614914383504262 0 -0.00022672510005515667 -0.0066982369660225569 0 -0.00036051013091717942 -0.0064676385108942292 0 -0.00039346307971674437 -0.0068614914383504262 0 -0.00024412203805342593 -0.0064900513725694277 0 -0.00039346307971674437 -0.0068614914383504262 0 -0.00024412203805342593 -0.0064900513725694277 0 -0.00022672510005515667 -0.0066982369660225569 0 -0.00024412203805342593 -0.0064900513725694277 0 -0.00015530501057470634 -0.0065545437573265716 0 -0.00022672510005515667 -0.0066982369660225569 0 4.6464819933898881e-05 -0.0066407253997074105 0 -0.00010008180388867906 -0.0067813362492544988 0 -0.00015530501057470634 -0.0065545437573265716 0 -0.00010008180388867906 -0.0067813362492544988 0 -0.00015530501057470634 -0.0065545437573265716 0 -0.00022672510005515667 -0.0066982369660225569 0 -0.00016564398191857874 -0.0064272703564875857 0 4.6464819933898881e-05 -0.0066407253997074105 0 -0.00015530501057470634 -0.0065545437573265716 0 -0.00017969610067848158 -0.0071270726298974284 0 -0.00027961165923924889 -0.0071114259077689436 0 -0.0002343254147156195 -0.0070421841910846905 0 -0.0002179451526475883 -0.0074576073253540438 0 -0.00024968751940422071 -0.0070918125809384643 0 -0.00026031351339685695 -0.0068821638162362688 0 -0.00027961165923924889 -0.0071114259077689436 0 -0.0002343254147156195 -0.0070421841910846905 0 -0.00025676926685112573 -0.0062439598694066494 0 -0.00015436664796553783 -0.0064618321155577724 0 -0.00026031351339685695 -0.0068821638162362688 0 -0.00039346307971674437 -0.0068614914383504262 0 -0.00027961165923924889 -0.0071114259077689436 0 -0.00014072649242551205 -0.0057157535608302352 0 -0.0001339635463931315 -0.00561625765597873 0 -2.3997320074755194e-05 -0.0058215980299136019 0 6.3521995904667263e-05 -0.0069437857062122988 0 8.7096484548167697e-05 -0.0073861127224997868 0 0.00026189978067369144 -0.0071030957735846419 0 6.3521995904667263e-05 -0.0069437857062122988 0 -0.0002343254147156195 -0.0070421841910846905 0 8.7096484548167697e-05 -0.0073861127224997868 0 0.00050204983777838092 -0.0070361710920695854 0 0.00041776724792082773 -0.0073833185396801693 0 0.00085405404691814627 -0.0076404430408949725 0 0.00041929021053023133 -0.0071749972036990782 0 0.00092531775442807138 -0.0078680205486014333 0 0.00023649923388922828 -0.0069080327083136123 0 0.00050204983777838092 -0.0070361710920695854 0 0.00026189978067369144 -0.0071030957735846419 0 0.00050204983777838092 -0.0070361710920695854 0 0.00026189978067369144 -0.0071030957735846419 0 0.00041776724792082773 -0.0073833185396801693 0 8.7096484548167697e-05 -0.0073861127224997868 0 0.00026189978067369144 -0.0071030957735846419 0 0.00041776724792082773 -0.0073833185396801693 0 0.00041759052028430345 -0.0078251810410518846 0 0.00080283215832251749 -0.0083522716621306434 0 0.00085405404691814627 -0.0076404430408949725 0 0.00041776724792082773 -0.0073833185396801693 0 0.00041759052028430345 -0.0078251810410518846 0 0.00085405404691814627 -0.0076404430408949725 0 8.7096484548167697e-05 -0.0073861127224997868 0 0.00041776724792082773 -0.0073833185396801693 0 0.00041759052028430345 -0.0078251810410518846 0 -0.00028578630797927918 -0.0077572459349071433 0 8.7096484548167697e-05 -0.0073861127224997868 0 7.9056661659613828e-05 -0.0079775936288624047 0 8.7096484548167697e-05 -0.0073861127224997868 0 0.00041759052028430345 -0.0078251810410518846 0 7.9056661659613828e-05 -0.0079775936288624047 0 -0.00028578630797927918 -0.0077572459349071433 0 -0.0002343254147156195 -0.0070421841910846905 0 8.7096484548167697e-05 -0.0073861127224997868 0 -0.0002179451526475883 -0.0074576073253540438 0 -0.00017373601365103567 -0.0078498338370876219 0 -0.00028578630797927918 -0.0077572459349071433 0 7.9056661659613828e-05 -0.0079775936288624047 0 -0.00015792703646089713 -0.008627110615500401 0 7.9056661659613828e-05 -0.0079775936288624047 0 0.00032279512073679634 -0.0083876380263936817 0 -0.00015792703646089713 -0.008627110615500401 0 0.00041759052028430345 -0.0078251810410518846 0 0.00032279512073679634 -0.0083876380263936817 0 0.00080283215832251749 -0.0083522716621306434 0 0.00041759052028430345 -0.0078251810410518846 0 7.9056661659613828e-05 -0.0079775936288624047 0 0.00032279512073679634 -0.0083876380263936817 0 0.00059595456885220644 -0.008660849553901763 0 0.0009021729851657989 -0.0087624204198813501 0 0.00080283215832251749 -0.0083522716621306434 0 0.00032279512073679634 -0.0083876380263936817 0 0.00059595456885220644 -0.008660849553901763 0 0.00080283215832251749 -0.0083522716621306434 0 0.0006250835235043588 -0.0089451639803399489 0 0.00083861758259704488 -0.0091296286856282771 0 0.0009021729851657989 -0.0087624204198813501 0 0.00059595456885220644 -0.008660849553901763 0 0.0006250835235043588 -0.0089451639803399489 0 0.0009021729851657989 -0.0087624204198813501 0 0.00059595456885220644 -0.008660849553901763 0 0.00033452450697570658 -0.0088564504538771183 0 0.0006250835235043588 -0.0089451639803399489 0 0.00032279512073679634 -0.0083876380263936817 0 0.00059595456885220644 -0.008660849553901763 0 0.00033452450697570658 -0.0088564504538771183 0 0.00033452450697570658 -0.0088564504538771183 0 0.0006250835235043588 -0.0089451639803399489 0 0.00048169321735790684 -0.0092799679625830602 0 0.00033452450697570658 -0.0088564504538771183 0 0.0001278739177232164 -0.009290432432696151 0 0.00048169321735790684 -0.0092799679625830602 0 0.0006250835235043588 -0.0089451639803399489 0 0.00048169321735790684 -0.0092799679625830602 0 0.00083861758259704488 -0.0091296286856282771 0 0.00033452450697570658 -0.0088564504538771183 0 -0.00015792703646089713 -0.008627110615500401 0 0.0001278739177232164 -0.009290432432696151 0 -0.00017373601365103567 -0.0078498338370876219 0 0.000112707527042642 -0.0084454988716317399 0 -0.00015934657181086397 -0.0071379602228774982 0 -0.00013446892807778558 -0.0070934688450098714 0 -0.00019966600331759325 -0.0070598644705744049 0 -0.00015792703646089713 -0.008627110615500401 0 0.00010135198534274744 -0.0095230730811107604 0 0.0001278739177232164 -0.009290432432696151 0 0.00032279512073679634 -0.0083876380263936817 0 0.00033452450697570658 -0.0088564504538771183 0 -0.00015792703646089713 -0.008627110615500401 0 -0.00015934657181086397 -0.0071379602228774982 0 -0.00013446892807778558 -0.0070934688450098714 0 -0.00016105300123916177 -0.0071432058411581975 0 -6.4087688462926762e-05 -0.006630724636707188 0 -2.8395151183580617e-06 -0.0067321737662583659 0 -0.00013446892807778558 -0.0070934688450098714 0 -0.00016105300123916177 -0.0071432058411581975 0 -5.6871974291702998e-05 -0.0070402114375306248 0 -0.00017969610067848158 -0.0071270726298974284 0 -0.00027961165923924889 -0.0071114259077689436 0 -0.00016105300123916177 -0.0071432058411581975 0 -0.00017969610067848158 -0.0071270726298974284 0 -0.00015934657181086397 -0.0071379602228774982 0 -0.00016105300123916177 -0.0071432058411581975 0 -0.00015436664796553783 -0.0064618321155577724 0 -6.4087688462926762e-05 -0.006630724636707188 0 -0.00018144512529028213 -0.0060653351187768883 0 -2.3997320074755194e-05 -0.0058215980299136019 0 3.68871414111593e-05 -0.0061337037294620514 0 -0.00018144512529028213 -0.0060653351187768883 0 3.68871414111593e-05 -0.0061337037294620514 0 -0.0001032520059350547 -0.0063488622241064836 0 3.68871414111593e-05 -0.0061337037294620514 0 -0.0001032520059350547 -0.0063488622241064836 0 6.475280503602087e-05 -0.0064486730079272251 0 -0.0001032520059350547 -0.0063488622241064836 0 6.475280503602087e-05 -0.0064486730079272251 0 -4.5475791768703919e-05 -0.0066088987689926579 0 -0.00013446892807778558 -0.0070934688450098714 0 -5.6871974291702998e-05 -0.0070402114375306248 0 -0.00012898207251361716 -0.0070021185272528524 0 -5.6871974291702998e-05 -0.0070402114375306248 0 2.8513915510247459e-06 -0.0067457563406427504 0 -9.4602210348239139e-05 -0.0068770088900597789 0 6.475280503602087e-05 -0.0064486730079272251 0 -4.5475791768703919e-05 -0.0066088987689926579 0 2.8513915510247459e-06 -0.0067457563406427504 0 -2.8395151183580617e-06 -0.0067321737662583659 0 7.2907877746120046e-07 -0.0067337281453246182 0 -5.6871974291702998e-05 -0.0070402114375306248 0 -9.4602210348239139e-05 -0.0068770088900597789 0 -0.00012898207251361716 -0.0070021185272528524 0 -0.00018875446243711512 -0.006558671707845568 0 -0.0001032520059350547 -0.0063488622241064836 0 -4.5475791768703919e-05 -0.0066088987689926579 0 -0.00018875446243711512 -0.006558671707845568 0 -4.5475791768703919e-05 -0.0066088987689926579 0 -7.267951648977208e-05 -0.0067596040361587806 0 -0.0001231705955481272 -0.0057220726186120339 0 0.00015696734590067444 -0.0067140723466682633 0 -4.5475791768703919e-05 -0.0066088987689926579 0 -7.267951648977208e-05 -0.0067596040361587806 0 -2.3956381178148476e-05 -0.0067066876045681189 0 -4.7927848803042498e-05 -0.005033855129735915 0 4.6345464874370638e-05 -0.0056568602516827507 0 0.00051261103732084179 -0.0058300573877940092 0 4.6345464874370638e-05 -0.0056568602516827507 0 0.00041837591308343256 -0.005835503123431245 0 0.00051261103732084179 -0.0058300573877940092 0 0.00022542990341999666 -0.0066591079250150256 0 0.00015696734590067444 -0.0067140723466682633 0 -7.267951648977208e-05 -0.0067596040361587806 0 -2.3956381178148476e-05 -0.0067066876045681189 0 1.0099603569611353e-05 -0.0067197077913393579 0 0.00015696734590067444 -0.0067140723466682633 0 0.00030560075953166223 -0.0072730633274091707 0 -4.5475791768703919e-05 -0.0066088987689926579 0 -2.3956381178148476e-05 -0.0067066876045681189 0 2.8513915510247459e-06 -0.0067457563406427504 0 -2.3956381178148476e-05 -0.0067066876045681189 0 2.8513915510247459e-06 -0.0067457563406427504 0 1.0099603569611353e-05 -0.0067197077913393579 0 0.00071722053785365492 -0.0077776113277293951 0 0.00092416577400789642 -0.0082139305486485289 0 0.00048159861527474637 -0.0085028508510816576 0 7.6335899620132695e-05 -0.0077926457965476559 0 0.00071722053785365492 -0.0077776113277293951 0 0.00048159861527474637 -0.0085028508510816576 0 0.00092416577400789642 -0.0082139305486485289 0 0.00096440588806377149 -0.0086638844890138521 0 0.00048159861527474637 -0.0085028508510816576 0 0.00041837591308343256 -0.005835503123431245 0 0.00052651275511700769 -0.0058308196280531478 0 0.00029303594288525601 -0.0065221409700765261 0 0.00052651275511700769 -0.0058308196280531478 0 0.00029303594288525601 -0.0065221409700765261 0 0.0009997621228321383 -0.0065758580186199567 0 -6.2822300133409231e-05 -0.0060619830293063056 0 0.00041837591308343256 -0.005835503123431245 0 0.00029303594288525601 -0.0065221409700765261 0 0.00015696734590067444 -0.0067140723466682633 0 0.00069083883509422049 -0.00745093315455696 0 0.0015745189307955355 -0.010687226894149172 0 0.0015736482153262312 -0.010685280064221042 0 0.0015799581020613618 -0.010699971994822722 0 0.0015745189307955355 -0.010687226894149172 0 0.0015755197039987582 -0.010685850621671173 0 0.0015799581020613618 -0.010699971994822722 0 0.0009315727416656746 -0.011601225547737253 0 0.0019049944223399587 -0.012747465836470155 0 0.0015745189307955355 -0.010687226894149172 0 0.0015736482153262312 -0.010685280064221042 0 0.0015671254210714342 -0.010675580126024412 0 0.00071722053785365492 -0.0077776113277293951 0 0.00092416577400789642 -0.0082139305486485289 0 0.0013521296035008765 -0.0077640855681500006 0 0.00092416577400789642 -0.0082139305486485289 0 0.0013063138914576611 -0.0083864814842238341 0 0.0013521296035008765 -0.0077640855681500006 0 0.0014366206126092003 -0.0095846776819560851 0 0.00079030660692723607 -0.008792346577338777 0 0.00092416577400789642 -0.0082139305486485289 0 0.0013063138914576611 -0.0083864814842238341 0 0.00096440588806377149 -0.0086638844890138521 0 0.00079030660692723607 -0.008792346577338777 0 3.5793582680481001e-05 -0.0077241374458938677 0 -0.00013942978274890096 -0.0066963722810126176 0 -9.4602210348239139e-05 -0.0068770088900597789 0 -0.00018992308991769568 -0.0068924240015424357 0 0.00018523570859917704 -0.0098924470570083238 0 0.00047117062743675531 -0.0094590587119979877 0 0.00025415768099021655 -0.0090032764036910486 0 2.8513915510247459e-06 -0.0067457563406427504 0 -0.00013942978274890096 -0.0066963722810126176 0 -9.4602210348239139e-05 -0.0068770088900597789 0 0.00030560075953166223 -0.0072730633274091707 0 0.00079030660692723607 -0.008792346577338777 0 2.8513915510247459e-06 -0.0067457563406427504 0 1.0099603569611353e-05 -0.0067197077913393579 0 -0.00013942978274890096 -0.0066963722810126176 0 0.00047117062743675531 -0.0094590587119979877 0 0.00092157738608169128 -0.0098742383598333008 0 0.00062088808473725204 -0.008991348040916369 0 0.00058248114786382354 -0.0108036644405624 0 0.00072665290318271833 -0.010363749179084199 0 0.00035872777488954948 -0.010175806925926487 0 0.0009315727416656746 -0.011601225547737253 0 0.00044483382409945274 -0.0094332436212694465 0 0.00018523570859917704 -0.0098924470570083238 0 0.00047117062743675531 -0.0094590587119979877 0 0.00092157738608169128 -0.0098742383598333008 0 0.0015745189307955355 -0.010687226894149172 0 0.0015671254210714342 -0.010675580126024412 0 0.0015755197039987582 -0.010685850621671173 0 0.00079030660692723607 -0.008792346577338777 0 0.0009315727416656746 -0.011601225547737253 0 0.00072665290318271833 -0.010363749179084199 0 0.00035872777488954948 -0.010175806925926487 0 0.00062457525200646045 -0.009784886320660869 0 0.00044483382409945274 -0.0094332436212694465 0 0.000112707527042642 -0.0084454988716317399 0 0.00047117062743675531 -0.0094590587119979877 0 0.00062088808473725204 -0.008991348040916369 0 0.00025415768099021655 -0.0090032764036910486 0 0.00062088808473725204 -0.008991348040916369 0 0.00025415768099021655 -0.0090032764036910486 0 0.00031967999961374758 -0.0081245350920411876 0 3.5793582680481001e-05 -0.0077241374458938677 0 0.000112707527042642 -0.0084454988716317399 0 -9.4602210348239139e-05 -0.0068770088900597789 0 -0.00018992308991769568 -0.0068924240015424357 0 -0.00012898207251361716 -0.0070021185272528524 0 -0.00018992308991769568 -0.0068924240015424357 0 -0.00012898207251361716 -0.0070021185272528524 0 -0.00019966600331759325 -0.0070598644705744049 0 0.000112707527042642 -0.0084454988716317399 0 8.3617360796235345e-05 -0.0090689114641392069 0 -0.00013446892807778558 -0.0070934688450098714 0 -0.00012898207251361716 -0.0070021185272528524 0 -0.00019966600331759325 -0.0070598644705744049 0 0.00035872777488954948 -0.010175806925926487 0 0.00011682076232839392 -0.0095112199765400342 0 0.00062457525200646045 -0.009784886320660869 0 0.00011682076232839392 -0.0095112199765400342 0 0.0001278739177232164 -0.009290432432696151 0 0.00048169321735790684 -0.0092799679625830602 0 0.00011682076232839392 -0.0095112199765400342 0 0.00062457525200646045 -0.009784886320660869 0 0.00048169321735790684 -0.0092799679625830602 0 0.00062457525200646045 -0.009784886320660869 0 0.00048169321735790684 -0.0092799679625830602 0 0.0008054613977221607 -0.0094818964183142774 0 0.00048169321735790684 -0.0092799679625830602 0 0.0008054613977221607 -0.0094818964183142774 0 0.00083861758259704488 -0.0091296286856282771 0 0.0008054613977221607 -0.0094818964183142774 0 0.0011492414624867623 -0.0097384008536127841 0 0.0013780242090253695 -0.009170879908717039 0 0.00062457525200646045 -0.009784886320660869 0 0.0008054613977221607 -0.0094818964183142774 0 0.0011492414624867623 -0.0097384008536127841 0 0.0011492414624867623 -0.0097384008536127841 0 0.0015488807793735244 -0.0098027139200797652 0 0.0013780242090253695 -0.009170879908717039 0 0.0015488807793735244 -0.0098027139200797652 0 0.0018946563447524924 -0.0092015301007186776 0 0.0013780242090253695 -0.009170879908717039 0 0.0015488807793735244 -0.0098027139200797652 0 0.0013990697095643246 -0.010345265969543145 0 0.0018002320024412229 -0.010394793055450118 0 0.0015488807793735244 -0.0098027139200797652 0 0.0018002320024412229 -0.010394793055450118 0 0.0020817799482604911 -0.0099431364129618834 0 0.0015488807793735244 -0.0098027139200797652 0 0.0013990697095643246 -0.010345265969543145 0 0.0010765364133997965 -0.010133934339586086 0 0.00072665290318271833 -0.010363749179084199 0 0.00062457525200646045 -0.009784886320660869 0 0.0010765364133997965 -0.010133934339586086 0 0.00062457525200646045 -0.009784886320660869 0 0.0011492414624867623 -0.0097384008536127841 0 0.0010765364133997965 -0.010133934339586086 0 0.0011492414624867623 -0.0097384008536127841 0 0.0015488807793735244 -0.0098027139200797652 0 0.0010765364133997965 -0.010133934339586086 0 0.0013990697095643246 -0.010345265969543145 0 0.0010765364133997965 -0.010133934339586086 0 0.001040210878099953 -0.010482778155303527 0 0.00072665290318271833 -0.010363749179084199 0 0.0010765364133997965 -0.010133934339586086 0 0.001040210878099953 -0.010482778155303527 0 0.0009315727416656746 -0.011601225547737253 0 0.0014190874578024963 -0.012836527700538839 0 0.00058248114786382354 -0.0108036644405624 0 0.00072665290318271833 -0.010363749179084199 0 0.001040210878099953 -0.010482778155303527 0 0.00058248114786382354 -0.0108036644405624 0 0.001040210878099953 -0.010482778155303527 0 0.0014113490773418999 -0.010764108381620218 0 0.0014918355490034744 -0.014767270768136618 0 0.0011456088946722762 -0.014825366931417493 0 0.0013169257915757345 -0.014684321236495733 0 0.0013990697095643246 -0.010345265969543145 0 0.001040210878099953 -0.010482778155303527 0 0.0014113490773418999 -0.010764108381620218 0 0.0013990697095643246 -0.010345265969543145 0 0.0018002320024412229 -0.010394793055450118 0 0.0014113490773418999 -0.010764108381620218 0 0.0014190874578024963 -0.012836527700538839 0 0.00095172379889032631 -0.013578974424876824 0 0.0018002320024412229 -0.010394793055450118 0 0.0014113490773418999 -0.010764108381620218 0 0.0022174235085262351 -0.010747329965538848 0 0.0011456088946722762 -0.014825366931417493 0 0.0011756710638653231 -0.014649666017097267 0 0.00099643230355286536 -0.014834649242500756 0 0.00098237763964608674 -0.014836681964137727 0 0.0010942062857521918 -0.014774232796403941 0 0.0011889472969879994 -0.014773167075797313 0 0.0010400340945078365 -0.014717097311280049 0 0.00099643230355286536 -0.014834649242500756 0 0.0011889472969879994 -0.014773167075797313 0 0.0012459671872415382 -0.014606832233953542 0 0.0011382967324622048 -0.01465341332171103 0 0.0011889472969879994 -0.014773167075797313 0 0.0010400340945078365 -0.014717097311280049 0 0.0011382967324622048 -0.01465341332171103 0 0.0014918355490034744 -0.014767270768136618 0 0.0013169257915757345 -0.014684321236495733 0 0.0014035054426583052 -0.014500045003613581 0 0.0011889472969879994 -0.014773167075797313 0 0.0014035147135584975 -0.014659189423836384 0 0.0012459671872415382 -0.014606832233953542 0 0.00098237763964608674 -0.014836681964137727 0 0.0019049944223399587 -0.012747465836470155 0 0.0011756710638653231 -0.014649666017097267 0 0.0013169257915757345 -0.014684321236495733 0 0.0014035054426583052 -0.014500045003613581 0 0.0011456088946722762 -0.014825366931417493 0 0.0011756710638653231 -0.014649666017097267 0 0.0013169257915757345 -0.014684321236495733 0 0.00066685054137105787 -0.014885246435357298 0 0.00084103576756641913 -0.0147778738167246 0 0.00087030127383838553 -0.015032403741547719 0 0.00066685054137105787 -0.014885246435357298 0 0.00051677233234631895 -0.014847368908607847 0 0.00068262197420412244 -0.014719572912391839 0 0.00066685054137105787 -0.014885246435357298 0 0.00084103576756641913 -0.0147778738167246 0 0.00068262197420412244 -0.014719572912391839 0 0.00092734494726492674 -0.015206653166295599 0 0.00095172379889032631 -0.013578974424876824 0 0.00084103576756641913 -0.0147778738167246 0 0.00094954642961294017 -0.014779676970928309 0 0.0009360029960457614 -0.014637378076390544 0 0.00084103576756641913 -0.0147778738167246 0 0.00094954642961294017 -0.014779676970928309 0 0.000882461962425117 -0.014893516626991414 0 0.0010400340945078365 -0.014717097311280049 0 0.00094954642961294017 -0.014779676970928309 0 0.0009360029960457614 -0.014637378076390544 0 0.00094954642961294017 -0.014779676970928309 0 0.000882461962425117 -0.014893516626991414 0 0.00099643230355286536 -0.014834649242500756 0 0.0010400340945078365 -0.014717097311280049 0 0.00094954642961294017 -0.014779676970928309 0 0.00099643230355286536 -0.014834649242500756 0 0.0011456088946722762 -0.014825366931417493 0 0.000882461962425117 -0.014893516626991414 0 0.00099643230355286536 -0.014834649242500756 0 0.00066685054137105787 -0.014885246435357298 0 0.00087030127383838553 -0.015032403741547719 0 0.00045345501904069221 -0.015047210000670127 0 -0.00063860726232982325 -0.014870672928314196 0 -0.00042894466232872974 -0.014689266146564801 0 -0.00021574493995781127 -0.014875091747352666 0 0.00095172379889032631 -0.013578974424876824 0 -7.457378148295557e-05 -0.015142929741792745 0 -0.00042894466232872974 -0.014689266146564801 0 -0.00072959211921115152 -0.014477285403446866 0 -0.00024735346287839259 -0.014447770114227805 0 -0.00063860726232982325 -0.014870672928314196 0 -0.00042894466232872974 -0.014689266146564801 0 -0.00072959211921115152 -0.014477285403446866 0 0.00095172379889032631 -0.013578974424876824 0 0.00064343058340556036 -0.012094515415484274 0 0.0018002320024412229 -0.010394793055450118 0 0.0022174235085262351 -0.010747329965538848 0 0.0020817799482604911 -0.0099431364129618834 0 0.00064343058340556036 -0.012094515415484274 0 0.00059294709953281865 -0.011390585667856151 0 0.0015488807793735244 -0.0098027139200797652 0 0.0020817799482604911 -0.0099431364129618834 0 0.0018946563447524924 -0.0092015301007186776 0 -0.00072959211921115152 -0.014477285403446866 0 -0.00053824001708482623 -0.013967493656495222 0 -0.00082326058199245339 -0.013990020639606086 0 -0.00037306481544377245 -0.014812483575879023 0 -0.00023726919776738853 -0.014806480084238556 0 -0.00021863757976231451 -0.014874612611906875 0 -0.00044084176135273729 -0.014683751061755101 0 -0.00026227497029174707 -0.014597882474188788 0 -0.00072959211921115152 -0.014477285403446866 0 -0.00053824001708482623 -0.013967493656495222 0 -0.00024735346287839259 -0.014447770114227805 0 -0.00037306481544377245 -0.014812483575879023 0 -0.0002927133574253087 -0.014746683740689319 0 -0.00023726919776738853 -0.014806480084238556 0 -0.00037306481544377245 -0.014812483575879023 0 -0.0002927133574253087 -0.014746683740689319 0 -0.00040904870566562583 -0.014708404339529415 0 -0.00040904870566562583 -0.014708404339529415 0 -0.00034389220373126677 -0.014664438276243979 0 -0.00045389535860232405 -0.014620204400916846 0 -0.0002927133574253087 -0.014746683740689319 0 -0.00034389220373126677 -0.014664438276243979 0 -0.0002403263320665056 -0.014689096900465713 0 -0.0002927133574253087 -0.014746683740689319 0 -0.00040904870566562583 -0.014708404339529415 0 -0.00034389220373126677 -0.014664438276243979 0 -0.00044084176135273729 -0.014683751061755101 0 -0.00037665231440278646 -0.012368680445556179 0 -0.00040904870566562583 -0.014708404339529415 0 -0.0005797297093226506 -0.014675627799570103 0 -0.00045389535860232405 -0.014620204400916846 0 -0.00037306481544377245 -0.014812483575879023 0 -0.00040904870566562583 -0.014708404339529415 0 -0.0005797297093226506 -0.014675627799570103 0 -0.00037665231440278646 -0.012368680445556179 0 0.00059294709953281865 -0.011390585667856151 0 -0.00053824001708482623 -0.013967493656495222 0 -0.00089950542584013539 -0.013447820026854932 0 -0.00082326058199245339 -0.013990020639606086 0 0.0018946563447524924 -0.0092015301007186776 0 0.0013780242090253695 -0.009170879908717039 0 0.0015617102885314212 -0.0089543432066446563 0 0.0013780242090253695 -0.009170879908717039 0 0.0013219381963917667 -0.0088648844224092256 0 0.0015617102885314212 -0.0089543432066446563 0 0.0013780242090253695 -0.009170879908717039 0 0.0009021729851657989 -0.0087624204198813501 0 0.0011795288695968398 -0.0083406715971436202 0 0.0013699797644162676 -0.0090872634842913934 0 0.0012644826754249991 -0.0086664741704762533 0 0.0008054613977221607 -0.0094818964183142774 0 0.00083861758259704488 -0.0091296286856282771 0 0.0013780242090253695 -0.009170879908717039 0 0.00083861758259704488 -0.0091296286856282771 0 0.0013780242090253695 -0.009170879908717039 0 0.0009021729851657989 -0.0087624204198813501 0 0.00080283215832251749 -0.0083522716621306434 0 0.0011795288695968398 -0.0083406715971436202 0 0.00092582941226675109 -0.0076122253594446878 0 0.0008143175205450185 -0.0082041619538517109 0 0.00092531775442807138 -0.0078680205486014333 0 0.0012644826754249991 -0.0086664741704762533 0 0.00092531775442807138 -0.0078680205486014333 0 0.0009021729851657989 -0.0087624204198813501 0 0.00080283215832251749 -0.0083522716621306434 0 0.0011795288695968398 -0.0083406715971436202 0 0.0013219381963917667 -0.0088648844224092256 0 0.0014977196283786141 -0.0088171448255509946 0 0.0013966915794377975 -0.0086890446693523322 0 0.0017112488646339288 -0.0087620675623986382 0 0.0018946563447524924 -0.0092015301007186776 0 0.0015617102885314212 -0.0089543432066446563 0 0.0017112488646339288 -0.0087620675623986382 0 0.0014977196283786141 -0.0088171448255509946 0 0.0013966915794377975 -0.0086890446693523322 0 0.0013219381963917667 -0.0088648844224092256 0 0.0015617102885314212 -0.0089543432066446563 0 0.0014977196283786141 -0.0088171448255509946 0 0.0017112488646339288 -0.0087620675623986382 0 0.0015617102885314212 -0.0089543432066446563 0 0.0014977196283786141 -0.0088171448255509946 0 -0.00037665231440278646 -0.012368680445556179 0 -0.00099835353440569266 -0.013753697038395194 0 -0.00037665231440278646 -0.012368680445556179 0 0.00025881284426432141 -0.010486011369354665 0 -0.0012685528406249794 -0.012144549372408872 0 -0.0010233236569248939 -0.012468090468086822 0 -0.0012173741109341102 -0.012628857889446333 0 0.0017112488646339288 -0.0087620675623986382 0 0.0014767402740290439 -0.0085313537359582147 0 0.0013966915794377975 -0.0086890446693523322 0 0.0014767402740290439 -0.0085313537359582147 0 0.0013966915794377975 -0.0086890446693523322 0 0.0012385382536776316 -0.0085945639965932415 0 0.0013219381963917667 -0.0088648844224092256 0 0.0013966915794377975 -0.0086890446693523322 0 0.0012385382536776316 -0.0085945639965932415 0 0.00025881284426432141 -0.010486011369354665 0 0.00037512361706866439 -0.0089819838591690127 0 0.00038432731780403809 -0.007328548095368535 0 0.00060601898733344314 -0.0079703034072179796 0 0.00070390471213751008 -0.0073186110519112601 0 0.0014767402740290439 -0.0085313537359582147 0 0.0012385382536776316 -0.0085945639965932415 0 0.0012799475634901073 -0.00830928957213075 0 -0.0010233236569248939 -0.012468090468086822 0 -0.00075842324504781617 -0.012800339552098902 0 -0.00098984656066209353 -0.01271659547437117 0 0.00092531775442807138 -0.0078680205486014333 0 0.00037512361706866439 -0.0089819838591690127 0 -0.00099831257146395808 -0.012939170053611351 0 -0.00075842324504781617 -0.012800339552098902 0 -0.00098984656066209353 -0.01271659547437117 0 -0.0010233236569248939 -0.012468090468086822 0 -0.0012173741109341102 -0.012628857889446333 0 -0.00098984656066209353 -0.01271659547437117 0 -0.00099831257146395808 -0.012939170053611351 0 -0.0012173741109341102 -0.012628857889446333 0 -0.00098984656066209353 -0.01271659547437117 0 -0.00065612999343022413 -0.014275038917833396 0 -0.00070497601783649558 -0.014471626735751881 0 -0.00056358518837051755 -0.014416325663913021 0 -0.00070497601783649558 -0.014471626735751881 0 -0.00056358518837051755 -0.014416325663913021 0 -0.00055375958702722687 -0.014547973064433006 0 -0.00056358518837051755 -0.014416325663913021 0 -0.00055375958702722687 -0.014547973064433006 0 -0.00046117176227286361 -0.014523392579504512 0 -0.00056358518837051755 -0.014416325663913021 0 -0.00039388932206906626 -0.014418944520791094 0 -0.00046117176227286361 -0.014523392579504512 0 -0.00048377723669770919 -0.014253905916975642 0 -0.00056358518837051755 -0.014416325663913021 0 -0.00039388932206906626 -0.014418944520791094 0 -0.00027633645090543633 -0.0142403219154928 0 -0.00039388932206906626 -0.014418944520791094 0 -0.0002510006999266399 -0.014435434005050041 0 -0.00039388932206906626 -0.014418944520791094 0 -0.00030601374868710927 -0.014572052342717134 0 -0.0002510006999266399 -0.014435434005050041 0 -0.00039388932206906626 -0.014418944520791094 0 -0.00030601374868710927 -0.014572052342717134 0 -0.00046117176227286361 -0.014523392579504512 0 -0.00030601374868710927 -0.014572052342717134 0 -0.00045389535860232405 -0.014620204400916846 0 -0.00046117176227286361 -0.014523392579504512 0 -0.00034389220373126677 -0.014664438276243979 0 -0.00030601374868710927 -0.014572052342717134 0 -0.0002403263320665056 -0.014689096900465713 0 -0.00034389220373126677 -0.014664438276243979 0 -0.00030601374868710927 -0.014572052342717134 0 -0.00045389535860232405 -0.014620204400916846 0 -0.0005797297093226506 -0.014675627799570103 0 -0.00045389535860232405 -0.014620204400916846 0 -0.00055375958702722687 -0.014547973064433006 0 -0.0005797297093226506 -0.014675627799570103 0 -0.00070497601783649558 -0.014471626735751881 0 -0.00055375958702722687 -0.014547973064433006 0 -0.00045389535860232405 -0.014620204400916846 0 -0.00055375958702722687 -0.014547973064433006 0 -0.00046117176227286361 -0.014523392579504512 0 -0.000101914177451273 -0.014576681066277464 0 -8.214945962733801e-05 -0.014642188456984987 0 -0.00013713527425122878 -0.014688740488052061 0 -0.000101914177451273 -0.014576681066277464 0 -0.00018806831512371911 -0.014618180637664289 0 -0.00013713527425122878 -0.014688740488052061 0 -0.000101914177451273 -0.014576681066277464 0 -0.00018806831512371911 -0.014618180637664289 0 -0.0001688435287194705 -0.01452021865112115 0 -0.00030601374868710927 -0.014572052342717134 0 -0.00018806831512371911 -0.014618180637664289 0 -0.0002403263320665056 -0.014689096900465713 0 -0.00030601374868710927 -0.014572052342717134 0 -0.00018806831512371911 -0.014618180637664289 0 -0.0001688435287194705 -0.01452021865112115 0 -0.00013188969870016302 -0.014357661027186146 0 -0.0001688435287194705 -0.01452021865112115 0 -0.0002510006999266399 -0.014435434005050041 0 -0.00030601374868710927 -0.014572052342717134 0 -0.0001688435287194705 -0.01452021865112115 0 -0.0002510006999266399 -0.014435434005050041 0 -0.00013188969870016302 -0.014357661027186146 0 -0.0001688435287194705 -0.01452021865112115 0 -9.5452341178002835e-05 -0.014472662167749154 0 -0.000101914177451273 -0.014576681066277464 0 -0.0001688435287194705 -0.01452021865112115 0 -9.5452341178002835e-05 -0.014472662167749154 0 -0.000101914177451273 -0.014576681066277464 0 -9.5452341178002835e-05 -0.014472662167749154 0 -5.4777117240034156e-05 -0.014508773997911395 0 -0.000101914177451273 -0.014576681066277464 0 -5.4777117240034156e-05 -0.014508773997911395 0 -4.5855995948751097e-05 -0.014594120999649927 0 -4.7226030644997382e-05 -0.014500375785413112 0 -5.4777117240034156e-05 -0.014508773997911395 0 -4.5855995948751097e-05 -0.014594120999649927 0 -4.607070802190016e-05 -0.014611046383395544 0 -4.5855995948751097e-05 -0.014594120999649927 0 -3.1185458442642335e-05 -0.014682408091915929 0 -4.607070802190016e-05 -0.014611046383395544 0 -4.7226030644997382e-05 -0.014500375785413112 0 -4.5855995948751097e-05 -0.014594120999649927 0 -3.1185458442642335e-05 -0.014682408091915929 0 -4.1656231937259616e-05 -0.014682347529679693 0 -1.7148393549754474e-05 -0.014735447674922702 0 -4.5855995948751097e-05 -0.014594120999649927 0 -3.1185458442642335e-05 -0.014682408091915929 0 -4.1656231937259616e-05 -0.014682347529679693 0 -4.1656231937259616e-05 -0.014682347529679693 0 -8.214945962733801e-05 -0.014642188456984987 0 -6.9464790798676201e-05 -0.01470264165578085 0 -0.000101914177451273 -0.014576681066277464 0 -4.5855995948751097e-05 -0.014594120999649927 0 -8.214945962733801e-05 -0.014642188456984987 0 -4.5855995948751097e-05 -0.014594120999649927 0 -4.1656231937259616e-05 -0.014682347529679693 0 -8.214945962733801e-05 -0.014642188456984987 0 -8.214945962733801e-05 -0.014642188456984987 0 -6.9464790798676201e-05 -0.01470264165578085 0 -0.00013713527425122878 -0.014688740488052061 0 -6.9464790798676201e-05 -0.01470264165578085 0 -0.00010284269488578273 -0.014735557994589553 0 -0.00013713527425122878 -0.014688740488052061 0 -6.9464790798676201e-05 -0.01470264165578085 0 -3.5137379321574408e-05 -0.0147420723581105 0 -6.9054801621120794e-05 -0.014761885911103338 0 -6.9464790798676201e-05 -0.01470264165578085 0 -0.00010284269488578273 -0.014735557994589553 0 -6.9054801621120794e-05 -0.014761885911103338 0 -4.1656231937259616e-05 -0.014682347529679693 0 -3.5137379321574408e-05 -0.0147420723581105 0 -1.7148393549754474e-05 -0.014735447674922702 0 -4.1656231937259616e-05 -0.014682347529679693 0 -6.9464790798676201e-05 -0.01470264165578085 0 -3.5137379321574408e-05 -0.0147420723581105 0 -3.5137379321574408e-05 -0.0147420723581105 0 -4.7359866596355932e-05 -0.014791125018802783 0 -6.1011490036149009e-06 -0.01477263258476391 0 -4.7359866596355932e-05 -0.014791125018802783 0 -3.0259733770755443e-05 -0.014835148029613946 0 -6.1011490036149009e-06 -0.01477263258476391 0 -3.5137379321574408e-05 -0.0147420723581105 0 -4.7359866596355932e-05 -0.014791125018802783 0 -6.9054801621120794e-05 -0.014761885911103338 0 -0.00010284269488578273 -0.014735557994589553 0 -6.9054801621120794e-05 -0.014761885911103338 0 -9.2107753293216085e-05 -0.014801022991083287 0 -0.00010284269488578273 -0.014735557994589553 0 -9.2107753293216085e-05 -0.014801022991083287 0 -0.00014190087098263227 -0.014768165515026467 0 -4.7359866596355932e-05 -0.014791125018802783 0 -6.9054801621120794e-05 -0.014761885911103338 0 -9.2107753293216085e-05 -0.014801022991083287 0 -9.2107753293216085e-05 -0.014801022991083287 0 -0.00015718372746400153 -0.014815574400050734 0 -0.00014190087098263227 -0.014768165515026467 0 -0.00015718372746400153 -0.014815574400050734 0 -0.00014190087098263227 -0.014768165515026467 0 -0.00019585648638862315 -0.014752308612362411 0 -0.00014190087098263227 -0.014768165515026467 0 -0.00013713527425122878 -0.014688740488052061 0 -0.00019585648638862315 -0.014752308612362411 0 -0.00010284269488578273 -0.014735557994589553 0 -0.00014190087098263227 -0.014768165515026467 0 -0.00013713527425122878 -0.014688740488052061 0 -0.00018806831512371911 -0.014618180637664289 0 -0.00013713527425122878 -0.014688740488052061 0 -0.0002403263320665056 -0.014689096900465713 0 -0.00013713527425122878 -0.014688740488052061 0 -0.0002403263320665056 -0.014689096900465713 0 -0.00019585648638862315 -0.014752308612362411 0 -0.0002927133574253087 -0.014746683740689319 0 -0.0002403263320665056 -0.014689096900465713 0 -0.00019585648638862315 -0.014752308612362411 0 -0.0002927133574253087 -0.014746683740689319 0 -0.00019585648638862315 -0.014752308612362411 0 -0.00023726919776738853 -0.014806480084238556 0 -0.00015718372746400153 -0.014815574400050734 0 -0.00019585648638862315 -0.014752308612362411 0 -0.00023726919776738853 -0.014806480084238556 0 -0.00015718372746400153 -0.014815574400050734 0 -0.00023726919776738853 -0.014806480084238556 0 -0.00021863757976231451 -0.014874612611906875 0 -0.00015718372746400153 -0.014815574400050734 0 -0.00014297174374976675 -0.0148618944384104 0 -0.00010401056040964291 -0.014844231738172894 0 -0.00015718372746400153 -0.014815574400050734 0 -0.00021863757976231451 -0.014874612611906875 0 -0.00014297174374976675 -0.0148618944384104 0 -9.2107753293216085e-05 -0.014801022991083287 0 -0.00015718372746400153 -0.014815574400050734 0 -0.00010401056040964291 -0.014844231738172894 0 -0.00021863757976231451 -0.014874612611906875 0 -0.00014297174374976675 -0.0148618944384104 0 -0.00013168521401800529 -0.014866838046964823 0 -0.00014297174374976675 -0.0148618944384104 0 -0.00013168521401800529 -0.014866838046964823 0 -0.00010041292933286759 -0.014876642859259109 0 -0.00014297174374976675 -0.0148618944384104 0 -0.00010041292933286759 -0.014876642859259109 0 -0.00010401056040964291 -0.014844231738172894 0 -0.00042894466232872974 -0.014689266146564801 0 -0.00024735346287839259 -0.014447770114227805 0 -0.00021574493995781127 -0.014875091747352666 0 -0.00026227497029174707 -0.014597882474188788 0 -0.00012694424956763913 -0.014866395702011041 0 -0.00024735346287839259 -0.014447770114227805 0 -0.00021574493995781127 -0.014875091747352666 0 -0.00013168521401800529 -0.014866838046964823 0 0.00045345501904069221 -0.015047210000670127 0 0.00030174927232422743 -0.014955372622129398 0 0.00019181224394887629 -0.015023929318057259 0 -0.00021574493995781127 -0.014875091747352666 0 -0.00013168521401800529 -0.014866838046964823 0 -6.9843718815323997e-05 -0.014908005818206355 0 -7.457378148295557e-05 -0.015142929741792745 0 0.00010954294070950739 -0.01494135550591778 0 -0.00013168521401800529 -0.014866838046964823 0 -6.9843718815323997e-05 -0.014908005818206355 0 -0.00010041292933286759 -0.014876642859259109 0 0.00045345501904069221 -0.015047210000670127 0 0.00030174927232422743 -0.014955372622129398 0 0.00039184965407295611 -0.014919060879182482 0 0.00030174927232422743 -0.014955372622129398 0 0.00031436618714136811 -0.014860210612575779 0 0.00039184965407295611 -0.014919060879182482 0 0.00030174927232422743 -0.014955372622129398 0 0.00031436618714136811 -0.014860210612575779 0 0.00020314006726270854 -0.014944554985049296 0 0.00031436618714136811 -0.014860210612575779 0 0.00039184965407295611 -0.014919060879182482 0 0.0004051292186885349 -0.014797149984922724 0 0.00045345501904069221 -0.015047210000670127 0 0.00051677233234631895 -0.014847368908607847 0 0.00039184965407295611 -0.014919060879182482 0 0.00051677233234631895 -0.014847368908607847 0 0.00039184965407295611 -0.014919060879182482 0 0.0004051292186885349 -0.014797149984922724 0 0.00066685054137105787 -0.014885246435357298 0 0.00045345501904069221 -0.015047210000670127 0 0.00051677233234631895 -0.014847368908607847 0 0.00051677233234631895 -0.014847368908607847 0 0.00053664652571640942 -0.014719880090841979 0 0.00068262197420412244 -0.014719572912391839 0 0.00051677233234631895 -0.014847368908607847 0 0.00053664652571640942 -0.014719880090841979 0 0.0004051292186885349 -0.014797149984922724 0 0.00012982760432623904 -0.014903443628017082 0 0.00011307648927856806 -0.014970918074306533 0 2.6090773689387831e-05 -0.01493700120322904 0 0.00016451382603404656 -0.014906881381835269 0 6.8990932605097289e-05 -0.014946404247158939 0 0.00031436618714136811 -0.014860210612575779 0 0.00012982760432623904 -0.014903443628017082 0 0.00020314006726270854 -0.014944554985049296 0 0.00030402642984802197 -0.014870378298656914 0 0.00016451382603404656 -0.014906881381835269 0 0.00012982760432623904 -0.014903443628017082 0 0.00020314006726270854 -0.014944554985049296 0 0.00011307648927856806 -0.014970918074306533 0 0.00020314006726270854 -0.014944554985049296 0 0.00019181224394887629 -0.015023929318057259 0 0.00011307648927856806 -0.014970918074306533 0 0.00030174927232422743 -0.014955372622129398 0 0.00020314006726270854 -0.014944554985049296 0 0.00019181224394887629 -0.015023929318057259 0 -6.9843718815323997e-05 -0.014908005818206355 0 -5.247442952853483e-05 -0.014903435523978287 0 -0.00010041292933286759 -0.014876642859259109 0 -6.9843718815323997e-05 -0.014908005818206355 0 -5.247442952853483e-05 -0.014903435523978287 0 -1.5155653018952145e-05 -0.014939551382134011 0 -1.6307240353415246e-05 -0.014922081508958315 0 -5.247442952853483e-05 -0.014903435523978287 0 -1.5155653018952145e-05 -0.014939551382134011 0 0.00019181224394887629 -0.015023929318057259 0 0.00011307648927856806 -0.014970918074306533 0 5.3520043206726407e-05 -0.015003014772257363 0 0.00010954294070950739 -0.01494135550591778 0 1.1221772038806191e-05 -0.014975231800092983 0 -1.6307240353415246e-05 -0.014922081508958315 0 -4.8953491563788477e-05 -0.014877415234504452 0 -3.0259733770755443e-05 -0.014835148029613946 0 -1.6307240353415246e-05 -0.014922081508958315 0 -5.247442952853483e-05 -0.014903435523978287 0 -4.8953491563788477e-05 -0.014877415234504452 0 -5.247442952853483e-05 -0.014903435523978287 0 -4.8953491563788477e-05 -0.014877415234504452 0 -7.5885852128375954e-05 -0.014870940873257535 0 -5.247442952853483e-05 -0.014903435523978287 0 -0.00010041292933286759 -0.014876642859259109 0 -7.5885852128375954e-05 -0.014870940873257535 0 -4.8953491563788477e-05 -0.014877415234504452 0 -7.5885852128375954e-05 -0.014870940873257535 0 -6.6578278230976763e-05 -0.014836292828104858 0 -0.00010041292933286759 -0.014876642859259109 0 -7.5885852128375954e-05 -0.014870940873257535 0 -0.00010401056040964291 -0.014844231738172894 0 -7.5885852128375954e-05 -0.014870940873257535 0 -0.00010401056040964291 -0.014844231738172894 0 -6.6578278230976763e-05 -0.014836292828104858 0 -4.7359866596355932e-05 -0.014791125018802783 0 -9.2107753293216085e-05 -0.014801022991083287 0 -6.6578278230976763e-05 -0.014836292828104858 0 -9.2107753293216085e-05 -0.014801022991083287 0 -0.00010401056040964291 -0.014844231738172894 0 -6.6578278230976763e-05 -0.014836292828104858 0 -4.8953491563788477e-05 -0.014877415234504452 0 -6.6578278230976763e-05 -0.014836292828104858 0 -3.0259733770755443e-05 -0.014835148029613946 0 -4.7359866596355932e-05 -0.014791125018802783 0 -6.6578278230976763e-05 -0.014836292828104858 0 -3.0259733770755443e-05 -0.014835148029613946 0 -3.0259733770755443e-05 -0.014835148029613946 0 1.4185927098006313e-05 -0.01481265825451572 0 -6.1011490036149009e-06 -0.01477263258476391 0 -1.6307240353415246e-05 -0.014922081508958315 0 -3.0259733770755443e-05 -0.014835148029613946 0 1.4185927098006313e-05 -0.01481265825451572 0 -8.9140926795007347e-06 -0.014976874886911646 0 -8.3003760123112956e-06 -0.014984856685995992 0 -2.0952253844453387e-05 -0.014986130557714011 0 -8.9140926795007347e-06 -0.014976874886911646 0 -1.050685571600849e-05 -0.014958165853048213 0 -8.3003760123112956e-06 -0.014984856685995992 0 -1.050685571600849e-05 -0.014958165853048213 0 -4.6269889580846608e-06 -0.01498107869136864 0 -8.3003760123112956e-06 -0.014984856685995992 0 -1.6628081680827047e-05 -0.014923655703336756 0 -1.6294023426830881e-06 -0.014896777363920885 0 -1.6307240353415246e-05 -0.014922081508958315 0 -1.050685571600849e-05 -0.014958165853048213 0 -1.5155653018952145e-05 -0.014939551382134011 0 -1.6307240353415246e-05 -0.014922081508958315 0 -8.9140926795007347e-06 -0.014976874886911646 0 -1.050685571600849e-05 -0.014958165853048213 0 1.1221772038806191e-05 -0.014975231800092983 0 4.1263025733965839e-06 -0.014978367405565091 0 -1.050685571600849e-05 -0.014958165853048213 0 -1.5155653018952145e-05 -0.014939551382134011 0 -4.6269889580846608e-06 -0.01498107869136864 0 5.3520043206726407e-05 -0.015003014772257363 0 -4.6269889580846608e-06 -0.01498107869136864 0 1.0756112930543274e-05 -0.014969350250233151 0 -4.6269889580846608e-06 -0.01498107869136864 0 1.0756112930543274e-05 -0.014969350250233151 0 -4.4261077138813964e-06 -0.014976428896685292 0 6.8990932605097289e-05 -0.014946404247158939 0 1.8187459198146959e-05 -0.014979700072784789 0 1.0756112930543274e-05 -0.014969350250233151 0 2.6090773689387831e-05 -0.01493700120322904 0 -4.4261077138813964e-06 -0.014976428896685292 0 5.3520043206726407e-05 -0.015003014772257363 0 1.0756112930543274e-05 -0.014969350250233151 0 2.6090773689387831e-05 -0.01493700120322904 0 0.00011307648927856806 -0.014970918074306533 0 5.3520043206726407e-05 -0.015003014772257363 0 2.6090773689387831e-05 -0.01493700120322904 0 -4.4261077138813964e-06 -0.014976428896685292 0 -3.88791235319389e-06 -0.014989251080371389 0 -6.423614965113617e-09 -0.014999981207095513 0 -3.88791235319389e-06 -0.014989251080371389 0 -2.3483747435402191e-09 -0.014999985105051667 0 -6.423614965113617e-09 -0.014999981207095513 0 1.8187459198146959e-05 -0.014979700072784789 0 3.2171270061440684e-09 -0.014999993414970632 0 -4.6269889580846608e-06 -0.01498107869136864 0 -4.4261077138813964e-06 -0.014976428896685292 0 -3.88791235319389e-06 -0.014989251080371389 0 -4.6269889580846608e-06 -0.01498107869136864 0 -3.88791235319389e-06 -0.014989251080371389 0 -8.3003760123112956e-06 -0.014984856685995992 0 -3.88791235319389e-06 -0.014989251080371389 0 -2.3483747435402191e-09 -0.014999985105051667 0 -8.3003760123112956e-06 -0.014984856685995992 0 -2.3483747435402191e-09 -0.014999985105051667 0 -8.3003760123112956e-06 -0.014984856685995992 0 -6.1932971906792131e-09 -0.014999975445535453 0 -8.3003760123112956e-06 -0.014984856685995992 0 -6.1932971906792131e-09 -0.014999975445535453 0 -6.9525457580011106e-06 -0.014991740991396756 0 -8.3003760123112956e-06 -0.014984856685995992 0 -6.9525457580011106e-06 -0.014991740991396756 0 -2.0952253844453387e-05 -0.014986130557714011 0 -6.1932971906792131e-09 -0.014999975445535453 0 -6.9525457580011106e-06 -0.014991740991396756 0 -8.590414795369841e-09 -0.01500001769029745 0 -8.590414795369841e-09 -0.01500001769029745 0 -7.3508224415608184e-06 -0.014973011727604523 0 2.7723089736071649e-08 -0.014999751586412138 0 -6.9525457580011106e-06 -0.014991740991396756 0 -8.590414795369841e-09 -0.01500001769029745 0 -7.3508224415608184e-06 -0.014973011727604523 0 -7.3508224415608184e-06 -0.014973011727604523 0 -2.0952253844453387e-05 -0.014986130557714011 0 -2.4834280484552013e-05 -0.014914768015167983 0 -1.1207546569174993e-05 -0.014881250408188959 0 -2.2253583215537213e-05 -0.014906232655581639 0 -6.9525457580011106e-06 -0.014991740991396756 0 -7.3508224415608184e-06 -0.014973011727604523 0 -2.0952253844453387e-05 -0.014986130557714011 0 -1.6294023426830881e-06 -0.014896777363920885 0 -1.1207546569174993e-05 -0.014881250408188959 0 1.4185927098006313e-05 -0.01481265825451572 0 -6.1011490036149009e-06 -0.01477263258476391 0 -7.7336224561682132e-06 -0.014773430679870402 0 -6.1011490036149009e-06 -0.01477263258476391 0 -6.1130764538115279e-06 -0.014774373743681873 0 -1.7148393549754474e-05 -0.014735447674922702 0 -3.5137379321574408e-05 -0.0147420723581105 0 -6.1011490036149009e-06 -0.01477263258476391 0 -1.7148393549754474e-05 -0.014735447674922702 0 -6.1011490036149009e-06 -0.01477263258476391 0 -6.1130764538115279e-06 -0.014774373743681873 0 -7.7336224561682132e-06 -0.014773430679870402 0 -6.1130764538115279e-06 -0.014774373743681873 0 -7.7336224561682132e-06 -0.014773430679870402 0 -2.0887961335070361e-05 -0.014839654099815967 0 -6.1130764538115279e-06 -0.014774373743681873 0 -2.2852929560855492e-05 -0.014764519880401944 0 -2.0887961335070361e-05 -0.014839654099815967 0 -2.2852929560855492e-05 -0.014764519880401944 0 -3.3276577619033548e-05 -0.014817887449512263 0 -2.0887961335070361e-05 -0.014839654099815967 0 -3.1185458442642335e-05 -0.014682408091915929 0 -2.2852929560855492e-05 -0.014764519880401944 0 -1.7148393549754474e-05 -0.014735447674922702 0 -6.1130764538115279e-06 -0.014774373743681873 0 -2.2852929560855492e-05 -0.014764519880401944 0 -1.7148393549754474e-05 -0.014735447674922702 0 -4.607070802190016e-05 -0.014611046383395544 0 -3.1185458442642335e-05 -0.014682408091915929 0 -3.7536694525682687e-05 -0.014698088013726606 0 -3.1185458442642335e-05 -0.014682408091915929 0 -2.2852929560855492e-05 -0.014764519880401944 0 -3.7536694525682687e-05 -0.014698088013726606 0 -2.2852929560855492e-05 -0.014764519880401944 0 -4.0039158268779654e-05 -0.014758054133977743 0 -3.3276577619033548e-05 -0.014817887449512263 0 -2.2852929560855492e-05 -0.014764519880401944 0 -3.7536694525682687e-05 -0.014698088013726606 0 -4.0039158268779654e-05 -0.014758054133977743 0 -4.0249260058038465e-05 -0.014799354526499022 0 -4.0039158268779654e-05 -0.014758054133977743 0 -3.3276577619033548e-05 -0.014817887449512263 0 -4.0249260058038465e-05 -0.014799354526499022 0 -3.3276577619033548e-05 -0.014817887449512263 0 -3.477153483741765e-05 -0.014844385463809236 0 -3.3276577619033548e-05 -0.014817887449512263 0 -2.9851985605793451e-05 -0.014883433560280459 0 -2.0887961335070361e-05 -0.014839654099815967 0 -3.3276577619033548e-05 -0.014817887449512263 0 -2.9851985605793451e-05 -0.014883433560280459 0 -3.477153483741765e-05 -0.014844385463809236 0 -8.242994122210753e-06 -0.014906481626627222 0 -3.9433471043611958e-06 -0.014963072445582358 0 -2.8544991250559702e-05 -0.014849080032981014 0 -3.477153483741765e-05 -0.014844385463809236 0 -2.1937559215822544e-05 -0.014893948060969883 0 -2.6048207478374076e-05 -0.014801269338114631 0 -2.1937559215822544e-05 -0.014893948060969883 0 4.8968300476728249e-07 -0.014965620141651733 0 -2.9851985605793451e-05 -0.014883433560280459 0 -3.477153483741765e-05 -0.014844385463809236 0 -2.1937559215822544e-05 -0.014893948060969883 0 -9.4149706004607321e-09 -0.015000047167354796 0 4.8968300476728249e-07 -0.014965620141651733 0 2.7723089736071649e-08 -0.014999751586412138 0 -2.9851985605793451e-05 -0.014883433560280459 0 -2.1937559215822544e-05 -0.014893948060969883 0 4.8968300476728249e-07 -0.014965620141651733 0 -2.9851985605793451e-05 -0.014883433560280459 0 4.8968300476728249e-07 -0.014965620141651733 0 -2.4834280484552013e-05 -0.014914768015167983 0 4.8968300476728249e-07 -0.014965620141651733 0 2.7723089736071649e-08 -0.014999751586412138 0 -2.4834280484552013e-05 -0.014914768015167983 0 -7.3508224415608184e-06 -0.014973011727604523 0 2.7723089736071649e-08 -0.014999751586412138 0 -2.4834280484552013e-05 -0.014914768015167983 0 -7.7336224561682132e-06 -0.014773430679870402 0 -2.0887961335070361e-05 -0.014839654099815967 0 -2.4834280484552013e-05 -0.014914768015167983 0 -2.9851985605793451e-05 -0.014883433560280459 0 -2.0887961335070361e-05 -0.014839654099815967 0 -2.4834280484552013e-05 -0.014914768015167983 0 -2.0268810405013069e-08 -0.014999877379860416 0 4.3545097977394829e-06 -0.014910162725556043 0 1.075230010803074e-05 -0.014972728143030117 0 4.3545097977394829e-06 -0.014910162725556043 0 7.3740231463986468e-05 -0.014940899489263203 0 1.075230010803074e-05 -0.014972728143030117 0 3.2084109806268358e-07 -0.015000385135930846 0 -0.00011326243369331566 -0.014608436702831211 0 -2.0268810405013069e-08 -0.014999877379860416 0 4.3545097977394829e-06 -0.014910162725556043 0 -3.1758506089775587e-08 -0.014999834403963871 0 4.3545097977394829e-06 -0.014910162725556043 0 9.5125989709107239e-05 -0.014814745929184497 0 7.3740231463986468e-05 -0.014940899489263203 0 4.3545097977394829e-06 -0.014910162725556043 0 9.5125989709107239e-05 -0.014814745929184497 0 4.3061806739229273e-05 -0.014728455212797214 0 9.5125989709107239e-05 -0.014814745929184497 0 0.00022986201796767504 -0.014874331166599974 0 0.0002102408743897443 -0.014642090883222852 0 -0.00010384933809437589 -0.014144204081881382 0 0.00014957103013007932 -0.014059142781677889 0 -0.00025355347751257121 -0.013408121229885293 0 -3.6611367997085928e-05 -0.013565335506291472 0 2.3293033462323501e-05 -0.013272979015055843 0 9.5125989709107239e-05 -0.014814745929184497 0 7.3740231463986468e-05 -0.014940899489263203 0 0.00022986201796767504 -0.014874331166599974 0 -0.00010384933809437589 -0.014144204081881382 0 -0.00011326243369331566 -0.014608436702831211 0 -0.00025355347751257121 -0.013408121229885293 0 -0.00031205879496558011 -0.0136740488236593 0 -0.00051826586847146582 -0.01353402432488751 0 -0.00041565788633974611 -0.014315538439736996 0 -0.00011326243369331566 -0.014608436702831211 0 -0.00025355347751257121 -0.013408121229885293 0 -3.6611367997085928e-05 -0.013565335506291472 0 -0.00031205879496558011 -0.0136740488236593 0 -3.6611367997085928e-05 -0.013565335506291472 0 -9.9795972884475335e-05 -0.013822584934883204 0 -0.00031205879496558011 -0.0136740488236593 0 -0.00077937144087033628 -0.014812926835328859 0 -0.00039416183907988193 -0.01506900473710901 0 -0.00056890310130334456 -0.01460344695404342 0 -0.00039021068944412114 -0.014364776731742687 0 -0.00041565788633974611 -0.014315538439736996 0 -0.00039416183907988193 -0.01506900473710901 0 -0.00056890310130334456 -0.01460344695404342 0 -0.00027742513687610245 -0.014796786363139768 0 -0.00039416183907988193 -0.01506900473710901 0 -0.00019977599186995015 -0.014981042683399916 0 -0.00027742513687610245 -0.014796786363139768 0 -8.4438299395600807e-05 -0.014934234616924646 0 -0.00019977599186995015 -0.014981042683399916 0 -0.00027742513687610245 -0.014796786363139768 0 -8.4438299395600807e-05 -0.014934234616924646 0 -8.733134217341026e-05 -0.015019843880629959 0 -0.00019977599186995015 -0.014981042683399916 0 -0.00039416183907988193 -0.01506900473710901 0 -0.00019977599186995015 -0.014981042683399916 0 -0.00014127963397281594 -0.015147333180543652 0 -8.733134217341026e-05 -0.015019843880629959 0 -0.00019977599186995015 -0.014981042683399916 0 -0.00014127963397281594 -0.015147333180543652 0 -0.00011326243369331566 -0.014608436702831211 0 -3.5599951867638566e-05 -0.015081699518893536 0 -8.733134217341026e-05 -0.015019843880629959 0 -0.00014127963397281594 -0.015147333180543652 0 1.0123173455013026e-08 -0.014969871699068668 0 2.9982733101910931e-09 -0.015000000735496198 0 -2.8967118854807112e-05 -0.014977681670292698 0 -5.0852628948099561e-09 -0.014969575900236582 0 -2.148424953662675e-05 -0.014972473386116495 0 -1.0651523870818519e-08 -0.014999639941101034 0 -2.2645251424618576e-05 -0.014943663906239611 0 1.0123173455013026e-08 -0.014969871699068668 0 -2.148424953662675e-05 -0.014972473386116495 0 -1.0651523870818519e-08 -0.014999639941101034 0 -8.4438299395600807e-05 -0.014934234616924646 0 -8.733134217341026e-05 -0.015019843880629959 0 -2.148424953662675e-05 -0.014972473386116495 0 -8.733134217341026e-05 -0.015019843880629959 0 1.0123173455013026e-08 -0.014969871699068668 0 -2.148424953662675e-05 -0.014972473386116495 0 -8.4438299395600807e-05 -0.014934234616924646 0 -2.148424953662675e-05 -0.014972473386116495 0 -2.2645251424618576e-05 -0.014943663906239611 0 -1.0651523870818519e-08 -0.014999639941101034 0 -2.2645251424618576e-05 -0.014943663906239611 0 -1.5436282126944835e-05 -0.014855200816912476 0 -8.4438299395600807e-05 -0.014934234616924646 0 -2.2645251424618576e-05 -0.014943663906239611 0 -1.5436282126944835e-05 -0.014855200816912476 0 -8.4438299395600807e-05 -0.014934234616924646 0 -1.5436282126944835e-05 -0.014855200816912476 0 -0.00027742513687610245 -0.014796786363139768 0 -1.5436282126944835e-05 -0.014855200816912476 0 -0.00054811683136828744 -0.014273732499516018 0 -0.00027742513687610245 -0.014796786363139768 0 -1.5436282126944835e-05 -0.014855200816912476 0 3.148826413232349e-05 -0.01493232626022295 0 9.1591773895550817e-05 -0.014861887305439541 0 -3.4067870753671225e-05 -0.014811823125191938 0 -0.00023938025110137705 -0.01458518660747341 0 -1.5436282126944835e-05 -0.014855200816912476 0 -3.510859538662631e-08 -0.014999964496654163 0 3.148826413232349e-05 -0.01493232626022295 0 -1.0651523870818519e-08 -0.014999639941101034 0 -1.5436282126944835e-05 -0.014855200816912476 0 -3.510859538662631e-08 -0.014999964496654163 0 -3.510859538662631e-08 -0.014999964496654163 0 3.148826413232349e-05 -0.01493232626022295 0 1.2638405105092983e-05 -0.014979204475804152 0 3.7847365873493705e-05 -0.014986119650973484 0 3.148826413232349e-05 -0.01493232626022295 0 1.2638405105092983e-05 -0.014979204475804152 0 3.7847365873493705e-05 -0.014986119650973484 0 3.148826413232349e-05 -0.01493232626022295 0 8.4411760210193395e-05 -0.01492207522712119 0 3.7847365873493705e-05 -0.014986119650973484 0 1.2638405105092983e-05 -0.014979204475804152 0 2.3616560946359807e-08 -0.014999986459448868 0 -3.510859538662631e-08 -0.014999964496654163 0 1.2638405105092983e-05 -0.014979204475804152 0 2.3616560946359807e-08 -0.014999986459448868 0 0.00011160057813933926 -0.01495547779530714 0 0.00013567796887429181 -0.014899198205028517 0 8.4411760210193395e-05 -0.01492207522712119 0 0.00011160057813933926 -0.01495547779530714 0 0.00013567796887429181 -0.014899198205028517 0 0.00017459011392243119 -0.014890975533853504 0 0.00011160057813933926 -0.01495547779530714 0 3.7847365873493705e-05 -0.014986119650973484 0 8.4411760210193395e-05 -0.01492207522712119 0 3.148826413232349e-05 -0.01493232626022295 0 8.4411760210193395e-05 -0.01492207522712119 0 9.1591773895550817e-05 -0.014861887305439541 0 8.4411760210193395e-05 -0.01492207522712119 0 0.00012554389815650372 -0.01487389396900053 0 9.1591773895550817e-05 -0.014861887305439541 0 0.00013567796887429181 -0.014899198205028517 0 8.4411760210193395e-05 -0.01492207522712119 0 0.00012554389815650372 -0.01487389396900053 0 0.00013567796887429181 -0.014899198205028517 0 0.00012554389815650372 -0.01487389396900053 0 0.00016589331917659091 -0.014868116864583602 0 -0.00054811683136828744 -0.014273732499516018 0 -0.0010545479411535029 -0.014137180130472816 0 -0.0010797597524362329 -0.014152505754375351 0 0.00012554389815650372 -0.01487389396900053 0 9.1591773895550817e-05 -0.014861887305439541 0 0.00017449875900241136 -0.014835449081841198 0 -0.00023938025110137705 -0.01458518660747341 0 -0.00042946672197889815 -0.014500948096617897 0 -0.00054811683136828744 -0.014273732499516018 0 -0.00081265104340935896 -0.014447030287837606 0 -0.0010545479411535029 -0.014137180130472816 0 -0.00054811683136828744 -0.014273732499516018 0 -0.00056890310130334456 -0.01460344695404342 0 -0.00027742513687610245 -0.014796786363139768 0 -0.00054811683136828744 -0.014273732499516018 0 -0.00056890310130334456 -0.01460344695404342 0 -0.00081265104340935896 -0.014447030287837606 0 -0.00077937144087033628 -0.014812926835328859 0 -0.00056890310130334456 -0.01460344695404342 0 -0.00081265104340935896 -0.014447030287837606 0 -0.00077937144087033628 -0.014812926835328859 0 -0.00081265104340935896 -0.014447030287837606 0 -0.0012097800923774416 -0.014457196971065263 0 -0.00039021068944412114 -0.014364776731742687 0 -0.00063025935660055332 -0.013853651905152042 0 -0.00063025935660055332 -0.013853651905152042 0 -0.00099560666186648611 -0.014172552702144195 0 -0.0010534251405045184 -0.013634919840908402 0 -0.0009327186846270956 -0.013670782559289777 0 -0.00097442283812595619 -0.013963805132841402 0 -0.0010534251405045184 -0.013634919840908402 0 -0.0010545479411535029 -0.014137180130472816 0 -0.00097442283812595619 -0.013963805132841402 0 -0.00063025935660055332 -0.013853651905152042 0 -0.00089552581855917757 -0.013677891657323658 0 -0.00081265104340935896 -0.014447030287837606 0 -0.0012097800923774416 -0.014457196971065263 0 -0.0010545479411535029 -0.014137180130472816 0 -0.0012525803194216156 -0.013426659227307094 0 -0.0006489563037493975 -0.013226404958785585 0 -0.00082876409489321217 -0.012306147003512475 0 -0.0006489563037493975 -0.013226404958785585 0 -0.00017139004013241123 -0.013340774908140287 0 -0.00026674816421657185 -0.012770985976341107 0 -0.0006489563037493975 -0.013226404958785585 0 -0.0009327186846270956 -0.013670782559289777 0 -0.00056263017496306611 -0.013746745409020109 0 -0.0012525803194216156 -0.013426659227307094 0 -0.0006489563037493975 -0.013226404958785585 0 -0.0009327186846270956 -0.013670782559289777 0 -0.00056263017496306611 -0.013746745409020109 0 -0.00018996686433476957 -0.013857182237667959 0 -0.00017139004013241123 -0.013340774908140287 0 -0.0006489563037493975 -0.013226404958785585 0 -0.00056263017496306611 -0.013746745409020109 0 -0.00017139004013241123 -0.013340774908140287 0 -0.00084835494673692654 -0.014020966659774436 0 -0.0004655519958981332 -0.014120555271458262 0 -0.0010797597524362329 -0.014152505754375351 0 -0.00056263017496306611 -0.013746745409020109 0 -0.0004655519958981332 -0.014120555271458262 0 -0.00018996686433476957 -0.013857182237667959 0 -0.0009327186846270956 -0.013670782559289777 0 -0.00056263017496306611 -0.013746745409020109 0 -0.00084835494673692654 -0.014020966659774436 0 -0.00056263017496306611 -0.013746745409020109 0 -0.00084835494673692654 -0.014020966659774436 0 -0.0004655519958981332 -0.014120555271458262 0 -0.0010545479411535029 -0.014137180130472816 0 -0.00097442283812595619 -0.013963805132841402 0 -0.0010797597524362329 -0.014152505754375351 0 -0.0009327186846270956 -0.013670782559289777 0 -0.00084835494673692654 -0.014020966659774436 0 -0.00097442283812595619 -0.013963805132841402 0 -0.00084835494673692654 -0.014020966659774436 0 -0.00097442283812595619 -0.013963805132841402 0 -0.0010797597524362329 -0.014152505754375351 0 0.00012554389815650372 -0.01487389396900053 0 0.00017449875900241136 -0.014835449081841198 0 0.00016589331917659091 -0.014868116864583602 0 0.00017449875900241136 -0.014835449081841198 0 0.00016589331917659091 -0.014868116864583602 0 0.0002174553594584596 -0.014847074591018812 0 0.00017449875900241136 -0.014835449081841198 0 0.0002174553594584596 -0.014847074591018812 0 0.00026999521219568819 -0.014815188544367835 0 0.0002174553594584596 -0.014847074591018812 0 0.00025095022026064908 -0.014835212385493559 0 0.00026999521219568819 -0.014815188544367835 0 -0.0004655519958981332 -0.014120555271458262 0 -0.0010797597524362329 -0.014152505754375351 0 2.4554004237620511e-05 -0.014728435116578795 0 -0.00042946672197889815 -0.014500948096617897 0 0.00016413032742503529 -0.014802208819772405 0 0.0002174553594584596 -0.014847074591018812 0 0.00023632470291586687 -0.014856494657970544 0 0.00017459011392243119 -0.014890975533853504 0 0.00031436618714136811 -0.014860210612575779 0 0.00019276646440935939 -0.014915114048892078 0 0.00023632470291586687 -0.014856494657970544 0 0.00019276646440935939 -0.014915114048892078 0 0.00023632470291586687 -0.014856494657970544 0 0.00017459011392243119 -0.014890975533853504 0 0.0002174553594584596 -0.014847074591018812 0 0.00025095022026064908 -0.014835212385493559 0 0.00023632470291586687 -0.014856494657970544 0 0.00025095022026064908 -0.014835212385493559 0 0.00023632470291586687 -0.014856494657970544 0 0.00027743937414518379 -0.014822778736432798 0 0.00019276646440935939 -0.014915114048892078 0 0.00011160057813933926 -0.01495547779530714 0 0.00017459011392243119 -0.014890975533853504 0 0.00013567796887429181 -0.014899198205028517 0 0.00016589331917659091 -0.014868116864583602 0 0.00017459011392243119 -0.014890975533853504 0 0.00016589331917659091 -0.014868116864583602 0 0.0002174553594584596 -0.014847074591018812 0 0.00017459011392243119 -0.014890975533853504 0 0.0002941898629014212 -0.014826451505503517 0 0.00026999521219568819 -0.014815188544367835 0 0.00032301833692662365 -0.014817100965532964 0 0.00043731232362197696 -0.014666016436819255 0 0.00053664652571640942 -0.014719880090841979 0 0.00065049831683113197 -0.014562730220519108 0 0.00032540083897045972 -0.014767014216451001 0 0.00084815363027965554 -0.01478154710743025 0 0.00043731232362197696 -0.014666016436819255 0 0.00053664652571640942 -0.014719880090841979 0 0.0004051292186885349 -0.014797149984922724 0 0.00025095022026064908 -0.014835212385493559 0 0.00027743937414518379 -0.014822778736432798 0 0.00026999521219568819 -0.014815188544367835 0 0.00043731232362197696 -0.014666016436819255 0 0.0004051292186885349 -0.014797149984922724 0 0.00027743937414518379 -0.014822778736432798 0 0.0002941898629014212 -0.014826451505503517 0 0.00027743937414518379 -0.014822778736432798 0 0.00026999521219568819 -0.014815188544367835 0 0.00031436618714136811 -0.014860210612575779 0 0.0004051292186885349 -0.014797149984922724 0 0.00027743937414518379 -0.014822778736432798 0 0.00031436618714136811 -0.014860210612575779 0 0.00023632470291586687 -0.014856494657970544 0 0.00027743937414518379 -0.014822778736432798 0 0.00032540083897045972 -0.014767014216451001 0 0.00031197881333009357 -0.014794017006929028 0 2.4554004237620511e-05 -0.014728435116578795 0 0.00091817234342144382 -0.014376899506048417 0 3.9527567224814979e-05 -0.014219001796306321 0 -0.0004655519958981332 -0.014120555271458262 0 2.4554004237620511e-05 -0.014728435116578795 0 3.9527567224814979e-05 -0.014219001796306321 0 0.00016413032742503529 -0.014802208819772405 0 0.00084815363027965554 -0.01478154710743025 0 2.4554004237620511e-05 -0.014728435116578795 0 0.00091817234342144382 -0.014376899506048417 0 0.0014205225488011007 -0.015195356280966282 0 0.00091817234342144382 -0.014376899506048417 0 0.00095222807341107806 -0.013692955895228847 0 0.0016349502013467683 -0.014020890737398808 0 0.00091817234342144382 -0.014376899506048417 0 0.00095222807341107806 -0.013692955895228847 0 0.00032359732875760579 -0.01377267332473482 0 0.00091817234342144382 -0.014376899506048417 0 3.9527567224814979e-05 -0.014219001796306321 0 0.00032359732875760579 -0.01377267332473482 0 -0.0004655519958981332 -0.014120555271458262 0 3.9527567224814979e-05 -0.014219001796306321 0 -0.00018996686433476957 -0.013857182237667959 0 3.9527567224814979e-05 -0.014219001796306321 0 0.00032359732875760579 -0.01377267332473482 0 -0.00018996686433476957 -0.013857182237667959 0 0.00032359732875760579 -0.01377267332473482 0 -0.00018996686433476957 -0.013857182237667959 0 -0.00017139004013241123 -0.013340774908140287 0 -0.00017139004013241123 -0.013340774908140287 0 0.00049832973618915363 -0.013128314035766808 0 -0.00026674816421657185 -0.012770985976341107 0 0.00032359732875760579 -0.01377267332473482 0 -0.00017139004013241123 -0.013340774908140287 0 0.00049832973618915363 -0.013128314035766808 0 0.00049832973618915363 -0.013128314035766808 0 0.00098437506053161272 -0.012377581385375208 0 0.0014027498573203282 -0.013163427769764058 0 0.00095222807341107806 -0.013692955895228847 0 0.00049832973618915363 -0.013128314035766808 0 0.0014027498573203282 -0.013163427769764058 0 0.00095222807341107806 -0.013692955895228847 0 0.00032359732875760579 -0.01377267332473482 0 0.00049832973618915363 -0.013128314035766808 0 0.00049832973618915363 -0.013128314035766808 0 0.00098437506053161272 -0.012377581385375208 0 0.00014272325110562158 -0.012274795010641609 0 0.00098437506053161272 -0.012377581385375208 0 0.00054754717184293973 -0.011556679796609967 0 0.00014272325110562158 -0.012274795010641609 0 0.00098437506053161272 -0.012377581385375208 0 0.00054754717184293973 -0.011556679796609967 0 0.0013891008219929404 -0.011631546864194341 0 0.00054754717184293973 -0.011556679796609967 0 0.00086886536132620618 -0.010833881780642055 0 0.0013891008219929404 -0.011631546864194341 0 0.00054754717184293973 -0.011556679796609967 0 0.00014272325110562158 -0.012274795010641609 0 -0.00037166052469337154 -0.011268709427997516 0 0.00054754717184293973 -0.011556679796609967 0 -0.00037166052469337154 -0.011268709427997516 0 0.00026779275702892662 -0.010969485426197714 0 0.00049832973618915363 -0.013128314035766808 0 0.00014272325110562158 -0.012274795010641609 0 -0.00026674816421657185 -0.012770985976341107 0 0.00014272325110562158 -0.012274795010641609 0 -0.00026674816421657185 -0.012770985976341107 0 -0.00082876409489321217 -0.012306147003512475 0 -0.00063025935660055332 -0.013853651905152042 0 -0.00026935879734669429 -0.012984976547731212 0 -0.0006489563037493975 -0.013226404958785585 0 -0.00026674816421657185 -0.012770985976341107 0 -0.00082876409489321217 -0.012306147003512475 0 -3.6611367997085928e-05 -0.013565335506291472 0 -9.9795972884475335e-05 -0.013822584934883204 0 0.00024678578960125191 -0.013724705553286755 0 -9.9795972884475335e-05 -0.013822584934883204 0 0.00011634551375338856 -0.013973267737465217 0 0.00024678578960125191 -0.013724705553286755 0 -3.6611367997085928e-05 -0.013565335506291472 0 0.00024678578960125191 -0.013724705553286755 0 0.00017587547958048354 -0.013469998401667295 0 0.00014272325110562158 -0.012274795010641609 0 -0.00082876409489321217 -0.012306147003512475 0 -0.00037166052469337154 -0.011268709427997516 0 0.00024678578960125191 -0.013724705553286755 0 0.00017587547958048354 -0.013469998401667295 0 0.00038813694883074647 -0.013467146904878088 0 -0.00026935879734669429 -0.012984976547731212 0 -1.5716322293809696e-05 -0.012344353678988297 0 0.00038813694883074647 -0.013467146904878088 0 0.00026273209303196262 -0.013315268065559287 0 0.00039569489860346869 -0.013220939930872925 0 0.00026273209303196262 -0.013315268065559287 0 2.3293033462323501e-05 -0.013272979015055843 0 0.00032117688453247548 -0.013124325325532963 0 0.00017587547958048354 -0.013469998401667295 0 0.00038813694883074647 -0.013467146904878088 0 0.00026273209303196262 -0.013315268065559287 0 0.00017587547958048354 -0.013469998401667295 0 0.00026273209303196262 -0.013315268065559287 0 2.3293033462323501e-05 -0.013272979015055843 0 -3.6611367997085928e-05 -0.013565335506291472 0 0.00017587547958048354 -0.013469998401667295 0 2.3293033462323501e-05 -0.013272979015055843 0 0.00014957103013007932 -0.014059142781677889 0 0.00030803733269004499 -0.014028190594650877 0 0.00022986201796767504 -0.014874331166599974 0 0.00047279243096681436 -0.014730246140843487 0 0.0002102408743897443 -0.014642090883222852 0 0.00026273209303196262 -0.013315268065559287 0 0.00039569489860346869 -0.013220939930872925 0 0.00032117688453247548 -0.013124325325532963 0 0.00030803733269004499 -0.014028190594650877 0 0.0010153647290628252 -0.012912951517093265 0 0.00032117688453247548 -0.013124325325532963 0 0.00055125615977493804 -0.013196535302582035 0 0.00066736778845440667 -0.012972032264417774 0 0.00033662449939540756 -0.012763293770314056 0 0.00077550410773589594 -0.012045286133553721 0 0.00039569489860346869 -0.013220939930872925 0 0.00032117688453247548 -0.013124325325532963 0 0.00055125615977493804 -0.013196535302582035 0 0.00077550410773589594 -0.012045286133553721 0 0.0010153647290628252 -0.012912951517093265 0 0.0016266538069514454 -0.011572929455964685 0 0.00072253604541163774 -0.011697712777569343 0 0.0013826160902108437 -0.01207041703221229 0 0.00077550410773589594 -0.012045286133553721 0 0.0011260133265015805 -0.010755227966576476 0 0.00011791766348747518 -0.01027889242577262 0 0.00086886536132620618 -0.010833881780642055 0 0.001429478716040475 -0.010081541765037779 0 0.00054754717184293973 -0.011556679796609967 0 0.00086886536132620618 -0.010833881780642055 0 0.00026779275702892662 -0.010969485426197714 0 0.00038813694883074647 -0.013467146904878088 0 0.00039569489860346869 -0.013220939930872925 0 0.00053419399467402248 -0.013194226020128345 0 -0.00037166052469337154 -0.011268709427997516 0 0.00011791766348747518 -0.01027889242577262 0 0.00026779275702892662 -0.010969485426197714 0 -1.5716322293809696e-05 -0.012344353678988297 0 0.00077550410773589594 -0.012045286133553721 0 0.00011791766348747518 -0.01027889242577262 0 0.00086886536132620618 -0.010833881780642055 0 0.00026779275702892662 -0.010969485426197714 0 0.0024928999318319608 -0.010471874030290056 0 0.0016823473435320249 -0.010872614373044008 0 0.0020938648026352065 -0.011460702628681815 0 0.00086886536132620618 -0.010833881780642055 0 0.0016823473435320249 -0.010872614373044008 0 0.001429478716040475 -0.010081541765037779 0 0.00086886536132620618 -0.010833881780642055 0 0.0016823473435320249 -0.010872614373044008 0 0.0013891008219929404 -0.011631546864194341 0 0.0024928999318319608 -0.010471874030290056 0 0.0016823473435320249 -0.010872614373044008 0 0.001429478716040475 -0.010081541765037779 0 0.0011260133265015805 -0.010755227966576476 0 0.0010531878343854868 -0.010977961195284056 0 0.00072253604541163774 -0.011697712777569343 0 -0.00016785672865808903 -0.011797343767060382 0 0.00027352939455630842 -0.012096967672329536 0 0.0024928999318319608 -0.010471874030290056 0 0.0024793331360139664 -0.010038028719408426 0 0.0025973660320178435 -0.010243255553461164 0 0.0024928999318319608 -0.010471874030290056 0 0.001429478716040475 -0.010081541765037779 0 0.0024793331360139664 -0.010038028719408426 0 0.0024793331360139664 -0.010038028719408426 0 0.002614918151974972 -0.010228844174838925 0 0.0027129946226975322 -0.010359006388108247 0 0.0010531878343854868 -0.010977961195284056 0 0.0012339219222235894 -0.010898094830811469 0 -0.00016785672865808903 -0.011797343767060382 0 -0.00083957661618365182 -0.0118646293652316 0 -0.00048554373818143905 -0.012087049670091469 0 0.002614918151974972 -0.010228844174838925 0 0.0026281119495713142 -0.010130639195211932 0 0.0025973660320178435 -0.010243255553461164 0 0.0024793331360139664 -0.010038028719408426 0 0.002614918151974972 -0.010228844174838925 0 0.0025973660320178435 -0.010243255553461164 0 0.002614918151974972 -0.010228844174838925 0 0.0024736605632503599 -0.010365368244053669 0 0.0026281119495713142 -0.010130639195211932 0 0.0024736605632503599 -0.010365368244053669 0 0.0022596794368717884 -0.010120326784495239 0 0.0026281119495713142 -0.010130639195211932 0 0.002861767298869374 -0.010296679096615113 0 0.0012339219222235894 -0.010898094830811469 0 0.0026281119495713142 -0.010130639195211932 0 0.0025542379284073141 -0.010320798508111005 0 0.0026271776982731256 -0.010259392460437585 0 0.0022596794368717884 -0.010120326784495239 0 0.0026281119495713142 -0.010130639195211932 0 0.0021056279097919324 -0.0097467683216284386 0 0.0026060696049940066 -0.010081565108636959 0 0.0022811648656957512 -0.00962981775166942 0 0.0026281119495713142 -0.010130639195211932 0 0.0020926914769462965 -0.0090378629871062863 0 0.0021056279097919324 -0.0097467683216284386 0 0.0024928999318319608 -0.010471874030290056 0 0.0025973660320178435 -0.010243255553461164 0 0.0025542379284073141 -0.010320798508111005 0 0.0026281119495713142 -0.010130639195211932 0 0.0025973660320178435 -0.010243255553461164 0 0.0025542379284073141 -0.010320798508111005 0 0.0024928999318319608 -0.010471874030290056 0 0.0025542379284073141 -0.010320798508111005 0 0.0025280742629216037 -0.010335088622115901 0 0.0025192870565599016 -0.010501363675632751 0 0.0027520307207344334 -0.011151572499979919 0 0.0025542379284073141 -0.010320798508111005 0 0.0026271776982731256 -0.010259392460437585 0 0.0025280742629216037 -0.010335088622115901 0 0.0026281119495713142 -0.010130639195211932 0 0.0026271776982731256 -0.010259392460437585 0 0.0025070038180293988 -0.010237616447415504 0 0.0026271776982731256 -0.010259392460437585 0 0.0026098937177768166 -0.010393224603099714 0 0.0025280742629216037 -0.010335088622115901 0 0.0026271776982731256 -0.010259392460437585 0 0.0026098937177768166 -0.010393224603099714 0 0.0027372379404827342 -0.010436895479823802 0 0.0027520307207344334 -0.011151572499979919 0 0.0031016820426888695 -0.011880128366173309 0 0.0026098937177768166 -0.010393224603099714 0 0.0025280742629216037 -0.010335088622115901 0 0.0025418128659446763 -0.010545706757711904 0 0.0030311856108956869 -0.011968073019675018 0 0.0020938648026352065 -0.011460702628681815 0 0.0019550279382942503 -0.012368724719456679 0 0.0030311856108956869 -0.011968073019675018 0 0.0019550279382942503 -0.012368724719456679 0 0.0024431321149851557 -0.013333853467838518 0 0.0024928999318319608 -0.010471874030290056 0 0.0030311856108956869 -0.011968073019675018 0 0.0020938648026352065 -0.011460702628681815 0 0.0020938648026352065 -0.011460702628681815 0 0.0013891008219929404 -0.011631546864194341 0 0.0019550279382942503 -0.012368724719456679 0 0.0016823473435320249 -0.010872614373044008 0 0.0020938648026352065 -0.011460702628681815 0 0.0013891008219929404 -0.011631546864194341 0 0.00098437506053161272 -0.012377581385375208 0 0.0019550279382942503 -0.012368724719456679 0 0.0014027498573203282 -0.013163427769764058 0 0.00098437506053161272 -0.012377581385375208 0 0.0013891008219929404 -0.011631546864194341 0 0.0019550279382942503 -0.012368724719456679 0 0.0019550279382942503 -0.012368724719456679 0 0.0014027498573203282 -0.013163427769764058 0 0.0024431321149851557 -0.013333853467838518 0 0.0014027498573203282 -0.013163427769764058 0 0.0024431321149851557 -0.013333853467838518 0 0.0016349502013467683 -0.014020890737398808 0 0.0024431321149851557 -0.013333853467838518 0 0.0023496185222919167 -0.01417055292180173 0 0.0016349502013467683 -0.014020890737398808 0 0.0024431321149851557 -0.013333853467838518 0 0.0023496185222919167 -0.01417055292180173 0 0.0030643265946095253 -0.014116629427824956 0 0.00095222807341107806 -0.013692955895228847 0 0.0014027498573203282 -0.013163427769764058 0 0.0016349502013467683 -0.014020890737398808 0 0.0023496185222919167 -0.01417055292180173 0 0.0016349502013467683 -0.014020890737398808 0 0.0018919393838423362 -0.014579113792687042 0 0.00091817234342144382 -0.014376899506048417 0 0.0014664730281129877 -0.014542825218865327 0 0.0014205225488011007 -0.015195356280966282 0 0.00091817234342144382 -0.014376899506048417 0 0.0016349502013467683 -0.014020890737398808 0 0.0014664730281129877 -0.014542825218865327 0 0.0014664730281129877 -0.014542825218865327 0 0.0018919393838423362 -0.014579113792687042 0 0.0014205225488011007 -0.015195356280966282 0 0.0016349502013467683 -0.014020890737398808 0 0.0014664730281129877 -0.014542825218865327 0 0.0018919393838423362 -0.014579113792687042 0 0.0023496185222919167 -0.01417055292180173 0 0.0026340008809770357 -0.014906942910172008 0 0.0030643265946095253 -0.014116629427824956 0 0.0023496185222919167 -0.01417055292180173 0 0.0018919393838423362 -0.014579113792687042 0 0.0026340008809770357 -0.014906942910172008 0 0.0018919393838423362 -0.014579113792687042 0 0.0026340008809770357 -0.014906942910172008 0 0.0014205225488011007 -0.015195356280966282 0 0.0018572254552680549 -0.014844016646845141 0 0.00084815363027965554 -0.01478154710743025 0 0.00099078422102443159 -0.014446190818282094 0 0.0009360029960457614 -0.014637378076390544 0 0.00081400753149111398 -0.014584893522986486 0 0.00099078422102443159 -0.014446190818282094 0 0.0006680254705626644 -0.014543377138731783 0 0.00081400753149111398 -0.014584893522986486 0 0.00099078422102443159 -0.014446190818282094 0 0.0009360029960457614 -0.014637378076390544 0 0.0010502288339073738 -0.014598462314939647 0 0.0010400340945078365 -0.014717097311280049 0 0.0009360029960457614 -0.014637378076390544 0 0.0010502288339073738 -0.014598462314939647 0 0.00084103576756641913 -0.0147778738167246 0 0.0009360029960457614 -0.014637378076390544 0 0.00081400753149111398 -0.014584893522986486 0 0.00084103576756641913 -0.0147778738167246 0 0.00068262197420412244 -0.014719572912391839 0 0.00081400753149111398 -0.014584893522986486 0 0.00053664652571640942 -0.014719880090841979 0 0.00068262197420412244 -0.014719572912391839 0 0.00065049831683113197 -0.014562730220519108 0 0.00068262197420412244 -0.014719572912391839 0 0.00065049831683113197 -0.014562730220519108 0 0.00081400753149111398 -0.014584893522986486 0 0.00084815363027965554 -0.01478154710743025 0 0.00072568109324462648 -0.014613400446643327 0 0.0012459671872415382 -0.014606832233953542 0 0.0011493173485386647 -0.014534587465593073 0 0.0013017742627367049 -0.014350024154444439 0 0.0026485364015220066 -0.011012158489404031 0 0.0025886050429752496 -0.010788300436491798 0 0.0026876643476742559 -0.010857696716128228 0 0.0014035147135584975 -0.014659189423836384 0 0.0012459671872415382 -0.014606832233953542 0 0.0013017742627367049 -0.014350024154444439 0 0.0019049944223399587 -0.012747465836470155 0 0.0023676132852922323 -0.012973858773029999 0 0.0012459671872415382 -0.014606832233953542 0 0.0011382967324622048 -0.01465341332171103 0 0.0011493173485386647 -0.014534587465593073 0 0.0011382967324622048 -0.01465341332171103 0 0.0010502288339073738 -0.014598462314939647 0 0.0011493173485386647 -0.014534587465593073 0 0.0010400340945078365 -0.014717097311280049 0 0.0011382967324622048 -0.01465341332171103 0 0.0010502288339073738 -0.014598462314939647 0 0.00099078422102443159 -0.014446190818282094 0 0.0010502288339073738 -0.014598462314939647 0 0.0011493173485386647 -0.014534587465593073 0 0.0026340008809770357 -0.014906942910172008 0 0.003832723889178579 -0.01461036041115232 0 0.0030643265946095253 -0.014116629427824956 0 0.0018572254552680549 -0.014844016646845141 0 0.0023676132852922323 -0.012973858773029999 0 0.00099078422102443159 -0.014446190818282094 0 0.0011493173485386647 -0.014534587465593073 0 0.0013017742627367049 -0.014350024154444439 0 0.0025886050429752496 -0.010788300436491798 0 0.0026885078575199449 -0.010798617378899105 0 0.0026876643476742559 -0.010857696716128228 0 0.0025886050429752496 -0.010788300436491798 0 0.0026432133800764149 -0.010669288939734607 0 0.0026783077768825596 -0.010756274473654523 0 0.0025886050429752496 -0.010788300436491798 0 0.0026783077768825596 -0.010756274473654523 0 0.0026885078575199449 -0.010798617378899105 0 0.0026432133800764149 -0.010669288939734607 0 0.0025418128659446763 -0.010545706757711904 0 0.0026816858462690831 -0.010563115329902707 0 0.0023676132852922323 -0.012973858773029999 0 0.0031016820426888695 -0.011880128366173309 0 0.0025886050429752496 -0.010788300436491798 0 0.0026432133800764149 -0.010669288939734607 0 0.0025418128659446763 -0.010545706757711904 0 0.003832723889178579 -0.01461036041115232 0 0.0030643265946095253 -0.014116629427824956 0 0.0034238355941076013 -0.013285331021028388 0 0.0024431321149851557 -0.013333853467838518 0 0.0030643265946095253 -0.014116629427824956 0 0.0034238355941076013 -0.013285331021028388 0 0.0030311856108956869 -0.011968073019675018 0 0.0024431321149851557 -0.013333853467838518 0 0.0034238355941076013 -0.013285331021028388 0 0.0026098937177768166 -0.010393224603099714 0 0.0025418128659446763 -0.010545706757711904 0 0.0026816858462690831 -0.010563115329902707 0 0.0026098937177768166 -0.010393224603099714 0 0.0026816858462690831 -0.010563115329902707 0 0.0027372379404827342 -0.010436895479823802 0 0.0025443748350907299 -0.0096326342194534738 0 0.0025911934570689581 -0.009970130614165509 0 0.0026816858462690831 -0.010563115329902707 0 0.002834593232166813 -0.01062856771903262 0 0.0027372379404827342 -0.010436895479823802 0 0.0020595295530420219 -0.00850783473972197 0 0.00097939306944866324 -0.0086370165584148048 0 0.0018409630923062865 -0.0095821073852305691 0 0.0020595295530420219 -0.00850783473972197 0 0.0018409630923062865 -0.0095821073852305691 0 0.0025095959065055211 -0.0095544461670561409 0 0.0026432133800764149 -0.010669288939734607 0 0.0026816858462690831 -0.010563115329902707 0 0.0027275514602270517 -0.010704454603389828 0 0.0026816858462690831 -0.010563115329902707 0 0.002834593232166813 -0.01062856771903262 0 0.0027275514602270517 -0.010704454603389828 0 0.002834593232166813 -0.01062856771903262 0 0.0027275514602270517 -0.010704454603389828 0 0.0027867508888402667 -0.010759260509108002 0 0.0026432133800764149 -0.010669288939734607 0 0.0027275514602270517 -0.010704454603389828 0 0.0026783077768825596 -0.010756274473654523 0 0.0027275514602270517 -0.010704454603389828 0 0.0026783077768825596 -0.010756274473654523 0 0.0027377623027307544 -0.010777889419647583 0 0.0026783077768825596 -0.010756274473654523 0 0.0026885078575199449 -0.010798617378899105 0 0.0027377623027307544 -0.010777889419647583 0 0.0026885078575199449 -0.010798617378899105 0 0.0027493925435883603 -0.01082354233998775 0 0.0027377623027307544 -0.010777889419647583 0 0.0026885078575199449 -0.010798617378899105 0 0.0026876643476742559 -0.010857696716128228 0 0.0027493925435883603 -0.01082354233998775 0 0.0026876643476742559 -0.010857696716128228 0 0.0027493925435883603 -0.01082354233998775 0 0.0027559697982803559 -0.010870875372360233 0 0.0027837047663898614 -0.010834703224387858 0 0.0027493925435883603 -0.01082354233998775 0 0.0027722421559910155 -0.010800431539358175 0 0.0027837047663898614 -0.010834703224387858 0 0.0027493925435883603 -0.01082354233998775 0 0.0027559697982803559 -0.010870875372360233 0 0.0027837047663898614 -0.010834703224387858 0 0.0028217274895622965 -0.010840789622912107 0 0.0027559697982803559 -0.010870875372360233 0 0.0027493925435883603 -0.01082354233998775 0 0.0027722421559910155 -0.010800431539358175 0 0.0027377623027307544 -0.010777889419647583 0 0.0027722421559910155 -0.010800431539358175 0 0.0027867508888402667 -0.010759260509108002 0 0.0028032904695118959 -0.010807100799191734 0 0.0027837047663898614 -0.010834703224387858 0 0.0027722421559910155 -0.010800431539358175 0 0.0028032904695118959 -0.010807100799191734 0 0.0027275514602270517 -0.010704454603389828 0 0.0027867508888402667 -0.010759260509108002 0 0.0027377623027307544 -0.010777889419647583 0 0.0027722421559910155 -0.010800431539358175 0 0.0027867508888402667 -0.010759260509108002 0 0.0027377623027307544 -0.010777889419647583 0 0.0020595295530420219 -0.00850783473972197 0 0.0014802497371562459 -0.0074003788433728403 0 0.0013318655710671033 -0.0074777593136076612 0 0.002834593232166813 -0.01062856771903262 0 0.0028415758868226455 -0.010785963478756792 0 0.0029301859698640689 -0.010814285173038589 0 0.002834593232166813 -0.01062856771903262 0 0.0027867508888402667 -0.010759260509108002 0 0.0028415758868226455 -0.010785963478756792 0 0.0025443748350907299 -0.0096326342194534738 0 0.0015601348725091204 -0.0089090333222735969 0 0.0021427295516736312 -0.0099603507366635945 0 0.0015601348725091204 -0.0089090333222735969 0 0.0028415758868226455 -0.010785963478756792 0 0.0028612755910943956 -0.010847609858402035 0 0.0029301859698640689 -0.010814285173038589 0 0.0028032904695118959 -0.010807100799191734 0 0.0028415758868226455 -0.010785963478756792 0 0.0028217274895622965 -0.010840789622912107 0 0.0027867508888402667 -0.010759260509108002 0 0.0028032904695118959 -0.010807100799191734 0 0.0028415758868226455 -0.010785963478756792 0 0.0028415758868226455 -0.010785963478756792 0 0.0028217274895622965 -0.010840789622912107 0 0.0028612755910943956 -0.010847609858402035 0 0.0027837047663898614 -0.010834703224387858 0 0.0028032904695118959 -0.010807100799191734 0 0.0028217274895622965 -0.010840789622912107 0 0.0028217274895622965 -0.010840789622912107 0 0.0028613740321127329 -0.010866737046840271 0 0.0027559697982803559 -0.010870875372360233 0 0.0014366206126092003 -0.0095846776819560851 0 0.0021427295516736312 -0.0099603507366635945 0 0.0013063138914576611 -0.0083864814842238341 0 0.001261639537518782 -0.0090116967207373028 0 0.00096440588806377149 -0.0086638844890138521 0 0.0028217274895622965 -0.010840789622912107 0 0.0028612755910943956 -0.010847609858402035 0 0.0028613740321127329 -0.010866737046840271 0 0.001261639537518782 -0.0090116967207373028 0 0.00096440588806377149 -0.0086638844890138521 0 0.00088964705008127683 -0.0092101012442057754 0 0.0028612755910943956 -0.010847609858402035 0 0.0028595983171476927 -0.010861696261867488 0 0.0029301859698640689 -0.010814285173038589 0 0.0021615666502837693 -0.010072242142017483 0 0.0021427295516736312 -0.0099603507366635945 0 0.0015736482153262312 -0.010685280064221042 0 0.0015799581020613618 -0.010699971994822722 0 0.0015781068071288071 -0.010685325764145524 0 0.0026485364015220066 -0.011012158489404031 0 0.0026876643476742559 -0.010857696716128228 0 0.0027559697982803559 -0.010870875372360233 0 0.0026485364015220066 -0.011012158489404031 0 0.0028613740321127329 -0.010866737046840271 0 0.0027559697982803559 -0.010870875372360233 0 0.0019049944223399587 -0.012747465836470155 0 0.0021427295516736312 -0.0099603507366635945 0 0.00029303594288525601 -0.0065221409700765261 0 0.00068164813833218249 -0.0070882390151198217 0 0.00012859732494052684 -0.0076242271635757839 0 0.00029303594288525601 -0.0065221409700765261 0 0.00068164813833218249 -0.0070882390151198217 0 0.0009997621228321383 -0.0065758580186199567 0 0.0009997621228321383 -0.0065758580186199567 0 0.001477883796603275 -0.0074009749382375695 0 0.0013318655710671033 -0.0074777593136076612 0 0.00068164813833218249 -0.0070882390151198217 0 0.0009997621228321383 -0.0065758580186199567 0 0.0013318655710671033 -0.0074777593136076612 0 0.00096440588806377149 -0.0086638844890138521 0 0.00048159861527474637 -0.0085028508510816576 0 0.00088964705008127683 -0.0092101012442057754 0 0.00069083883509422049 -0.00745093315455696 0 0.0015601348725091204 -0.0089090333222735969 0 0.0015601348725091204 -0.0089090333222735969 0 0.0016638349117329505 -0.0086670677465756733 0 0.0013318655710671033 -0.0074777593136076612 0 0.00097939306944866324 -0.0086370165584148048 0 0.00012859732494052684 -0.0076242271635757839 0 0.00068164813833218249 -0.0070882390151198217 0 0.0013318655710671033 -0.0074777593136076612 0 0.00012859732494052684 -0.0076242271635757839 0 0.00070493132310632534 -0.0073512095820801983 0 0.00016172279227507944 -0.007735623704904054 0 4.5420533492087287e-05 -0.0065897228996479934 0 0.00084303973056566782 -0.0079930192101640048 0 9.0771387172096577e-05 -0.007109670744001104 0 0.0020595295530420219 -0.00850783473972197 0 0.0013318655710671033 -0.0074777593136076612 0 0.00097939306944866324 -0.0086370165584148048 0 0.00070493132310632534 -0.0073512095820801983 0 0.00071022280372239944 -0.0080700384604915441 0 0.0013858675900233202 -0.0081521289578281465 0 0.00084303973056566782 -0.0079930192101640048 0 0.0016117427039876837 -0.0088631144608983196 0 0.00070493132310632534 -0.0073512095820801983 0 0.00016172279227507944 -0.007735623704904054 0 0.00071022280372239944 -0.0080700384604915441 0 0.00016172279227507944 -0.007735623704904054 0 0.00035396470347026095 -0.0085766516300103991 0 -0.0001784824189436684 -0.0083155943349659846 0 0.00016172279227507944 -0.007735623704904054 0 0.00035396470347026095 -0.0085766516300103991 0 0.00071022280372239944 -0.0080700384604915441 0 0.00035396470347026095 -0.0085766516300103991 0 0.00030169327350967212 -0.0093235809360906526 0 -0.00031123398562667501 -0.0089986374137565935 0 0.00035396470347026095 -0.0085766516300103991 0 0.0009326145179525126 -0.0092176436991497027 0 0.00030169327350967212 -0.0093235809360906526 0 0.0009326145179525126 -0.0092176436991497027 0 0.00096410186579948742 -0.0085471425213446799 0 0.0013803735121538487 -0.0089103342155624626 0 0.00035396470347026095 -0.0085766516300103991 0 0.0009326145179525126 -0.0092176436991497027 0 0.00096410186579948742 -0.0085471425213446799 0 0.00096410186579948742 -0.0085471425213446799 0 0.00071022280372239944 -0.0080700384604915441 0 0.0013858675900233202 -0.0081521289578281465 0 0.00035396470347026095 -0.0085766516300103991 0 0.00096410186579948742 -0.0085471425213446799 0 0.00071022280372239944 -0.0080700384604915441 0 0.00096410186579948742 -0.0085471425213446799 0 0.0013858675900233202 -0.0081521289578281465 0 0.0013803735121538487 -0.0089103342155624626 0 0.0026440343036732991 -0.01023621636758768 0 0.0025911934570689581 -0.009970130614165509 0 0.0016117427039876837 -0.0088631144608983196 0 0.0022811648656957512 -0.00962981775166942 0 0.0018409630923062865 -0.0095821073852305691 0 0.0025095959065055211 -0.0095544461670561409 0 0.0025070038180293988 -0.010237616447415504 0 0.0026271776982731256 -0.010259392460437585 0 0.0025095959065055211 -0.0095544461670561409 0 0.0025070038180293988 -0.010237616447415504 0 0.0020926914769462965 -0.0090378629871062863 0 0.0013803735121538487 -0.0089103342155624626 0 0.0016489423748748339 -0.0094245064624213382 0 0.0013858675900233202 -0.0081521289578281465 0 0.0020926914769462965 -0.0090378629871062863 0 0.0013803735121538487 -0.0089103342155624626 0 0.0009326145179525126 -0.0092176436991497027 0 0.0013803735121538487 -0.0089103342155624626 0 0.0016489423748748339 -0.0094245064624213382 0 0.0016489423748748339 -0.0094245064624213382 0 0.001825353956715937 -0.0099617461009874307 0 0.0012956291676150466 -0.0099940263953804138 0 0.0009326145179525126 -0.0092176436991497027 0 0.0016489423748748339 -0.0094245064624213382 0 0.0012956291676150466 -0.0099940263953804138 0 0.0020926914769462965 -0.0090378629871062863 0 0.0016489423748748339 -0.0094245064624213382 0 0.0021056279097919324 -0.0097467683216284386 0 0.0016489423748748339 -0.0094245064624213382 0 0.0021056279097919324 -0.0097467683216284386 0 0.001825353956715937 -0.0099617461009874307 0 0.0022596794368717884 -0.010120326784495239 0 0.0021056279097919324 -0.0097467683216284386 0 0.001825353956715937 -0.0099617461009874307 0 0.0022596794368717884 -0.010120326784495239 0 0.001825353956715937 -0.0099617461009874307 0 0.0017598577213205997 -0.010635476027569259 0 0.0024736605632503599 -0.010365368244053669 0 0.0022596794368717884 -0.010120326784495239 0 0.0017598577213205997 -0.010635476027569259 0 0.001825353956715937 -0.0099617461009874307 0 0.0012956291676150466 -0.0099940263953804138 0 0.0017598577213205997 -0.010635476027569259 0 0.0006584961644072729 -0.0098633242710728687 0 -9.7195431254946867e-05 -0.0099503330900553542 0 0.00085543822337559355 -0.010853373095554227 0 0.0012956291676150466 -0.0099940263953804138 0 0.0006584961644072729 -0.0098633242710728687 0 0.00085543822337559355 -0.010853373095554227 0 0.0006584961644072729 -0.0098633242710728687 0 -9.7195431254946867e-05 -0.0099503330900553542 0 0.00030169327350967212 -0.0093235809360906526 0 -9.7195431254946867e-05 -0.0099503330900553542 0 0.00030169327350967212 -0.0093235809360906526 0 -0.00031123398562667501 -0.0089986374137565935 0 0.0009326145179525126 -0.0092176436991497027 0 0.0006584961644072729 -0.0098633242710728687 0 0.00030169327350967212 -0.0093235809360906526 0 0.0009326145179525126 -0.0092176436991497027 0 0.0012956291676150466 -0.0099940263953804138 0 0.0006584961644072729 -0.0098633242710728687 0 -0.00072856271989356 -0.011298364723774866 0 -0.0007798806866961233 -0.011703516428519575 0 -0.00098853818131571305 -0.011738588985142637 0 -0.00072856271989356 -0.011298364723774866 0 -0.00025761066727676739 -0.011094013341885891 0 -0.0007798806866961233 -0.011703516428519575 0 -0.00072856271989356 -0.011298364723774866 0 -0.00025761066727676739 -0.011094013341885891 0 -0.0006068060587383616 -0.0110931592801833 0 -0.00025989969872899991 -0.011156856453204024 0 3.6949516855510642e-05 -0.011252124124775834 0 -9.7195431254946867e-05 -0.0099503330900553542 0 -0.00025761066727676739 -0.011094013341885891 0 0.00085543822337559355 -0.010853373095554227 0 3.6949516855510642e-05 -0.011252124124775834 0 0.00027761209611594056 -0.0112863470667421 0 0.0012956291676150466 -0.0099940263953804138 0 0.00085543822337559355 -0.010853373095554227 0 0.0017598577213205997 -0.010635476027569259 0 -0.0007798806866961233 -0.011703516428519575 0 -0.0010206475175101189 -0.011887978638967837 0 -0.00098853818131571305 -0.011738588985142637 0 -0.0010206475175101189 -0.011887978638967837 0 -0.00098853818131571305 -0.011738588985142637 0 -0.00097680527060766591 -0.01201336847246184 0 -0.00083957661618365182 -0.0118646293652316 0 -0.0010206475175101189 -0.011887978638967837 0 -0.00097680527060766591 -0.01201336847246184 0 0.0012339219222235894 -0.010898094830811469 0 0.00027761209611594056 -0.0112863470667421 0 -0.0011456057436128604 -0.011917405281026172 0 -0.00098853818131571305 -0.011738588985142637 0 -0.00097680527060766591 -0.01201336847246184 0 -0.0011456057436128604 -0.011917405281026172 0 -0.00085227620374934434 -0.012503325960502352 0 -0.00097680527060766591 -0.01201336847246184 0 -0.00072856271989356 -0.011298364723774866 0 -0.00098853818131571305 -0.011738588985142637 0 -0.0008849399348864977 -0.011285668654136318 0 -0.0011456057436128604 -0.011917405281026172 0 -0.00098853818131571305 -0.011738588985142637 0 -0.0008849399348864977 -0.011285668654136318 0 -0.0011456057436128604 -0.011917405281026172 0 -0.0008849399348864977 -0.011285668654136318 0 -0.0010317966956479088 -0.01136714534933727 0 -0.0008849399348864977 -0.011285668654136318 0 -0.0010317966956479088 -0.01136714534933727 0 -0.0010347249179065477 -0.011118970999035749 0 -0.0008849399348864977 -0.011285668654136318 0 -0.0010347249179065477 -0.011118970999035749 0 -0.00092558371877700168 -0.010969643911468674 0 -0.0008849399348864977 -0.011285668654136318 0 -0.00092558371877700168 -0.010969643911468674 0 -0.00083498846750621825 -0.011009917482769202 0 -0.0011456057436128604 -0.011917405281026172 0 -0.0011929285440593739 -0.012870097103048013 0 -0.00085227620374934434 -0.012503325960502352 0 -0.0012313744431126394 -0.011822859536077406 0 -0.00071545327561789288 -0.012147613268898773 0 -0.0011456057436128604 -0.011917405281026172 0 -0.0010317966956479088 -0.01136714534933727 0 -0.0012082666997787306 -0.010917541906792007 0 -0.0010317966956479088 -0.01136714534933727 0 -0.0010347249179065477 -0.011118970999035749 0 -0.0012082666997787306 -0.010917541906792007 0 -0.00071545327561789288 -0.012147613268898773 0 -0.00077377646574931433 -0.01210395627051023 0 -0.0011128135310268972 -0.010896517606658876 0 -0.0010557140206705427 -0.010906726595347879 0 -0.00096777634328802219 -0.01088846810367388 0 -0.0010557140206705427 -0.010906726595347879 0 -0.0010420593522533588 -0.010949650541403714 0 -0.00099489074256644584 -0.010903939569070873 0 -0.0010557140206705427 -0.010906726595347879 0 -0.0011441163182101843 -0.010934823177932653 0 -0.0010420593522533588 -0.010949650541403714 0 -0.0011128135310268972 -0.010896517606658876 0 -0.0010557140206705427 -0.010906726595347879 0 -0.0011441163182101843 -0.010934823177932653 0 -0.0010347249179065477 -0.011118970999035749 0 -0.0011441163182101843 -0.010934823177932653 0 -0.0010420593522533588 -0.010949650541403714 0 -0.0010347249179065477 -0.011118970999035749 0 -0.0012082666997787306 -0.010917541906792007 0 -0.0011441163182101843 -0.010934823177932653 0 -0.0010347249179065477 -0.011118970999035749 0 -0.0010420593522533588 -0.010949650541403714 0 -0.00098568355883616766 -0.01095663109461892 0 -0.0010420593522533588 -0.010949650541403714 0 -0.00099489074256644584 -0.010903939569070873 0 -0.00098568355883616766 -0.01095663109461892 0 -0.00099489074256644584 -0.010903939569070873 0 -0.00096777634328802219 -0.01088846810367388 0 -0.0009275199883690264 -0.010856966810896696 0 -0.00099489074256644584 -0.010903939569070873 0 -0.00098568355883616766 -0.01095663109461892 0 -0.0009275199883690264 -0.010856966810896696 0 -0.0010557140206705427 -0.010906726595347879 0 -0.00099489074256644584 -0.010903939569070873 0 -0.00096777634328802219 -0.01088846810367388 0 -0.00092558371877700168 -0.010969643911468674 0 -0.00083498846750621825 -0.011009917482769202 0 -0.00097396213460697551 -0.010805428583800953 0 -0.0010347249179065477 -0.011118970999035749 0 -0.00092558371877700168 -0.010969643911468674 0 -0.00098568355883616766 -0.01095663109461892 0 -0.00092558371877700168 -0.010969643911468674 0 -0.00098568355883616766 -0.01095663109461892 0 -0.0009275199883690264 -0.010856966810896696 0 -0.00092558371877700168 -0.010969643911468674 0 -0.0009275199883690264 -0.010856966810896696 0 -0.00097396213460697551 -0.010805428583800953 0 -0.00083498846750621825 -0.011009917482769202 0 -0.00090288040926935203 -0.010759250172911263 0 -0.00097396213460697551 -0.010805428583800953 0 -0.00072856271989356 -0.011298364723774866 0 -0.00083498846750621825 -0.011009917482769202 0 -0.0006068060587383616 -0.0110931592801833 0 -0.00072856271989356 -0.011298364723774866 0 -0.0008849399348864977 -0.011285668654136318 0 -0.00083498846750621825 -0.011009917482769202 0 -0.00083498846750621825 -0.011009917482769202 0 -0.0006068060587383616 -0.0110931592801833 0 -0.00090288040926935203 -0.010759250172911263 0 -0.0006068060587383616 -0.0110931592801833 0 -0.00090288040926935203 -0.010759250172911263 0 -0.00054069604089380268 -0.010962425777831799 0 -0.00090288040926935203 -0.010759250172911263 0 -0.0011491007069497959 -0.010662960142417665 0 -0.0010030684268002353 -0.010202991753510766 0 -0.00090288040926935203 -0.010759250172911263 0 -0.0011491007069497959 -0.010662960142417665 0 -0.00097396213460697551 -0.010805428583800953 0 -0.0011491007069497959 -0.010662960142417665 0 -0.0011836916721474524 -0.010318744116111682 0 -0.0010030684268002353 -0.010202991753510766 0 -0.0011836916721474524 -0.010318744116111682 0 -0.0011854673187620642 -0.010437371680976006 0 -0.0013714402833300352 -0.010433130539451637 0 -0.0011491007069497959 -0.010662960142417665 0 -0.0011854673187620642 -0.010437371680976006 0 -0.0011043016104002198 -0.01045072515657928 0 -0.0011491007069497959 -0.010662960142417665 0 -0.0011836916721474524 -0.010318744116111682 0 -0.0011854673187620642 -0.010437371680976006 0 -0.0011854673187620642 -0.010437371680976006 0 -0.0011483423201380067 -0.010546656922235468 0 -0.0012848296214670017 -0.010593262015161082 0 -0.0013714402833300352 -0.010433130539451637 0 -0.00150123657041361 -0.010653199084752447 0 -0.0012848296214670017 -0.010593262015161082 0 -0.0011854673187620642 -0.010437371680976006 0 -0.0013714402833300352 -0.010433130539451637 0 -0.0012848296214670017 -0.010593262015161082 0 -0.0010190729927627362 -0.010642744671572352 0 -0.0011043016104002198 -0.01045072515657928 0 -0.0007041626712838365 -0.010694151143744779 0 -0.00071367114945327932 -0.01206104678165087 0 -7.1583507496893138e-05 -0.012269208758918588 0 -0.00010303081323920988 -0.012369907527701797 0 -0.00087845586088775246 -0.011235791666000111 0 -0.00042119772756571639 -0.011533863893819604 0 -0.0010190729927627362 -0.010642744671572352 0 -0.0011483423201380067 -0.010546656922235468 0 -0.0011043016104002198 -0.01045072515657928 0 -0.0011854673187620642 -0.010437371680976006 0 -0.0011483423201380067 -0.010546656922235468 0 -0.0011043016104002198 -0.01045072515657928 0 -0.00071367114945327932 -0.01206104678165087 0 -0.00053863251552244639 -0.011541141732780794 0 -7.1583507496893138e-05 -0.012269208758918588 0 -0.00018426729276531549 -0.012028265104897792 0 -8.6434588059154411e-05 -0.012270629466737138 0 -0.00071367114945327932 -0.01206104678165087 0 -0.00053863251552244639 -0.011541141732780794 0 -0.00084212440665352929 -0.010895090653351338 0 -0.00053863251552244639 -0.011541141732780794 0 -0.00046134109933552352 -0.010938866422241494 0 -7.1583507496893138e-05 -0.012269208758918588 0 -0.00053863251552244639 -0.011541141732780794 0 -0.00046134109933552352 -0.010938866422241494 0 -0.00084212440665352929 -0.010895090653351338 0 -0.0011491007069497959 -0.010662960142417665 0 -0.00071367114945327932 -0.01206104678165087 0 -0.00084212440665352929 -0.010895090653351338 0 -0.0011371188695594185 -0.010736448926235024 0 -0.00087845586088775246 -0.011235791666000111 0 -0.0011491007069497959 -0.010662960142417665 0 -0.00084212440665352929 -0.010895090653351338 0 -0.00097396213460697551 -0.010805428583800953 0 -0.0009275199883690264 -0.010856966810896696 0 -0.00084212440665352929 -0.010895090653351338 0 -0.00097396213460697551 -0.010805428583800953 0 -0.0009275199883690264 -0.010856966810896696 0 -0.00084212440665352929 -0.010895090653351338 0 -0.00080562458610803191 -0.010877382893149132 0 -0.0011128135310268972 -0.010896517606658876 0 -0.00096777634328802219 -0.01088846810367388 0 -0.00046134109933552352 -0.010938866422241494 0 -0.00071545327561789288 -0.012147613268898773 0 -0.00018426729276531549 -0.012028265104897792 0 -0.00096777634328802219 -0.01088846810367388 0 -0.00046134109933552352 -0.010938866422241494 0 -0.00080562458610803191 -0.010877382893149132 0 2.8727299631041171e-05 -0.01314779713044604 0 7.9680497572633645e-05 -0.01309979382250007 0 2.0297791143684651e-05 -0.013130279623530399 0 -0.00046134109933552352 -0.010938866422241494 0 -0.00084212440665352929 -0.010895090653351338 0 -0.00080562458610803191 -0.010877382893149132 0 -0.00096777634328802219 -0.01088846810367388 0 -0.0009275199883690264 -0.010856966810896696 0 -0.00080562458610803191 -0.010877382893149132 0 2.0297791143684651e-05 -0.013130279623530399 0 -3.3875957355047258e-05 -0.013091581723935914 0 -7.9387405264753123e-06 -0.01313071247010753 0 7.9680497572633645e-05 -0.01309979382250007 0 2.0297791143684651e-05 -0.013130279623530399 0 -3.3875957355047258e-05 -0.013091581723935914 0 -3.3875957355047258e-05 -0.013091581723935914 0 2.3336877193549272e-05 -0.013163834340724274 0 -7.9387405264753123e-06 -0.01313071247010753 0 2.3336877193549272e-05 -0.013163834340724274 0 -3.835174009465654e-06 -0.01305280579387477 0 7.3751565880259012e-05 -0.013188496140066798 0 -3.3875957355047258e-05 -0.013091581723935914 0 2.3336877193549272e-05 -0.013163834340724274 0 -3.835174009465654e-06 -0.01305280579387477 0 7.9680497572633645e-05 -0.01309979382250007 0 -0.00011569441093551613 -0.012803839003673175 0 -7.1583507496893138e-05 -0.012269208758918588 0 7.9680497572633645e-05 -0.01309979382250007 0 -3.3875957355047258e-05 -0.013091581723935914 0 -0.00011569441093551613 -0.012803839003673175 0 -3.3875957355047258e-05 -0.013091581723935914 0 -3.835174009465654e-06 -0.01305280579387477 0 -0.00011569441093551613 -0.012803839003673175 0 -0.00011569441093551613 -0.012803839003673175 0 5.6839060933545003e-05 -0.0131342216244059 0 6.3767498970209525e-05 -0.013318182480455285 0 -0.00011569441093551613 -0.012803839003673175 0 -7.1583507496893138e-05 -0.012269208758918588 0 -0.00012363192294382556 -0.012232403406230776 0 -3.835174009465654e-06 -0.01305280579387477 0 -0.00011569441093551613 -0.012803839003673175 0 5.6839060933545003e-05 -0.0131342216244059 0 -9.8994950776544485e-05 -0.01281284483416829 0 -2.2197663501707052e-05 -0.012778759668215742 0 5.6839060933545003e-05 -0.0131342216244059 0 0.00014353956920747004 -0.013291447237749377 0 7.3751565880259012e-05 -0.013188496140066798 0 -3.835174009465654e-06 -0.01305280579387477 0 5.6839060933545003e-05 -0.0131342216244059 0 7.3751565880259012e-05 -0.013188496140066798 0 5.6839060933545003e-05 -0.0131342216244059 0 6.3767498970209525e-05 -0.013318182480455285 0 0.00014353956920747004 -0.013291447237749377 0 6.3767498970209525e-05 -0.013318182480455285 0 0.00014353956920747004 -0.013291447237749377 0 0.00017665245627873725 -0.013281437171699093 0 -7.1583507496893138e-05 -0.012269208758918588 0 -0.00012363192294382556 -0.012232403406230776 0 -0.00010303081323920988 -0.012369907527701797 0 0.00010708159073477205 -0.013354196337561922 0 0.00012278801734954672 -0.013380868145784786 0 8.8720662363653906e-05 -0.013406797248917666 0 0.00012702878304957934 -0.013331473767967499 0 0.00010708159073477205 -0.013354196337561922 0 0.00012278801734954672 -0.013380868145784786 0 0.00010708159073477205 -0.013354196337561922 0 7.6582183273271525e-05 -0.013338407954173596 0 0.00013134445989696283 -0.013299974148838949 0 0.00012702878304957934 -0.013331473767967499 0 0.00010708159073477205 -0.013354196337561922 0 0.00013134445989696283 -0.013299974148838949 0 0.00014353956920747004 -0.013291447237749377 0 0.00017665245627873725 -0.013281437171699093 0 0.00013134445989696283 -0.013299974148838949 0 0.00012702878304957934 -0.013331473767967499 0 0.00014353956920747004 -0.013291447237749377 0 0.00013134445989696283 -0.013299974148838949 0 0.00012702878304957934 -0.013331473767967499 0 0.00014353956920747004 -0.013291447237749377 0 0.00012141568822474185 -0.013296513904954189 0 0.00012141568822474185 -0.013296513904954189 0 7.3751565880259012e-05 -0.013188496140066798 0 0.00010943122001685 -0.013323357747856947 0 0.00014353956920747004 -0.013291447237749377 0 0.00012141568822474185 -0.013296513904954189 0 7.3751565880259012e-05 -0.013188496140066798 0 0.00012141568822474185 -0.013296513904954189 0 0.00012278801734954672 -0.013380868145784786 0 0.00010943122001685 -0.013323357747856947 0 0.00012278801734954672 -0.013380868145784786 0 0.00010943122001685 -0.013323357747856947 0 0.00013309821037876124 -0.013465335687645455 0 0.00012702878304957934 -0.013331473767967499 0 0.00012141568822474185 -0.013296513904954189 0 0.00012278801734954672 -0.013380868145784786 0 2.3336877193549272e-05 -0.013163834340724274 0 7.3751565880259012e-05 -0.013188496140066798 0 0.00010943122001685 -0.013323357747856947 0 2.3336877193549272e-05 -0.013163834340724274 0 0.00010943122001685 -0.013323357747856947 0 7.6183652345827109e-05 -0.013228041785177638 0 2.3336877193549272e-05 -0.013163834340724274 0 7.6183652345827109e-05 -0.013228041785177638 0 -7.9387405264753123e-06 -0.01313071247010753 0 0.00010943122001685 -0.013323357747856947 0 7.6183652345827109e-05 -0.013228041785177638 0 0.0001358131782051825 -0.013527512342724585 0 -4.5319244801569313e-05 -0.01331068641012906 0 0.00012701972260334088 -0.013498604387707752 0 -0.00012627469835321632 -0.01341420095018069 0 5.752641664503075e-06 -0.013268750836215943 0 0.0001358131782051825 -0.013527512342724585 0 0.000227328257499463 -0.013311966587236147 0 0.00088281907724076009 -0.013520335560118829 0 0.00093920546125804221 -0.013813336559710171 0 4.1179435274763979e-05 -0.013085380473339712 0 0.00052260475558620512 -0.013580772213359038 0 5.752641664503075e-06 -0.013268750836215943 0 -0.00014240416041523345 -0.012891870380945341 0 0.00014194015323861484 -0.013352480774370134 0 5.752641664503075e-06 -0.013268750836215943 0 -0.00014240416041523345 -0.012891870380945341 0 -0.00039999163942326947 -0.012914218019648135 0 -0.00012627469835321632 -0.01341420095018069 0 5.752641664503075e-06 -0.013268750836215943 0 -0.00039999163942326947 -0.012914218019648135 0 -4.5319244801569313e-05 -0.01331068641012906 0 -0.00022354203840844656 -0.013266493942808686 0 -0.00012627469835321632 -0.01341420095018069 0 -0.00055026438227024526 -0.013160245461963108 0 -0.00039999163942326947 -0.012914218019648135 0 -0.00071545327561789288 -0.012147613268898773 0 -0.00022354203840844656 -0.013266493942808686 0 -0.0011929285440593739 -0.012870097103048013 0 -0.00055026438227024526 -0.013160245461963108 0 -0.00085227620374934434 -0.012503325960502352 0 2.8727299631041171e-05 -0.01314779713044604 0 2.0297791143684651e-05 -0.013130279623530399 0 -7.9387405264753123e-06 -0.01313071247010753 0 -0.00085227620374934434 -0.012503325960502352 0 -0.00039999163942326947 -0.012914218019648135 0 -0.0006820104221249545 -0.012495202199246514 0 -0.00014240416041523345 -0.012891870380945341 0 -0.00039999163942326947 -0.012914218019648135 0 -0.0006820104221249545 -0.012495202199246514 0 -0.00055026438227024526 -0.013160245461963108 0 -0.00085227620374934434 -0.012503325960502352 0 -0.00039999163942326947 -0.012914218019648135 0 4.1179435274763979e-05 -0.013085380473339712 0 -0.00064019619412111284 -0.012575788357060268 0 -0.0006820104221249545 -0.012495202199246514 0 -0.00048554373818143905 -0.012087049670091469 0 -4.961321172184836e-05 -0.012469833349846608 0 -0.0006820104221249545 -0.012495202199246514 0 -0.00097680527060766591 -0.01201336847246184 0 -0.00075480256689441059 -0.012097573750221838 0 -0.00085227620374934434 -0.012503325960502352 0 -0.0006820104221249545 -0.012495202199246514 0 -0.00097680527060766591 -0.01201336847246184 0 -0.00083957661618365182 -0.0118646293652316 0 -0.00097680527060766591 -0.01201336847246184 0 -0.00075480256689441059 -0.012097573750221838 0 -0.00083957661618365182 -0.0118646293652316 0 -0.00075480256689441059 -0.012097573750221838 0 -0.00048554373818143905 -0.012087049670091469 0 -0.0006820104221249545 -0.012495202199246514 0 -0.00075480256689441059 -0.012097573750221838 0 -0.00048554373818143905 -0.012087049670091469 0 -0.00016785672865808903 -0.011797343767060382 0 -4.961321172184836e-05 -0.012469833349846608 0 0.00027352939455630842 -0.012096967672329536 0 -0.00016785672865808903 -0.011797343767060382 0 -0.00048554373818143905 -0.012087049670091469 0 -4.961321172184836e-05 -0.012469833349846608 0 -4.961321172184836e-05 -0.012469833349846608 0 0.00061176211694166475 -0.012406155239712495 0 0.00027352939455630842 -0.012096967672329536 0 -4.961321172184836e-05 -0.012469833349846608 0 0.00061176211694166475 -0.012406155239712495 0 0.00040275527771737528 -0.012937512569754913 0 0.00072253604541163774 -0.011697712777569343 0 0.00061176211694166475 -0.012406155239712495 0 0.00027352939455630842 -0.012096967672329536 0 0.00061176211694166475 -0.012406155239712495 0 0.00040275527771737528 -0.012937512569754913 0 0.00088281907724076009 -0.013520335560118829 0 0.000227328257499463 -0.013311966587236147 0 0.00040275527771737528 -0.012937512569754913 0 0.00088281907724076009 -0.013520335560118829 0 0.000227328257499463 -0.013311966587236147 0 -4.961321172184836e-05 -0.012469833349846608 0 0.00040275527771737528 -0.012937512569754913 0 0.000227328257499463 -0.013311966587236147 0 -0.0006820104221249545 -0.012495202199246514 0 -4.961321172184836e-05 -0.012469833349846608 0 0.00074755955417294307 -0.014024073277386341 0 0.0006707966758916368 -0.014370061208370449 0 0.00045812057543424633 -0.014341287056247326 0 0.00074755955417294307 -0.014024073277386341 0 0.00090919774733324004 -0.014168315049408919 0 0.0006707966758916368 -0.014370061208370449 0 0.00074755955417294307 -0.014024073277386341 0 0.00088281907724076009 -0.013520335560118829 0 0.00090919774733324004 -0.014168315049408919 0 0.00061176211694166475 -0.012406155239712495 0 0.00088281907724076009 -0.013520335560118829 0 0.0013545251208531978 -0.01269094132179574 0 0.00094913829320830148 -0.013538443308214927 0 0.0010728873160692769 -0.01345645189793023 0 0.00061176211694166475 -0.012406155239712495 0 0.0013545251208531978 -0.01269094132179574 0 0.0016932090672685056 -0.01201446085679659 0 0.00093070788068723529 -0.012160705492207768 0 0.0010153647290628252 -0.012912951517093265 0 0.00072253604541163774 -0.011697712777569343 0 0.00061176211694166475 -0.012406155239712495 0 0.0013826160902108437 -0.01207041703221229 0 0.0010728873160692769 -0.01345645189793023 0 0.0010153647290628252 -0.012912951517093265 0 0.00047279243096681436 -0.014730246140843487 0 0.0008176020052029538 -0.014522569657233619 0 0.0006707966758916368 -0.014370061208370449 0 0.00090919774733324004 -0.014168315049408919 0 0.0008176020052029538 -0.014522569657233619 0 0.0006707966758916368 -0.014370061208370449 0 0.00047279243096681436 -0.014730246140843487 0 0.0002102408743897443 -0.014642090883222852 0 0.00045812057543424633 -0.014341287056247326 0 0.00047279243096681436 -0.014730246140843487 0 0.0006707966758916368 -0.014370061208370449 0 0.00045812057543424633 -0.014341287056247326 0 0.0002102408743897443 -0.014642090883222852 0 0.00045812057543424633 -0.014341287056247326 0 0.00017762359992194441 -0.0144464336187019 0 0.00045812057543424633 -0.014341287056247326 0 0.00045763587572469401 -0.014051339691638886 0 0.00017762359992194441 -0.0144464336187019 0 0.00074755955417294307 -0.014024073277386341 0 0.00045812057543424633 -0.014341287056247326 0 0.00045763587572469401 -0.014051339691638886 0 0.00045763587572469401 -0.014051339691638886 0 7.2512281916764049e-05 -0.014296508842988684 0 0.00017762359992194441 -0.0144464336187019 0 0.00015780240036202694 -0.013804605971695718 0 8.960091573166691e-05 -0.014026779123554173 0 7.2512281916764049e-05 -0.014296508842988684 0 0.00030135592241616169 -0.013937194710597817 0 8.1925815026269672e-05 -0.014234827856178181 0 0.00015780240036202694 -0.013804605971695718 0 0.0001482732488245062 -0.013736880152434155 0 8.960091573166691e-05 -0.014026779123554173 0 0.00015780240036202694 -0.013804605971695718 0 0.00015017384871482479 -0.013551584541690372 0 0.0001482732488245062 -0.013736880152434155 0 0.00030135592241616169 -0.013937194710597817 0 0.00052260475558620512 -0.013580772213359038 0 0.00074755955417294307 -0.014024073277386341 0 0.00045763587572469401 -0.014051339691638886 0 0.00093920546125804221 -0.013813336559710171 0 0.00015780240036202694 -0.013804605971695718 0 0.00015017384871482479 -0.013551584541690372 0 0.00014194015323861484 -0.013352480774370134 0 0.00074755955417294307 -0.014024073277386341 0 0.00088281907724076009 -0.013520335560118829 0 0.00093920546125804221 -0.013813336559710171 0 5.752641664503075e-06 -0.013268750836215943 0 0.00015017384871482479 -0.013551584541690372 0 0.0001358131782051825 -0.013527512342724585 0 5.752641664503075e-06 -0.013268750836215943 0 0.00015017384871482479 -0.013551584541690372 0 0.00014194015323861484 -0.013352480774370134 0 0.0001358131782051825 -0.013527512342724585 0 0.00014252096352077023 -0.013597051954296118 0 0.0001482732488245062 -0.013736880152434155 0 0.00015017384871482479 -0.013551584541690372 0 0.0001358131782051825 -0.013527512342724585 0 0.0001482732488245062 -0.013736880152434155 0 0.00014252096352077023 -0.013597051954296118 0 0.0001340048286378584 -0.013598245721958217 0 0.00012503425864499748 -0.013705104994612752 0 0.0001358131782051825 -0.013527512342724585 0 0.00014252096352077023 -0.013597051954296118 0 0.00013309821037876124 -0.013465335687645455 0 0.00010943122001685 -0.013323357747856947 0 0.0001358131782051825 -0.013527512342724585 0 0.00013309821037876124 -0.013465335687645455 0 0.00012278801734954672 -0.013380868145784786 0 0.00013309821037876124 -0.013465335687645455 0 0.00011513910056644997 -0.013436748785589411 0 0.00012278801734954672 -0.013380868145784786 0 0.00011513910056644997 -0.013436748785589411 0 8.8720662363653906e-05 -0.013406797248917666 0 0.00013309821037876124 -0.013465335687645455 0 0.00011513910056644997 -0.013436748785589411 0 0.00013027082000157243 -0.013506287136365905 0 0.00013027082000157243 -0.013506287136365905 0 0.0001212556095346344 -0.013505716712550039 0 0.00011628288333946903 -0.013586544465379895 0 0.0001340048286378584 -0.013598245721958217 0 0.00013027082000157243 -0.013506287136365905 0 0.00011628288333946903 -0.013586544465379895 0 0.00014252096352077023 -0.013597051954296118 0 0.0001340048286378584 -0.013598245721958217 0 0.00013027082000157243 -0.013506287136365905 0 0.00014252096352077023 -0.013597051954296118 0 0.00013309821037876124 -0.013465335687645455 0 0.00013027082000157243 -0.013506287136365905 0 0.00013027082000157243 -0.013506287136365905 0 0.00012149930108292341 -0.013479320579538105 0 0.0001212556095346344 -0.013505716712550039 0 0.00011513910056644997 -0.013436748785589411 0 0.00013027082000157243 -0.013506287136365905 0 0.00011089385061207608 -0.013449318627365356 0 0.00013027082000157243 -0.013506287136365905 0 0.00011089385061207608 -0.013449318627365356 0 0.00012149930108292341 -0.013479320579538105 0 0.00011089385061207608 -0.013449318627365356 0 0.00012149930108292341 -0.013479320579538105 0 0.00012059184772981814 -0.013462676915076939 0 0.00012059184772981814 -0.013462676915076939 0 0.00011473933875562679 -0.013489724604870747 0 0.0001212556095346344 -0.013505716712550039 0 0.00012149930108292341 -0.013479320579538105 0 0.00012059184772981814 -0.013462676915076939 0 0.0001212556095346344 -0.013505716712550039 0 0.00012059184772981814 -0.013462676915076939 0 0.00011473933875562679 -0.013489724604870747 0 0.00013101325268132216 -0.013460370866314108 0 0.00012059184772981814 -0.013462676915076939 0 0.00013101325268132216 -0.013460370866314108 0 0.00011485633094575657 -0.013460918049923973 0 0.00012059184772981814 -0.013462676915076939 0 9.2962565268587752e-05 -0.013428919572424357 0 0.00011485633094575657 -0.013460918049923973 0 0.00011089385061207608 -0.013449318627365356 0 0.00012059184772981814 -0.013462676915076939 0 9.2962565268587752e-05 -0.013428919572424357 0 9.2962565268587752e-05 -0.013428919572424357 0 8.8720662363653906e-05 -0.013406797248917666 0 4.1651818583193381e-05 -0.01339538987391152 0 0.00011089385061207608 -0.013449318627365356 0 9.2962565268587752e-05 -0.013428919572424357 0 8.8720662363653906e-05 -0.013406797248917666 0 0.00010708159073477205 -0.013354196337561922 0 8.8720662363653906e-05 -0.013406797248917666 0 7.6582183273271525e-05 -0.013338407954173596 0 8.8720662363653906e-05 -0.013406797248917666 0 7.6582183273271525e-05 -0.013338407954173596 0 4.1651818583193381e-05 -0.01339538987391152 0 0.00011513910056644997 -0.013436748785589411 0 0.00011089385061207608 -0.013449318627365356 0 8.8720662363653906e-05 -0.013406797248917666 0 -9.8835607221559681e-05 -0.014857428952851628 0 -0.00010373815625678529 -0.014890085808897705 0 -0.00014405973106417102 -0.014714884071685979 0 -9.8835607221559681e-05 -0.014857428952851628 0 -9.5174571613460281e-05 -0.014811449597911105 0 -7.3135288290260096e-05 -0.014880454836763266 0 -9.8835607221559681e-05 -0.014857428952851628 0 -7.8719365798324888e-05 -0.014895091337273153 0 -7.3135288290260096e-05 -0.014880454836763266 0 -7.8719365798324888e-05 -0.014895091337273153 0 -9.2421250587432655e-05 -0.014885498709800684 0 -8.2852489158324332e-05 -0.014897505990497592 0 -9.8835607221559681e-05 -0.014857428952851628 0 -7.8719365798324888e-05 -0.014895091337273153 0 -9.2421250587432655e-05 -0.014885498709800684 0 -9.8835607221559681e-05 -0.014857428952851628 0 -9.2421250587432655e-05 -0.014885498709800684 0 -0.00010373815625678529 -0.014890085808897705 0 -9.2421250587432655e-05 -0.014885498709800684 0 -8.2852489158324332e-05 -0.014897505990497592 0 -0.00010373815625678529 -0.014890085808897705 0 -9.4155093812974406e-06 -0.013995595246563831 0 6.0634398883177352e-05 -0.013728854323698988 0 -8.2852489158324332e-05 -0.014897505990497592 0 -0.00010373815625678529 -0.014890085808897705 0 -6.7177824804300445e-05 -0.014906624652228731 0 -6.621067616562099e-05 -0.014436528606914124 0 -6.8507781190154258e-05 -0.014274669815572802 0 5.5974011644478792e-06 -0.013970418525051268 0 6.7515498349630327e-05 -0.013531320817785847 0 0.00011473933875562679 -0.013489724604870747 0 0.00013101325268132216 -0.013460370866314108 0 6.7515498349630327e-05 -0.013531320817785847 0 0.00011473933875562679 -0.013489724604870747 0 0.0001212556095346344 -0.013505716712550039 0 6.7515498349630327e-05 -0.013531320817785847 0 0.00011628288333946903 -0.013586544465379895 0 8.2959518096203271e-05 -0.013688881758716766 0 6.7515498349630327e-05 -0.013531320817785847 0 0.0001212556095346344 -0.013505716712550039 0 0.00011628288333946903 -0.013586544465379895 0 0.0001340048286378584 -0.013598245721958217 0 0.00011628288333946903 -0.013586544465379895 0 0.00012503425864499748 -0.013705104994612752 0 0.00011628288333946903 -0.013586544465379895 0 8.2959518096203271e-05 -0.013688881758716766 0 0.00012503425864499748 -0.013705104994612752 0 -6.621067616562099e-05 -0.014436528606914124 0 -6.8507781190154258e-05 -0.014274669815572802 0 -0.00014405973106417102 -0.014714884071685979 0 -9.4155093812974406e-06 -0.013995595246563831 0 -7.967197355736102e-05 -0.014271623055868602 0 -7.5528549411119761e-05 -0.014559513358083009 0 -0.00013280102824199505 -0.01469011763206661 0 -9.8835607221559681e-05 -0.014857428952851628 0 -0.00014405973106417102 -0.014714884071685979 0 -9.5174571613460281e-05 -0.014811449597911105 0 -6.621067616562099e-05 -0.014436528606914124 0 -0.00014405973106417102 -0.014714884071685979 0 -0.0001645194116007919 -0.014802700806156277 0 6.7515498349630327e-05 -0.013531320817785847 0 8.2959518096203271e-05 -0.013688881758716766 0 -2.3703013195638612e-05 -0.013773435602848601 0 -2.3703013195638612e-05 -0.013773435602848601 0 8.9647075003112977e-05 -0.013866442760945209 0 2.7363069046393256e-05 -0.014049867342036823 0 8.2959518096203271e-05 -0.013688881758716766 0 -2.3703013195638612e-05 -0.013773435602848601 0 8.9647075003112977e-05 -0.013866442760945209 0 8.9647075003112977e-05 -0.013866442760945209 0 8.960091573166691e-05 -0.014026779123554173 0 2.7363069046393256e-05 -0.014049867342036823 0 0.00014252096352077023 -0.013597051954296118 0 0.00012503425864499748 -0.013705104994612752 0 0.00013002292456423787 -0.013810006335252338 0 8.2959518096203271e-05 -0.013688881758716766 0 8.9647075003112977e-05 -0.013866442760945209 0 0.00012503425864499748 -0.013705104994612752 0 8.9647075003112977e-05 -0.013866442760945209 0 0.00012503425864499748 -0.013705104994612752 0 0.00013002292456423787 -0.013810006335252338 0 0.00014252096352077023 -0.013597051954296118 0 0.0001482732488245062 -0.013736880152434155 0 0.00013002292456423787 -0.013810006335252338 0 0.0001482732488245062 -0.013736880152434155 0 0.00013002292456423787 -0.013810006335252338 0 8.960091573166691e-05 -0.014026779123554173 0 8.9647075003112977e-05 -0.013866442760945209 0 0.00013002292456423787 -0.013810006335252338 0 8.960091573166691e-05 -0.014026779123554173 0 8.960091573166691e-05 -0.014026779123554173 0 -5.0509441681155802e-05 -0.01440658279925741 0 7.2512281916764049e-05 -0.014296508842988684 0 8.960091573166691e-05 -0.014026779123554173 0 -5.0509441681155802e-05 -0.01440658279925741 0 2.7363069046393256e-05 -0.014049867342036823 0 -5.0509441681155802e-05 -0.01440658279925741 0 2.7521214883012012e-05 -0.014784157333503344 0 -2.001312493168536e-06 -0.014670362861770855 0 -5.0509441681155802e-05 -0.01440658279925741 0 -1.4978322658115754e-05 -0.014742975106405851 0 2.7521214883012012e-05 -0.014784157333503344 0 -0.0001645194116007919 -0.014802700806156277 0 -5.0509441681155802e-05 -0.01440658279925741 0 -9.189355187451032e-05 -0.014734829406852005 0 -2.3703013195638612e-05 -0.013773435602848601 0 -5.0509441681155802e-05 -0.01440658279925741 0 2.7363069046393256e-05 -0.014049867342036823 0 -7.967197355736102e-05 -0.014271623055868602 0 -4.3622275686126322e-05 -0.014361097023279382 0 -5.0509441681155802e-05 -0.01440658279925741 0 -1.4978322658115754e-05 -0.014742975106405851 0 -9.189355187451032e-05 -0.014734829406852005 0 -0.0001645194116007919 -0.014802700806156277 0 -9.189355187451032e-05 -0.014734829406852005 0 -0.0001274020577063137 -0.01476894413220646 0 -0.00014405973106417102 -0.014714884071685979 0 -0.0001645194116007919 -0.014802700806156277 0 -0.0001274020577063137 -0.01476894413220646 0 -0.00014405973106417102 -0.014714884071685979 0 -0.0001274020577063137 -0.01476894413220646 0 -9.5174571613460281e-05 -0.014811449597911105 0 -9.5174571613460281e-05 -0.014811449597911105 0 -8.0940585411980347e-05 -0.014798520299701594 0 -6.514888652579183e-05 -0.014849444336050167 0 -0.0001274020577063137 -0.01476894413220646 0 -9.5174571613460281e-05 -0.014811449597911105 0 -8.0940585411980347e-05 -0.014798520299701594 0 -8.0940585411980347e-05 -0.014798520299701594 0 -3.1562275895541487e-05 -0.014855507520109877 0 -6.514888652579183e-05 -0.014849444336050167 0 -1.4978322658115754e-05 -0.014742975106405851 0 -9.189355187451032e-05 -0.014734829406852005 0 -8.0940585411980347e-05 -0.014798520299701594 0 -9.189355187451032e-05 -0.014734829406852005 0 -0.0001274020577063137 -0.01476894413220646 0 -8.0940585411980347e-05 -0.014798520299701594 0 -1.4978322658115754e-05 -0.014742975106405851 0 -8.0940585411980347e-05 -0.014798520299701594 0 -3.1562275895541487e-05 -0.014855507520109877 0 -1.4978322658115754e-05 -0.014742975106405851 0 -3.1562275895541487e-05 -0.014855507520109877 0 1.7184894695046243e-05 -0.014894491113631284 0 -3.1562275895541487e-05 -0.014855507520109877 0 -1.1730636350480335e-05 -0.014914364498854237 0 1.7184894695046243e-05 -0.014894491113631284 0 -3.1562275895541487e-05 -0.014855507520109877 0 -1.1730636350480335e-05 -0.014914364498854237 0 -4.5031388549787406e-05 -0.014894157628357952 0 -1.1730636350480335e-05 -0.014914364498854237 0 -4.5031388549787406e-05 -0.014894157628357952 0 -2.6907436271146889e-05 -0.014926181414652497 0 -4.5031388549787406e-05 -0.014894157628357952 0 -7.3135288290260096e-05 -0.014880454836763266 0 -5.0211211461591636e-05 -0.014918284533446886 0 -4.5031388549787406e-05 -0.014894157628357952 0 -7.3135288290260096e-05 -0.014880454836763266 0 -6.514888652579183e-05 -0.014849444336050167 0 -9.5174571613460281e-05 -0.014811449597911105 0 -7.3135288290260096e-05 -0.014880454836763266 0 -6.514888652579183e-05 -0.014849444336050167 0 -3.1562275895541487e-05 -0.014855507520109877 0 -4.5031388549787406e-05 -0.014894157628357952 0 -6.514888652579183e-05 -0.014849444336050167 0 5.2093336795395127e-06 -0.014948651099805909 0 1.7184894695046243e-05 -0.014894491113631284 0 1.0149569349675071e-08 -0.014999945842769811 0 -1.1730636350480335e-05 -0.014914364498854237 0 5.2093336795395127e-06 -0.014948651099805909 0 1.7184894695046243e-05 -0.014894491113631284 0 1.7184894695046243e-05 -0.014894491113631284 0 5.2932417185653248e-08 -0.014999823595012689 0 2.7521214883012012e-05 -0.014784157333503344 0 1.7184894695046243e-05 -0.014894491113631284 0 5.2932417185653248e-08 -0.014999823595012689 0 1.0149569349675071e-08 -0.014999945842769811 0 5.2932417185653248e-08 -0.014999823595012689 0 2.7521214883012012e-05 -0.014784157333503344 0 3.5569981171785916e-08 -0.014999671652545662 0 -1.4978322658115754e-05 -0.014742975106405851 0 1.7184894695046243e-05 -0.014894491113631284 0 2.7521214883012012e-05 -0.014784157333503344 0 2.7521214883012012e-05 -0.014784157333503344 0 3.5569981171785916e-08 -0.014999671652545662 0 -2.001312493168536e-06 -0.014670362861770855 0 3.5569981171785916e-08 -0.014999671652545662 0 -3.1384739115345988e-08 -0.014999683726735396 0 -2.001312493168536e-06 -0.014670362861770855 0 -2.001312493168536e-06 -0.014670362861770855 0 3.6002514096063448e-05 -0.014573674152491311 0 -4.6153489884939929e-06 -0.014786540517474358 0 -3.1384739115345988e-08 -0.014999683726735396 0 -2.001312493168536e-06 -0.014670362861770855 0 -4.6153489884939929e-06 -0.014786540517474358 0 -2.001312493168536e-06 -0.014670362861770855 0 7.2512281916764049e-05 -0.014296508842988684 0 3.6002514096063448e-05 -0.014573674152491311 0 -5.0509441681155802e-05 -0.01440658279925741 0 -2.001312493168536e-06 -0.014670362861770855 0 7.2512281916764049e-05 -0.014296508842988684 0 7.2512281916764049e-05 -0.014296508842988684 0 3.6002514096063448e-05 -0.014573674152491311 0 0.00017762359992194441 -0.0144464336187019 0 3.6002514096063448e-05 -0.014573674152491311 0 4.3061806739229273e-05 -0.014728455212797214 0 -4.6153489884939929e-06 -0.014786540517474358 0 0.0002102408743897443 -0.014642090883222852 0 0.00017762359992194441 -0.0144464336187019 0 4.3061806739229273e-05 -0.014728455212797214 0 3.6002514096063448e-05 -0.014573674152491311 0 0.00017762359992194441 -0.0144464336187019 0 4.3061806739229273e-05 -0.014728455212797214 0 9.5125989709107239e-05 -0.014814745929184497 0 0.0002102408743897443 -0.014642090883222852 0 4.3061806739229273e-05 -0.014728455212797214 0 4.3545097977394829e-06 -0.014910162725556043 0 4.3061806739229273e-05 -0.014728455212797214 0 4.9914977119564605e-06 -0.014866353354726362 0 4.3545097977394829e-06 -0.014910162725556043 0 4.9914977119564605e-06 -0.014866353354726362 0 -3.1758506089775587e-08 -0.014999834403963871 0 -3.1384739115345988e-08 -0.014999683726735396 0 -3.1758506089775587e-08 -0.014999834403963871 0 -4.6153489884939929e-06 -0.014786540517474358 0 4.9914977119564605e-06 -0.014866353354726362 0 -3.1758506089775587e-08 -0.014999834403963871 0 -4.6153489884939929e-06 -0.014786540517474358 0 4.3061806739229273e-05 -0.014728455212797214 0 4.9914977119564605e-06 -0.014866353354726362 0 -4.6153489884939929e-06 -0.014786540517474358 0 -0.0029518343513502371 0.00086391646103845237 0 -0.0029019931010475703 0.00085400300741600324 0 -0.0029571044019672597 0.00081376505219532449 0 -0.0029092898343537031 0.0008641674593927453 0 -0.0029518343513502371 0.00086391646103845237 0 -0.0029571044019672597 0.00081376505219532449 0 -0.0029092898343537031 0.0008641674593927453 0 -0.0029518343513502371 0.00086391646103845237 0 -0.0028729678206559643 0.00085370824035181615 0 -0.0029518343513502371 0.00086391646103845237 0 -0.0028729678206559643 0.00085370824035181615 0 -0.0028729230618190962 0.00083466998742088606 0 -0.0029518343513502371 0.00086391646103845237 0 -0.0029019931010475703 0.00085400300741600324 0 -0.0030041328653325162 0.00085901924919859127 0 -0.0029518343513502371 0.00086391646103845237 0 -0.0030041328653325162 0.00085901924919859127 0 -0.0028729230618190962 0.00083466998742088606 0 -0.0032242727992430418 0.00090209304261437348 0 -0.0030041328653325162 0.00085901924919859127 0 -0.0032431486077838492 0.00084250342707901493 0 -0.0032511498372871832 0.001502978610918561 0 -0.0028887673577337332 0.00060691316825575389 0 -0.003271660745950374 0.00086929551459871723 0 -0.0034068219272801337 0.00077257240792505356 0 -0.0032431486077838492 0.00084250342707901493 0 -0.0034248949854552226 -0.0035178171677254693 0 -0.0034747976706798419 -0.0031478684968613314 0 -0.003271660745950374 0.00086929551459871723 0 -0.0032242727992430418 0.00090209304261437348 0 -0.0032431486077838492 0.00084250342707901493 0 -0.0034248949854552226 -0.0035178171677254693 0 -0.0029201165160581445 -0.002533034867648558 0 -0.003271660745950374 0.00086929551459871723 0 -0.0032242727992430418 0.00090209304261437348 0 -0.0032384778384464581 0.00082093082496005989 0 -0.0029019931010475703 0.00085400300741600324 0 -0.0028905436767909212 0.00077471008958599169 0 -0.0029571044019672597 0.00081376505219532449 0 -0.0029019931010475703 0.00085400300741600324 0 -0.0028905436767909212 0.00077471008958599169 0 -0.0027971646715823886 0.00073572619518103943 0 -0.0032511498372871832 0.001502978610918561 0 -0.0029201165160581445 -0.002533034867648558 0 -0.0028905436767909212 0.00077471008958599169 0 -0.0027971646715823886 0.00073572619518103943 0 -0.0029090635917528307 0.00068109898291510097 0 -0.0025750301184518688 -0.003735775342310821 0 -0.0024804614600314225 -0.0041207633869813571 0 -0.0026302216800636814 -0.0041792266561966208 0 -0.0029201165160581445 -0.002533034867648558 0 -0.0023403914281040238 -0.0021050394781254745 0 -0.0025750301184518688 -0.003735775342310821 0 -0.0024804614600314225 -0.0041207633869813571 0 -0.0023092840539290088 -0.0041301642901253044 0 -0.0029201165160581445 -0.002533034867648558 0 -0.002636854776640329 -0.0064962759833789513 0 -0.0027971646715823886 0.00073572619518103943 0 -0.0029090635917528307 0.00068109898291510097 0 -0.0028146524380918644 0.00059654943969857999 0 -0.0029090635917528307 0.00068109898291510097 0 -0.0030200197435446057 0.00064226747662755662 0 -0.0029356793179654635 0.00056696840829864245 0 -0.0029090635917528307 0.00068109898291510097 0 -0.0029571044019672597 0.00081376505219532449 0 -0.0030200197435446057 0.00064226747662755662 0 -0.0028905436767909212 0.00077471008958599169 0 -0.0029090635917528307 0.00068109898291510097 0 -0.0029571044019672597 0.00081376505219532449 0 -0.0029092898343537031 0.0008641674593927453 0 -0.0029571044019672597 0.00081376505219532449 0 -0.0028776807816515656 0.00092776802378516767 0 -0.0029501738212429512 0.00081720818014929602 0 -0.0029859380217220565 0.00082614121763952659 0 -0.0029571044019672597 0.00081376505219532449 0 -0.0030200197435446057 0.00064226747662755662 0 -0.0030892618397200117 0.00071663606411806588 0 -0.0030200197435446057 0.00064226747662755662 0 -0.0030926591772571718 0.00062244926360593858 0 -0.0030892618397200117 0.00071663606411806588 0 -0.0030926591772571718 0.00062244926360593858 0 -0.0029942837603942831 0.00052478579135076947 0 -0.0030371590463248821 0.0006018620104158612 0 -0.0031368058914458415 0.00057372925063019415 0 -0.0029745677354042384 0.00078815311590928422 0 -0.0030926591772571718 0.00062244926360593858 0 -0.0030892618397200117 0.00071663606411806588 0 -0.003227310817466082 0.00066326957656918201 0 -0.0029859380217220565 0.00082614121763952659 0 -0.0029745677354042384 0.00078815311590928422 0 -0.0028776807816515656 0.00092776802378516767 0 -0.0027826123940629956 0.00097561162503441684 0 -0.0027974587687851485 0.00092158557752023134 0 -0.0028776807816515656 0.00092776802378516767 0 -0.0027974587687851485 0.00092158557752023134 0 -0.0028340860600449764 0.00088140003028226385 0 -0.0029092898343537031 0.0008641674593927453 0 -0.0028776807816515656 0.00092776802378516767 0 -0.0028340860600449764 0.00088140003028226385 0 -0.002726750392120759 0.00079286769331439976 0 -0.0029745677354042384 0.00078815311590928422 0 -0.0024978179508549428 0.00093283942305793805 0 -0.0025641304327968417 0.0010937598257308929 0 -0.0028069488204566701 0.0010123253118278191 0 -0.0021582007602536949 0.0013945716736631572 0 -0.0029745677354042384 0.00078815311590928422 0 -0.0028578960481523436 0.00053418011425799183 0 -0.0029942837603942831 0.00052478579135076947 0 -0.0029573374290284642 0.00059394534604670661 0 -0.0029942837603942831 0.00052478579135076947 0 -0.0029573374290284642 0.00059394534604670661 0 -0.0030371590463248821 0.0006018620104158612 0 -0.0027974587687851485 0.00092158557752023134 0 -0.0027442881893586413 0.00093803024071102139 0 -0.0027470828740365294 0.00088765349715893671 0 -0.0027826123940629956 0.00097561162503441684 0 -0.0027974587687851485 0.00092158557752023134 0 -0.0027442881893586413 0.00093803024071102139 0 -0.0021582007602536949 0.0013945716736631572 0 -0.0022245602019884238 0.0014534726624583941 0 -0.0026873208393742645 0.00095778865902577189 0 -0.0027826123940629956 0.00097561162503441684 0 -0.0027442881893586413 0.00093803024071102139 0 -0.0026873208393742645 0.00095778865902577189 0 -0.0027442881893586413 0.00093803024071102139 0 -0.0027470828740365294 0.00088765349715893671 0 -0.0015300916461564733 0.0021986331792946071 0 -0.0014628307854368183 0.0019160702815361108 0 -0.001730680862141681 0.0019473286829725153 0 -0.0014628307854368183 0.0019160702815361108 0 -0.001730680862141681 0.0019473286829725153 0 -0.0016132124842427617 0.0017656914655770409 0 -0.0027470828740365294 0.00088765349715893671 0 -0.0027961466805052956 0.00084091507394352136 0 -0.0028340860600449764 0.00088140003028226385 0 -0.0027974587687851485 0.00092158557752023134 0 -0.0027470828740365294 0.00088765349715893671 0 -0.0028340860600449764 0.00088140003028226385 0 -0.001730680862141681 0.0019473286829725153 0 -0.0019801325557489598 0.0016928582310068796 0 -0.0016132124842427617 0.0017656914655770409 0 -0.0022245602019884238 0.0014534726624583941 0 -0.002393538651982626 0.0012580533135100817 0 -0.0019801325557489598 0.0016928582310068796 0 -0.0016132124842427617 0.0017656914655770409 0 -0.0015877117982939374 0.0015357234343261591 0 -0.0029092898343537031 0.0008641674593927453 0 -0.0028340860600449764 0.00088140003028226385 0 -0.0028729678206559643 0.00085370824035181615 0 -0.0027961466805052956 0.00084091507394352136 0 -0.0028340860600449764 0.00088140003028226385 0 -0.0028729678206559643 0.00085370824035181615 0 -0.0028729678206559643 0.00085370824035181615 0 -0.0028043970354948745 0.00081948077408278727 0 -0.0028729230618190962 0.00083466998742088606 0 -0.0027961466805052956 0.00084091507394352136 0 -0.0028729678206559643 0.00085370824035181615 0 -0.0028043970354948745 0.00081948077408278727 0 -0.002393538651982626 0.0012580533135100817 0 -0.0025428738205765652 0.0010823082760600786 0 -0.0022850065760299659 0.0013684664437634874 0 -0.0017864690168255008 0.0011842220980165631 0 -0.0021593932089241119 0.00097453306537921244 0 -0.0022850065760299659 0.0013684664437634874 0 -0.0026840666210224129 0.00081451190415714051 0 -0.0021593932089241119 0.00097453306537921244 0 -0.0025428738205765652 0.0010823082760600786 0 -0.0026853973722299027 0.00083200499528175199 0 -0.0028043970354948745 0.00081948077408278727 0 -0.0026840666210224129 0.00081451190415714051 0 -0.0028729230618190962 0.00083466998742088606 0 -0.0019801325557489598 0.0016928582310068796 0 -0.0015877117982939374 0.0015357234343261591 0 -0.0017864690168255008 0.0011842220980165631 0 -0.0012779670487136747 0.0013196348895797099 0 -0.0015877117982939374 0.0015357234343261591 0 -0.0017864690168255008 0.0011842220980165631 0 -0.0019801325557489598 0.0016928582310068796 0 -0.0022850065760299659 0.0013684664437634874 0 -0.0017864690168255008 0.0011842220980165631 0 -0.0012779670487136747 0.0013196348895797099 0 -0.0017864690168255008 0.0011842220980165631 0 -0.0015065755295680917 0.00096881994740462382 0 -0.0017864690168255008 0.0011842220980165631 0 -0.0015065755295680917 0.00096881994740462382 0 -0.001884467907781062 0.00071988340354380898 0 -0.0017864690168255008 0.0011842220980165631 0 -0.001884467907781062 0.00071988340354380898 0 -0.0021593932089241119 0.00097453306537921244 0 -0.0014884661061351665 0.00071272918442066055 0 -0.0015065755295680917 0.00096881994740462382 0 -0.001884467907781062 0.00071988340354380898 0 -0.0026840666210224129 0.00081451190415714051 0 -0.0021593932089241119 0.00097453306537921244 0 -0.0023420451160589073 0.00065836332707528431 0 -0.0023202613406895709 0.00036292845101181372 0 -0.001884467907781062 0.00071988340354380898 0 -0.0023420451160589073 0.00065836332707528431 0 -0.001884467907781062 0.00071988340354380898 0 -0.0021593932089241119 0.00097453306537921244 0 -0.0023420451160589073 0.00065836332707528431 0 -0.0023202613406895709 0.00036292845101181372 0 -0.0023420451160589073 0.00065836332707528431 0 -0.0026554416694208531 0.00046782923102310078 0 -0.0026840666210224129 0.00081451190415714051 0 -0.0023420451160589073 0.00065836332707528431 0 -0.0026554416694208531 0.00046782923102310078 0 -0.0026840666210224129 0.00081451190415714051 0 -0.0026554416694208531 0.00046782923102310078 0 -0.0028920887928487343 0.00061391038229636151 0 -0.0026554416694208531 0.00046782923102310078 0 -0.0030747711694162991 0.00028874552171715881 0 -0.0028920887928487343 0.00061391038229636151 0 -0.0030747711694162991 0.00028874552171715881 0 -0.0028920887928487343 0.00061391038229636151 0 -0.0031428919776569321 0.00057652562884096556 0 -0.0028920887928487343 0.00061391038229636151 0 -0.002935638107007553 0.0007683136507686452 0 -0.0031428919776569321 0.00057652562884096556 0 -0.0026840666210224129 0.00081451190415714051 0 -0.0028920887928487343 0.00061391038229636151 0 -0.002935638107007553 0.0007683136507686452 0 -0.0026840666210224129 0.00081451190415714051 0 -0.002935638107007553 0.0007683136507686452 0 -0.0028729230618190962 0.00083466998742088606 0 -0.002935638107007553 0.0007683136507686452 0 -0.0032593776149066229 0.00071546773897430082 0 -0.0031428919776569321 0.00057652562884096556 0 -0.002935638107007553 0.0007683136507686452 0 -0.0030041328653325162 0.00085901924919859127 0 -0.0032593776149066229 0.00071546773897430082 0 -0.002935638107007553 0.0007683136507686452 0 -0.0030041328653325162 0.00085901924919859127 0 -0.0028729230618190962 0.00083466998742088606 0 -0.0034068219272801337 0.00077257240792505356 0 -0.0032431486077838492 0.00084250342707901493 0 -0.0032593776149066229 0.00071546773897430082 0 -0.0030041328653325162 0.00085901924919859127 0 -0.0032431486077838492 0.00084250342707901493 0 -0.0032593776149066229 0.00071546773897430082 0 -0.0034068219272801337 0.00077257240792505356 0 -0.0032593776149066229 0.00071546773897430082 0 -0.0036019844952954894 0.00054919902768155247 0 -0.0032593776149066229 0.00071546773897430082 0 -0.0033686168605157711 0.00054337092632168 0 -0.0036019844952954894 0.00054919902768155247 0 -0.0033686168605157711 0.00054337092632168 0 -0.00343790757273194 0.00029894613018880881 0 -0.0036019844952954894 0.00054919902768155247 0 -0.0032593776149066229 0.00071546773897430082 0 -0.0033686168605157711 0.00054337092632168 0 -0.0031428919776569321 0.00057652562884096556 0 -0.0033686168605157711 0.00054337092632168 0 -0.0031428919776569321 0.00057652562884096556 0 -0.00343790757273194 0.00029894613018880881 0 -0.0030747711694162991 0.00028874552171715881 0 -0.0031428919776569321 0.00057652562884096556 0 -0.00343790757273194 0.00029894613018880881 0 -0.00343790757273194 0.00029894613018880881 0 -0.0038157480724500584 0.00016400255234837646 0 -0.0036019844952954894 0.00054919902768155247 0 -0.00371761640686175 -0.002645796084609292 0 -0.0036326026984250257 -0.0029666231687837784 0 -0.0036424143372359601 -0.0054819796297788216 0 -0.0036664564853877732 -0.006458730353801314 0 -0.0031263564748310341 -0.0059741107925060802 0 -0.0036664564853877732 -0.006458730353801314 0 -0.0030597647272849926 -0.0064980508620873486 0 -0.0032286034512824906 -0.0069360156389013184 0 -0.0036664564853877732 -0.006458730353801314 0 -0.0030597647272849926 -0.0064980508620873486 0 -0.0031263564748310341 -0.0059741107925060802 0 -0.0030597647272849926 -0.0064980508620873486 0 -0.0031263564748310341 -0.0059741107925060802 0 -0.0025190826782549489 -0.0061666194537157177 0 -0.0031263564748310341 -0.0059741107925060802 0 -0.0027455313152506427 -0.0057881601777328116 0 -0.0025190826782549489 -0.0061666194537157177 0 -0.0036424143372359601 -0.0054819796297788216 0 -0.0031263564748310341 -0.0059741107925060802 0 -0.0030158700200548119 -0.0054994568844271797 0 -0.0027455313152506427 -0.0057881601777328116 0 -0.0030158700200548119 -0.0054994568844271797 0 -0.0025530754006155248 -0.0054494603152206488 0 -0.0031263564748310341 -0.0059741107925060802 0 -0.0027455313152506427 -0.0057881601777328116 0 -0.0030158700200548119 -0.0054994568844271797 0 -0.0027455313152506427 -0.0057881601777328116 0 -0.0025530754006155248 -0.0054494603152206488 0 -0.0024056142029965136 -0.0058139829740202183 0 -0.0024056142029965136 -0.0058139829740202183 0 -0.0021166721779492014 -0.0056278980332143706 0 -0.0021372550841641503 -0.0059134100944106078 0 -0.0025530754006155248 -0.0054494603152206488 0 -0.0024056142029965136 -0.0058139829740202183 0 -0.0021166721779492014 -0.0056278980332143706 0 -0.0024056142029965136 -0.0058139829740202183 0 -0.0021372550841641503 -0.0059134100944106078 0 -0.0025190826782549489 -0.0061666194537157177 0 -0.0027455313152506427 -0.0057881601777328116 0 -0.0024056142029965136 -0.0058139829740202183 0 -0.0025190826782549489 -0.0061666194537157177 0 -0.0018517898944196264 -0.0056964248535791157 0 -0.0019804335456794987 -0.0061457140832627578 0 -0.0021372550841641503 -0.0059134100944106078 0 -0.0019804335456794987 -0.0061457140832627578 0 -0.0021372550841641503 -0.0059134100944106078 0 -0.0025190826782549489 -0.0061666194537157177 0 -0.0018517898944196264 -0.0056964248535791157 0 -0.0021166721779492014 -0.0056278980332143706 0 -0.0021372550841641503 -0.0059134100944106078 0 -0.0019804335456794987 -0.0061457140832627578 0 -0.0025190826782549489 -0.0061666194537157177 0 -0.0021222975553761435 -0.0067512623401293258 0 -0.0019804335456794987 -0.0061457140832627578 0 -0.0021222975553761435 -0.0067512623401293258 0 -0.0014611819577287721 -0.006086248627462593 0 -0.0025190826782549489 -0.0061666194537157177 0 -0.0027381632228717671 -0.0068816706575242489 0 -0.0021222975553761435 -0.0067512623401293258 0 -0.0030597647272849926 -0.0064980508620873486 0 -0.0025190826782549489 -0.0061666194537157177 0 -0.0027381632228717671 -0.0068816706575242489 0 -0.0023209177524193868 -0.0072978150584572486 0 -0.0030647318862903512 -0.0075089582873434377 0 -0.0020470501046637155 -0.0080519281634857283 0 -0.0027381632228717671 -0.0068816706575242489 0 -0.0021222975553761435 -0.0067512623401293258 0 -0.0023209177524193868 -0.0072978150584572486 0 -0.0021222975553761435 -0.0067512623401293258 0 -0.0023209177524193868 -0.0072978150584572486 0 -0.0015819696868240364 -0.0070833446444559002 0 -0.0023209177524193868 -0.0072978150584572486 0 -0.0015819696868240364 -0.0070833446444559002 0 -0.0020470501046637155 -0.0080519281634857283 0 -0.0027381632228717671 -0.0068816706575242489 0 -0.0023209177524193868 -0.0072978150584572486 0 -0.0030647318862903512 -0.0075089582873434377 0 -0.0027381632228717671 -0.0068816706575242489 0 -0.0030647318862903512 -0.0075089582873434377 0 -0.0032286034512824906 -0.0069360156389013184 0 -0.0035594851379528278 -0.0071736357101253711 0 -0.0030647318862903512 -0.0075089582873434377 0 -0.0032286034512824906 -0.0069360156389013184 0 -0.0035594851379528278 -0.0071736357101253711 0 -0.0030647318862903512 -0.0075089582873434377 0 -0.0032284059816033947 -0.0075373401620810075 0 -0.0034747976706798419 -0.0031478684968613314 0 -0.0036326026984250257 -0.0029666231687837784 0 -0.0035594851379528278 -0.0071736357101253711 0 -0.0036664564853877732 -0.006458730353801314 0 -0.0032286034512824906 -0.0069360156389013184 0 -0.0030597647272849926 -0.0064980508620873486 0 -0.0027381632228717671 -0.0068816706575242489 0 -0.0032286034512824906 -0.0069360156389013184 0 0.00029303594288525601 -0.0065221409700765261 0 0.00012859732494052684 -0.0076242271635757839 0 -0.00060286536302790858 -0.0066466246267704882 0 9.0771387172096577e-05 -0.007109670744001104 0 -0.00059237184759051379 -0.0062836397209893747 0 4.5420533492087287e-05 -0.0065897228996479934 0 -0.00059746297823611613 -0.0059019113757342884 0 -0.00089670899052705585 -0.006822418756885093 0 -0.0014611819577287721 -0.006086248627462593 0 -0.0015819696868240364 -0.0070833446444559002 0 -0.00089670899052705585 -0.006822418756885093 0 -0.00059746297823611613 -0.0059019113757342884 0 -0.0014611819577287721 -0.006086248627462593 0 -0.00089670899052705585 -0.006822418756885093 0 -0.0018517898944196264 -0.0056964248535791157 0 -0.0019804335456794987 -0.0061457140832627578 0 -0.0014611819577287721 -0.006086248627462593 0 -0.0021222975553761435 -0.0067512623401293258 0 -0.0014611819577287721 -0.006086248627462593 0 -0.0015819696868240364 -0.0070833446444559002 0 -0.0015819696868240364 -0.0070833446444559002 0 -0.0011826931127787356 -0.0077793761016322124 0 -0.0020470501046637155 -0.0080519281634857283 0 -0.0015819696868240364 -0.0070833446444559002 0 -0.0011826931127787356 -0.0077793761016322124 0 -0.00089670899052705585 -0.006822418756885093 0 0.00016172279227507944 -0.007735623704904054 0 4.5420533492087287e-05 -0.0065897228996479934 0 -0.00052857011504723629 -0.0076694666532755966 0 4.5420533492087287e-05 -0.0065897228996479934 0 -0.00089670899052705585 -0.006822418756885093 0 -0.00052857011504723629 -0.0076694666532755966 0 -0.0011826931127787356 -0.0077793761016322124 0 -0.00089670899052705585 -0.006822418756885093 0 -0.00052857011504723629 -0.0076694666532755966 0 0.00016172279227507944 -0.007735623704904054 0 -0.00052857011504723629 -0.0076694666532755966 0 -0.0001784824189436684 -0.0083155943349659846 0 -0.00031123398562667501 -0.0089986374137565935 0 -0.0001784824189436684 -0.0083155943349659846 0 -0.00071399350574979416 -0.0084607231906361179 0 0.00035396470347026095 -0.0085766516300103991 0 -0.00031123398562667501 -0.0089986374137565935 0 -0.0001784824189436684 -0.0083155943349659846 0 -0.00052857011504723629 -0.0076694666532755966 0 -0.0001784824189436684 -0.0083155943349659846 0 -0.00071399350574979416 -0.0084607231906361179 0 -0.0011826931127787356 -0.0077793761016322124 0 -0.00052857011504723629 -0.0076694666532755966 0 -0.00071399350574979416 -0.0084607231906361179 0 -0.00071399350574979416 -0.0084607231906361179 0 -0.0013291007222043987 -0.008651002420572677 0 -0.00074542926830009724 -0.0094348096213227629 0 -0.00031123398562667501 -0.0089986374137565935 0 -0.00071399350574979416 -0.0084607231906361179 0 -0.00074542926830009724 -0.0094348096213227629 0 -0.0011826931127787356 -0.0077793761016322124 0 -0.00071399350574979416 -0.0084607231906361179 0 -0.0013291007222043987 -0.008651002420572677 0 -0.0011826931127787356 -0.0077793761016322124 0 -0.0013291007222043987 -0.008651002420572677 0 -0.0020470501046637155 -0.0080519281634857283 0 -0.0013291007222043987 -0.008651002420572677 0 -0.0019428088762459275 -0.0088528832167540129 0 -0.0020470501046637155 -0.0080519281634857283 0 -0.0013291007222043987 -0.008651002420572677 0 -0.0019428088762459275 -0.0088528832167540129 0 -0.0013341884564646697 -0.0094783622209098275 0 -0.0019428088762459275 -0.0088528832167540129 0 -0.0013341884564646697 -0.0094783622209098275 0 -0.0021526475254067608 -0.0095858848488750911 0 -0.0013341884564646697 -0.0094783622209098275 0 -0.0021526475254067608 -0.0095858848488750911 0 -0.0015583205807062671 -0.010485123511042449 0 -0.0024219044143436231 -0.0086778884517368631 0 -0.0019716029267270972 -0.0092421990542834748 0 -0.0013341884564646697 -0.0094783622209098275 0 -0.00071780802973065621 -0.01014100170913312 0 -0.0015583205807062671 -0.010485123511042449 0 -0.0013291007222043987 -0.008651002420572677 0 -0.0013341884564646697 -0.0094783622209098275 0 -0.00074542926830009724 -0.0094348096213227629 0 -0.0013341884564646697 -0.0094783622209098275 0 -0.00074542926830009724 -0.0094348096213227629 0 -0.00071780802973065621 -0.01014100170913312 0 -9.7195431254946867e-05 -0.0099503330900553542 0 -0.00074542926830009724 -0.0094348096213227629 0 -0.00071780802973065621 -0.01014100170913312 0 -9.7195431254946867e-05 -0.0099503330900553542 0 -0.00025761066727676739 -0.011094013341885891 0 -0.00071780802973065621 -0.01014100170913312 0 -9.7195431254946867e-05 -0.0099503330900553542 0 -0.00031123398562667501 -0.0089986374137565935 0 -0.00074542926830009724 -0.0094348096213227629 0 -0.0032284059816033947 -0.0075373401620810075 0 -0.0029427312988869747 -0.0075869239401326382 0 -0.0032127694948683662 -0.0076599065649942573 0 -0.0034357135474227304 -0.0075052023108449 0 -0.0034247496988705907 -0.0076819940106121294 0 -0.0032127694948683662 -0.0076599065649942573 0 -0.0034357135474227304 -0.0075052023108449 0 -0.0032284059816033947 -0.0075373401620810075 0 -0.0032127694948683662 -0.0076599065649942573 0 -0.0034357135474227304 -0.0075052023108449 0 -0.0035594851379528278 -0.0071736357101253711 0 -0.0032284059816033947 -0.0075373401620810075 0 -0.0030647318862903512 -0.0075089582873434377 0 -0.0032284059816033947 -0.0075373401620810075 0 -0.0029427312988869747 -0.0075869239401326382 0 -0.0030549781217682898 -0.0075580179769900099 0 -0.0027865110162864763 -0.0080957281110605045 0 -0.0030647318862903512 -0.0075089582873434377 0 -0.0020470501046637155 -0.0080519281634857283 0 -0.0026529434425867056 -0.008603630163518854 0 -0.0019428088762459275 -0.0088528832167540129 0 -0.0020470501046637155 -0.0080519281634857283 0 -0.0026529434425867056 -0.008603630163518854 0 -0.0029427312988869747 -0.0075869239401326382 0 -0.0030003467087875912 -0.0077712392669924343 0 -0.0027087003428986904 -0.0077557492808679801 0 -0.0029427312988869747 -0.0075869239401326382 0 -0.0030003467087875912 -0.0077712392669924343 0 -0.0032127694948683662 -0.0076599065649942573 0 -0.0019428088762459275 -0.0088528832167540129 0 -0.0026529434425867056 -0.008603630163518854 0 -0.0021526475254067608 -0.0095858848488750911 0 -0.0027865110162864763 -0.0080957281110605045 0 -0.0024219044143436231 -0.0086778884517368631 0 -0.0030003467087875912 -0.0077712392669924343 0 -0.0027087003428986904 -0.0077557492808679801 0 -0.0028685704949635827 -0.0079922662915048494 0 -0.0027087003428986904 -0.0077557492808679801 0 -0.0028685704949635827 -0.0079922662915048494 0 -0.0023997483336022532 -0.008004675941689323 0 -0.0030003467087875912 -0.0077712392669924343 0 -0.0030674675177619409 -0.0079405339447924852 0 -0.0028685704949635827 -0.0079922662915048494 0 -0.0030003467087875912 -0.0077712392669924343 0 -0.0032734689876258538 -0.007891178101120163 0 -0.0030674675177619409 -0.0079405339447924852 0 -0.0030003467087875912 -0.0077712392669924343 0 -0.0032127694948683662 -0.0076599065649942573 0 -0.0032734689876258538 -0.007891178101120163 0 -0.0034247496988705907 -0.0076819940106121294 0 -0.0032127694948683662 -0.0076599065649942573 0 -0.0032734689876258538 -0.007891178101120163 0 -0.0023092840539290088 -0.0041301642901253044 0 -0.002327654767918005 -0.0044015180192407471 0 -0.002445339299890993 -0.0042875911122971328 0 -0.002636854776640329 -0.0064962759833789513 0 -0.0029385614973858349 -0.0068405826560562549 0 -0.0024804614600314225 -0.0041207633869813571 0 -0.0023092840539290088 -0.0041301642901253044 0 -0.002445339299890993 -0.0042875911122971328 0 -0.0023092840539290088 -0.0041301642901253044 0 -0.002327654767918005 -0.0044015180192407471 0 -0.0020812434754723238 -0.0044919438357599317 0 -0.002327654767918005 -0.0044015180192407471 0 -0.002445339299890993 -0.0042875911122971328 0 -0.0025129651731315263 -0.0044906421840019911 0 -0.002327654767918005 -0.0044015180192407471 0 -0.0022864042287884774 -0.0045984130154529471 0 -0.0020812434754723238 -0.0044919438357599317 0 -0.002327654767918005 -0.0044015180192407471 0 -0.0022864042287884774 -0.0045984130154529471 0 -0.0025129651731315263 -0.0044906421840019911 0 -0.0022864042287884774 -0.0045984130154529471 0 -0.0024899804768629429 -0.0047056093738635629 0 -0.0025129651731315263 -0.0044906421840019911 0 -0.0026099370106559688 -0.0063780103391276634 0 -0.0031337953113843918 -0.0073821106625381952 0 -0.0031105473118053259 -0.0082456178707827153 0 -0.0031633964343520094 -0.0081765012734983742 0 -0.0029626444773893836 -0.0082497248456050755 0 -0.0032647677942739079 -0.0082639692768658284 0 -0.0031105473118053259 -0.0082456178707827153 0 -0.003140748039522336 -0.0083696430235276221 0 -0.0032647677942739079 -0.0082639692768658284 0 -0.0031105473118053259 -0.0082456178707827153 0 -0.0031457707319068697 -0.0081899844521998531 0 -0.0031105473118053259 -0.0082456178707827153 0 -0.0029626444773893836 -0.0082497248456050755 0 -0.003140748039522336 -0.0083696430235276221 0 -0.0026099370106559688 -0.0063780103391276634 0 -0.0029385614973858349 -0.0068405826560562549 0 -0.0027235134317494139 -0.0077158658967077598 0 -0.0029385614973858349 -0.0068405826560562549 0 -0.0032734689876258538 -0.007891178101120163 0 -0.0031186982082326118 -0.0081126572421028279 0 -0.0030674675177619409 -0.0079405339447924852 0 -0.0029385614973858349 -0.0068405826560562549 0 -0.0030610771279853803 -0.0083963281857225899 0 -0.0031186982082326118 -0.0081126572421028279 0 -0.0030674675177619409 -0.0079405339447924852 0 -0.0028685704949635827 -0.0079922662915048494 0 -0.0028685704949635827 -0.0079922662915048494 0 -0.0023997483336022532 -0.008004675941689323 0 -0.0026078489160390769 -0.0082706241084334765 0 -0.0029626444773893836 -0.0082497248456050755 0 -0.0028085678863027912 -0.0084495510130596779 0 -0.0026078489160390769 -0.0082706241084334765 0 -0.0028685704949635827 -0.0079922662915048494 0 -0.0029626444773893836 -0.0082497248456050755 0 -0.0026078489160390769 -0.0082706241084334765 0 -0.0031633964343520094 -0.0081765012734983742 0 -0.0028685704949635827 -0.0079922662915048494 0 -0.0029626444773893836 -0.0082497248456050755 0 -0.0028027658478023531 -0.0084015707377685708 0 -0.0033533685155494909 -0.0084567128342974626 0 -0.0029626444773893836 -0.0082497248456050755 0 -0.0028085678863027912 -0.0084495510130596779 0 -0.003140748039522336 -0.0083696430235276221 0 -0.0028085678863027912 -0.0084495510130596779 0 -0.0033881965842462564 -0.0086049208597216657 0 -0.0034141468339397665 -0.008290846322074984 0 -0.0028085678863027912 -0.0084495510130596779 0 -0.0030587932040530164 -0.0088616122716729962 0 -0.0025603638159693428 -0.0091438407919842944 0 -0.0028085678863027912 -0.0084495510130596779 0 -0.0030587932040530164 -0.0088616122716729962 0 -0.0033881965842462564 -0.0086049208597216657 0 -0.0033881965842462564 -0.0086049208597216657 0 -0.0036785435612863996 -0.008698955816682577 0 -0.0034884534160834297 -0.0089531463498346009 0 -0.0030587932040530164 -0.0088616122716729962 0 -0.0033881965842462564 -0.0086049208597216657 0 -0.0034884534160834297 -0.0089531463498346009 0 -0.0033881965842462564 -0.0086049208597216657 0 -0.0036500453154242598 -0.0083755587477960976 0 -0.003536440966867616 -0.0083698116870865435 0 -0.0036621502468951943 -0.0083369965705339857 0 -0.0038103633299232781 -0.0083472455599657887 0 -0.0036785435612863996 -0.008698955816682577 0 -0.0036500453154242598 -0.0083755587477960976 0 -0.0040425311324450786 -0.0087206311597568965 0 -0.0033881965842462564 -0.0086049208597216657 0 -0.0036785435612863996 -0.008698955816682577 0 -0.0036500453154242598 -0.0083755587477960976 0 -0.0032647677942739079 -0.0082639692768658284 0 -0.003140748039522336 -0.0083696430235276221 0 -0.003375742946677948 -0.0083181001946001677 0 -0.0036500453154242598 -0.0083755587477960976 0 -0.003536440966867616 -0.0083698116870865435 0 -0.003672733165175775 -0.0082773563574101497 0 -0.0033533685155494909 -0.0084567128342974626 0 -0.0031337953113843918 -0.0073821106625381952 0 -0.0034141468339397665 -0.008290846322074984 0 -0.003536440966867616 -0.0083698116870865435 0 -0.003672733165175775 -0.0082773563574101497 0 -0.0033881965842462564 -0.0086049208597216657 0 -0.0034141468339397665 -0.008290846322074984 0 -0.003536440966867616 -0.0083698116870865435 0 -0.00025761066727676739 -0.011094013341885891 0 -0.00057662304263752249 -0.011066476690014154 0 -0.00076721132601681994 -0.010775321846767379 0 -0.00025761066727676739 -0.011094013341885891 0 -0.0006068060587383616 -0.0110931592801833 0 -0.00057662304263752249 -0.011066476690014154 0 -0.00025761066727676739 -0.011094013341885891 0 -0.00071780802973065621 -0.01014100170913312 0 -0.00076721132601681994 -0.010775321846767379 0 -0.00071780802973065621 -0.01014100170913312 0 -0.00076721132601681994 -0.010775321846767379 0 -0.0015583205807062671 -0.010485123511042449 0 -0.00057662304263752249 -0.011066476690014154 0 -0.00076721132601681994 -0.010775321846767379 0 -0.00090510147666765972 -0.011078654564705047 0 -0.00076721132601681994 -0.010775321846767379 0 -0.0015583205807062671 -0.010485123511042449 0 -0.00090510147666765972 -0.011078654564705047 0 -0.0019716029267270972 -0.0092421990542834748 0 -0.0014473354840239922 -0.0097210069906678402 0 -0.0023997483336022532 -0.008004675941689323 0 -0.0026078489160390769 -0.0082706241084334765 0 -0.0019835639990103387 -0.008394577252369877 0 -0.0028085678863027912 -0.0084495510130596779 0 -0.0026078489160390769 -0.0082706241084334765 0 -0.0023841286407721277 -0.0086402559291316999 0 -0.0026078489160390769 -0.0082706241084334765 0 -0.0023841286407721277 -0.0086402559291316999 0 -0.0019835639990103387 -0.008394577252369877 0 -0.0028085678863027912 -0.0084495510130596779 0 -0.0023841286407721277 -0.0086402559291316999 0 -0.0025603638159693428 -0.0091438407919842944 0 -0.0023841286407721277 -0.0086402559291316999 0 -0.0020559442740108965 -0.0090126338706332226 0 -0.0025603638159693428 -0.0091438407919842944 0 -0.0023841286407721277 -0.0086402559291316999 0 -0.0020559442740108965 -0.0090126338706332226 0 -0.0019835639990103387 -0.008394577252369877 0 -0.0014473354840239922 -0.0097210069906678402 0 -0.0010514512110081735 -0.009991679321782453 0 -0.00057662304263752249 -0.011066476690014154 0 -0.00090510147666765972 -0.011078654564705047 0 -0.00054069604089380268 -0.010962425777831799 0 -0.0020559442740108965 -0.0090126338706332226 0 -0.0019835639990103387 -0.008394577252369877 0 -0.0014943722057792917 -0.0090182805131542986 0 -0.0006068060587383616 -0.0110931592801833 0 -0.00057662304263752249 -0.011066476690014154 0 -0.00054069604089380268 -0.010962425777831799 0 -0.0011836916721474524 -0.010318744116111682 0 -0.0010030684268002353 -0.010202991753510766 0 -0.0015782579056527865 -0.010176819353697198 0 -0.0010030684268002353 -0.010202991753510766 0 -0.0017825056552031836 -0.0097118904938719545 0 -0.0015782579056527865 -0.010176819353697198 0 -0.00090288040926935203 -0.010759250172911263 0 -0.00054069604089380268 -0.010962425777831799 0 -0.0010030684268002353 -0.010202991753510766 0 -0.0014943722057792917 -0.0090182805131542986 0 -0.0010030684268002353 -0.010202991753510766 0 -0.0017825056552031836 -0.0097118904938719545 0 -0.0010514512110081735 -0.009991679321782453 0 -0.00099403733298231373 -0.010172853998989274 0 -0.0020559442740108965 -0.0090126338706332226 0 -0.0014943722057792917 -0.0090182805131542986 0 -0.0017825056552031836 -0.0097118904938719545 0 -0.0017825056552031836 -0.0097118904938719545 0 -0.0022221207608635065 -0.0097271198415510834 0 -0.0015782579056527865 -0.010176819353697198 0 -0.0017825056552031836 -0.0097118904938719545 0 -0.0025603638159693428 -0.0091438407919842944 0 -0.0022221207608635065 -0.0097271198415510834 0 -0.0020559442740108965 -0.0090126338706332226 0 -0.0017825056552031836 -0.0097118904938719545 0 -0.0025603638159693428 -0.0091438407919842944 0 -0.0025603638159693428 -0.0091438407919842944 0 -0.0022221207608635065 -0.0097271198415510834 0 -0.002891434409597317 -0.0095756592164107091 0 -0.002267325108131879 -0.0096763965249787552 0 -0.002873458805298794 -0.009409840940863945 0 -0.0022221207608635065 -0.0097271198415510834 0 -0.0022695566157337737 -0.0099957601038755534 0 -0.0026398837551440037 -0.0097648497967892864 0 -0.0022695566157337737 -0.0099957601038755534 0 -0.0026398837551440037 -0.0097648497967892864 0 -0.0022977890462949368 -0.010261504719461762 0 -0.0022221207608635065 -0.0097271198415510834 0 -0.0022695566157337737 -0.0099957601038755534 0 -0.0019351425269621423 -0.010260838183621798 0 -0.0022695566157337737 -0.0099957601038755534 0 -0.0019351425269621423 -0.010260838183621798 0 -0.0022977890462949368 -0.010261504719461762 0 -0.0022221207608635065 -0.0097271198415510834 0 -0.0019351425269621423 -0.010260838183621798 0 -0.0015782579056527865 -0.010176819353697198 0 -0.0019351425269621423 -0.010260838183621798 0 -0.0015782579056527865 -0.010176819353697198 0 -0.0016477525846141457 -0.010439354239620285 0 -0.0013714402833300352 -0.010433130539451637 0 -0.0016477525846141457 -0.010439354239620285 0 -0.00150123657041361 -0.010653199084752447 0 -0.0013714402833300352 -0.010433130539451637 0 -0.0015782579056527865 -0.010176819353697198 0 -0.0016477525846141457 -0.010439354239620285 0 -0.0011836916721474524 -0.010318744116111682 0 -0.0013714402833300352 -0.010433130539451637 0 -0.0015782579056527865 -0.010176819353697198 0 -0.0034884534160834297 -0.0089531463498346009 0 -0.0031223516385574519 -0.0091915173555821815 0 -0.0035139001191495001 -0.0093494147156402037 0 -0.0037559021032238021 -0.0090150930697727658 0 -0.0035139001191495001 -0.0093494147156402037 0 -0.0039454023023084549 -0.0089551993721262556 0 -0.0037559021032238021 -0.0090150930697727658 0 -0.0034884534160834297 -0.0089531463498346009 0 -0.0035139001191495001 -0.0093494147156402037 0 -0.0036778719273653096 -0.0087058903692987313 0 -0.0040371840832066613 -0.0088836359828951567 0 -0.0037559021032238021 -0.0090150930697727658 0 -0.0037621317654025007 -0.0088727582619909668 0 -0.0034884534160834297 -0.0089531463498346009 0 -0.0036785435612863996 -0.008698955816682577 0 -0.0037621317654025007 -0.0088727582619909668 0 -0.0034884534160834297 -0.0089531463498346009 0 -0.0036785435612863996 -0.008698955816682577 0 -0.0037621317654025007 -0.0088727582619909668 0 -0.003891941384587469 -0.0088679486405164633 0 -0.0037559021032238021 -0.0090150930697727658 0 -0.0037621317654025007 -0.0088727582619909668 0 -0.0038356985697938347 -0.0089278155897479054 0 -0.0030587932040530164 -0.0088616122716729962 0 -0.0034884534160834297 -0.0089531463498346009 0 -0.0031223516385574519 -0.0091915173555821815 0 -0.0030587932040530164 -0.0088616122716729962 0 -0.0025603638159693428 -0.0091438407919842944 0 -0.0031223516385574519 -0.0091915173555821815 0 -0.0025603638159693428 -0.0091438407919842944 0 -0.0031223516385574519 -0.0091915173555821815 0 -0.002891434409597317 -0.0095756592164107091 0 -0.0031223516385574519 -0.0091915173555821815 0 -0.002891434409597317 -0.0095756592164107091 0 -0.0035139001191495001 -0.0093494147156402037 0 -0.002873458805298794 -0.009409840940863945 0 -0.0035309571634521012 -0.009124099617500981 0 -0.0028422360536868073 -0.0092242199670579377 0 -0.0031283858716128887 -0.0095635597584742497 0 -0.0034385694052643909 -0.0092231000499616873 0 -0.0022221207608635065 -0.0097271198415510834 0 -0.0028422360536868073 -0.0092242199670579377 0 -0.0026398837551440037 -0.0097648497967892864 0 -0.0026398837551440037 -0.0097648497967892864 0 -0.0031283858716128887 -0.0095635597584742497 0 -0.0028233759350634836 -0.010019510229717039 0 -0.0028422360536868073 -0.0092242199670579377 0 -0.0026398837551440037 -0.0097648497967892864 0 -0.0031283858716128887 -0.0095635597584742497 0 -0.0031283858716128887 -0.0095635597584742497 0 -0.0034385694052643909 -0.0092231000499616873 0 -0.003645740115306616 -0.0093134084903919861 0 -0.0034385694052643909 -0.0092231000499616873 0 -0.0035655262478661493 -0.0088911041457826172 0 -0.0037792118075461313 -0.0089853742927384975 0 -0.0028422360536868073 -0.0092242199670579377 0 -0.0034385694052643909 -0.0092231000499616873 0 -0.0035655262478661493 -0.0088911041457826172 0 -0.0035309571634521012 -0.009124099617500981 0 -0.0039044628478380672 -0.0089784396168602083 0 -0.0035655262478661493 -0.0088911041457826172 0 -0.0037792118075461313 -0.0089853742927384975 0 -0.0039454023023084549 -0.0089551993721262556 0 -0.0037792118075461313 -0.0089853742927384975 0 -0.003645740115306616 -0.0093134084903919861 0 -0.0040240583490193131 -0.008780377069547398 0 -0.0034385694052643909 -0.0092231000499616873 0 -0.0037792118075461313 -0.0089853742927384975 0 -0.003645740115306616 -0.0093134084903919861 0 -0.003645740115306616 -0.0093134084903919861 0 -0.0040240583490193131 -0.008780377069547398 0 -0.0041300056663128339 -0.0092428143590879593 0 -0.004101018338289907 -0.0087003808417688774 0 -0.004337809612137142 -0.0084948129960061101 0 -0.0040240583490193131 -0.008780377069547398 0 -0.0047659200878616935 -0.0081295936322163028 0 -0.00467802839199301 -0.0086828639388062435 0 -0.0040240583490193131 -0.008780377069547398 0 -0.0038894588188574182 -0.0088361360998757289 0 -0.0039221838431111027 -0.0088865678419765004 0 -0.0038894588188574182 -0.0088361360998757289 0 -0.0039221838431111027 -0.0088865678419765004 0 -0.0038787124392682692 -0.0088801687365552551 0 -0.0039221838431111027 -0.0088865678419765004 0 -0.0038787124392682692 -0.0088801687365552551 0 -0.0039108004376654931 -0.0089257515573931932 0 -0.0039221838431111027 -0.0088865678419765004 0 -0.0039454023023084549 -0.0089551993721262556 0 -0.0039108004376654931 -0.0089257515573931932 0 -0.0037792118075461313 -0.0089853742927384975 0 -0.0040240583490193131 -0.008780377069547398 0 -0.0039454023023084549 -0.0089551993721262556 0 -0.0040240583490193131 -0.008780377069547398 0 -0.0039221838431111027 -0.0088865678419765004 0 -0.0039454023023084549 -0.0089551993721262556 0 -0.0047931670436940372 -0.0082963110060895288 0 -0.004394438296649616 -0.007696901268271536 0 -0.0054818588969032704 -0.0076786229380031877 0 -0.0058306214160273769 -0.0077235035726810298 0 -0.0053261557120201078 -0.0082974632132292551 0 -0.0054818588969032704 -0.0076786229380031877 0 -0.0058306214160273769 -0.0077235035726810298 0 -0.0061204137008347348 -0.0074733144443109353 0 -0.004337809612137142 -0.0084948129960061101 0 -0.0047931670436940372 -0.0082963110060895288 0 -0.0047659200878616935 -0.0081295936322163028 0 -0.0053261557120201078 -0.0082974632132292551 0 -0.00467802839199301 -0.0086828639388062435 0 -0.0047659200878616935 -0.0081295936322163028 0 -0.0054818588969032704 -0.0076786229380031877 0 -0.0053261557120201078 -0.0082974632132292551 0 -0.0038504858096480759 -0.0088448621110187812 0 -0.0038787124392682692 -0.0088801687365552551 0 -0.0038528949886752002 -0.0089027931258487559 0 -0.0038894588188574182 -0.0088361360998757289 0 -0.0038504858096480759 -0.0088448621110187812 0 -0.0038787124392682692 -0.0088801687365552551 0 -0.0038504858096480759 -0.0088448621110187812 0 -0.0038528949886752002 -0.0089027931258487559 0 -0.0038032165115422173 -0.0088348639893270561 0 -0.0035004118658548762 -0.0083495409426653042 0 -0.004394438296649616 -0.007696901268271536 0 -0.0034269649518128172 -0.0076729572034189234 0 -0.0032958778416065713 -0.0076601425323123964 0 -0.0032881271822556317 -0.00756727953839181 0 -0.003289376615584498 -0.0076867045766761616 0 -0.0032825638484115451 -0.0076852741360535042 0 -0.0032958778416065713 -0.0076601425323123964 0 -0.0034451844265214987 -0.0077540616596773315 0 -0.0034269649518128172 -0.0076729572034189234 0 -0.0032958778416065713 -0.0076601425323123964 0 -0.0032874546930290872 -0.0076446375081277917 0 -0.0033342686172252935 -0.0076903516734181153 0 -0.0035004118658548762 -0.0083495409426653042 0 -0.0038030992032515943 -0.0083398846621668271 0 -0.0034451844265214987 -0.0077540616596773315 0 -0.0034269649518128172 -0.0076729572034189234 0 -0.0036478889143253712 -0.0078502301789598085 0 -0.0038528949886752002 -0.0089027931258487559 0 -0.0038916896334939555 -0.0089163720762572372 0 -0.0039227862076204566 -0.0089383100746699678 0 -0.0038787124392682692 -0.0088801687365552551 0 -0.0038528949886752002 -0.0089027931258487559 0 -0.0038916896334939555 -0.0089163720762572372 0 -0.003289376615584498 -0.0076867045766761616 0 -0.0032943952875942551 -0.0077624785027372552 0 -0.0033907343405650144 -0.0077293135286964623 0 -0.003289376615584498 -0.0076867045766761616 0 -0.0032943952875942551 -0.0077624785027372552 0 -0.0032817921122962664 -0.0077083227780442133 0 -0.0032874546930290872 -0.0076446375081277917 0 -0.0038030992032515943 -0.0083398846621668271 0 -0.0032943952875942551 -0.0077624785027372552 0 -0.0032817921122962664 -0.0077083227780442133 0 -0.0032796408635220975 -0.0076916366613574453 0 -0.003289376615584498 -0.0076867045766761616 0 -0.0032817921122962664 -0.0077083227780442133 0 -0.0032825638484115451 -0.0076852741360535042 0 -0.0032817921122962664 -0.0077083227780442133 0 -0.0032796408635220975 -0.0076916366613574453 0 -0.0032825638484115451 -0.0076852741360535042 0 -0.0037559021032238021 -0.0090150930697727658 0 -0.0039087548969602539 -0.0089519375424832459 0 -0.0039454023023084549 -0.0089551993721262556 0 -0.0039087548969602539 -0.0089519375424832459 0 -0.0039454023023084549 -0.0089551993721262556 0 -0.0039108004376654931 -0.0089257515573931932 0 -0.0039087548969602539 -0.0089519375424832459 0 -0.0039108004376654931 -0.0089257515573931932 0 -0.0039227862076204566 -0.0089383100746699678 0 -0.0038916896334939555 -0.0089163720762572372 0 -0.0039108004376654931 -0.0089257515573931932 0 -0.0039227862076204566 -0.0089383100746699678 0 -0.0038787124392682692 -0.0088801687365552551 0 -0.0038916896334939555 -0.0089163720762572372 0 -0.0039108004376654931 -0.0089257515573931932 0 -0.0038030992032515943 -0.0083398846621668271 0 -0.0040371840832066613 -0.0088836359828951567 0 -0.0033907343405650144 -0.0077293135286964623 0 -0.0036123958903151177 -0.007958320764736045 0 -0.0034321600398795312 -0.0079223849339054488 0 -0.0032943952875942551 -0.0077624785027372552 0 -0.0033907343405650144 -0.0077293135286964623 0 -0.0033423220794306335 -0.0078187717214409092 0 -0.0038030992032515943 -0.0083398846621668271 0 -0.0038103633299232781 -0.0083472455599657887 0 -0.0033907343405650144 -0.0077293135286964623 0 -0.0033423220794306335 -0.0078187717214409092 0 -0.0034321600398795312 -0.0079223849339054488 0 -0.0039087548969602539 -0.0089519375424832459 0 -0.0039227862076204566 -0.0089383100746699678 0 -0.003891941384587469 -0.0088679486405164633 0 -0.0043184491390582877 -0.008959893432558862 0 -0.0040476557873118484 -0.0088349366077018609 0 -0.0040425311324450786 -0.0087206311597568965 0 -0.0039087548969602539 -0.0089519375424832459 0 -0.003891941384587469 -0.0088679486405164633 0 -0.0038356985697938347 -0.0089278155897479054 0 -0.0037559021032238021 -0.0090150930697727658 0 -0.0039087548969602539 -0.0089519375424832459 0 -0.0038356985697938347 -0.0089278155897479054 0 -0.0037621317654025007 -0.0088727582619909668 0 -0.003891941384587469 -0.0088679486405164633 0 -0.0038356985697938347 -0.0089278155897479054 0 -0.0036785435612863996 -0.008698955816682577 0 -0.0040476557873118484 -0.0088349366077018609 0 -0.0040425311324450786 -0.0087206311597568965 0 -0.0036500453154242598 -0.0083755587477960976 0 -0.0036123958903151177 -0.007958320764736045 0 -0.0036147664257343347 -0.0081887447222418926 0 -0.0036123958903151177 -0.007958320764736045 0 -0.0035320403066228098 -0.0080622858218792944 0 -0.0034321600398795312 -0.0079223849339054488 0 -0.0036123958903151177 -0.007958320764736045 0 -0.0035320403066228098 -0.0080622858218792944 0 -0.0036147664257343347 -0.0081887447222418926 0 -0.0035320403066228098 -0.0080622858218792944 0 -0.0036147664257343347 -0.0081887447222418926 0 -0.0034716919795820564 -0.0081685022781173532 0 -0.0031337953113843918 -0.0073821106625381952 0 -0.0029808925479561832 -0.0060477258982133781 0 -0.0036500453154242598 -0.0083755587477960976 0 -0.0036147664257343347 -0.0081887447222418926 0 -0.003672733165175775 -0.0082773563574101497 0 -0.0031337953113843918 -0.0073821106625381952 0 -0.0034329980114554967 -0.0080181524024803483 0 -0.0036147664257343347 -0.0081887447222418926 0 -0.003672733165175775 -0.0082773563574101497 0 -0.0034716919795820564 -0.0081685022781173532 0 -0.0032083335323639462 -0.0077876347364366355 0 -0.0032893193352077346 -0.007851296199498663 0 -0.0032877396329774118 -0.0077661299625604481 0 -0.0031329304448245512 -0.007735734131476232 0 -0.0032528250922759551 -0.0077388298680666342 0 -0.0032083335323639462 -0.0077876347364366355 0 -0.0032528250922759551 -0.0077388298680666342 0 -0.0032083335323639462 -0.0077876347364366355 0 -0.0032877396329774118 -0.0077661299625604481 0 -0.0034329980114554967 -0.0080181524024803483 0 -0.0032720990439545445 -0.0078728231128371295 0 -0.0034716919795820564 -0.0081685022781173532 0 -0.0034321600398795312 -0.0079223849339054488 0 -0.0032893193352077346 -0.007851296199498663 0 -0.0035320403066228098 -0.0080622858218792944 0 -0.0034716919795820564 -0.0081685022781173532 0 -0.0034321600398795312 -0.0079223849339054488 0 -0.0033423220794306335 -0.0078187717214409092 0 -0.0034321600398795312 -0.0079223849339054488 0 -0.0032893193352077346 -0.007851296199498663 0 -0.0032943952875942551 -0.0077624785027372552 0 -0.0032893193352077346 -0.007851296199498663 0 -0.003292680659955589 -0.0077552104477798724 0 -0.0032943952875942551 -0.0077624785027372552 0 -0.0033423220794306335 -0.0078187717214409092 0 -0.0032893193352077346 -0.007851296199498663 0 -0.0032893193352077346 -0.007851296199498663 0 -0.003292680659955589 -0.0077552104477798724 0 -0.0032877396329774118 -0.0077661299625604481 0 -0.0032943952875942551 -0.0077624785027372552 0 -0.003292680659955589 -0.0077552104477798724 0 -0.0032796408635220975 -0.0076916366613574453 0 -0.003292680659955589 -0.0077552104477798724 0 -0.0032796408635220975 -0.0076916366613574453 0 -0.0032622584736914984 -0.0077074155362690019 0 -0.003292680659955589 -0.0077552104477798724 0 -0.0032980096694697888 -0.0077418524867106393 0 -0.0032622584736914984 -0.0077074155362690019 0 -0.0029808925479561832 -0.0060477258982133781 0 -0.0032384380680126755 -0.0064972684953535564 0 -0.0032528250922759551 -0.0077388298680666342 0 -0.0032980096694697888 -0.0077418524867106393 0 -0.0032877396329774118 -0.0077661299625604481 0 -0.003292680659955589 -0.0077552104477798724 0 -0.0032980096694697888 -0.0077418524867106393 0 -0.0032877396329774118 -0.0077661299625604481 0 -0.0028388084914691357 -0.0046496491568810043 0 -0.0031506918116593133 -0.0045926797294415624 0 -0.0029800268029116792 -0.0045008715795898536 0 -0.0029800268029116792 -0.0045008715795898536 0 -0.0031845609974616822 -0.0044534163821164608 0 -0.0029178272660761082 -0.0043278853906525642 0 -0.003064720152987871 -0.0018325466620697504 0 -0.0029929294415451998 -0.0018737635931125945 0 -0.0031506918116593133 -0.0045926797294415624 0 -0.0031845609974616822 -0.0044534163821164608 0 -0.0034212465771659129 -0.0045440558756321379 0 -0.0031506918116593133 -0.0045926797294415624 0 -0.0029800268029116792 -0.0045008715795898536 0 -0.0031845609974616822 -0.0044534163821164608 0 -0.0030200197435446057 0.00064226747662755662 0 -0.0030406841458225703 0.00056453229831798953 0 -0.0029356793179654635 0.00056696840829864245 0 -0.0030200197435446057 0.00064226747662755662 0 -0.0030406841458225703 0.00056453229831798953 0 -0.0030650999268948286 0.00060817861131203627 0 -0.0029929294415451998 -0.0018737635931125945 0 -0.0023403914281040238 -0.0021050394781254745 0 -0.0029178272660761082 -0.0043278853906525642 0 -0.0026189561327496051 -0.0041816972350525519 0 -0.0026383837543691906 -0.0043112802177394305 0 -0.0029178272660761082 -0.0043278853906525642 0 -0.0026383837543691906 -0.0043112802177394305 0 -0.0027153317458738935 -0.0045020450094225431 0 -0.0029090635917528307 0.00068109898291510097 0 -0.0029356793179654635 0.00056696840829864245 0 -0.0028146524380918644 0.00059654943969857999 0 -0.0026302216800636814 -0.0041792266561966208 0 -0.0025645572817357162 -0.0042166574337794763 0 -0.0026383837543691906 -0.0043112802177394305 0 -0.0023403914281040238 -0.0021050394781254745 0 -0.0026512548686600549 -0.004226614082937185 0 -0.0024804614600314225 -0.0041207633869813571 0 -0.0026302216800636814 -0.0041792266561966208 0 -0.0025645572817357162 -0.0042166574337794763 0 -0.0025645572817357162 -0.0042166574337794763 0 -0.002445339299890993 -0.0042875911122971328 0 -0.0026383837543691906 -0.0043112802177394305 0 -0.0024804614600314225 -0.0041207633869813571 0 -0.0025645572817357162 -0.0042166574337794763 0 -0.002445339299890993 -0.0042875911122971328 0 -0.002445339299890993 -0.0042875911122971328 0 -0.0026383837543691906 -0.0043112802177394305 0 -0.0025129651731315263 -0.0044906421840019911 0 -0.0026383837543691906 -0.0043112802177394305 0 -0.0025129651731315263 -0.0044906421840019911 0 -0.0027153317458738935 -0.0045020450094225431 0 -0.0024899804768629429 -0.0047056093738635629 0 -0.0025129651731315263 -0.0044906421840019911 0 -0.0027153317458738935 -0.0045020450094225431 0 -0.0029800268029116792 -0.0045008715795898536 0 -0.0029178272660761082 -0.0043278853906525642 0 -0.0027153317458738935 -0.0045020450094225431 0 -0.0024899804768629429 -0.0047056093738635629 0 -0.0028388084914691357 -0.0046496491568810043 0 -0.0027153317458738935 -0.0045020450094225431 0 -0.0028388084914691357 -0.0046496491568810043 0 -0.0029800268029116792 -0.0045008715795898536 0 -0.0027153317458738935 -0.0045020450094225431 0 -0.0029493018516009765 0.0006627195815203606 0 -0.0029873818783939013 0.00070217854690463228 0 -0.0030291088417826093 0.0006492079281426006 0 -0.0029493018516009765 0.0006627195815203606 0 -0.0029873818783939013 0.00070217854690463228 0 -0.0028877570636332505 0.00073530478970943933 0 -0.0029493018516009765 0.0006627195815203606 0 -0.0028877570636332505 0.00073530478970943933 0 -0.0028587041019379703 0.00063266240805847566 0 -0.0027790482787327484 0.00071723927901840977 0 -0.0028877570636332505 0.00073530478970943933 0 -0.0028587041019379703 0.00063266240805847566 0 -0.0029493018516009765 0.0006627195815203606 0 -0.0028587041019379703 0.00063266240805847566 0 -0.0029573374290284642 0.00059394534604670661 0 -0.0028578960481523436 0.00053418011425799183 0 -0.0028587041019379703 0.00063266240805847566 0 -0.0029573374290284642 0.00059394534604670661 0 -0.0029493018516009765 0.0006627195815203606 0 -0.0029573374290284642 0.00059394534604670661 0 -0.0030291088417826093 0.0006492079281426006 0 -0.0029573374290284642 0.00059394534604670661 0 -0.0030371590463248821 0.0006018620104158612 0 -0.0030291088417826093 0.0006492079281426006 0 -0.0030926591772571718 0.00062244926360593858 0 -0.0030371590463248821 0.0006018620104158612 0 -0.0030735752220344189 0.00061887939183131893 0 -0.0030371590463248821 0.0006018620104158612 0 -0.0030735752220344189 0.00061887939183131893 0 -0.0030291088417826093 0.0006492079281426006 0 -0.0030200197435446057 0.00064226747662755662 0 -0.0030926591772571718 0.00062244926360593858 0 -0.0030650999268948286 0.00060817861131203627 0 -0.0030926591772571718 0.00062244926360593858 0 -0.0030735752220344189 0.00061887939183131893 0 -0.0030650999268948286 0.00060817861131203627 0 -0.0030735752220344189 0.00061887939183131893 0 -0.0030650999268948286 0.00060817861131203627 0 -0.0030699929693917692 0.00061011989632414609 0 -0.003064720152987871 -0.0018325466620697504 0 -0.0031968738695143241 -0.002939163843097007 0 -0.0030406841458225703 0.00056453229831798953 0 -0.0030699929693917692 0.00061011989632414609 0 -0.0030788400628419779 0.0006289629715801494 0 -0.0030406841458225703 0.00056453229831798953 0 -0.0030650999268948286 0.00060817861131203627 0 -0.0030699929693917692 0.00061011989632414609 0 -0.0030735752220344189 0.00061887939183131893 0 -0.0030699929693917692 0.00061011989632414609 0 -0.0030714710200664885 0.0006364806804772037 0 -0.0030699929693917692 0.00061011989632414609 0 -0.0030788400628419779 0.0006289629715801494 0 -0.0030714710200664885 0.0006364806804772037 0 -0.0030735752220344189 0.00061887939183131893 0 -0.0030291088417826093 0.0006492079281426006 0 -0.0030714710200664885 0.0006364806804772037 0 -0.0031968738695143241 -0.002939163843097007 0 -0.003176707355880029 -0.0010359019873613881 0 -0.0030788400628419779 0.0006289629715801494 0 -0.0030714710200664885 0.0006364806804772037 0 -0.0030686026737008578 0.00067053077004606448 0 -0.0029873818783939013 0.00070217854690463228 0 -0.0030291088417826093 0.0006492079281426006 0 -0.0030686026737008578 0.00067053077004606448 0 -0.0030291088417826093 0.0006492079281426006 0 -0.0030714710200664885 0.0006364806804772037 0 -0.0030686026737008578 0.00067053077004606448 0 -0.0031968738695143241 -0.002939163843097007 0 -0.0031029373387891478 -0.0037185064035620383 0 -0.0031218016429992398 0.00064557759053016463 0 -0.0030686026737008578 0.00067053077004606448 0 -0.0029844891162324719 0.00080173654059933336 0 -0.0032192675534954453 -0.0077179263417882964 0 -0.0031972791228681552 -0.0076376233082218912 0 -0.0030940863788874659 -0.0076296961560116524 0 -0.0032384380680126755 -0.0064972684953535564 0 -0.0031968738695143241 -0.002939163843097007 0 -0.0032192675534954453 -0.0077179263417882964 0 -0.0032622584736914984 -0.0077074155362690019 0 -0.0031972791228681552 -0.0076376233082218912 0 -0.0032980096694697888 -0.0077418524867106393 0 -0.0032192675534954453 -0.0077179263417882964 0 -0.0032622584736914984 -0.0077074155362690019 0 -0.0032796408635220975 -0.0076916366613574453 0 -0.0032622584736914984 -0.0077074155362690019 0 -0.0031972791228681552 -0.0076376233082218912 0 -0.0032796408635220975 -0.0076916366613574453 0 -0.0031972791228681552 -0.0076376233082218912 0 -0.0031889322509426623 -0.0075347865204934018 0 -0.0031972791228681552 -0.0076376233082218912 0 -0.0031067414268512697 -0.0075382497110298976 0 -0.0031889322509426623 -0.0075347865204934018 0 -0.0031067414268512697 -0.0075382497110298976 0 -0.0030940863788874659 -0.0076296961560116524 0 -0.0030512725738451011 -0.0075371661775755511 0 -0.0031972791228681552 -0.0076376233082218912 0 -0.0031067414268512697 -0.0075382497110298976 0 -0.0030940863788874659 -0.0076296961560116524 0 -0.0031067414268512697 -0.0075382497110298976 0 -0.0030512725738451011 -0.0075371661775755511 0 -0.0030611682691050858 -0.0074986600303755379 0 -0.0029873818783939013 0.00070217854690463228 0 -0.0030686026737008578 0.00067053077004606448 0 -0.0029844891162324719 0.00080173654059933336 0 -0.0029873818783939013 0.00070217854690463228 0 -0.0028877570636332505 0.00073530478970943933 0 -0.0029844891162324719 0.00080173654059933336 0 -0.0028877570636332505 0.00073530478970943933 0 -0.0029844891162324719 0.00080173654059933336 0 -0.0028622832230498223 0.00082450608799392565 0 -0.0027957615104856406 0.00094768083818720184 0 -0.0029844891162324719 0.00080173654059933336 0 -0.0028622832230498223 0.00082450608799392565 0 -0.0027632214434655943 0.00080184989193406002 0 -0.0028877570636332505 0.00073530478970943933 0 -0.0028622832230498223 0.00082450608799392565 0 -0.0028834060068620841 -0.0017237247715784466 0 -0.0031029373387891478 -0.0037185064035620383 0 -0.0029704763473533341 -0.0075126407105579208 0 -0.0030940863788874659 -0.0076296961560116524 0 -0.0030512725738451011 -0.0075371661775755511 0 -0.0029704763473533341 -0.0075126407105579208 0 -0.0030512725738451011 -0.0075371661775755511 0 -0.0030212852380429233 -0.0074835256619436123 0 -0.0028834060068620841 -0.0017237247715784466 0 -0.002654853000872183 -0.003571799016228745 0 -0.0025721935915570628 0.00064293751399363444 0 -0.0025615576857399205 0.00049252707495720026 0 -0.0023893173718021656 0.00046997225573595642 0 -0.0025615576857399205 0.00049252707495720026 0 -0.0023194020912613795 0.00024329207547369705 0 -0.0023893173718021656 0.00046997225573595642 0 -0.0026099258368890129 0.00036812244217311781 0 -0.0025615576857399205 0.00049252707495720026 0 -0.0023194020912613795 0.00024329207547369705 0 -0.0027041027282061155 0.00028030485897840055 0 -0.0023513865326402574 0.00025921397807816138 0 -0.0023194020912613795 0.00024329207547369705 0 -0.0023893173718021656 0.00046997225573595642 0 -0.0021412395537422245 0.00015783198484477543 0 -0.0030212852380429233 -0.0074835256619436123 0 -0.0030611682691050858 -0.0074986600303755379 0 -0.0030675788856663637 -0.0074300198917721522 0 -0.002654853000872183 -0.003571799016228745 0 -0.0027770232314106966 -0.004957356890436704 0 -0.0030512725738451011 -0.0075371661775755511 0 -0.0030212852380429233 -0.0074835256619436123 0 -0.0030611682691050858 -0.0074986600303755379 0 -0.0027770232314106966 -0.004957356890436704 0 -0.0033877002814787218 -0.0079362868001529776 0 -0.0031067414268512697 -0.0075382497110298976 0 -0.0030611682691050858 -0.0074986600303755379 0 -0.0030675788856663637 -0.0074300198917721522 0 -0.0031067414268512697 -0.0075382497110298976 0 -0.0030675788856663637 -0.0074300198917721522 0 -0.0031889322509426623 -0.0075347865204934018 0 -0.0031928097915708956 -0.0076442603859861744 0 -0.0032525395421305076 -0.0076556092574845162 0 -0.0032212587499817697 -0.0076228002153396392 0 -0.0027770232314106966 -0.004957356890436704 0 -0.0031799025143497235 -0.0067158154092513446 0 -0.0030188971949817499 -0.0057923526039228169 0 -0.0030227064534032017 -0.0054360910294804941 0 -0.0033817789492356335 -0.0053516744980829636 0 -0.0030188971949817499 -0.0057923526039228169 0 -0.0030227064534032017 -0.0054360910294804941 0 -0.0027264779591292267 -0.0055131264685757322 0 -0.0027264779591292267 -0.0055131264685757322 0 -0.0025703713872316947 -0.0052981681426091769 0 -0.0028502288752416736 -0.0053232481343346849 0 -0.0030227064534032017 -0.0054360910294804941 0 -0.0027264779591292267 -0.0055131264685757322 0 -0.0028502288752416736 -0.0053232481343346849 0 -0.0024311172177104963 -0.0027594502401105049 0 -0.0027770232314106966 -0.004957356890436704 0 -0.0028242115845904269 0.00019834222235234742 0 -0.0026861959987926763 -7.5115945469468167e-05 0 -0.0023194020912613795 0.00024329207547369705 0 -0.0024405530071806786 -0.0055796196918688539 0 -0.0030188971949817499 -0.0057923526039228169 0 -0.0027264779591292267 -0.0055131264685757322 0 -0.0026861959987926763 -7.5115945469468167e-05 0 -0.0023194020912613795 0.00024329207547369705 0 -0.0021412395537422245 0.00015783198484477543 0 -0.0024405530071806786 -0.0055796196918688539 0 -0.0027264779591292267 -0.0055131264685757322 0 -0.0025703713872316947 -0.0052981681426091769 0 -0.0032796408635220975 -0.0076916366613574453 0 -0.0032825638484115451 -0.0076852741360535042 0 -0.0032526315275688998 -0.0076843293371782742 0 -0.0032825638484115451 -0.0076852741360535042 0 -0.0032526315275688998 -0.0076843293371782742 0 -0.0032525395421305076 -0.0076556092574845162 0 -0.0031844701831800011 -0.0075898844563745587 0 -0.0033877002814787218 -0.0079362868001529776 0 -0.0031928097915708956 -0.0076442603859861744 0 -0.0032526315275688998 -0.0076843293371782742 0 -0.0032525395421305076 -0.0076556092574845162 0 -0.0032525395421305076 -0.0076556092574845162 0 -0.0032564465310406681 -0.0076278371078839493 0 -0.0032212587499817697 -0.0076228002153396392 0 -0.0032525395421305076 -0.0076556092574845162 0 -0.0032958778416065713 -0.0076601425323123964 0 -0.0032564465310406681 -0.0076278371078839493 0 -0.0032825638484115451 -0.0076852741360535042 0 -0.0032525395421305076 -0.0076556092574845162 0 -0.0032958778416065713 -0.0076601425323123964 0 -0.0032958778416065713 -0.0076601425323123964 0 -0.0032670076212240979 -0.0076001937651012375 0 -0.0032881271822556317 -0.00756727953839181 0 -0.0032958778416065713 -0.0076601425323123964 0 -0.0032670076212240979 -0.0076001937651012375 0 -0.0032564465310406681 -0.0076278371078839493 0 -0.0032670076212240979 -0.0076001937651012375 0 -0.0032497667107111005 -0.0075770497943421335 0 -0.0032881271822556317 -0.00756727953839181 0 -0.0037296768055188768 -0.0049232600117632619 0 -0.0033817789492356335 -0.0053516744980829636 0 -0.0032546878658817275 -0.0049236909613120244 0 -0.0032670076212240979 -0.0076001937651012375 0 -0.0032564465310406681 -0.0076278371078839493 0 -0.0032497667107111005 -0.0075770497943421335 0 -0.0032564465310406681 -0.0076278371078839493 0 -0.0032497667107111005 -0.0075770497943421335 0 -0.0032212587499817697 -0.0076228002153396392 0 -0.003788388732959651 -0.0062206086077954345 0 -0.0031799025143497235 -0.0067158154092513446 0 -0.0037839493250150279 -0.004925568783659069 0 -0.0032546878658817275 -0.0049236909613120244 0 -0.0032984860352719705 -0.0042261038186333401 0 -0.0037839493250150279 -0.004925568783659069 0 -0.003940239530674911 -0.0047381412617608981 0 -0.0032984860352719705 -0.0042261038186333401 0 -0.0049712368947795573 -0.0066877521818513351 0 -0.0038910447119247715 -0.0054327811333950852 0 -0.0061039337414874259 -0.0083401699359094816 0 -0.0043943723052229464 -0.0067757944506395221 0 -0.0059151463671629897 -0.0075479282510700118 0 -0.003788388732959651 -0.0062206086077954345 0 -0.0033152464137272851 -0.0049356966917492211 0 -0.003788388732959651 -0.0062206086077954345 0 -0.0049712368947795573 -0.0066877521818513351 0 -0.0042782852538127726 -0.0069143310505352974 0 -0.0043843628456751169 -0.0067844290449886767 0 -0.0045379532777473702 -0.0069098247594815308 0 -0.003788388732959651 -0.0062206086077954345 0 -0.004394438296649616 -0.007696901268271536 0 -0.0049712368947795573 -0.0066877521818513351 0 -0.004394438296649616 -0.007696901268271536 0 -0.0062068993516176387 -0.0076047891286924393 0 -0.0061302865320686933 -0.007630408783570527 0 -0.0061204137008347348 -0.0074733144443109353 0 -0.0062068993516176387 -0.0076047891286924393 0 -0.0061302865320686933 -0.007630408783570527 0 -0.0061990385356497542 -0.0076685224616591706 0 -0.0061039337414874259 -0.0083401699359094816 0 -0.0061990385356497542 -0.0076685224616591706 0 -0.0059151463671629897 -0.0075479282510700118 0 -0.0049712368947795573 -0.0066877521818513351 0 -0.0058213744523393611 -0.0075625783622685896 0 -0.0058306214160273769 -0.0077235035726810298 0 -0.0061302865320686933 -0.007630408783570527 0 -0.0061990385356497542 -0.0076685224616591706 0 -0.0058306214160273769 -0.0077235035726810298 0 -0.0061990385356497542 -0.0076685224616591706 0 -0.0057619333337637045 -0.0079841636535649511 0 -0.0058306214160273769 -0.0077235035726810298 0 -0.0061302865320686933 -0.007630408783570527 0 -0.0061204137008347348 -0.0074733144443109353 0 -0.0028811807912237611 -0.005062026275263351 0 -0.0025695695533793882 -0.0049503355820378929 0 -0.0025703713872316947 -0.0052981681426091769 0 -0.0023207429128241355 -0.0052220505024488011 0 -0.0025695695533793882 -0.0049503355820378929 0 -0.0025703713872316947 -0.0052981681426091769 0 -0.0028811807912237611 -0.005062026275263351 0 -0.0028502288752416736 -0.0053232481343346849 0 -0.0031123797444196221 -0.0052078668075341891 0 -0.0028811807912237611 -0.005062026275263351 0 -0.0025703713872316947 -0.0052981681426091769 0 -0.0028502288752416736 -0.0053232481343346849 0 -0.0030227064534032017 -0.0054360910294804941 0 -0.0028502288752416736 -0.0053232481343346849 0 -0.0031123797444196221 -0.0052078668075341891 0 -0.0030227064534032017 -0.0054360910294804941 0 -0.0031123797444196221 -0.0052078668075341891 0 -0.0033817789492356335 -0.0053516744980829636 0 -0.0031123797444196221 -0.0052078668075341891 0 -0.0033817789492356335 -0.0053516744980829636 0 -0.0032546878658817275 -0.0049236909613120244 0 -0.0028811807912237611 -0.005062026275263351 0 -0.0031123797444196221 -0.0052078668075341891 0 -0.0032546878658817275 -0.0049236909613120244 0 -0.0028811807912237611 -0.005062026275263351 0 -0.0032546878658817275 -0.0049236909613120244 0 -0.0028999527467817175 -0.0046552472032465788 0 -0.0032546878658817275 -0.0049236909613120244 0 -0.0028999527467817175 -0.0046552472032465788 0 -0.0032984860352719705 -0.0042261038186333401 0 -0.0028811807912237611 -0.005062026275263351 0 -0.0025695695533793882 -0.0049503355820378929 0 -0.0028999527467817175 -0.0046552472032465788 0 -0.0024472042733163679 -0.0046266623333121584 0 -0.0025695695533793882 -0.0049503355820378929 0 -0.0028999527467817175 -0.0046552472032465788 0 -0.0024472042733163679 -0.0046266623333121584 0 -0.0028999527467817175 -0.0046552472032465788 0 -0.0027090957055708165 -0.0042367834997354041 0 -0.0027090957055708165 -0.0042367834997354041 0 -0.0032984860352719705 -0.0042261038186333401 0 -0.0028086110791472199 -0.0038738328290401558 0 -0.0027090957055708165 -0.0042367834997354041 0 -0.0028086110791472199 -0.0038738328290401558 0 -0.0025025979471195669 -0.0038681911856676553 0 -0.0028999527467817175 -0.0046552472032465788 0 -0.0027090957055708165 -0.0042367834997354041 0 -0.0032984860352719705 -0.0042261038186333401 0 -0.0038910447119247715 -0.0054327811333950852 0 -0.0028729052841913339 -0.0040922339159646312 0 -0.0043943723052229464 -0.0067757944506395221 0 -0.0041300907839517077 -0.0042095519466684595 0 -0.0053016905097018749 -0.005089478022475836 0 -0.0043943723052229464 -0.0067757944506395221 0 -0.0041300907839517077 -0.0042095519466684595 0 -0.0028086110791472199 -0.0038738328290401558 0 -0.0041300907839517077 -0.0042095519466684595 0 -0.0053016905097018749 -0.005089478022475836 0 -0.0047725328872656242 -0.0030449978677631832 0 -0.0041300907839517077 -0.0042095519466684595 0 -0.0028086110791472199 -0.0038738328290401558 0 -0.0035832332456475087 -0.0029167765036188873 0 -0.0061990385356497542 -0.0076685224616591706 0 -0.0063288043601110065 -0.0072827742814129655 0 -0.0057178554395100351 -0.0082090720179602058 0 -0.0061990385356497542 -0.0076685224616591706 0 -0.0057619333337637045 -0.0079841636535649511 0 -0.0057178554395100351 -0.0082090720179602058 0 -0.0061990385356497542 -0.0076685224616591706 0 -0.0063288043601110065 -0.0072827742814129655 0 -0.0059151463671629897 -0.0075479282510700118 0 -0.0043943723052229464 -0.0067757944506395221 0 -0.0055042482218710786 -0.0067526542645543952 0 -0.0059151463671629897 -0.0075479282510700118 0 -0.0063288043601110065 -0.0072827742814129655 0 -0.0055042482218710786 -0.0067526542645543952 0 -0.0053016905097018749 -0.005089478022475836 0 -0.0063288043601110065 -0.0072827742814129655 0 -0.0055042482218710786 -0.0067526542645543952 0 -0.0059151463671629897 -0.0075479282510700118 0 -0.0043943723052229464 -0.0067757944506395221 0 -0.0055042482218710786 -0.0067526542645543952 0 -0.0053016905097018749 -0.005089478022475836 0 -0.0053016905097018749 -0.005089478022475836 0 -0.007145281711974723 -0.0044226424101522629 0 -0.005880747946044939 -0.0036205599461084292 0 -0.0063701076555860818 -0.0072263973675617404 0 -0.0065562911061841497 -0.0066289472812131548 0 -0.0063288043601110065 -0.0072827742814129655 0 -0.0053016905097018749 -0.005089478022475836 0 -0.007145281711974723 -0.0044226424101522629 0 -0.0063288043601110065 -0.0072827742814129655 0 -0.0060940445629392289 -0.0087301192068018393 0 -0.0057178554395100351 -0.0082090720179602058 0 -0.0060940445629392289 -0.0087301192068018393 0 -0.0056764077593459425 -0.0090073462829707209 0 -0.0057178554395100351 -0.0082090720179602058 0 -0.0065562911061841497 -0.0066289472812131548 0 -0.0066156171102300073 -0.0057954516238312853 0 -0.0060940445629392289 -0.0087301192068018393 0 -0.0057291277898441247 -0.0093069673820611789 0 -0.0056764077593459425 -0.0090073462829707209 0 -0.007145281711974723 -0.0044226424101522629 0 -0.0065760728856508518 -0.0030695775257564319 0 -0.0073688119694157155 -0.0025892092802486961 0 -0.007145281711974723 -0.0044226424101522629 0 -0.0065760728856508518 -0.0030695775257564319 0 -0.005880747946044939 -0.0036205599461084292 0 -0.0053016905097018749 -0.005089478022475836 0 -0.005880747946044939 -0.0036205599461084292 0 -0.0047725328872656242 -0.0030449978677631832 0 -0.0065760728856508518 -0.0030695775257564319 0 -0.005880747946044939 -0.0036205599461084292 0 -0.0059315101230711237 -0.0025295467233079935 0 -0.005880747946044939 -0.0036205599461084292 0 -0.0059315101230711237 -0.0025295467233079935 0 -0.0047725328872656242 -0.0030449978677631832 0 -0.0052895798580116912 -0.0017244788103127581 0 -0.0059315101230711237 -0.0025295467233079935 0 -0.0047725328872656242 -0.0030449978677631832 0 -0.0052895798580116912 -0.0017244788103127581 0 -0.0059315101230711237 -0.0025295467233079935 0 -0.0063125578808519711 -0.0014723548993493575 0 -0.007011136346815351 -0.0017031426998777111 0 -0.0073688119694157155 -0.0025892092802486961 0 -0.0076378625379569355 -0.0011416817377936995 0 -0.0065760728856508518 -0.0030695775257564319 0 -0.0059315101230711237 -0.0025295467233079935 0 -0.0066851443850687821 -0.0022487297828193546 0 -0.0065760728856508518 -0.0030695775257564319 0 -0.0066851443850687821 -0.0022487297828193546 0 -0.0073688119694157155 -0.0025892092802486961 0 -0.0059315101230711237 -0.0025295467233079935 0 -0.0066851443850687821 -0.0022487297828193546 0 -0.0063125578808519711 -0.0014723548993493575 0 -0.0066851443850687821 -0.0022487297828193546 0 -0.007011136346815351 -0.0017031426998777111 0 -0.0063125578808519711 -0.0014723548993493575 0 -0.0066851443850687821 -0.0022487297828193546 0 -0.007011136346815351 -0.0017031426998777111 0 -0.0073688119694157155 -0.0025892092802486961 0 -0.0028086110791472199 -0.0038738328290401558 0 -0.0035832332456475087 -0.0029167765036188873 0 -0.002661215972710883 -0.0029059187841554315 0 -0.0035832332456475087 -0.0029167765036188873 0 -0.002661215972710883 -0.0029059187841554315 0 -0.0028867809288974926 -0.0021441038869543807 0 -0.0041300907839517077 -0.0042095519466684595 0 -0.0035832332456475087 -0.0029167765036188873 0 -0.0047725328872656242 -0.0030449978677631832 0 -0.0035832332456475087 -0.0029167765036188873 0 -0.0047725328872656242 -0.0030449978677631832 0 -0.0041473743334922717 -0.0019245740488110564 0 -0.0052895798580116912 -0.0017244788103127581 0 -0.0047725328872656242 -0.0030449978677631832 0 -0.0041473743334922717 -0.0019245740488110564 0 -0.0052895798580116912 -0.0017244788103127581 0 -0.0041473743334922717 -0.0019245740488110564 0 -0.0047665066808855877 -0.00096907787413728983 0 -0.0041473743334922717 -0.0019245740488110564 0 -0.0028867809288974926 -0.0021441038869543807 0 -0.0037766562115761891 -0.00093186293269305635 0 -0.0035832332456475087 -0.0029167765036188873 0 -0.0041473743334922717 -0.0019245740488110564 0 -0.0028867809288974926 -0.0021441038869543807 0 -0.0037766562115761891 -0.00093186293269305635 0 -0.0033946481782017837 0.00012910739894268493 0 -0.0027640976375397307 -0.0011226581885577596 0 -0.0028867809288974926 -0.0021441038869543807 0 -0.0037766562115761891 -0.00093186293269305635 0 -0.0027640976375397307 -0.0011226581885577596 0 -0.0033946481782017837 0.00012910739894268493 0 -0.004682294752198537 9.4775756971792634e-05 0 -0.0039001567383357789 0.0015037229895398252 0 -0.0037766562115761891 -0.00093186293269305635 0 -0.0033946481782017837 0.00012910739894268493 0 -0.004682294752198537 9.4775756971792634e-05 0 -0.0037766562115761891 -0.00093186293269305635 0 -0.004682294752198537 9.4775756971792634e-05 0 -0.0047665066808855877 -0.00096907787413728983 0 -0.0041473743334922717 -0.0019245740488110564 0 -0.0037766562115761891 -0.00093186293269305635 0 -0.0047665066808855877 -0.00096907787413728983 0 -0.0052895798580116912 -0.0017244788103127581 0 -0.0047665066808855877 -0.00096907787413728983 0 -0.0056825028146704967 -0.00067273537818153875 0 -0.0052895798580116912 -0.0017244788103127581 0 -0.0056825028146704967 -0.00067273537818153875 0 -0.0063125578808519711 -0.0014723548993493575 0 -0.004682294752198537 9.4775756971792634e-05 0 -0.0047665066808855877 -0.00096907787413728983 0 -0.0056825028146704967 -0.00067273537818153875 0 -0.007011136346815351 -0.0017031426998777111 0 -0.0069613183561520169 -0.0011587045007476989 0 -0.0076378625379569355 -0.0011416817377936995 0 -0.007011136346815351 -0.0017031426998777111 0 -0.0069613183561520169 -0.0011587045007476989 0 -0.0063125578808519711 -0.0014723548993493575 0 -0.0069613183561520169 -0.0011587045007476989 0 -0.0063125578808519711 -0.0014723548993493575 0 -0.0067574117611365015 -0.00044706557373779465 0 -0.0056825028146704967 -0.00067273537818153875 0 -0.0063125578808519711 -0.0014723548993493575 0 -0.0067574117611365015 -0.00044706557373779465 0 -0.0069613183561520169 -0.0011587045007476989 0 -0.0067574117611365015 -0.00044706557373779465 0 -0.0076378625379569355 -0.0011416817377936995 0 -0.0067574117611365015 -0.00044706557373779465 0 -0.0059738213014661956 0.00024747210389389538 0 -0.006466602897015312 0.00079731023137942871 0 -0.0067574117611365015 -0.00044706557373779465 0 -0.006466602897015312 0.00079731023137942871 0 -0.0076774890130929998 0.00026771820052763889 0 -0.004682294752198537 9.4775756971792634e-05 0 -0.0056825028146704967 -0.00067273537818153875 0 -0.0059738213014661956 0.00024747210389389538 0 -0.004682294752198537 9.4775756971792634e-05 0 -0.0059738213014661956 0.00024747210389389538 0 -0.0053404274501734125 0.0011569424779794256 0 -0.0056825028146704967 -0.00067273537818153875 0 -0.0067574117611365015 -0.00044706557373779465 0 -0.0059738213014661956 0.00024747210389389538 0 -0.0059738213014661956 0.00024747210389389538 0 -0.0053404274501734125 0.0011569424779794256 0 -0.006466602897015312 0.00079731023137942871 0 -0.0053404274501734125 0.0011569424779794256 0 -0.006466602897015312 0.00079731023137942871 0 -0.0057813264203179235 0.0021532140616691633 0 -0.0053404274501734125 0.0011569424779794256 0 -0.0057813264203179235 0.0021532140616691633 0 -0.0047728281557174873 0.0020196320472563836 0 -0.006466602897015312 0.00079731023137942871 0 -0.0057813264203179235 0.0021532140616691633 0 -0.007290094867623882 0.0013758549557072767 0 -0.0049677113202266842 0.00037883895717484236 0 -0.0052272640989236754 -0.0028754488633453753 0 -0.006466602897015312 0.00079731023137942871 0 -0.007290094867623882 0.0013758549557072767 0 -0.0076774890130929998 0.00026771820052763889 0 -0.0039974364789640403 -0.0018044621805961489 0 -0.0047531817293778424 -0.0022080523955955726 0 -0.0044344787395377838 -0.0012710475501356527 0 -0.0052272640989236754 -0.0028754488633453753 0 -0.0040701407116411304 -0.0034509797056844244 0 -0.0039974364789640403 -0.0018044621805961489 0 -0.0032737358089312478 -0.0013887400635445516 0 -0.0037559610721178294 -0.001405456461130996 0 -0.0039974364789640403 -0.0018044621805961489 0 -0.0037559610721178294 -0.001405456461130996 0 -0.0041774480793100163 -0.0012423517698018488 0 -0.0057813264203179235 0.0021532140616691633 0 -0.0047728281557174873 0.0020196320472563836 0 -0.004300567518822177 0.0029039004178067632 0 -0.0049677113202266842 0.00037883895717484236 0 -0.0036593215145369557 0.0011427614754797068 0 -0.0047728281557174873 0.0020196320472563836 0 -0.0039001567383357789 0.0015037229895398252 0 -0.004300567518822177 0.0029039004178067632 0 -0.0040550330716674944 0.0021186525429761145 0 -0.0036593215145369557 0.0011427614754797068 0 -0.0035470387888039156 0.0020896417740136537 0 -0.003363361422290215 0.0018624896196161673 0 -0.0039001567383357789 0.0015037229895398252 0 -0.0035470387888039156 0.0020896417740136537 0 -0.0039001567383357789 0.0015037229895398252 0 -0.0038973079638826747 0.0021978401639734897 0 -0.0035470387888039156 0.0020896417740136537 0 -0.003363361422290215 0.0018624896196161673 0 -0.0031952660782244876 0.0021847787240158608 0 -0.003363361422290215 0.0018624896196161673 0 -0.0032282762728490506 0.0015769980496150328 0 -0.0030988927451112867 0.0019235938564545892 0 -0.0033946481782017837 0.00012910739894268493 0 -0.0039001567383357789 0.0015037229895398252 0 -0.003156296136413648 0.0010646003424043522 0 -0.0039001567383357789 0.0015037229895398252 0 -0.0032282762728490506 0.0015769980496150328 0 -0.003156296136413648 0.0010646003424043522 0 -0.003363361422290215 0.0018624896196161673 0 -0.0039001567383357789 0.0015037229895398252 0 -0.0032282762728490506 0.0015769980496150328 0 -0.0053404274501734125 0.0011569424779794256 0 -0.0047728281557174873 0.0020196320472563836 0 -0.0039001567383357789 0.0015037229895398252 0 -0.004682294752198537 9.4775756971792634e-05 0 -0.0053404274501734125 0.0011569424779794256 0 -0.0039001567383357789 0.0015037229895398252 0 -0.0046039714235154025 -0.010305481855978228 0 -0.0048477381465033779 -0.010324177737070804 0 -0.0047430052423756402 -0.01001501596289393 0 -0.0047106552966723111 -0.010444951825216696 0 -0.0046039714235154025 -0.010305481855978228 0 -0.0044784304822630865 -0.010522479890664261 0 -0.0047106552966723111 -0.010444951825216696 0 -0.0046039714235154025 -0.010305481855978228 0 -0.0048477381465033779 -0.010324177737070804 0 -0.0047106552966723111 -0.010444951825216696 0 -0.0048587300613236921 -0.010521214603789589 0 -0.0048477381465033779 -0.010324177737070804 0 -0.0046039714235154025 -0.010305481855978228 0 -0.0043227981491751151 -0.010208262066835084 0 -0.0044784304822630865 -0.010522479890664261 0 -0.0043227981491751151 -0.010208262066835084 0 -0.0044784304822630865 -0.010522479890664261 0 -0.0042083404775238665 -0.010590634505687481 0 -0.0044784304822630865 -0.010522479890664261 0 -0.0042083404775238665 -0.010590634505687481 0 -0.0044903502395819495 -0.010750195729427229 0 -0.0042558640660873689 -0.010691491912044037 0 -0.0043864080769806602 -0.009931532570772169 0 -0.0041465598488727049 -0.010652353231866188 0 -0.0041853426240399498 -0.010900962382754115 0 -0.0044772416901975058 -0.010923789835445622 0 -0.0037686098481494578 -0.01029549611039853 0 -0.0043864080769806602 -0.009931532570772169 0 -0.0044784304822630865 -0.010522479890664261 0 -0.0044903502395819495 -0.010750195729427229 0 -0.0046789813843776612 -0.01059624800429931 0 -0.0044903502395819495 -0.010750195729427229 0 -0.0046789813843776612 -0.01059624800429931 0 -0.0048463346108867517 -0.010735810061939422 0 -0.0047106552966723111 -0.010444951825216696 0 -0.0044784304822630865 -0.010522479890664261 0 -0.0046789813843776612 -0.01059624800429931 0 -0.0047106552966723111 -0.010444951825216696 0 -0.0046789813843776612 -0.01059624800429931 0 -0.0048587300613236921 -0.010521214603789589 0 -0.0046789813843776612 -0.01059624800429931 0 -0.0048587300613236921 -0.010521214603789589 0 -0.0048463346108867517 -0.010735810061939422 0 -0.0050473823554815483 -0.010582929855079871 0 -0.0048587300613236921 -0.010521214603789589 0 -0.0048463346108867517 -0.010735810061939422 0 -0.0050473823554815483 -0.010582929855079871 0 -0.0051778592289102579 -0.010738553150502855 0 -0.0048463346108867517 -0.010735810061939422 0 -0.0050473823554815483 -0.010582929855079871 0 -0.0048587300613236921 -0.010521214603789589 0 -0.0050474950896402535 -0.010403462720304103 0 -0.0050473823554815483 -0.010582929855079871 0 -0.0052278561609493002 -0.010251587577935544 0 -0.0051778592289102579 -0.010738553150502855 0 -0.0044349324041680592 -0.0054181115339375675 0 -0.0043328345273043068 -0.0051315718109486864 0 -0.0045121079024898489 -0.0051645619604016469 0 -0.0044349324041680592 -0.0054181115339375675 0 -0.0045009384919049563 -0.0054561021586032338 0 -0.0045121079024898489 -0.0051645619604016469 0 -0.0055090187036745085 -0.0070781431843490034 0 -0.0040675704975267866 -0.0075906154580729019 0 -0.0050473823554815483 -0.010582929855079871 0 -0.0052278561609493002 -0.010251587577935544 0 -0.0050474950896402535 -0.010403462720304103 0 -0.0052272640989236754 -0.0028754488633453753 0 -0.0061910651994276185 -0.0031159552900218643 0 -0.0060864147005854933 -0.0045073600854735347 0 -0.0058289344239013247 -0.0043740577241057413 0 -0.0058771863625753078 -0.0038226108926823865 0 -0.0052272640989236754 -0.0028754488633453753 0 -0.0055090187036745085 -0.0070781431843490034 0 -0.0051053629534019394 -0.010184817347688875 0 -0.0052278561609493002 -0.010251587577935544 0 -0.0050474950896402535 -0.010403462720304103 0 -0.0052434398856042435 -0.0091915033159494404 0 -0.0049603702078830107 -0.010518190994860907 0 -0.0054297692198706209 -0.0071436375318711153 0 -0.0057694037874019711 -0.0073168701221780104 0 -0.0058222235410972231 -0.0066712303798402098 0 -0.0052434398856042435 -0.0091915033159494404 0 -0.0055090187036745085 -0.0070781431843490034 0 -0.0055090187036745085 -0.0070781431843490034 0 -0.0061910651994276185 -0.0031159552900218643 0 -0.0051055560502601734 -0.010234961342747362 0 -0.0048477381465033779 -0.010324177737070804 0 -0.0047430052423756402 -0.01001501596289393 0 -0.0051055560502601734 -0.010234961342747362 0 -0.0048477381465033779 -0.010324177737070804 0 -0.0050474950896402535 -0.010403462720304103 0 -0.0048587300613236921 -0.010521214603789589 0 -0.0048477381465033779 -0.010324177737070804 0 -0.0050474950896402535 -0.010403462720304103 0 -0.0053482981530801939 -0.010309307552084595 0 -0.0051165310228647983 -0.0099818676764864139 0 -0.0047430052423756402 -0.01001501596289393 0 -0.0052434398856042435 -0.0091915033159494404 0 -0.0048350759161263071 -0.01033742414463424 0 -0.0051165310228647983 -0.0099818676764864139 0 -0.0054691815776233841 -0.009908773111166844 0 -0.0052323202576330047 -0.0098062481861627675 0 -0.0051165310228647983 -0.0099818676764864139 0 -0.0048966700287190771 -0.0097063123484639365 0 -0.0047430052423756402 -0.01001501596289393 0 -0.0054297692198706209 -0.0071436375318711153 0 -0.0058222235410972231 -0.0066712303798402098 0 -0.0057027767463469804 -0.006293993046254766 0 -0.0053482981530801939 -0.010309307552084595 0 -0.0051165310228647983 -0.0099818676764864139 0 -0.0054691815776233841 -0.009908773111166844 0 -0.0052434398856042435 -0.0091915033159494404 0 -0.0059003879541614989 -0.0077334571190948555 0 -0.0061628388443929032 -0.0046170058350914773 0 -0.0064146435807026832 -0.0053669205135291062 0 -0.0060439664225723673 -0.0066134557509017226 0 -0.0059003879541614989 -0.0077334571190948555 0 -0.0060087577415026761 -0.0085401635519567892 0 -0.0061910651994276185 -0.0031159552900218643 0 -0.0059003879541614989 -0.0077334571190948555 0 -0.0067574117611365015 -0.00044706557373779465 0 -0.0076774890130929998 0.00026771820052763889 0 -0.0076378625379569355 -0.0011416817377936995 0 -0.0061910651994276185 -0.0031159552900218643 0 -0.0062850857864068643 -0.0061211571173429126 0 -0.0054633050080191417 -0.0098972606389516899 0 -0.0054410307281207524 -0.0098255939834576873 0 -0.0055571770072591724 -0.0096405782509320324 0 -0.0059003879541614989 -0.0077334571190948555 0 -0.0062850857864068643 -0.0061211571173429126 0 -0.0054410307281207524 -0.0098255939834576873 0 -0.0053681472178389233 -0.0096753139611573617 0 -0.0055571770072591724 -0.0096405782509320324 0 -0.0054691815776233841 -0.009908773111166844 0 -0.0054410307281207524 -0.0098255939834576873 0 -0.0052323202576330047 -0.0098062481861627675 0 -0.0054410307281207524 -0.0098255939834576873 0 -0.0053681472178389233 -0.0096753139611573617 0 -0.0052323202576330047 -0.0098062481861627675 0 -0.0053681472178389233 -0.0096753139611573617 0 -0.0052080710551882176 -0.0096034636129716262 0 -0.0053938440832636504 -0.0095056956126005464 0 -0.0053681472178389233 -0.0096753139611573617 0 -0.0055571770072591724 -0.0096405782509320324 0 -0.0053938440832636504 -0.0095056956126005464 0 -0.0052080710551882176 -0.0096034636129716262 0 -0.0048966700287190771 -0.0097063123484639365 0 -0.0051027423584606938 -0.0093712201141873015 0 -0.0051165310228647983 -0.0099818676764864139 0 -0.0052323202576330047 -0.0098062481861627675 0 -0.0048966700287190771 -0.0097063123484639365 0 -0.0052323202576330047 -0.0098062481861627675 0 -0.0052080710551882176 -0.0096034636129716262 0 -0.0048966700287190771 -0.0097063123484639365 0 -0.0053681472178389233 -0.0096753139611573617 0 -0.0052323202576330047 -0.0098062481861627675 0 -0.0052080710551882176 -0.0096034636129716262 0 -0.0048966700287190771 -0.0097063123484639365 0 -0.0042993572403857245 -0.0097956786325467532 0 -0.0045912131760645035 -0.009382247397077147 0 -0.0048966700287190771 -0.0097063123484639365 0 -0.0047430052423756402 -0.01001501596289393 0 -0.0042993572403857245 -0.0097956786325467532 0 -0.0046039714235154025 -0.010305481855978228 0 -0.0043227981491751151 -0.010208262066835084 0 -0.0047430052423756402 -0.01001501596289393 0 -0.0043227981491751151 -0.010208262066835084 0 -0.0047430052423756402 -0.01001501596289393 0 -0.0042993572403857245 -0.0097956786325467532 0 -0.0043227981491751151 -0.010208262066835084 0 -0.0042993572403857245 -0.0097956786325467532 0 -0.0040014774792114013 -0.010149905829396802 0 -0.0042993572403857245 -0.0097956786325467532 0 -0.0045912131760645035 -0.009382247397077147 0 -0.0040982623624465468 -0.009420761436823178 0 -0.0046798689358923517 -0.009401792264125592 0 -0.0043091685207511587 -0.0094235920434856246 0 -0.0047779972024717191 -0.0094126983171170728 0 -0.0044083957284637518 -0.0092766549416839223 0 -0.0044356213274787592 -0.0094674287049474181 0 -0.0048966700287190771 -0.0097063123484639365 0 -0.0045912131760645035 -0.009382247397077147 0 -0.0051027423584606938 -0.0093712201141873015 0 -0.0046798689358923517 -0.009401792264125592 0 -0.0050676000023088122 -0.0093701673084326826 0 -0.0047779972024717191 -0.0094126983171170728 0 -0.0051027423584606938 -0.0093712201141873015 0 -0.0049868051223208552 -0.0091141831241428294 0 -0.0047779972024717191 -0.0094126983171170728 0 -0.0047362010538086301 -0.0090694676912741416 0 -0.0049868051223208552 -0.0091141831241428294 0 -0.0045100672923609432 -0.0094851219505188884 0 -0.0040664850966257464 -0.0098959525022195467 0 -0.0047779972024717191 -0.0094126983171170728 0 -0.0047362010538086301 -0.0090694676912741416 0 -0.0044083957284637518 -0.0092766549416839223 0 -0.0043030410583670365 -0.0099382770321127054 0 -0.0038840348687770128 -0.0098734892596179496 0 -0.0037422555569929777 -0.010441346729120671 0 -0.0057291277898441247 -0.0093069673820611789 0 -0.0055312350449980667 -0.0095051288036192647 0 -0.0056052401595205878 -0.0093857665431249498 0 -0.0066156171102300073 -0.0057954516238312853 0 -0.0062850857864068643 -0.0061211571173429126 0 -0.0057291277898441247 -0.0093069673820611789 0 -0.0056052401595205878 -0.0093857665431249498 0 -0.0055455095487712087 -0.0092543275899131857 0 -0.0056052401595205878 -0.0093857665431249498 0 -0.0053949616933704776 -0.0093343273348671582 0 -0.0055455095487712087 -0.0092543275899131857 0 -0.0055571770072591724 -0.0096405782509320324 0 -0.0056052401595205878 -0.0093857665431249498 0 -0.0053938440832636504 -0.0095056956126005464 0 -0.0062850857864068643 -0.0061211571173429126 0 -0.0056446584644887464 -0.01015569008494888 0 -0.0056052401595205878 -0.0093857665431249498 0 -0.0053938440832636504 -0.0095056956126005464 0 -0.0053949616933704776 -0.0093343273348671582 0 -0.0053949616933704776 -0.0093343273348671582 0 -0.0053208492967616716 -0.0091638865142259652 0 -0.0055455095487712087 -0.0092543275899131857 0 -0.0053949616933704776 -0.0093343273348671582 0 -0.0051027423584606938 -0.0093712201141873015 0 -0.0053208492967616716 -0.0091638865142259652 0 -0.0052080710551882176 -0.0096034636129716262 0 -0.0053938440832636504 -0.0095056956126005464 0 -0.0051027423584606938 -0.0093712201141873015 0 -0.0053938440832636504 -0.0095056956126005464 0 -0.0053949616933704776 -0.0093343273348671582 0 -0.0051027423584606938 -0.0093712201141873015 0 -0.0049868051223208552 -0.0091141831241428294 0 -0.0053208492967616716 -0.0091638865142259652 0 -0.0053085096968237822 -0.0088049671463489004 0 -0.0051027423584606938 -0.0093712201141873015 0 -0.0049868051223208552 -0.0091141831241428294 0 -0.0053208492967616716 -0.0091638865142259652 0 -0.0053208492967616716 -0.0091638865142259652 0 -0.0056764077593459425 -0.0090073462829707209 0 -0.0053085096968237822 -0.0088049671463489004 0 -0.0053208492967616716 -0.0091638865142259652 0 -0.0056764077593459425 -0.0090073462829707209 0 -0.0055455095487712087 -0.0092543275899131857 0 -0.0057291277898441247 -0.0093069673820611789 0 -0.0056764077593459425 -0.0090073462829707209 0 -0.0055455095487712087 -0.0092543275899131857 0 -0.0056764077593459425 -0.0090073462829707209 0 -0.0053085096968237822 -0.0088049671463489004 0 -0.0057178554395100351 -0.0082090720179602058 0 -0.0053085096968237822 -0.0088049671463489004 0 -0.0049550961643239607 -0.0089843701090604917 0 -0.0053261557120201078 -0.0082974632132292551 0 -0.0049868051223208552 -0.0091141831241428294 0 -0.0053085096968237822 -0.0088049671463489004 0 -0.0049550961643239607 -0.0089843701090604917 0 -0.0049550961643239607 -0.0089843701090604917 0 -0.0053261557120201078 -0.0082974632132292551 0 -0.00467802839199301 -0.0086828639388062435 0 -0.0053085096968237822 -0.0088049671463489004 0 -0.0053261557120201078 -0.0082974632132292551 0 -0.0057178554395100351 -0.0082090720179602058 0 -0.0053261557120201078 -0.0082974632132292551 0 -0.0057619333337637045 -0.0079841636535649511 0 -0.0057178554395100351 -0.0082090720179602058 0 -0.0058306214160273769 -0.0077235035726810298 0 -0.0053261557120201078 -0.0082974632132292551 0 -0.0057619333337637045 -0.0079841636535649511 0 -0.0043030410583670365 -0.0099382770321127054 0 -0.0041300056663128339 -0.0092428143590879593 0 -0.0038840348687770128 -0.0098734892596179496 0 -0.0047362010538086301 -0.0090694676912741416 0 -0.0049868051223208552 -0.0091141831241428294 0 -0.0049550961643239607 -0.0089843701090604917 0 -0.0045100672923609432 -0.0094851219505188884 0 -0.0049152506532636935 -0.0090625681450204505 0 -0.0043030410583670365 -0.0099382770321127054 0 -0.0049550961643239607 -0.0089843701090604917 0 -0.0041300056663128339 -0.0092428143590879593 0 -0.0049550961643239607 -0.0089843701090604917 0 -0.00467802839199301 -0.0086828639388062435 0 -0.0041300056663128339 -0.0092428143590879593 0 -0.0040240583490193131 -0.008780377069547398 0 -0.00467802839199301 -0.0086828639388062435 0 -0.0041300056663128339 -0.0092428143590879593 0 -0.003645740115306616 -0.0093134084903919861 0 -0.0041300056663128339 -0.0092428143590879593 0 -0.0036502204175930726 -0.0097098597273684792 0 -0.0041300056663128339 -0.0092428143590879593 0 -0.0036502204175930726 -0.0097098597273684792 0 -0.0038840348687770128 -0.0098734892596179496 0 -0.0036502204175930726 -0.0097098597273684792 0 -0.0038840348687770128 -0.0098734892596179496 0 -0.0035829602538296648 -0.010084429087835023 0 -0.0036502204175930726 -0.0097098597273684792 0 -0.0033445679546540157 -0.010092676609288601 0 -0.0032795554132926332 -0.0098385500295875925 0 -0.0033445679546540157 -0.010092676609288601 0 -0.0032795554132926332 -0.0098385500295875925 0 -0.0030796893997887833 -0.010264354460013029 0 -0.0036502204175930726 -0.0097098597273684792 0 -0.0033445679546540157 -0.010092676609288601 0 -0.0035829602538296648 -0.010084429087835023 0 -0.003645740115306616 -0.0093134084903919861 0 -0.0036502204175930726 -0.0097098597273684792 0 -0.0032795554132926332 -0.0098385500295875925 0 -0.0031283858716128887 -0.0095635597584742497 0 -0.003645740115306616 -0.0093134084903919861 0 -0.0032795554132926332 -0.0098385500295875925 0 -0.0031283858716128887 -0.0095635597584742497 0 -0.0032795554132926332 -0.0098385500295875925 0 -0.0028233759350634836 -0.010019510229717039 0 -0.0026398837551440037 -0.0097648497967892864 0 -0.0028233759350634836 -0.010019510229717039 0 -0.0022977890462949368 -0.010261504719461762 0 -0.0028233759350634836 -0.010019510229717039 0 -0.0025606466617801278 -0.010458491774353403 0 -0.0022977890462949368 -0.010261504719461762 0 -0.0028233759350634836 -0.010019510229717039 0 -0.0025606466617801278 -0.010458491774353403 0 -0.0030796893997887833 -0.010264354460013029 0 -0.0032795554132926332 -0.0098385500295875925 0 -0.0028233759350634836 -0.010019510229717039 0 -0.0030796893997887833 -0.010264354460013029 0 -0.0030727198709864234 -0.010289868676418509 0 -0.0029230949826495106 -0.010688645642939856 0 -0.0030796893997887833 -0.010264354460013029 0 -0.0030007777039031238 -0.010451369855302296 0 -0.0033303821502859991 -0.010348435434912822 0 -0.0025606466617801278 -0.010458491774353403 0 -0.0030796893997887833 -0.010264354460013029 0 -0.0028791163868860312 -0.010844466599693674 0 -0.0025606466617801278 -0.010458491774353403 0 -0.0028791163868860312 -0.010844466599693674 0 -0.0023896262092271323 -0.010918770414463685 0 -0.0028791163868860312 -0.010844466599693674 0 -0.0023896262092271323 -0.010918770414463685 0 -0.0026966663447594123 -0.01121423845004382 0 -0.0029230949826495106 -0.010688645642939856 0 -0.0027483363586846064 -0.010649788086414707 0 -0.0036222737949532396 -0.0097634559656263054 0 -0.0027483363586846064 -0.010649788086414707 0 -0.0030007777039031238 -0.010451369855302296 0 -0.0031333864415264614 -0.010560928521983176 0 -0.0033303821502859991 -0.010348435434912822 0 -0.0030007777039031238 -0.010451369855302296 0 -0.0031333864415264614 -0.010560928521983176 0 -0.002879952367671198 -0.010731843447347898 0 -0.0031333864415264614 -0.010560928521983176 0 -0.0033286849107659489 -0.010703265785164661 0 -0.002879952367671198 -0.010731843447347898 0 -0.0033286849107659489 -0.010703265785164661 0 -0.0037422555569929777 -0.010441346729120671 0 -0.0033303821502859991 -0.010348435434912822 0 -0.0031333864415264614 -0.010560928521983176 0 -0.0033286849107659489 -0.010703265785164661 0 -0.0033303821502859991 -0.010348435434912822 0 -0.0040606845412661406 -0.0095116919609919883 0 -0.0044083957284637518 -0.0092766549416839223 0 -0.0044356213274787592 -0.0094674287049474181 0 -0.0036066062996101527 -0.0094619532904517273 0 -0.0040982623624465468 -0.009420761436823178 0 -0.0038762142108529673 -0.0096274397339498937 0 -0.0036222737949532396 -0.0097634559656263054 0 -0.0040664850966257464 -0.0098959525022195467 0 -0.0036222737949532396 -0.0097634559656263054 0 -0.0043091685207511587 -0.0094235920434856246 0 -0.0038840348687770128 -0.0098734892596179496 0 -0.0037422555569929777 -0.010441346729120671 0 -0.0035829602538296648 -0.010084429087835023 0 -0.0037422555569929777 -0.010441346729120671 0 -0.0035829602538296648 -0.010084429087835023 0 -0.0033303821502859991 -0.010348435434912822 0 -0.0033445679546540157 -0.010092676609288601 0 -0.0035829602538296648 -0.010084429087835023 0 -0.0033303821502859991 -0.010348435434912822 0 -0.0033445679546540157 -0.010092676609288601 0 -0.0030796893997887833 -0.010264354460013029 0 -0.0033303821502859991 -0.010348435434912822 0 -0.001819741148084664 -0.010606645646865953 0 -0.00150123657041361 -0.010653199084752447 0 -0.001536522723549589 -0.010923149606282637 0 -0.001819741148084664 -0.010606645646865953 0 -0.0017995479682173026 -0.010943031432598019 0 -0.001536522723549589 -0.010923149606282637 0 -0.0016477525846141457 -0.010439354239620285 0 -0.001819741148084664 -0.010606645646865953 0 -0.00150123657041361 -0.010653199084752447 0 -0.0019351425269621423 -0.010260838183621798 0 -0.0016477525846141457 -0.010439354239620285 0 -0.001819741148084664 -0.010606645646865953 0 -0.001819741148084664 -0.010606645646865953 0 -0.0021516206167071592 -0.010685682467686695 0 -0.0017995479682173026 -0.010943031432598019 0 -0.001819741148084664 -0.010606645646865953 0 -0.0021516206167071592 -0.010685682467686695 0 -0.0022977890462949368 -0.010261504719461762 0 -0.0019351425269621423 -0.010260838183621798 0 -0.001819741148084664 -0.010606645646865953 0 -0.0022977890462949368 -0.010261504719461762 0 -0.0025606466617801278 -0.010458491774353403 0 -0.0021516206167071592 -0.010685682467686695 0 -0.0022977890462949368 -0.010261504719461762 0 -0.0025606466617801278 -0.010458491774353403 0 -0.0021516206167071592 -0.010685682467686695 0 -0.0023896262092271323 -0.010918770414463685 0 -0.0023896262092271323 -0.010918770414463685 0 -0.0021603680558540074 -0.011199595235785936 0 -0.0026966663447594123 -0.01121423845004382 0 -0.0020294697908862149 -0.011004845941009977 0 -0.0019489441521802402 -0.011187308947970119 0 -0.0021603680558540074 -0.011199595235785936 0 -0.0023896262092271323 -0.010918770414463685 0 -0.0020294697908862149 -0.011004845941009977 0 -0.0021603680558540074 -0.011199595235785936 0 -0.0021516206167071592 -0.010685682467686695 0 -0.0023896262092271323 -0.010918770414463685 0 -0.0020294697908862149 -0.011004845941009977 0 -0.0021516206167071592 -0.010685682467686695 0 -0.0020294697908862149 -0.011004845941009977 0 -0.0017995479682173026 -0.010943031432598019 0 -0.0020294697908862149 -0.011004845941009977 0 -0.0017995479682173026 -0.010943031432598019 0 -0.0016906723799980355 -0.011307040537074743 0 -0.002024189235917003 -0.011028313600049725 0 -0.0018888241159647204 -0.011300558146808417 0 -0.0020294697908862149 -0.011004845941009977 0 -0.0016906723799980355 -0.011307040537074743 0 -0.0018339182614362059 -0.011440083315309329 0 -0.0017995479682173026 -0.010943031432598019 0 -0.0016405827158620368 -0.011113620498835719 0 -0.001536522723549589 -0.010923149606282637 0 -0.0017995479682173026 -0.010943031432598019 0 -0.0016906723799980355 -0.011307040537074743 0 -0.0016405827158620368 -0.011113620498835719 0 -0.0017703573214710479 -0.011430694341387262 0 -0.0018888241159647204 -0.011300558146808417 0 -0.0016944653316941305 -0.01154399407135924 0 -0.0018339182614362059 -0.011440083315309329 0 -0.0016312583256652834 -0.011492328643931328 0 -0.0016906723799980355 -0.011307040537074743 0 -0.0018339182614362059 -0.011440083315309329 0 -0.0016312583256652834 -0.011492328643931328 0 -0.0018392881971452839 -0.011311039883715773 0 -0.0019489441521802402 -0.011187308947970119 0 -0.0020504887038044089 -0.011315718841034687 0 -0.0019489441521802402 -0.011187308947970119 0 -0.0020504887038044089 -0.011315718841034687 0 -0.0021603680558540074 -0.011199595235785936 0 -0.0020613407644838252 -0.011338012181090238 0 -0.0027483363586846064 -0.010649788086414707 0 -0.0021603680558540074 -0.011199595235785936 0 -0.0022756223699362203 -0.011180190549062817 0 -0.002227669365216697 -0.011283544092892971 0 -0.0020504887038044089 -0.011315718841034687 0 -0.0021603680558540074 -0.011199595235785936 0 -0.002227669365216697 -0.011283544092892971 0 -0.0022888103434312995 -0.011063971845954429 0 -0.0024635606518723331 -0.010615361464321261 0 -0.0020504887038044089 -0.011315718841034687 0 -0.002160382652875114 -0.011402945124664483 0 -0.002227669365216697 -0.011283544092892971 0 -0.0024127055887452403 -0.010681551874309636 0 -0.0021449904618641392 -0.011489553577409686 0 -0.0025637384499006938 -0.011302509087578107 0 -0.0022888103434312995 -0.011063971845954429 0 -0.0021512479838218805 -0.01145094345667833 0 -0.002160382652875114 -0.011402945124664483 0 -0.0020457097739113796 -0.01143956544585242 0 -0.0021449904618641392 -0.011489553577409686 0 -0.0020504887038044089 -0.011315718841034687 0 -0.0020457097739113796 -0.01143956544585242 0 -0.0019396147946302979 -0.011388550363513581 0 -0.0020504887038044089 -0.011315718841034687 0 -0.002160382652875114 -0.011402945124664483 0 -0.0020457097739113796 -0.01143956544585242 0 -0.0018392881971452839 -0.011311039883715773 0 -0.0020504887038044089 -0.011315718841034687 0 -0.0019396147946302979 -0.011388550363513581 0 -0.0020457097739113796 -0.01143956544585242 0 -0.0019396147946302979 -0.011388550363513581 0 -0.0018730227470480543 -0.011518028387886986 0 -0.0018730227470480543 -0.011518028387886986 0 -0.0017418610300199019 -0.011553666154036506 0 -0.0017048320434158441 -0.01151344184023778 0 -0.0019396147946302979 -0.011388550363513581 0 -0.0018730227470480543 -0.011518028387886986 0 -0.0017048320434158441 -0.01151344184023778 0 -0.0018392881971452839 -0.011311039883715773 0 -0.0019396147946302979 -0.011388550363513581 0 -0.0017048320434158441 -0.01151344184023778 0 -0.0017703573214710479 -0.011430694341387262 0 -0.0017083656659693815 -0.011509895423161141 0 -0.0037195734480285968 -0.010159037187263393 0 -0.0038992385513463303 -0.0098986505675705497 0 -0.0035602333970057667 -0.0098589039580466997 0 -0.0037195734480285968 -0.010159037187263393 0 -0.0035602333970057667 -0.0098589039580466997 0 -0.0034150375021284422 -0.010211780213417624 0 -0.0042993572403857245 -0.0097956786325467532 0 -0.0040014774792114013 -0.010149905829396802 0 -0.0038992385513463303 -0.0098986505675705497 0 -0.0037195734480285968 -0.010159037187263393 0 -0.0040014774792114013 -0.010149905829396802 0 -0.0038992385513463303 -0.0098986505675705497 0 -0.0042993572403857245 -0.0097956786325467532 0 -0.0038992385513463303 -0.0098986505675705497 0 -0.0038762142108529673 -0.0096274397339498937 0 -0.0042993572403857245 -0.0097956786325467532 0 -0.0040982623624465468 -0.009420761436823178 0 -0.0038762142108529673 -0.0096274397339498937 0 -0.0036066062996101527 -0.0094619532904517273 0 -0.0038762142108529673 -0.0096274397339498937 0 -0.0035602333970057667 -0.0098589039580466997 0 -0.0036066062996101527 -0.0094619532904517273 0 -0.0035602333970057667 -0.0098589039580466997 0 -0.0032802262774135134 -0.0096800647671756602 0 -0.0038992385513463303 -0.0098986505675705497 0 -0.0038762142108529673 -0.0096274397339498937 0 -0.0035602333970057667 -0.0098589039580466997 0 -0.0036222737949532396 -0.0097634559656263054 0 -0.0033688325232840394 -0.0096333161791938085 0 -0.0035602333970057667 -0.0098589039580466997 0 -0.0032802262774135134 -0.0096800647671756602 0 -0.0031295542088296 -0.009976563212795107 0 -0.003606204716584144 -0.009456028984943906 0 -0.0032802262774135134 -0.0096800647671756602 0 -0.0029516547209410232 -0.009515186836969388 0 -0.0032802262774135134 -0.0096800647671756602 0 -0.0029516547209410232 -0.009515186836969388 0 -0.0031295542088296 -0.009976563212795107 0 -0.0027483363586846064 -0.010649788086414707 0 -0.0024635606518723331 -0.010615361464321261 0 -0.0029516547209410232 -0.009515186836969388 0 -0.0027122663249596743 -0.010054695594403215 0 -0.0031295542088296 -0.009976563212795107 0 -0.0027122663249596743 -0.010054695594403215 0 -0.0031295542088296 -0.009976563212795107 0 -0.0030022302879974625 -0.010467378098821868 0 -0.0031295542088296 -0.009976563212795107 0 -0.0034150375021284422 -0.010211780213417624 0 -0.0030022302879974625 -0.010467378098821868 0 -0.0035602333970057667 -0.0098589039580466997 0 -0.0031295542088296 -0.009976563212795107 0 -0.0034150375021284422 -0.010211780213417624 0 -0.0034150375021284422 -0.010211780213417624 0 -0.0033965182814309548 -0.010500810318823512 0 -0.0035675124437555814 -0.010364800083924595 0 -0.0034150375021284422 -0.010211780213417624 0 -0.0033965182814309548 -0.010500810318823512 0 -0.0030022302879974625 -0.010467378098821868 0 -0.0032048294735910333 -0.010637103503235127 0 -0.0033965182814309548 -0.010500810318823512 0 -0.0030022302879974625 -0.010467378098821868 0 -0.0033965182814309548 -0.010500810318823512 0 -0.0034438174317377953 -0.01078837306256542 0 -0.0035719611050941866 -0.010595184196273649 0 -0.0032048294735910333 -0.010637103503235127 0 -0.0033965182814309548 -0.010500810318823512 0 -0.0034438174317377953 -0.01078837306256542 0 -0.0024127055887452403 -0.010681551874309636 0 -0.0027122663249596743 -0.010054695594403215 0 -0.0030022302879974625 -0.010467378098821868 0 -0.0024127055887452403 -0.010681551874309636 0 -0.0030022302879974625 -0.010467378098821868 0 -0.0029286379748522801 -0.010935187516634838 0 -0.0032048294735910333 -0.010637103503235127 0 -0.0030022302879974625 -0.010467378098821868 0 -0.0029286379748522801 -0.010935187516634838 0 -0.0024127055887452403 -0.010681551874309636 0 -0.0029286379748522801 -0.010935187516634838 0 -0.0025637384499006938 -0.011302509087578107 0 -0.0034438174317377953 -0.01078837306256542 0 -0.0034386964846012326 -0.010772827259275537 0 -0.0037380471857909464 -0.010499680018723969 0 -0.0029286379748522801 -0.010935187516634838 0 -0.0034438174317377953 -0.01078837306256542 0 -0.0029435078834805051 -0.011600073888137243 0 -0.0032048294735910333 -0.010637103503235127 0 -0.0029286379748522801 -0.010935187516634838 0 -0.0034438174317377953 -0.01078837306256542 0 -0.0034386964846012326 -0.010772827259275537 0 -0.0038071946035461001 -0.010640617336189779 0 -0.003998711434472303 -0.010787760263669455 0 -0.0034386964846012326 -0.010772827259275537 0 -0.0035719611050941866 -0.010595184196273649 0 -0.0038071946035461001 -0.010640617336189779 0 -0.0034438174317377953 -0.01078837306256542 0 -0.0034386964846012326 -0.010772827259275537 0 -0.0035719611050941866 -0.010595184196273649 0 -0.0033965182814309548 -0.010500810318823512 0 -0.0035719611050941866 -0.010595184196273649 0 -0.0035675124437555814 -0.010364800083924595 0 -0.0035719611050941866 -0.010595184196273649 0 -0.0038706550227420346 -0.01040366567742412 0 -0.0038071946035461001 -0.010640617336189779 0 -0.0035719611050941866 -0.010595184196273649 0 -0.0035675124437555814 -0.010364800083924595 0 -0.0038706550227420346 -0.01040366567742412 0 -0.0037195734480285968 -0.010159037187263393 0 -0.0035675124437555814 -0.010364800083924595 0 -0.0038706550227420346 -0.01040366567742412 0 -0.0037195734480285968 -0.010159037187263393 0 -0.0034150375021284422 -0.010211780213417624 0 -0.0035675124437555814 -0.010364800083924595 0 -0.0043227981491751151 -0.010208262066835084 0 -0.0040014774792114013 -0.010149905829396802 0 -0.0038706550227420346 -0.01040366567742412 0 -0.0043227981491751151 -0.010208262066835084 0 -0.0042083404775238665 -0.010590634505687481 0 -0.0038706550227420346 -0.01040366567742412 0 -0.0037195734480285968 -0.010159037187263393 0 -0.0040014774792114013 -0.010149905829396802 0 -0.0038706550227420346 -0.01040366567742412 0 -0.0041465598488727049 -0.010652353231866188 0 -0.0038706550227420346 -0.01040366567742412 0 -0.0038071946035461001 -0.010640617336189779 0 -0.0042558640660873689 -0.010691491912044037 0 -0.0038752646436098219 -0.010393527590330884 0 -0.0037686098481494578 -0.01029549611039853 0 -0.003370467307627988 -0.010919721963043442 0 -0.0029623985996690191 -0.010708717263944687 0 -0.0034386964846012326 -0.010772827259275537 0 -0.003135538507057248 -0.01061239456278776 0 -0.0041465598488727049 -0.010652353231866188 0 -0.0038071946035461001 -0.010640617336189779 0 -0.003998711434472303 -0.010787760263669455 0 -0.0041853426240399498 -0.010900962382754115 0 -0.0034386964846012326 -0.010772827259275537 0 -0.003998711434472303 -0.010787760263669455 0 -0.0041465598488727049 -0.010652353231866188 0 -0.0041853426240399498 -0.010900962382754115 0 -0.003998711434472303 -0.010787760263669455 0 -0.0029623985996690191 -0.010708717263944687 0 -0.003135538507057248 -0.01061239456278776 0 -0.0028919677272248191 -0.010499119457255341 0 -0.003135538507057248 -0.01061239456278776 0 -0.0031397023215478247 -0.010497402995863539 0 -0.0028919677272248191 -0.010499119457255341 0 -0.0029864388098855138 -0.010479397247583759 0 -0.0033999370334533742 -0.0096230114099325574 0 -0.003135538507057248 -0.01061239456278776 0 -0.0031397023215478247 -0.010497402995863539 0 -0.0032622040279678172 -0.010599023564361898 0 -0.0030289976382977877 -0.010491407472811749 0 -0.0029249939400514415 -0.010174391316448402 0 -0.0032257242279092441 -0.010191960617634338 0 -0.0030289976382977877 -0.010491407472811749 0 -0.0029249939400514415 -0.010174391316448402 0 -0.0027208357557001643 -0.010493443217803078 0 -0.0030289976382977877 -0.010491407472811749 0 -0.0032257242279092441 -0.010191960617634338 0 -0.0033619738203718736 -0.010486986683431345 0 -0.0032257242279092441 -0.010191960617634338 0 -0.0033619738203718736 -0.010486986683431345 0 -0.0035084527185967498 -0.010199224998107036 0 -0.0029864388098855138 -0.010479397247583759 0 -0.0033591683375336174 -0.01048530283967089 0 -0.0034386964846012326 -0.010772827259275537 0 -0.003135538507057248 -0.01061239456278776 0 -0.0032622040279678172 -0.010599023564361898 0 -0.0034386964846012326 -0.010772827259275537 0 -0.0033619738203718736 -0.010486986683431345 0 -0.0032622040279678172 -0.010599023564361898 0 -0.0031397023215478247 -0.010497402995863539 0 -0.0033619738203718736 -0.010486986683431345 0 -0.0032622040279678172 -0.010599023564361898 0 -0.0034386964846012326 -0.010772827259275537 0 -0.0033619738203718736 -0.010486986683431345 0 -0.0037380471857909464 -0.010499680018723969 0 -0.0034036976300558202 -0.010822083292466879 0 -0.0034727362180575179 -0.011021312056791792 0 -0.0029435078834805051 -0.011600073888137243 0 -0.0025637384499006938 -0.011302509087578107 0 -0.0024017792198924937 -0.01171090930339729 0 -0.0029286379748522801 -0.010935187516634838 0 -0.0029435078834805051 -0.011600073888137243 0 -0.0025637384499006938 -0.011302509087578107 0 -0.0029435078834805051 -0.011600073888137243 0 -0.0024017792198924937 -0.01171090930339729 0 -0.0024778315961140299 -0.01219421413399539 0 -0.0034727362180575179 -0.011021312056791792 0 -0.0024037391245290236 -0.01101027945092504 0 -0.0037380471857909464 -0.010499680018723969 0 -0.0037207453136533434 -0.01005555458308351 0 -0.0040235493337037074 -0.010074763682525861 0 -0.0037380471857909464 -0.010499680018723969 0 -0.0035084527185967498 -0.010199224998107036 0 -0.0037207453136533434 -0.01005555458308351 0 -0.0033619738203718736 -0.010486986683431345 0 -0.0037380471857909464 -0.010499680018723969 0 -0.0035084527185967498 -0.010199224998107036 0 -0.0035084527185967498 -0.010199224998107036 0 -0.0034348282387208712 -0.0099582176553924557 0 -0.0037207453136533434 -0.01005555458308351 0 -0.0034348282387208712 -0.0099582176553924557 0 -0.0037207453136533434 -0.01005555458308351 0 -0.0037259867246036628 -0.0097423277068444357 0 -0.0026556830448685991 -0.0098731851121969128 0 -0.0024037391245290236 -0.01101027945092504 0 -0.0037207453136533434 -0.01005555458308351 0 -0.0037259867246036628 -0.0097423277068444357 0 -0.0040235493337037074 -0.010074763682525861 0 -0.0014698393722581962 -0.010175947291935288 0 -0.00148609632220584 -0.010218179765554478 0 -0.0014777152870935118 -0.010187556503325472 0 -0.0014698393722581962 -0.010175947291935288 0 -0.0014614386877707995 -0.010174972019576905 0 -0.0014777152870935118 -0.010187556503325472 0 -0.0026556830448685991 -0.0098731851121969128 0 -0.0021471609311796702 -0.0097267183155776531 0 -0.0034348282387208712 -0.0099582176553924557 0 -0.0037259867246036628 -0.0097423277068444357 0 -0.0033020333882561024 -0.0096526203021787618 0 -0.0014698393722581962 -0.010175947291935288 0 -0.0014614386877707995 -0.010174972019576905 0 -0.0014996753872662685 -0.010183881678923775 0 -0.0037259867246036628 -0.0097423277068444357 0 -0.0033020333882561024 -0.0096526203021787618 0 -0.0034181006375347545 -0.0094028449955294666 0 -0.0034348282387208712 -0.0099582176553924557 0 -0.0033020333882561024 -0.0096526203021787618 0 -0.0031213021745980746 -0.0098987799352284311 0 -0.0033020333882561024 -0.0096526203021787618 0 -0.0029946146265393109 -0.0096002541325922262 0 -0.0031213021745980746 -0.0098987799352284311 0 -0.0029946146265393109 -0.0096002541325922262 0 -0.0031213021745980746 -0.0098987799352284311 0 -0.0028122365702823878 -0.0098457850647749694 0 -0.0029249939400514415 -0.010174391316448402 0 -0.0032257242279092441 -0.010191960617634338 0 -0.0031213021745980746 -0.0098987799352284311 0 -0.0029249939400514415 -0.010174391316448402 0 -0.0031213021745980746 -0.0098987799352284311 0 -0.0028122365702823878 -0.0098457850647749694 0 -0.0032257242279092441 -0.010191960617634338 0 -0.0035084527185967498 -0.010199224998107036 0 -0.0034348282387208712 -0.0099582176553924557 0 -0.0032257242279092441 -0.010191960617634338 0 -0.0034348282387208712 -0.0099582176553924557 0 -0.0031213021745980746 -0.0098987799352284311 0 -0.0017666816232653705 -0.011579492023465697 0 -0.0017012475147743233 -0.011596698360877341 0 -0.0017900803215707053 -0.011606281291396845 0 -0.0017012475147743233 -0.011596698360877341 0 -0.0017900803215707053 -0.011606281291396845 0 -0.0018118445561553299 -0.011648617069620653 0 -0.0017666816232653705 -0.011579492023465697 0 -0.0017235456229293231 -0.011527812258243489 0 -0.0018479907792264395 -0.011589215847639965 0 6.7118337471597816e-05 -0.012234996256254889 0 0.00016518838588845902 -0.012043779535516209 0 7.8818518970468301e-05 -0.012130897034391928 0 -0.0017666816232653705 -0.011579492023465697 0 -0.0017012475147743233 -0.011596698360877341 0 -0.0017235456229293231 -0.011527812258243489 0 -0.0018730227470480543 -0.011518028387886986 0 -0.0017418610300199019 -0.011553666154036506 0 -0.0017707251520076462 -0.011596499368362033 0 -0.0018730227470480543 -0.011518028387886986 0 -0.0017707251520076462 -0.011596499368362033 0 -0.0018320300521476377 -0.011574482172778322 0 -0.0018551805459911641 -0.011463004331698593 0 -0.0019583880328501386 -0.01177852077845608 0 -0.0018730227470480543 -0.011518028387886986 0 -0.0018320300521476377 -0.011574482172778322 0 -0.0018665507091380944 -0.011588378350000343 0 -0.0017707251520076462 -0.011596499368362033 0 -0.0018320300521476377 -0.011574482172778322 0 -0.0018479907792264395 -0.011589215847639965 0 -0.0018320300521476377 -0.011574482172778322 0 -0.0018479907792264395 -0.011589215847639965 0 -0.0018665507091380944 -0.011588378350000343 0 -0.0018774223886938084 -0.011468615822362922 0 -0.0017949251862158231 -0.011603013138499083 0 -0.0017666816232653705 -0.011579492023465697 0 -0.0018479907792264395 -0.011589215847639965 0 -0.0017900803215707053 -0.011606281291396845 0 -0.0018479907792264395 -0.011589215847639965 0 -0.0017900803215707053 -0.011606281291396845 0 -0.0018359713354585596 -0.0116201996997584 0 -0.0018594570057173295 -0.011609421224884212 0 -0.0018665507091380944 -0.011588378350000343 0 -0.0018890629398445392 -0.011619603005567506 0 -0.0018479907792264395 -0.011589215847639965 0 -0.0018594570057173295 -0.011609421224884212 0 -0.0018359713354585596 -0.0116201996997584 0 -0.0018479907792264395 -0.011589215847639965 0 -0.0018594570057173295 -0.011609421224884212 0 -0.0018665507091380944 -0.011588378350000343 0 -0.0020457097739113796 -0.01143956544585242 0 -0.0018730227470480543 -0.011518028387886986 0 -0.0020340527346879005 -0.011645159537783219 0 -0.0020457097739113796 -0.01143956544585242 0 -0.0020340527346879005 -0.011645159537783219 0 -0.0021449904618641392 -0.011489553577409686 0 -0.0020340527346879005 -0.011645159537783219 0 -0.0021449904618641392 -0.011489553577409686 0 -0.0024017792198924937 -0.01171090930339729 0 -0.0021449904618641392 -0.011489553577409686 0 -0.0025637384499006938 -0.011302509087578107 0 -0.0024017792198924937 -0.01171090930339729 0 -0.0019583880328501386 -0.01177852077845608 0 -0.0024037391245290236 -0.01101027945092504 0 -0.0020340527346879005 -0.011645159537783219 0 -0.0024017792198924937 -0.01171090930339729 0 -0.0024778315961140299 -0.01219421413399539 0 -0.0018890629398445392 -0.011619603005567506 0 -0.0018681373359614795 -0.011643097981061079 0 -0.0018543456478003772 -0.01162878347604315 0 -0.00148609632220584 -0.010218179765554478 0 -0.0014777152870935118 -0.010187556503325472 0 -0.0014974912639655836 -0.010196757510544743 0 -0.0024037391245290236 -0.01101027945092504 0 -0.0017092948483459958 -0.010861018108676707 0 -0.0014614386877707995 -0.010174972019576905 0 -0.0014777152870935118 -0.010187556503325472 0 -0.0014847525264282569 -0.010168291986508184 0 -0.0014777152870935118 -0.010187556503325472 0 -0.0014847525264282569 -0.010168291986508184 0 -0.0014974912639655836 -0.010196757510544743 0 -0.0014847525264282569 -0.010168291986508184 0 -0.0014974912639655836 -0.010196757510544743 0 -0.0015152034854420628 -0.010170700873997105 0 -0.0018681373359614795 -0.011643097981061079 0 -0.001843797400620925 -0.011643553436013667 0 -0.0018464336874710707 -0.011659643310218886 0 -0.001843797400620925 -0.011643553436013667 0 -0.0018118445561553299 -0.011648617069620653 0 -0.0018464336874710707 -0.011659643310218886 0 0.00046659510248000093 -0.011429460303864603 0 0.00060517144343802756 -0.011172271648215781 0 0.00099540852822702888 -0.011270153754686129 0 -0.0017092948483459958 -0.010861018108676707 0 -0.00043659271572531124 -0.01096494561068378 0 -0.0018594570057173295 -0.011609421224884212 0 -0.0018890629398445392 -0.011619603005567506 0 -0.0018543456478003772 -0.01162878347604315 0 -0.001843797400620925 -0.011643553436013667 0 -0.0018368898544320223 -0.011635420075081655 0 -0.0018543456478003772 -0.01162878347604315 0 -0.0018681373359614795 -0.011643097981061079 0 -0.001843797400620925 -0.011643553436013667 0 -0.0018543456478003772 -0.01162878347604315 0 -0.0018594570057173295 -0.011609421224884212 0 -0.0018543456478003772 -0.01162878347604315 0 -0.0018359713354585596 -0.0116201996997584 0 -0.0018368898544320223 -0.011635420075081655 0 -0.0018543456478003772 -0.01162878347604315 0 -0.0018359713354585596 -0.0116201996997584 0 -0.001843797400620925 -0.011643553436013667 0 -0.0018368898544320223 -0.011635420075081655 0 -0.0018118445561553299 -0.011648617069620653 0 -0.0018368898544320223 -0.011635420075081655 0 -0.0018359713354585596 -0.0116201996997584 0 -0.0018118445561553299 -0.011648617069620653 0 -0.0017900803215707053 -0.011606281291396845 0 -0.0018359713354585596 -0.0116201996997584 0 -0.0018118445561553299 -0.011648617069620653 0 0.00032851300079241014 -0.011942976241275176 0 0.00046659510248000093 -0.011429460303864603 0 0.00022377348608525107 -0.011559259394264719 0 -0.00076594974166517918 -0.011904703586232562 0 -0.00043659271572531124 -0.01096494561068378 0 0.00032851300079241014 -0.011942976241275176 0 0.00046659510248000093 -0.011429460303864603 0 0.00099540852822702888 -0.011270153754686129 0 0.00046659510248000093 -0.011429460303864603 0 0.00022377348608525107 -0.011559259394264719 0 0.00032935248995631628 -0.011213744871678456 0 0.00032851300079241014 -0.011942976241275176 0 0.00022377348608525107 -0.011559259394264719 0 0.00016543946746589951 -0.011782406036184273 0 0.00022377348608525107 -0.011559259394264719 0 0.00016543946746589951 -0.011782406036184273 0 -6.2841816855506037e-05 -0.011550869867916046 0 1.1772021245399154e-05 -0.011569831672608525 0 0.00013246999800433818 -0.012073039523248131 0 0.00012465084296645599 -0.01202186566201968 0 0.00016518838588845902 -0.012043779535516209 0 0.00010903043563670992 -0.012050531006495648 0 -0.0002192516288224792 -0.011394792654423724 0 -6.2841816855506037e-05 -0.011550869867916046 0 0.00016518838588845902 -0.012043779535516209 0 0.00022377348608525107 -0.011559259394264719 0 9.2540548133298629e-05 -0.011356156719594954 0 0.00032935248995631628 -0.011213744871678456 0 0.00022377348608525107 -0.011559259394264719 0 9.2540548133298629e-05 -0.011356156719594954 0 -6.2841816855506037e-05 -0.011550869867916046 0 9.2540548133298629e-05 -0.011356156719594954 0 -0.00020178430085127116 -0.01134753178064778 0 -6.2841816855506037e-05 -0.011550869867916046 0 1.1772021245399154e-05 -0.011569831672608525 0 -6.9793629355059957e-05 -0.011490730681772357 0 6.7118337471597816e-05 -0.012234996256254889 0 0.00032851300079241014 -0.011942976241275176 0 0.00016518838588845902 -0.012043779535516209 0 0.00016518838588845902 -0.012043779535516209 0 9.3757238182314207e-05 -0.012081044562417587 0 0.00010903043563670992 -0.012050531006495648 0 -0.00077178848642598687 -0.01179111675802663 0 -0.00076594974166517918 -0.011904703586232562 0 0.00016543946746589951 -0.011782406036184273 0 -6.2841816855506037e-05 -0.011550869867916046 0 0.00016518838588845902 -0.012043779535516209 0 0.00032851300079241014 -0.011942976241275176 0 0.00016543946746589951 -0.011782406036184273 0 0.00016518838588845902 -0.012043779535516209 0 0.00016518838588845902 -0.012043779535516209 0 7.8818518970468301e-05 -0.012130897034391928 0 9.3757238182314207e-05 -0.012081044562417587 0 5.5932258120812301e-05 -0.010800263674934278 0 0.00054284060748415949 -0.010718348259827532 0 -5.9977494313631835e-05 -0.010339741339186064 0 5.5932258120812301e-05 -0.010800263674934278 0 -5.9977494313631835e-05 -0.010339741339186064 0 -0.00041682635732355662 -0.010621347696664667 0 -0.00020178430085127116 -0.01134753178064778 0 5.5932258120812301e-05 -0.010800263674934278 0 -0.00041682635732355662 -0.010621347696664667 0 -0.00020178430085127116 -0.01134753178064778 0 5.5932258120812301e-05 -0.010800263674934278 0 0.00012171700014722964 -0.011126662480919562 0 9.2540548133298629e-05 -0.011356156719594954 0 0.00012171700014722964 -0.011126662480919562 0 0.00032935248995631628 -0.011213744871678456 0 9.2540548133298629e-05 -0.011356156719594954 0 -0.00020178430085127116 -0.01134753178064778 0 0.00012171700014722964 -0.011126662480919562 0 5.5932258120812301e-05 -0.010800263674934278 0 0.00012171700014722964 -0.011126662480919562 0 0.00031209307016028301 -0.010981558925852735 0 5.5932258120812301e-05 -0.010800263674934278 0 0.00031209307016028301 -0.010981558925852735 0 0.00054284060748415949 -0.010718348259827532 0 0.00012171700014722964 -0.011126662480919562 0 0.00031209307016028301 -0.010981558925852735 0 0.00032935248995631628 -0.011213744871678456 0 0.00031209307016028301 -0.010981558925852735 0 0.00032935248995631628 -0.011213744871678456 0 0.00050938481245356513 -0.01101225155839579 0 0.00046659510248000093 -0.011429460303864603 0 0.00032935248995631628 -0.011213744871678456 0 0.00060517144343802756 -0.011172271648215781 0 0.00032935248995631628 -0.011213744871678456 0 0.00060517144343802756 -0.011172271648215781 0 0.00050938481245356513 -0.01101225155839579 0 0.00060517144343802756 -0.011172271648215781 0 0.00050938481245356513 -0.01101225155839579 0 0.00075174348648019936 -0.01090450019969132 0 0.00050938481245356513 -0.01101225155839579 0 0.00054284060748415949 -0.010718348259827532 0 0.00075174348648019936 -0.01090450019969132 0 0.00031209307016028301 -0.010981558925852735 0 0.00050938481245356513 -0.01101225155839579 0 0.00054284060748415949 -0.010718348259827532 0 0.00054284060748415949 -0.010718348259827532 0 0.00052504447611942298 -0.010303655153561842 0 0.00016138744242398612 -0.010312776798881007 0 0.00054284060748415949 -0.010718348259827532 0 0.00067418349129005429 -0.010491304399758747 0 0.00052504447611942298 -0.010303655153561842 0 0.00054043134806955957 -0.010708783936223541 0 1.8934504914485173e-05 -0.010292863546533868 0 0.00054284060748415949 -0.010718348259827532 0 0.00067418349129005429 -0.010491304399758747 0 0.00074751983197363537 -0.010689582296587554 0 0.00087780468048572358 -0.010554345457487171 0 0.0012123054430315961 -0.010793313537396463 0 0.00094485951537187185 -0.010189538835312973 0 0.00067418349129005429 -0.010491304399758747 0 0.00087780468048572358 -0.010554345457487171 0 0.00094485951537187185 -0.010189538835312973 0 0.00067418349129005429 -0.010491304399758747 0 0.00087780468048572358 -0.010554345457487171 0 0.00074751983197363537 -0.010689582296587554 0 0.00087780468048572358 -0.010554345457487171 0 0.00091808203975498616 -0.010810665549889744 0 0.0012123054430315961 -0.010793313537396463 0 0.00087780468048572358 -0.010554345457487171 0 0.00074751983197363537 -0.010689582296587554 0 0.00091808203975498616 -0.010810665549889744 0 0.00054284060748415949 -0.010718348259827532 0 0.00074751983197363537 -0.010689582296587554 0 0.00075174348648019936 -0.01090450019969132 0 0.00074751983197363537 -0.010689582296587554 0 0.00075174348648019936 -0.01090450019969132 0 0.00091808203975498616 -0.010810665549889744 0 0.00060517144343802756 -0.011172271648215781 0 0.00075174348648019936 -0.01090450019969132 0 0.00099540852822702888 -0.011270153754686129 0 0.00072735401186650402 -0.011255894949478215 0 -0.00043659271572531124 -0.01096494561068378 0 0.00089327395167221682 -0.011127163735060355 0 0.00091808203975498616 -0.010810665549889744 0 0.0012123054430315961 -0.010793313537396463 0 0.00075174348648019936 -0.01090450019969132 0 0.00089327395167221682 -0.011127163735060355 0 0.00091808203975498616 -0.010810665549889744 0 -0.00043659271572531124 -0.01096494561068378 0 -0.00013263772261514113 -0.010471546978342617 0 -0.0014847525264282569 -0.010168291986508184 0 -0.0015152034854420628 -0.010170700873997105 0 -0.0014825198169102045 -0.010118448968296039 0 -0.0014847525264282569 -0.010168291986508184 0 -0.0014825198169102045 -0.010118448968296039 0 -0.001453215542248715 -0.010131656731419339 0 0.0012123054430315961 -0.010793313537396463 0 0.00094485951537187185 -0.010189538835312973 0 0.0015263967328151373 -0.010454417282285577 0 0.0010199840198497291 -0.010210746515870761 0 2.8786509447113796e-05 -0.0097229570202072568 0 0.00069455216749480543 -0.009962933499099819 0 0.00057128440608870772 -0.0099896256925302383 0 0.00076664086546702971 -0.010046122956583808 0 0.00069455216749480543 -0.009962933499099819 0 0.0006477645431073243 -0.0098453805333040736 0 0.00057128440608870772 -0.0099896256925302383 0 0.00069455216749480543 -0.009962933499099819 0 0.0006477645431073243 -0.0098453805333040736 0 0.00075935728751289891 -0.0097971737487530207 0 0.0006477645431073243 -0.0098453805333040736 0 0.00075935728751289891 -0.0097971737487530207 0 0.00070801257846887582 -0.0096961709407536283 0 0.00057128440608870772 -0.0099896256925302383 0 0.00034460332506838336 -0.0099362918789472395 0 0.00051961179338033854 -0.0097530148868697382 0 0.0006477645431073243 -0.0098453805333040736 0 0.00057128440608870772 -0.0099896256925302383 0 0.00051961179338033854 -0.0097530148868697382 0 0.00067418349129005429 -0.010491304399758747 0 0.00094485951537187185 -0.010189538835312973 0 0.00052504447611942298 -0.010303655153561842 0 0.00052504447611942298 -0.010303655153561842 0 0.00034460332506838336 -0.0099362918789472395 0 0.00016138744242398612 -0.010312776798881007 0 0.0010199840198497291 -0.010210746515870761 0 0.00024771608727036057 -0.0098884493323633908 0 0.00094485951537187185 -0.010189538835312973 0 0.00052504447611942298 -0.010303655153561842 0 0.00034460332506838336 -0.0099362918789472395 0 0.00034460332506838336 -0.0099362918789472395 0 0.00036695890043229651 -0.0097561287848803215 0 0.00051961179338033854 -0.0097530148868697382 0 0.00034460332506838336 -0.0099362918789472395 0 0.00013201464090622752 -0.010007164005844159 0 0.00018452324462866419 -0.0097285119288500442 0 0.00034460332506838336 -0.0099362918789472395 0 0.00013201464090622752 -0.010007164005844159 0 0.00016138744242398612 -0.010312776798881007 0 -0.0007082741089526215 -0.0084181247962006461 0 -0.00083771295006657219 -0.0083617710370648916 0 -0.00072872966124272747 -0.0082671151203125084 0 -0.0013627242369612129 -0.0090916715068103358 0 -0.0012397471555116904 -0.0075313154221367182 0 -0.0007082741089526215 -0.0084181247962006461 0 -0.00063626137374939206 -0.008254899568175468 0 -0.00072872966124272747 -0.0082671151203125084 0 -0.0007082741089526215 -0.0084181247962006461 0 -0.00063626137374939206 -0.008254899568175468 0 -0.00055578426201071513 -0.0082541530438963884 0 -0.0021617432744304331 -0.0086243814211847906 0 -0.0020527231836497033 -0.0086713226412861773 0 -0.001614955641235364 -0.0080511791523311289 0 -0.0018953556661820282 -0.0086835457660058065 0 -0.0020527231836497033 -0.0086713226412861773 0 -0.001614955641235364 -0.0080511791523311289 0 -0.0013847323568236169 -0.0084855216504436757 0 -0.0018953556661820282 -0.0086835457660058065 0 -0.001614955641235364 -0.0080511791523311289 0 -0.0022587307781273469 -0.0076183848184596323 0 -0.0026344119466358905 -0.0090253361880886229 0 -0.0018818267589250264 -0.0066091049981644376 0 -0.0019953921452012728 -0.0063988453042228503 0 -0.0018437263465642482 -0.0064265391032047306 0 -0.0022587307781273469 -0.0076183848184596323 0 -0.0012397471555116904 -0.0075313154221367182 0 -0.0029946146265393109 -0.0096002541325922262 0 -0.0029278999960642032 -0.0093855251359523731 0 -0.0026606243819623115 -0.0095063708228651806 0 -0.0029946146265393109 -0.0096002541325922262 0 -0.0029278999960642032 -0.0093855251359523731 0 -0.0031293358871791774 -0.0092844381320775424 0 -0.0028369422906411859 -0.0091665329643340274 0 -0.0029278999960642032 -0.0093855251359523731 0 -0.0031293358871791774 -0.0092844381320775424 0 -0.0033020333882561024 -0.0096526203021787618 0 -0.0029946146265393109 -0.0096002541325922262 0 -0.0031293358871791774 -0.0092844381320775424 0 -0.0026344119466358905 -0.0090253361880886229 0 -0.0021471609311796702 -0.0097267183155776531 0 -0.0033020333882561024 -0.0096526203021787618 0 -0.0031293358871791774 -0.0092844381320775424 0 -0.0034181006375347545 -0.0094028449955294666 0 -0.0018953556661820282 -0.0086835457660058065 0 -0.0020527231836497033 -0.0086713226412861773 0 -0.0024046865382045422 -0.0088869688373908289 0 -0.0013627242369612129 -0.0090916715068103358 0 -0.00166077753492788 -0.008948179684197333 0 -0.0021607579609961916 -0.0086268554895024933 0 -0.0020527231836497033 -0.0086713226412861773 0 -0.0024046865382045422 -0.0088869688373908289 0 -0.0013627242369612129 -0.0090916715068103358 0 -0.0021471609311796702 -0.0097267183155776531 0 -0.0014614386877707995 -0.010174972019576905 0 -0.001353522374505062 -0.010128531834188161 0 -0.0014162009647399117 -0.010112897672131707 0 -0.0011853631990151054 -0.010257155451601302 0 -0.0021471609311796702 -0.0097267183155776531 0 -0.001353522374505062 -0.010128531834188161 0 -0.0014162009647399117 -0.010112897672131707 0 -0.001381027857094181 -0.010075905689887001 0 -0.0014614386877707995 -0.010174972019576905 0 -0.0014162009647399117 -0.010112897672131707 0 -0.001453215542248715 -0.010131656731419339 0 -0.0014614386877707995 -0.010174972019576905 0 -0.0014847525264282569 -0.010168291986508184 0 -0.001453215542248715 -0.010131656731419339 0 -0.0014825198169102045 -0.010118448968296039 0 -0.001453215542248715 -0.010131656731419339 0 -0.0014303493668577155 -0.010055996866544622 0 -0.0014162009647399117 -0.010112897672131707 0 -0.001453215542248715 -0.010131656731419339 0 -0.0014303493668577155 -0.010055996866544622 0 -0.00013263772261514113 -0.010471546978342617 0 2.8786509447113796e-05 -0.0097229570202072568 0 -0.0014162009647399117 -0.010112897672131707 0 -0.0014303493668577155 -0.010055996866544622 0 -0.001381027857094181 -0.010075905689887001 0 2.8786509447113796e-05 -0.0097229570202072568 0 -0.0012502045484848589 -0.0091582784371277721 0 -0.0013627242369612129 -0.0090916715068103358 0 -0.0012502045484848589 -0.0091582784371277721 0 -0.0013259925272461406 -0.010095476721143932 0 -0.001353522374505062 -0.010128531834188161 0 -0.001381027857094181 -0.010075905689887001 0 -0.00083771295006657219 -0.0083617710370648916 0 -0.00080624647874066163 -0.0081306809898762916 0 -0.00072872966124272747 -0.0082671151203125084 0 2.8786509447113796e-05 -0.0097229570202072568 0 -8.8253548521827274e-06 -0.0089200893239468858 0 -0.00096400635286942075 -0.0083118926214235857 0 -0.00083771295006657219 -0.0083617710370648916 0 -0.00080624647874066163 -0.0081306809898762916 0 0.00076664086546702971 -0.010046122956583808 0 0.00078293800661181033 -0.0099485428629832694 0 0.00086881923766599816 -0.0099080555271290824 0 0.00069455216749480543 -0.009962933499099819 0 0.00076664086546702971 -0.010046122956583808 0 0.00078293800661181033 -0.0099485428629832694 0 0.00067298625267500189 -0.0099421591384105425 0 0.0010154408042376895 -0.00992457353103335 0 0.00069455216749480543 -0.009962933499099819 0 0.00085388893513114496 -0.0098060678569794734 0 0.00099237792603028372 -0.0098308016546229879 0 0.00069455216749480543 -0.009962933499099819 0 0.00078293800661181033 -0.0099485428629832694 0 0.00083653814212911399 -0.0098685095998434155 0 0.00069455216749480543 -0.009962933499099819 0 0.00085388893513114496 -0.0098060678569794734 0 0.00075935728751289891 -0.0097971737487530207 0 0.00085388893513114496 -0.0098060678569794734 0 0.00099237792603028372 -0.0098308016546229879 0 0.00095279798653694926 -0.0097088445690988404 0 0.00085388893513114496 -0.0098060678569794734 0 0.00075935728751289891 -0.0097971737487530207 0 0.00083311509236876037 -0.0097061596370363479 0 0.00086881923766599816 -0.0099080555271290824 0 0.00083653814212911399 -0.0098685095998434155 0 0.00096784546548286845 -0.0097712620879320099 0 0.00078293800661181033 -0.0099485428629832694 0 0.00086881923766599816 -0.0099080555271290824 0 0.00083653814212911399 -0.0098685095998434155 0 0.0010154408042376895 -0.00992457353103335 0 0.00048040525421035252 -0.0090378477651034718 0 -8.8253548521827274e-06 -0.0089200893239468858 0 0.00048040525421035252 -0.0090378477651034718 0 -0.00080624647874066163 -0.0081306809898762916 0 -0.00065271854718338394 -0.0081483455112813432 0 -0.00063790851615317886 -0.0079457830720016005 0 -0.00080624647874066163 -0.0081306809898762916 0 -0.00065271854718338394 -0.0081483455112813432 0 -0.00072872966124272747 -0.0082671151203125084 0 -0.00065271854718338394 -0.0081483455112813432 0 -0.00063626137374939206 -0.008254899568175468 0 -0.00060522640829346267 -0.0081992668006825829 0 -0.00065271854718338394 -0.0081483455112813432 0 -0.00063626137374939206 -0.008254899568175468 0 -0.00072872966124272747 -0.0082671151203125084 0 -0.00055575320655592718 -0.0082529447857582448 0 -0.00056449129334441329 -0.0082364261428268318 0 -0.00043793623023927842 -0.0081205917487609594 0 -0.00063626137374939206 -0.008254899568175468 0 -0.00056449129334441329 -0.0082364261428268318 0 -0.00060522640829346267 -0.0081992668006825829 0 -0.00063626137374939206 -0.008254899568175468 0 -0.00055578426201071513 -0.0082541530438963884 0 -0.00056449129334441329 -0.0082364261428268318 0 -0.0012397471555116904 -0.0075313154221367182 0 -0.0011590960932701211 -0.0076572493129331244 0 -0.00056449129334441329 -0.0082364261428268318 0 -0.00056710509596560096 -0.0081575933037631321 0 -0.00060522640829346267 -0.0081992668006825829 0 -0.00065271854718338394 -0.0081483455112813432 0 -0.00056710509596560096 -0.0081575933037631321 0 -0.00060522640829346267 -0.0081992668006825829 0 -0.00056449129334441329 -0.0082364261428268318 0 -0.00056710509596560096 -0.0081575933037631321 0 -0.00043793623023927842 -0.0081205917487609594 0 -0.0012397471555116904 -0.0075313154221367182 0 -0.0011366155721691795 -0.0071845578644479536 0 -0.00065271854718338394 -0.0081483455112813432 0 -0.0005737297871555606 -0.0080777864455869909 0 -0.00063790851615317886 -0.0079457830720016005 0 -0.00056710509596560096 -0.0081575933037631321 0 -0.0005737297871555606 -0.0080777864455869909 0 -0.00043793623023927842 -0.0081205917487609594 0 -0.0005737297871555606 -0.0080777864455869909 0 -0.00048472513400009079 -0.0079937123023935217 0 -0.00043793623023927842 -0.0081205917487609594 0 -0.00065271854718338394 -0.0081483455112813432 0 -0.00056710509596560096 -0.0081575933037631321 0 -0.0005737297871555606 -0.0080777864455869909 0 -0.0005737297871555606 -0.0080777864455869909 0 -0.00055635808951065525 -0.007978243217952305 0 -0.00063790851615317886 -0.0079457830720016005 0 -0.0005737297871555606 -0.0080777864455869909 0 -0.00048472513400009079 -0.0079937123023935217 0 -0.00055635808951065525 -0.007978243217952305 0 -0.00048472513400009079 -0.0079937123023935217 0 -0.00041337120964400864 -0.0079993005578725893 0 -0.00043793623023927842 -0.0081205917487609594 0 -0.00041337120964400864 -0.0079993005578725893 0 -0.00032564028337847561 -0.0079897265907826961 0 -0.00043793623023927842 -0.0081205917487609594 0 -0.00098266795276900042 -0.0063861954142308318 0 -0.0011366155721691795 -0.0071845578644479536 0 -0.0015455051694050561 -0.0059358772384829712 0 -0.0014453935182595331 -0.0060578875790029806 0 -0.0017816613879458581 -0.0061717313962364202 0 -0.0011131924682901573 -0.004857270282531129 0 -0.0014622248364590689 -0.0049037778196647491 0 -0.0011988744550795541 -0.0052235482516558105 0 -0.00098266795276900042 -0.0063861954142308318 0 -0.0014372687577854212 -0.0052832758640128418 0 -0.0014932176645658113 -0.006067463337968983 0 -0.0016058340798343943 -0.0063125525797305291 0 -0.001773196070151611 -0.0062946739376163992 0 -0.0014932176645658113 -0.006067463337968983 0 -0.0014546706265855329 -0.0063143714575468043 0 -0.0012799559876759746 -0.006327670370322812 0 -0.0014546706265855329 -0.0063143714575468043 0 -0.0015833928473242141 -0.0064837161579835868 0 -0.0012921061740605712 -0.006361128778406131 0 -0.0014932176645658113 -0.006067463337968983 0 -0.0016058340798343943 -0.0063125525797305291 0 -0.0014546706265855329 -0.0063143714575468043 0 -0.0016058340798343943 -0.0063125525797305291 0 -0.0014546706265855329 -0.0063143714575468043 0 -0.0015833928473242141 -0.0064837161579835868 0 -0.0014453935182595331 -0.0060578875790029806 0 -0.001773196070151611 -0.0062946739376163992 0 -0.0017816613879458581 -0.0061717313962364202 0 -0.0014372687577854212 -0.0052832758640128418 0 -0.0018493792788196847 -0.0064769815019467035 0 -0.0019953921452012728 -0.0063988453042228503 0 -0.001773196070151611 -0.0062946739376163992 0 -0.0017816613879458581 -0.0061717313962364202 0 -0.0016058340798343943 -0.0063125525797305291 0 -0.0017372674414609616 -0.0064247771980407821 0 -0.0015833928473242141 -0.0064837161579835868 0 -0.0016058340798343943 -0.0063125525797305291 0 -0.001773196070151611 -0.0062946739376163992 0 -0.0017372674414609616 -0.0064247771980407821 0 -0.0019953921452012728 -0.0063988453042228503 0 -0.001773196070151611 -0.0062946739376163992 0 -0.0018437263465642482 -0.0064265391032047306 0 -0.001773196070151611 -0.0062946739376163992 0 -0.0018437263465642482 -0.0064265391032047306 0 -0.0017372674414609616 -0.0064247771980407821 0 -0.0028245961564784981 -0.0067223799469913999 0 -0.0021663217469284428 -0.0064685571267048755 0 -0.0024884811020874239 -0.0073531817781397535 0 -0.0018818267589250264 -0.0066091049981644376 0 -0.0018437263465642482 -0.0064265391032047306 0 -0.0017372674414609616 -0.0064247771980407821 0 -0.0018818267589250264 -0.0066091049981644376 0 -0.0017372674414609616 -0.0064247771980407821 0 -0.0015833928473242141 -0.0064837161579835868 0 -0.0022587307781273469 -0.0076183848184596323 0 -0.0018297821454082346 -0.0064709146441475915 0 -0.0021663217469284428 -0.0064685571267048755 0 -0.0018256299362781113 -0.0071031824519027275 0 -0.0015004093741464275 -0.0062120482907964568 0 -0.0018297821454082346 -0.0064709146441475915 0 -0.0017861700734701893 -0.0052159107197732781 0 -0.0021663217469284428 -0.0064685571267048755 0 -0.0018256299362781113 -0.0071031824519027275 0 -0.0024884811020874239 -0.0073531817781397535 0 -0.0022587307781273469 -0.0076183848184596323 0 -0.0025110467748467569 -0.0086273593164539926 0 -0.0028369422906411859 -0.0091665329643340274 0 -0.0029278999960642032 -0.0093855251359523731 0 -0.0026606243819623115 -0.0095063708228651806 0 -0.0029841341574274403 -0.0035437112243423313 0 -0.0027708803360714145 -0.0038137738575285472 0 -0.0029702353901761929 -0.0038724481904772574 0 -0.0025297776703219438 -0.0033148917690458634 0 -0.0025178460322783243 -0.002588124615958907 0 -0.0025297776703219438 -0.0033148917690458634 0 -0.002454177147199687 -0.0051629647326712439 0 -0.0030121651404711402 -0.0055995471834104664 0 -0.0020782369657215902 -0.004819163868694745 0 -0.0019922438837802134 -0.0060641466005068086 0 -0.0030121651404711402 -0.0055995471834104664 0 -0.0020782369657215902 -0.004819163868694745 0 -0.0025631408316331835 -0.0043803014466654196 0 -0.0024392213541652229 -0.0062632248685117516 0 -0.0017861700734701893 -0.0052159107197732781 0 -0.0020782369657215902 -0.004819163868694745 0 -0.0025631408316331835 -0.0043803014466654196 0 -0.0024676597922425915 -0.0043450144689009687 0 -0.0025297776703219438 -0.0033148917690458634 0 -0.0018062661894669683 -0.0046369502711858107 0 -0.0025297776703219438 -0.0033148917690458634 0 -0.0018666846238835563 -0.0028587639409704945 0 -0.0022421648993494392 -0.001472811623589322 0 -0.0022492529831339711 -0.0014653962219289679 0 -0.0022536134993980422 -0.0014543472195253115 0 -0.0017682514929929229 -0.0018506914669350995 0 -0.001551708903303411 -0.001540741419692627 0 -0.001264895984679012 -0.0016473344600986444 0 -0.0022417728637339021 -0.0014766939194395202 0 -0.0022502528189753167 -0.0014605034847560393 0 -0.0022492529831339711 -0.0014653962219289679 0 -0.0018666846238835563 -0.0028587639409704945 0 -0.0018617847386110818 -0.00012634751408682464 0 -0.0022421648993494392 -0.001472811623589322 0 -0.0022417728637339021 -0.0014766939194395202 0 -0.0022492529831339711 -0.0014653962219289679 0 -0.0014372687577854212 -0.0052832758640128418 0 -0.001601716867773972 -0.0049111888971769581 0 -0.0017511334419469749 -0.0038529212929920733 0 -0.0014360455562222349 -0.0042362201336217558 0 -0.0013560777562483071 -0.004013751447024142 0 -0.0014546706265855329 -0.0063143714575468043 0 -0.0012921061740605712 -0.006361128778406131 0 -0.0012799559876759746 -0.006327670370322812 0 -0.00151200235589525 -0.0048511851205479605 0 -0.0014867862317193353 -0.0047830691254729029 0 -0.0014499783455483625 -0.0048280170123107691 0 -0.0017861700734701893 -0.0052159107197732781 0 -0.001601716867773972 -0.0049111888971769581 0 -0.0017861700734701893 -0.0052159107197732781 0 -0.0018062661894669683 -0.0046369502711858107 0 -0.001601716867773972 -0.0049111888971769581 0 -0.0018062661894669683 -0.0046369502711858107 0 -0.0022779291674563762 -0.0034448719422521899 0 -0.0022469604764805617 -0.003836237363813051 0 -0.0020211615050520814 -0.0037559372541674627 0 -0.0012510325700349789 -0.0041939750279400114 0 -0.001435169576861335 -0.0042224836506060629 0 -0.0014095780481243614 -0.0042537499999864255 0 -0.0018666846238835563 -0.0028587639409704945 0 -0.0018062661894669683 -0.0046369502711858107 0 -0.0018666846238835563 -0.0028587639409704945 0 -0.0015307409699618305 -0.0026516937938708867 0 -0.0012510325700349789 -0.0041939750279400114 0 -0.0013560777562483071 -0.004013751447024142 0 -0.0012684777859656674 -0.0038512481884224541 0 -0.001601716867773972 -0.0049111888971769581 0 -0.0013247389035960552 -0.0040159178218186278 0 -0.0012510325700349789 -0.0041939750279400114 0 -0.001435169576861335 -0.0042224836506060629 0 -0.0013560777562483071 -0.004013751447024142 0 -0.0014372687577854212 -0.0052832758640128418 0 -0.0011275189395598267 -0.0028971277541034318 0 -0.0017511334419469749 -0.0038529212929920733 0 -0.0012684777859656674 -0.0038512481884224541 0 -0.0012915472794629845 -0.0034959375575338561 0 -0.0017511334419469749 -0.0038529212929920733 0 -0.0013560777562483071 -0.004013751447024142 0 -0.0012684777859656674 -0.0038512481884224541 0 -0.0011131924682901573 -0.004857270282531129 0 -0.0011988744550795541 -0.0052235482516558105 0 -0.00027423820743074592 -0.0045167476945042048 0 -0.0015307409699618305 -0.0026516937938708867 0 -0.0011275189395598267 -0.0028971277541034318 0 -0.0017682514929929229 -0.0018506914669350995 0 -0.0017874456255877261 -0.0015589226987976551 0 -0.001551708903303411 -0.001540741419692627 0 -0.0017874456255877261 -0.0015589226987976551 0 -0.0015849973400516306 -0.0013290597436646534 0 -0.0018063795439141697 -0.0012696539984947913 0 -0.0017874456255877261 -0.0015589226987976551 0 -0.001551708903303411 -0.001540741419692627 0 -0.0015849973400516306 -0.0013290597436646534 0 -0.001551708903303411 -0.001540741419692627 0 -0.001354212795727642 -0.0013193478410629368 0 -0.0015849973400516306 -0.0013290597436646534 0 -0.0011478687207668716 0.0012258443658496765 0 -0.0012301405604275327 0.0010641950859170031 0 -0.00108748371739859 0.001050929079616106 0 -0.0018617847386110818 -0.00012634751408682464 0 -0.0012067515039262833 -0.00013459127310104082 0 -0.001551708903303411 -0.001540741419692627 0 -0.001264895984679012 -0.0016473344600986444 0 -0.001354212795727642 -0.0013193478410629368 0 -0.0011478687207668716 0.0012258443658496765 0 -0.0014317235531665293 0.0011397954609374602 0 -0.0012301405604275327 0.0010641950859170031 0 -0.0027359525724413732 0.0011570611104344678 0 -0.0026919633853557797 0.0011193242612689883 0 -0.0026389217852012801 0.0011927693431509592 0 -0.0018617847386110818 -0.00012634751408682464 0 -0.0020167869128194711 0.0013666500332935518 0 -0.0027359525724413732 0.0011570611104344678 0 -0.0026919633853557797 0.0011193242612689883 0 -0.0027270921927626643 0.0010356720301887812 0 -0.0022502528189753167 -0.0014605034847560393 0 -0.0022492529831339711 -0.0014653962219289679 0 -0.0022596253699959158 -0.0014540348221473119 0 -0.0018617847386110818 -0.00012634751408682464 0 -0.0025575257826346018 -0.00027136689494652904 0 -0.0020167869128194711 0.0013666500332935518 0 -0.0021553055989333146 0.0011173623794737432 0 -0.0026389217852012801 0.0011927693431509592 0 -0.0026148523111468526 0.001162549437585993 0 -0.0026034584627342055 0.0012288079772599435 0 -0.0026389217852012801 0.0011927693431509592 0 -0.0026362902201280468 0.0011273736254640376 0 -0.0026148523111468526 0.001162549437585993 0 -0.0026919633853557797 0.0011193242612689883 0 -0.0026389217852012801 0.0011927693431509592 0 -0.0026362902201280468 0.0011273736254640376 0 -0.0026362902201280468 0.0011273736254640376 0 -0.0026148523111468526 0.001162549437585993 0 -0.0026033596135122184 0.001138219778855329 0 -0.0026148523111468526 0.001162549437585993 0 -0.0026033596135122184 0.001138219778855329 0 -0.0026338973923885397 0.0011542204459968738 0 -0.0026033596135122184 0.001138219778855329 0 -0.0025977357092808124 0.0012984632220904458 0 -0.0026613362350298864 0.0012134761578381852 0 -0.0026149276697432717 0.0010910883279819184 0 -0.0024788763707753476 0.0013332648132299144 0 -0.0026033596135122184 0.001138219778855329 0 -0.0026338973923885397 0.0011542204459968738 0 -0.0026613362350298864 0.0012134761578381852 0 -0.0026033596135122184 0.001138219778855329 0 -0.0026321430362249085 0.0011054578904775073 0 -0.0026194102880614774 0.0010436638378999719 0 -0.0026919633853557797 0.0011193242612689883 0 -0.0026362902201280468 0.0011273736254640376 0 -0.0026451507030291169 0.00099735213255626714 0 -0.0026362902201280468 0.0011273736254640376 0 -0.0026627439727655881 0.0010906540458037158 0 -0.0026321430362249085 0.0011054578904775073 0 -0.0026530252068405402 0.0010612679372844817 0 -0.0026281656505590333 0.0011962274710552979 0 -0.0026362902201280468 0.0011273736254640376 0 -0.0026033596135122184 0.001138219778855329 0 -0.0026321430362249085 0.0011054578904775073 0 -0.0026627439727655881 0.0010906540458037158 0 -0.0026194102880614774 0.0010436638378999719 0 -0.0026983336699679204 0.00099534815518309474 0 -0.0026627439727655881 0.0010906540458037158 0 -0.0026321430362249085 0.0011054578904775073 0 -0.0026194102880614774 0.0010436638378999719 0 -0.0026033596135122184 0.001138219778855329 0 -0.0024175499624284032 0.0013766623823067644 0 -0.0025977357092808124 0.0012984632220904458 0 -0.0024175499624284032 0.0013766623823067644 0 -0.0025977357092808124 0.0012984632220904458 0 -0.0025870595428303124 0.001488684192593754 0 -0.0025977357092808124 0.0012984632220904458 0 -0.0025870595428303124 0.001488684192593754 0 -0.0026979251041476518 0.0013663795188059854 0 -0.0025977357092808124 0.0012984632220904458 0 -0.0026613362350298864 0.0012134761578381852 0 -0.0026979251041476518 0.0013663795188059854 0 -0.0022492529831339711 -0.0014653962219289679 0 -0.0022596253699959158 -0.0014540348221473119 0 -0.0022536134993980422 -0.0014543472195253115 0 -0.0026919633853557797 0.0011193242612689883 0 -0.0026451507030291169 0.00099735213255626714 0 -0.0027270921927626643 0.0010356720301887812 0 -0.0022596253699959158 -0.0014540348221473119 0 -0.0022536134993980422 -0.0014543472195253115 0 -0.0022673743806964331 -0.0014425766401100913 0 -0.0026281656505590333 0.0011962274710552979 0 -0.0025061469135578668 4.6772612556187183e-05 0 -0.0026451507030291169 0.00099735213255626714 0 -0.0027270921927626643 0.0010356720301887812 0 -0.0026887471207963378 0.00084744573171751313 0 -0.0025575257826346018 -0.00027136689494652904 0 -0.0025061469135578668 4.6772612556187183e-05 0 -0.0025178460322783243 -0.002588124615958907 0 -0.0025236864377696051 -0.0022156742188517019 0 -0.0027708803360714145 -0.0038137738575285472 0 -0.0025478092569837883 -0.0040806495925693933 0 -0.0027774739923722026 -0.0040789923318231966 0 -0.0022536134993980422 -0.0014543472195253115 0 -0.0022673743806964331 -0.0014425766401100913 0 -0.0022672430971081964 -0.0014419186123381552 0 -0.0025061469135578668 4.6772612556187183e-05 0 -0.0025442972564687148 0.00075995298011273592 0 -0.0026295116274757781 -0.000125599190069195 0 -0.0028053630895088643 -0.00065512763994030228 0 -0.0024937848481301705 -0.00062387188141907739 0 -0.0025061469135578668 4.6772612556187183e-05 0 -0.0025236864377696051 -0.0022156742188517019 0 -0.0025236864377696051 -0.0022156742188517019 0 -0.0030085534413604302 -0.0035198943342143003 0 -0.0030339370950549617 -0.0015698778042018014 0 -0.0028291450760313777 -0.0018194972420479635 0 -0.0032733128172576067 -0.0022796637786918279 0 -0.0026779927854702471 0.00013523988141451719 0 -0.0025743095443349099 0.00032185764146471245 0 -0.0028157681692154261 0.0006161301394916616 0 -0.0025236864377696051 -0.0022156742188517019 0 -0.0031333006643984975 -0.0007068361426252821 0 -0.0028053630895088643 -0.00065512763994030228 0 -0.0024937848481301705 -0.00062387188141907739 0 -0.0026311584877510715 -0.0008674981381205718 0 -0.0025442972564687148 0.00075995298011273592 0 -0.0031333006643984975 -0.0007068361426252821 0 -0.0031333006643984975 -0.0007068361426252821 0 -0.0026733914149298806 0.00095702986489482045 0 -0.0025478092569837883 -0.0040806495925693933 0 -0.0027774739923722026 -0.0040789923318231966 0 -0.0026213692837296246 -0.0043120300342774451 0 -0.0027774739923722026 -0.0040789923318231966 0 -0.0028062720406975368 -0.0043661077410010879 0 -0.0026213692837296246 -0.0043120300342774451 0 -0.0025870595428303124 0.001488684192593754 0 -0.0025705696214604829 0.0017539716834829961 0 -0.0028982898311516975 0.001622188586628708 0 -0.0024175499624284032 0.0013766623823067644 0 -0.0025870595428303124 0.001488684192593754 0 -0.0024468486231375157 0.0015879743648301867 0 -0.0025870595428303124 0.001488684192593754 0 -0.0024468486231375157 0.0015879743648301867 0 -0.0025705696214604829 0.0017539716834829961 0 -0.0026194102880614774 0.0010436638378999719 0 -0.0026983336699679204 0.00099534815518309474 0 -0.002676672058946573 0.00092008030483339506 0 -0.0022048659297235649 0.0017437562999794204 0 -0.0024468486231375157 0.0015879743648301867 0 -0.0025705696214604829 0.0017539716834829961 0 -0.0024788763707753476 0.0013332648132299144 0 -0.0025442972564687148 0.00075995298011273592 0 -0.0024175499624284032 0.0013766623823067644 0 -0.0022048659297235649 0.0017437562999794204 0 -0.0024468486231375157 0.0015879743648301867 0 -0.0022048659297235649 0.0017437562999794204 0 -0.0025063707111212985 0.0019697903090533471 0 -0.0022961122711627206 0.0020566413204464876 0 -0.0022048659297235649 0.0017437562999794204 0 -0.0025705696214604829 0.0017539716834829961 0 -0.0025063707111212985 0.0019697903090533471 0 -0.0025442972564687148 0.00075995298011273592 0 -0.0026733914149298806 0.00095702986489482045 0 -0.0025705696214604829 0.0017539716834829961 0 -0.0027514608722426954 0.0019300882527162543 0 -0.0028982898311516975 0.001622188586628708 0 -0.0025705696214604829 0.0017539716834829961 0 -0.0025063707111212985 0.0019697903090533471 0 -0.0027514608722426954 0.0019300882527162543 0 -0.0027736982796966207 0.002234515728921515 0 -0.0026795452788064742 0.0021221848425193976 0 -0.0028544912136337663 0.0021479121408156201 0 -0.0027736982796966207 0.002234515728921515 0 -0.0026795452788064742 0.0021221848425193976 0 -0.0026404521009872725 0.0022458299166623194 0 -0.0025063707111212985 0.0019697903090533471 0 -0.0027514608722426954 0.0019300882527162543 0 -0.0026795452788064742 0.0021221848425193976 0 -0.0027514608722426954 0.0019300882527162543 0 -0.0026795452788064742 0.0021221848425193976 0 -0.0028544912136337663 0.0021479121408156201 0 -0.0025063707111212985 0.0019697903090533471 0 -0.0026795452788064742 0.0021221848425193976 0 -0.0025337729904458669 0.0021470478056187332 0 -0.0026795452788064742 0.0021221848425193976 0 -0.0025337729904458669 0.0021470478056187332 0 -0.0026404521009872725 0.0022458299166623194 0 -0.0025337729904458669 0.0021470478056187332 0 -0.0026404521009872725 0.0022458299166623194 0 -0.0025490224042387568 0.0023387120689248061 0 -0.0025337729904458669 0.0021470478056187332 0 -0.0022961122711627206 0.0020566413204464876 0 -0.0025490224042387568 0.0023387120689248061 0 -0.0035061702937086146 -0.00056342514836631706 0 -0.0034977274461646893 -0.001147941371968306 0 -0.0037178039715339206 -0.0008652438990924843 0 -0.0026733914149298806 0.00095702986489482045 0 -0.0025798829532286392 0.0025672607571203014 0 -0.0025063707111212985 0.0019697903090533471 0 -0.0025337729904458669 0.0021470478056187332 0 -0.0022961122711627206 0.0020566413204464876 0 -0.0023018888066916382 0.002015011682309813 0 -0.0024422832719333556 0.0025182795685467041 0 -0.0025490224042387568 0.0023387120689248061 0 -0.0026733914149298806 0.00095702986489482045 0 -0.0036593215145369557 0.0011427614754797068 0 -0.0035061702937086146 -0.00056342514836631706 0 -0.0034977274461646893 -0.001147941371968306 0 -0.0032737358089312478 -0.0013887400635445516 0 -0.0034977274461646893 -0.001147941371968306 0 -0.0032737358089312478 -0.0013887400635445516 0 -0.0037559610721178294 -0.001405456461130996 0 -0.0026404521009872725 0.0022458299166623194 0 -0.0025490224042387568 0.0023387120689248061 0 -0.0026914707699774291 0.0023953008389873114 0 -0.0024422832719333556 0.0025182795685467041 0 -0.0025490224042387568 0.0023387120689248061 0 -0.0026914707699774291 0.0023953008389873114 0 -0.0035470387888039156 0.0020896417740136537 0 -0.0038973079638826747 0.0021978401639734897 0 -0.0033778078550837699 0.0023439035283930906 0 -0.0036593215145369557 0.0011427614754797068 0 -0.0028972017649424127 0.0023928547146676847 0 -0.0035470387888039156 0.0020896417740136537 0 -0.0033778078550837699 0.0023439035283930906 0 -0.0031952660782244876 0.0021847787240158608 0 -0.0027736982796966207 0.002234515728921515 0 -0.0026404521009872725 0.0022458299166623194 0 -0.0026914707699774291 0.0023953008389873114 0 -0.0027736982796966207 0.002234515728921515 0 -0.0026914707699774291 0.0023953008389873114 0 -0.0029697439766000039 0.0022485576990769265 0 -0.0030085534413604302 -0.0035198943342143003 0 -0.003663583148100323 -0.002877909456423884 0 -0.0032733128172576067 -0.0022796637786918279 0 -0.003161160636729284 -0.0024048943480124364 0 -0.0035160038793976374 -0.0029854839982980876 0 -0.0028062720406975368 -0.0043661077410010879 0 -0.0026213692837296246 -0.0043120300342774451 0 -0.0026988817934222005 -0.0045399658989484226 0 -0.0035707124742907917 -0.0015159186066555869 0 -0.003663583148100323 -0.002877909456423884 0 -0.0028291450760313777 -0.0018194972420479635 0 -0.0032733128172576067 -0.0022796637786918279 0 -0.003161160636729284 -0.0024048943480124364 0 -0.0037752875215864164 -0.00023805930955958968 0 -0.0035061702937086146 -0.00056342514836631706 0 -0.0040248609006211218 -0.00068246295361991556 0 -0.0035061702937086146 -0.00056342514836631706 0 -0.0040248609006211218 -0.00068246295361991556 0 -0.0037178039715339206 -0.0008652438990924843 0 -0.0031333006643984975 -0.0007068361426252821 0 -0.0035707124742907917 -0.0015159186066555869 0 -0.0040248609006211218 -0.00068246295361991556 0 -0.0038769283270437315 -0.00095698770173788163 0 -0.004281916151640054 -0.001131462831080191 0 -0.0040248609006211218 -0.00068246295361991556 0 -0.0037178039715339206 -0.0008652438990924843 0 -0.0038769283270437315 -0.00095698770173788163 0 -0.0034977274461646893 -0.001147941371968306 0 -0.0037559610721178294 -0.001405456461130996 0 -0.0041774480793100163 -0.0012423517698018488 0 -0.0034977274461646893 -0.001147941371968306 0 -0.0038769283270437315 -0.00095698770173788163 0 -0.004281916151640054 -0.001131462831080191 0 -0.0034977274461646893 -0.001147941371968306 0 -0.0041774480793100163 -0.0012423517698018488 0 -0.0043846475073741654 -0.001136348868210151 0 -0.0038354591958172824 -0.00075664865695259926 0 -0.003663583148100323 -0.002877909456423884 0 -0.0034977274461646893 -0.001147941371968306 0 -0.0037178039715339206 -0.0008652438990924843 0 -0.0038769283270437315 -0.00095698770173788163 0 -0.0028062720406975368 -0.0043661077410010879 0 -0.0026988817934222005 -0.0045399658989484226 0 -0.0029408186839747948 -0.0045440311609944309 0 -0.0037406763962019793 -0.0050644041013824031 0 -0.0037459011145971632 -0.0050788191095975247 0 -0.0036665162255096495 -0.0051031852797328711 0 -0.0039974364789640403 -0.0018044621805961489 0 -0.0044344787395377838 -0.0012710475501356527 0 -0.0041774480793100163 -0.0012423517698018488 0 -0.003663583148100323 -0.002877909456423884 0 -0.0033415014860579957 -0.0061796398649734147 0 -0.0040701407116411304 -0.0034509797056844244 0 -0.003663583148100323 -0.002877909456423884 0 -0.004429733537677857 -0.0012786291806074935 0 -0.0041774480793100163 -0.0012423517698018488 0 -0.0043846475073741654 -0.001136348868210151 0 -0.0040701407116411304 -0.0034509797056844244 0 -0.00413267590398374 -0.002572336910472569 0 -0.0036325536908013733 -0.0084788303661934711 0 -0.0036429993323166868 -0.0083136397495995971 0 -0.0041418248340373311 -0.008550542070701805 0 -0.0040701407116411304 -0.0034509797056844244 0 -0.0040675704975267866 -0.0075906154580729019 0 -0.0037406763962019793 -0.0050644041013824031 0 -0.0036693904986707777 -0.0050777205064551443 0 -0.0036665162255096495 -0.0051031852797328711 0 -0.0040675704975267866 -0.0075906154580729019 0 -0.0033415014860579957 -0.0061796398649734147 0 -0.0033415014860579957 -0.0061796398649734147 0 -0.0028125174598863456 -0.0058357387310757963 0 -0.0028062720406975368 -0.0043661077410010879 0 -0.0029408186839747948 -0.0045440311609944309 0 -0.0029543711904477317 -0.0042612241779481728 0 -0.002891464255403587 -0.0070846565234641756 0 -0.0034037087764364369 -0.0066759325088126906 0 -0.0029455848394544766 -0.0062907821668182909 0 -0.0028062720406975368 -0.0043661077410010879 0 -0.0029566550188875602 -0.0042068734322662817 0 -0.0029543711904477317 -0.0042612241779481728 0 -0.002500126820676094 -0.0080005377396953539 0 -0.0030218686186353344 -0.0076256998356478119 0 -0.0024842315064513873 -0.007412247327008248 0 -0.002500126820676094 -0.0080005377396953539 0 -0.0018991328783628445 -0.0075040852550307758 0 -0.0024842315064513873 -0.007412247327008248 0 -0.0029423890466330148 -0.0073086215077796893 0 -0.0028125174598863456 -0.0058357387310757963 0 -0.0029423890466330148 -0.0073086215077796893 0 -0.0037261329708641044 -0.0082866144200246915 0 -0.0036429993323166868 -0.0083136397495995971 0 -0.0041418248340373311 -0.008550542070701805 0 -0.0043068855451412844 -0.0083110598670548541 0 -0.0040675704975267866 -0.0075906154580729019 0 -0.0046134212061498528 -0.0097382272792394496 0 -0.0033415014860579957 -0.0061796398649734147 0 -0.0037261329708641044 -0.0082866144200246915 0 -0.002891464255403587 -0.0070846565234641756 0 -0.0034037087764364369 -0.0066759325088126906 0 -0.003849994571750435 -0.0070629455139805501 0 -0.0043864080769806602 -0.009931532570772169 0 -0.0046134212061498528 -0.0097382272792394496 0 -0.0030540689133434803 -0.0084675775265904279 0 -0.0039697489527523219 -0.008438051577724941 0 -0.0033379347967306705 -0.0080354278016823814 0 -0.0046535748414327609 -0.0086220575342571236 0 -0.0041418248340373311 -0.008550542070701805 0 -0.0043068855451412844 -0.0083110598670548541 0 -0.003821993755689037 -0.0095957157238202306 0 -0.0035335190898476551 -0.0093419287649272181 0 -0.0039706678917640764 -0.0093344234845100429 0 -0.0037261329708641044 -0.0082866144200246915 0 -0.0033999370334533742 -0.0096230114099325574 0 -0.0043864080769806602 -0.009931532570772169 0 -0.0037261329708641044 -0.0082866144200246915 0 -0.0040761574105102486 -0.0096255396845162516 0 -0.003821993755689037 -0.0095957157238202306 0 -0.0039706678917640764 -0.0093344234845100429 0 -0.0037686098481494578 -0.01029549611039853 0 -0.0033999370334533742 -0.0096230114099325574 0 -0.0039697489527523219 -0.008438051577724941 0 -0.0036842764304468017 -0.0076705051035535834 0 -0.0033379347967306705 -0.0080354278016823814 0 -0.0029249939400514415 -0.010174391316448402 0 -0.0027208357557001643 -0.010493443217803078 0 -0.0025999080027167168 -0.010165105137654428 0 -0.0033999370334533742 -0.0096230114099325574 0 -0.0031595768271375168 -0.008966785600031205 0 -0.002500126820676094 -0.0080005377396953539 0 -0.0033379347967306705 -0.0080354278016823814 0 -0.0030218686186353344 -0.0076256998356478119 0 -0.002500126820676094 -0.0080005377396953539 0 -0.0030540689133434803 -0.0084675775265904279 0 -0.0033379347967306705 -0.0080354278016823814 0 -0.0036842764304468017 -0.0076705051035535834 0 -0.0033379347967306705 -0.0080354278016823814 0 -0.0030218686186353344 -0.0076256998356478119 0 -0.0036842764304468017 -0.0076705051035535834 0 -0.0030218686186353344 -0.0076256998356478119 0 -0.0034039956399681999 -0.0069392145729615419 0 -0.0031595768271375168 -0.008966785600031205 0 -0.0027896063659602816 -0.0079599330852549947 0 -0.0034590914281988198 -0.006825206401170722 0 -0.0029122593595503838 -0.0070793315673089762 0 -0.0026388443618876874 -0.0066537296355120845 0 -0.0032762229241689333 -0.0071650001086251656 0 -0.0027896063659602816 -0.0079599330852549947 0 -0.0030218686186353344 -0.0076256998356478119 0 -0.0034590914281988198 -0.006825206401170722 0 -0.0029122593595503838 -0.0070793315673089762 0 -0.0029249939400514415 -0.010174391316448402 0 -0.0025999080027167168 -0.010165105137654428 0 -0.0028122365702823878 -0.0098457850647749694 0 -0.0025999080027167168 -0.010165105137654428 0 -0.0024818735066143103 -0.0098382843752875988 0 -0.0028122365702823878 -0.0098457850647749694 0 -0.0025110467748467569 -0.0086273593164539926 0 -0.0027896063659602816 -0.0079599330852549947 0 -0.0026606243819623115 -0.0095063708228651806 0 -0.0024818735066143103 -0.0098382843752875988 0 -0.0028122365702823878 -0.0098457850647749694 0 -0.0029946146265393109 -0.0096002541325922262 0 -0.0026606243819623115 -0.0095063708228651806 0 -0.0028122365702823878 -0.0098457850647749694 0 -0.0024392213541652229 -0.0062632248685117516 0 -0.0027896063659602816 -0.0079599330852549947 0 -0.0030121651404711402 -0.0055995471834104664 0 -0.0034590914281988198 -0.006825206401170722 0 -0.0026388443618876874 -0.0066537296355120845 0 -0.0018256299362781113 -0.0071031824519027275 0 -0.0024884811020874239 -0.0073531817781397535 0 -0.0021533791561660787 -0.0079849419378877681 0 -0.0026388443618876874 -0.0066537296355120845 0 -0.0019922438837802134 -0.0060641466005068086 0 -0.001911204419176301 -0.0073064877800095357 0 -0.0030121651404711402 -0.0055995471834104664 0 -0.0026388443618876874 -0.0066537296355120845 0 -0.0019922438837802134 -0.0060641466005068086 0 -0.002454177147199687 -0.0051629647326712439 0 -0.0026209830578353328 -0.0057015420957140291 0 -0.0027774739923722026 -0.0040789923318231966 0 -0.0029702353901761929 -0.0038724481904772574 0 -0.0029566550188875602 -0.0042068734322662817 0 -0.0027708803360714145 -0.0038137738575285472 0 -0.0027774739923722026 -0.0040789923318231966 0 -0.0029702353901761929 -0.0038724481904772574 0 -0.0027774739923722026 -0.0040789923318231966 0 -0.0028062720406975368 -0.0043661077410010879 0 -0.0029566550188875602 -0.0042068734322662817 0 -0.001911204419176301 -0.0073064877800095357 0 -0.0018991328783628445 -0.0075040852550307758 0 -0.0024842315064513873 -0.007412247327008248 0 -0.0026209830578353328 -0.0057015420957140291 0 -0.0028125174598863456 -0.0058357387310757963 0 -0.0029122593595503838 -0.0070793315673089762 0 -0.0026388443618876874 -0.0066537296355120845 0 -0.0024842315064513873 -0.007412247327008248 0 -0.0026388443618876874 -0.0066537296355120845 0 -0.001911204419176301 -0.0073064877800095357 0 -0.0024842315064513873 -0.007412247327008248 0 -0.0030218686186353344 -0.0076256998356478119 0 -0.0029122593595503838 -0.0070793315673089762 0 -0.0024842315064513873 -0.007412247327008248 0 2.5821751643953108e-05 -0.015004644973478259 0 5.6894217146976332e-06 -0.015001125195732656 0 1.7085507694899372e-05 -0.014965087403123909 0 5.6894217146976332e-06 -0.015001125195732656 0 3.8131472030022278e-09 -0.014999978778783738 0 7.2238241735809341e-09 -0.015000015804158004 0 5.6894217146976332e-06 -0.015001125195732656 0 3.8131472030022278e-09 -0.014999978778783738 0 1.7085507694899372e-05 -0.014965087403123909 0 1.7085507694899372e-05 -0.014965087403123909 0 7.2660805055884897e-05 -0.014964832633604302 0 5.6276426799322265e-05 -0.014890348505999599 0 2.5821751643953108e-05 -0.015004644973478259 0 1.7085507694899372e-05 -0.014965087403123909 0 7.2660805055884897e-05 -0.014964832633604302 0 4.8131947885799586e-05 -0.014798226589942964 0 0.00011331406929918913 -0.014795111651976086 0 4.4964665302883895e-05 -0.014859723322059933 0 4.8131947885799586e-05 -0.014798226589942964 0 0.00011331406929918913 -0.014795111651976086 0 0.00012133137703671425 -0.014771086803925942 0 0.00011331406929918913 -0.014795111651976086 0 4.4964665302883895e-05 -0.014859723322059933 0 6.0019302305142415e-05 -0.014893302288614945 0 -5.8546908255417759e-06 -0.014874346302254749 0 4.4964665302883895e-05 -0.014859723322059933 0 1.6860455056968274e-05 -0.014914728897374363 0 1.2759678459778538e-05 -0.0149382238466807 0 5.8824480821954996e-05 -0.01487956968731686 0 -5.8546908255417759e-06 -0.014874346302254749 0 4.8131947885799586e-05 -0.014798226589942964 0 4.4964665302883895e-05 -0.014859723322059933 0 4.4964665302883895e-05 -0.014859723322059933 0 1.6860455056968274e-05 -0.014914728897374363 0 6.0019302305142415e-05 -0.014893302288614945 0 1.6860455056968274e-05 -0.014914728897374363 0 6.0019302305142415e-05 -0.014893302288614945 0 2.6695961865425434e-05 -0.014931068348769071 0 6.0019302305142415e-05 -0.014893302288614945 0 2.6695961865425434e-05 -0.014931068348769071 0 3.8897047546939832e-05 -0.014921036333049103 0 2.6695961865425434e-05 -0.014931068348769071 0 1.8338496553564549e-05 -0.014937822025277499 0 3.8897047546939832e-05 -0.014921036333049103 0 1.6860455056968274e-05 -0.014914728897374363 0 2.6695961865425434e-05 -0.014931068348769071 0 7.2317904021632254e-06 -0.014951148112648549 0 2.6695961865425434e-05 -0.014931068348769071 0 7.2317904021632254e-06 -0.014951148112648549 0 1.0111004612779306e-05 -0.014951425239350745 0 1.6860455056968274e-05 -0.014914728897374363 0 7.2317904021632254e-06 -0.014951148112648549 0 -1.6851069918573093e-05 -0.01494043048733364 0 7.2317904021632254e-06 -0.014951148112648549 0 -1.6851069918573093e-05 -0.01494043048733364 0 -1.3817768013222195e-06 -0.014983204713731105 0 1.2759678459778538e-05 -0.0149382238466807 0 -3.2302652859232121e-06 -0.014969836666675482 0 2.5821751643953108e-05 -0.015004644973478259 0 5.6894217146976332e-06 -0.015001125195732656 0 3.7176019320950909e-06 -0.01500353833978741 0 -5.8546908255417759e-06 -0.014874346302254749 0 1.6860455056968274e-05 -0.014914728897374363 0 -1.6851069918573093e-05 -0.01494043048733364 0 5.6894217146976332e-06 -0.015001125195732656 0 7.2238241735809341e-09 -0.015000015804158004 0 3.7176019320950909e-06 -0.01500353833978741 0 -3.2302652859232121e-06 -0.014969836666675482 0 -1.3824385491759294e-09 -0.014999984598423182 0 -1.6851069918573093e-05 -0.01494043048733364 0 -5.4586719613044692e-08 -0.014999891645913442 0 -1.3817768013222195e-06 -0.014983204713731105 0 7.2238241735809341e-09 -0.015000015804158004 0 3.7176019320950909e-06 -0.01500353833978741 0 -1.9280125822071037e-09 -0.014999997950939804 0 7.2317904021632254e-06 -0.014951148112648549 0 -1.3817768013222195e-06 -0.014983204713731105 0 1.8656044009652312e-06 -0.014969092502659327 0 -1.3817768013222195e-06 -0.014983204713731105 0 1.8656044009652312e-06 -0.014969092502659327 0 5.0421708817157036e-07 -0.014980506613429402 0 1.8656044009652312e-06 -0.014969092502659327 0 5.0421708817157036e-07 -0.014980506613429402 0 -2.4859606063623154e-06 -0.014965848141915093 0 -1.3817768013222195e-06 -0.014983204713731105 0 5.0421708817157036e-07 -0.014980506613429402 0 1.5808878222809145e-08 -0.014999985102612778 0 -5.4586719613044692e-08 -0.014999891645913442 0 -1.3817768013222195e-06 -0.014983204713731105 0 1.5808878222809145e-08 -0.014999985102612778 0 5.0421708817157036e-07 -0.014980506613429402 0 1.5808878222809145e-08 -0.014999985102612778 0 3.8719518996139333e-06 -0.014976542246014031 0 5.0421708817157036e-07 -0.014980506613429402 0 -2.4859606063623154e-06 -0.014965848141915093 0 3.8719518996139333e-06 -0.014976542246014031 0 -2.4859606063623154e-06 -0.014965848141915093 0 3.8719518996139333e-06 -0.014976542246014031 0 -5.1120604219686085e-06 -0.014949329279039782 0 5.2093336795395127e-06 -0.014948651099805909 0 3.8719518996139333e-06 -0.014976542246014031 0 -5.1120604219686085e-06 -0.014949329279039782 0 -1.1730636350480335e-05 -0.014914364498854237 0 5.2093336795395127e-06 -0.014948651099805909 0 -5.1120604219686085e-06 -0.014949329279039782 0 1.5808878222809145e-08 -0.014999985102612778 0 3.8719518996139333e-06 -0.014976542246014031 0 1.0149569349675071e-08 -0.014999945842769811 0 5.2093336795395127e-06 -0.014948651099805909 0 3.8719518996139333e-06 -0.014976542246014031 0 1.0149569349675071e-08 -0.014999945842769811 0 -5.0211211461591636e-05 -0.014918284533446886 0 -2.6907436271146889e-05 -0.014926181414652497 0 -2.2453468337900694e-05 -0.014941212125818339 0 -4.5031388549787406e-05 -0.014894157628357952 0 -5.0211211461591636e-05 -0.014918284533446886 0 -2.6907436271146889e-05 -0.014926181414652497 0 -1.1730636350480335e-05 -0.014914364498854237 0 -2.6907436271146889e-05 -0.014926181414652497 0 -5.1120604219686085e-06 -0.014949329279039782 0 -2.6907436271146889e-05 -0.014926181414652497 0 -5.1120604219686085e-06 -0.014949329279039782 0 -1.1894497942510965e-05 -0.014950283453969359 0 -2.4859606063623154e-06 -0.014965848141915093 0 -1.1894497942510965e-05 -0.014950283453969359 0 -3.9697909987064452e-06 -0.014955368839043883 0 -2.4859606063623154e-06 -0.014965848141915093 0 -5.1120604219686085e-06 -0.014949329279039782 0 -1.1894497942510965e-05 -0.014950283453969359 0 -5.0211211461591636e-05 -0.014918284533446886 0 -2.2453468337900694e-05 -0.014941212125818339 0 -2.9848639602492144e-05 -0.014931760555944831 0 -1.1894497942510965e-05 -0.014950283453969359 0 -2.2453468337900694e-05 -0.014941212125818339 0 -3.9697909987064452e-06 -0.014955368839043883 0 -2.6907436271146889e-05 -0.014926181414652497 0 -1.1894497942510965e-05 -0.014950283453969359 0 -2.2453468337900694e-05 -0.014941212125818339 0 -2.2453468337900694e-05 -0.014941212125818339 0 -9.8166769197867972e-06 -0.014939099437649206 0 -2.9848639602492144e-05 -0.014931760555944831 0 -3.9697909987064452e-06 -0.014955368839043883 0 4.685184714540622e-06 -0.014944791119472339 0 -9.8166769197867972e-06 -0.014939099437649206 0 -2.2453468337900694e-05 -0.014941212125818339 0 -3.9697909987064452e-06 -0.014955368839043883 0 -9.8166769197867972e-06 -0.014939099437649206 0 -3.9697909987064452e-06 -0.014955368839043883 0 1.0111004612779306e-05 -0.014951425239350745 0 4.685184714540622e-06 -0.014944791119472339 0 4.685184714540622e-06 -0.014944791119472339 0 7.6689463382873912e-06 -0.014934357884536485 0 -9.8166769197867972e-06 -0.014939099437649206 0 1.8656044009652312e-06 -0.014969092502659327 0 -3.9697909987064452e-06 -0.014955368839043883 0 1.0111004612779306e-05 -0.014951425239350745 0 1.8656044009652312e-06 -0.014969092502659327 0 -2.4859606063623154e-06 -0.014965848141915093 0 -3.9697909987064452e-06 -0.014955368839043883 0 7.2317904021632254e-06 -0.014951148112648549 0 1.8656044009652312e-06 -0.014969092502659327 0 1.0111004612779306e-05 -0.014951425239350745 0 2.6695961865425434e-05 -0.014931068348769071 0 1.0111004612779306e-05 -0.014951425239350745 0 1.8338496553564549e-05 -0.014937822025277499 0 4.685184714540622e-06 -0.014944791119472339 0 1.8338496553564549e-05 -0.014937822025277499 0 7.6689463382873912e-06 -0.014934357884536485 0 1.0111004612779306e-05 -0.014951425239350745 0 4.685184714540622e-06 -0.014944791119472339 0 1.8338496553564549e-05 -0.014937822025277499 0 1.8338496553564549e-05 -0.014937822025277499 0 2.451815072871361e-05 -0.014928725881553292 0 7.6689463382873912e-06 -0.014934357884536485 0 2.451815072871361e-05 -0.014928725881553292 0 7.6689463382873912e-06 -0.014934357884536485 0 1.6533803503447008e-05 -0.014924951236998076 0 7.6689463382873912e-06 -0.014934357884536485 0 1.6533803503447008e-05 -0.014924951236998076 0 -5.7897602131124771e-06 -0.01492493678507645 0 1.2328424573644338e-05 -0.014921141565314848 0 1.6533803503447008e-05 -0.014924951236998076 0 9.5473819848185228e-07 -0.014918310059169142 0 1.2328424573644338e-05 -0.014921141565314848 0 1.6533803503447008e-05 -0.014924951236998076 0 2.8546009508805375e-05 -0.014921310228010217 0 1.6533803503447008e-05 -0.014924951236998076 0 9.5473819848185228e-07 -0.014918310059169142 0 -5.7897602131124771e-06 -0.01492493678507645 0 9.5473819848185228e-07 -0.014918310059169142 0 -5.7897602131124771e-06 -0.01492493678507645 0 -1.1634059630007467e-05 -0.014915808409302676 0 -5.7897602131124771e-06 -0.01492493678507645 0 -2.1537135042968884e-05 -0.014927313700775871 0 -2.387222265153417e-05 -0.014917498418607098 0 -5.7897602131124771e-06 -0.01492493678507645 0 -2.387222265153417e-05 -0.014917498418607098 0 -1.1634059630007467e-05 -0.014915808409302676 0 -5.7897602131124771e-06 -0.01492493678507645 0 -2.1537135042968884e-05 -0.014927313700775871 0 -9.8166769197867972e-06 -0.014939099437649206 0 7.6689463382873912e-06 -0.014934357884536485 0 -5.7897602131124771e-06 -0.01492493678507645 0 -9.8166769197867972e-06 -0.014939099437649206 0 -5.0211211461591636e-05 -0.014918284533446886 0 -2.9848639602492144e-05 -0.014931760555944831 0 -4.6953411288922119e-05 -0.014920288471733281 0 -2.1537135042968884e-05 -0.014927313700775871 0 -9.8166769197867972e-06 -0.014939099437649206 0 -2.9848639602492144e-05 -0.014931760555944831 0 -2.9848639602492144e-05 -0.014931760555944831 0 -3.6783985901006752e-05 -0.014920372730163632 0 -4.6953411288922119e-05 -0.014920288471733281 0 -3.6783985901006752e-05 -0.014920372730163632 0 -5.2366024553638968e-05 -0.014914485683605294 0 -4.6953411288922119e-05 -0.014920288471733281 0 -2.1537135042968884e-05 -0.014927313700775871 0 -2.9848639602492144e-05 -0.014931760555944831 0 -3.6783985901006752e-05 -0.014920372730163632 0 -2.387222265153417e-05 -0.014917498418607098 0 -4.2559555517106853e-05 -0.014913550947691796 0 -3.6783985901006752e-05 -0.014920372730163632 0 -2.1537135042968884e-05 -0.014927313700775871 0 -2.387222265153417e-05 -0.014917498418607098 0 -3.6783985901006752e-05 -0.014920372730163632 0 -2.387222265153417e-05 -0.014917498418607098 0 -4.2559555517106853e-05 -0.014913550947691796 0 -2.8511597892263014e-05 -0.014911900162654134 0 -4.2559555517106853e-05 -0.014913550947691796 0 -4.0107806134798171e-05 -0.014913223100979485 0 -2.8511597892263014e-05 -0.014911900162654134 0 -4.2559555517106853e-05 -0.014913550947691796 0 -3.6783985901006752e-05 -0.014920372730163632 0 -5.2366024553638968e-05 -0.014914485683605294 0 -4.2559555517106853e-05 -0.014913550947691796 0 -5.2366024553638968e-05 -0.014914485683605294 0 -6.7177824804300445e-05 -0.014906624652228731 0 -6.8507781190154258e-05 -0.014274669815572802 0 5.5974011644478792e-06 -0.013970418525051268 0 5.3494121230675534e-06 -0.013787469356009534 0 -0.00010373815625678529 -0.014890085808897705 0 -6.7177824804300445e-05 -0.014906624652228731 0 -4.0107806134798171e-05 -0.014913223100979485 0 -5.2366024553638968e-05 -0.014914485683605294 0 -6.7177824804300445e-05 -0.014906624652228731 0 -6.5166100025616322e-05 -0.014909514959484628 0 -7.5528549411119761e-05 -0.014559513358083009 0 -9.1068716228013522e-06 -0.014366355915529132 0 -4.2559555517106853e-05 -0.014913550947691796 0 -6.7177824804300445e-05 -0.014906624652228731 0 -4.0107806134798171e-05 -0.014913223100979485 0 -7.8719365798324888e-05 -0.014895091337273153 0 -8.2852489158324332e-05 -0.014897505990497592 0 -6.5166100025616322e-05 -0.014909514959484628 0 -8.2852489158324332e-05 -0.014897505990497592 0 -6.7177824804300445e-05 -0.014906624652228731 0 -6.5166100025616322e-05 -0.014909514959484628 0 -7.8719365798324888e-05 -0.014895091337273153 0 -7.3135288290260096e-05 -0.014880454836763266 0 -5.0211211461591636e-05 -0.014918284533446886 0 -7.8719365798324888e-05 -0.014895091337273153 0 -5.0211211461591636e-05 -0.014918284533446886 0 -6.5166100025616322e-05 -0.014909514959484628 0 -5.0211211461591636e-05 -0.014918284533446886 0 -6.5166100025616322e-05 -0.014909514959484628 0 -4.6953411288922119e-05 -0.014920288471733281 0 -5.2366024553638968e-05 -0.014914485683605294 0 -6.5166100025616322e-05 -0.014909514959484628 0 -4.6953411288922119e-05 -0.014920288471733281 0 7.3710629921999705e-05 -0.013528473861171989 0 5.9921000387791515e-05 -0.013557136679458594 0 4.1651818583193381e-05 -0.01339538987391152 0 -4.6861204640406241e-06 -0.013407362382788685 0 -3.7856626703473808e-06 -0.013389623825406717 0 8.4006566143631346e-05 -0.013561368810830277 0 9.7377514511599679e-05 -0.013532546086183478 0 9.4327865864049954e-05 -0.013557215518792834 0 7.3710629921999705e-05 -0.013528473861171989 0 8.4006566143631346e-05 -0.013561368810830277 0 9.7377514511599679e-05 -0.013532546086183478 0 3.5635823677987463e-05 -0.013278493242838333 0 2.0712151357612391e-05 -0.013163829898346276 0 6.8943095339713914e-05 -0.013239556223020582 0 -5.1432222295551891e-05 -0.013224719809422426 0 3.5635823677987463e-05 -0.013278493242838333 0 2.0712151357612391e-05 -0.013163829898346276 0 3.5635823677987463e-05 -0.013278493242838333 0 7.6582183273271525e-05 -0.013338407954173596 0 4.1651818583193381e-05 -0.01339538987391152 0 3.5635823677987463e-05 -0.013278493242838333 0 7.6582183273271525e-05 -0.013338407954173596 0 6.8943095339713914e-05 -0.013239556223020582 0 -3.7856626703473808e-06 -0.013389623825406717 0 1.9296506170004653e-05 -0.013387701282009423 0 7.3710629921999705e-05 -0.013528473861171989 0 4.1651818583193381e-05 -0.01339538987391152 0 0.00010213131711979649 -0.013478449126558122 0 -5.1432222295551891e-05 -0.013224719809422426 0 3.5635823677987463e-05 -0.013278493242838333 0 4.1651818583193381e-05 -0.01339538987391152 0 9.2962565268587752e-05 -0.013428919572424357 0 4.1651818583193381e-05 -0.01339538987391152 0 0.00010213131711979649 -0.013478449126558122 0 6.0634398883177352e-05 -0.013728854323698988 0 9.4039919213334178e-05 -0.013585331267578259 0 0.00013101325268132216 -0.013460370866314108 0 0.00010213131711979649 -0.013478449126558122 0 9.7377514511599679e-05 -0.013532546086183478 0 5.5974011644478792e-06 -0.013970418525051268 0 5.3494121230675534e-06 -0.013787469356009534 0 9.4327865864049954e-05 -0.013557215518792834 0 0.00013101325268132216 -0.013460370866314108 0 9.7377514511599679e-05 -0.013532546086183478 0 9.4327865864049954e-05 -0.013557215518792834 0 9.2962565268587752e-05 -0.013428919572424357 0 0.00011485633094575657 -0.013460918049923973 0 0.00010213131711979649 -0.013478449126558122 0 0.00013101325268132216 -0.013460370866314108 0 0.00011485633094575657 -0.013460918049923973 0 0.00010213131711979649 -0.013478449126558122 0 7.3710629921999705e-05 -0.013528473861171989 0 0.00010213131711979649 -0.013478449126558122 0 9.7377514511599679e-05 -0.013532546086183478 0 5.3494121230675534e-06 -0.013787469356009534 0 9.4327865864049954e-05 -0.013557215518792834 0 0.00012629017627241923 -0.013428377557310325 0 -9.1068716228013522e-06 -0.014366355915529132 0 1.148337021485739e-05 -0.014013105088968287 0 -4.0107806134798171e-05 -0.014913223100979485 0 -2.8511597892263014e-05 -0.014911900162654134 0 -1.740748029463642e-05 -0.014908281927281207 0 -2.387222265153417e-05 -0.014917498418607098 0 -2.8511597892263014e-05 -0.014911900162654134 0 -1.7938105444324852e-05 -0.014911116042817319 0 -2.8511597892263014e-05 -0.014911900162654134 0 -1.740748029463642e-05 -0.014908281927281207 0 -1.7938105444324852e-05 -0.014911116042817319 0 -5.7333400226060506e-05 -0.013597795804872775 0 -7.2059590473898979e-05 -0.013479727760956966 0 -1.0651572647796677e-06 -0.013481329507292791 0 8.4006566143631346e-05 -0.013561368810830277 0 9.4327865864049954e-05 -0.013557215518792834 0 0.00012629017627241923 -0.013428377557310325 0 -3.7856626703473808e-06 -0.013389623825406717 0 1.148337021485739e-05 -0.014013105088968287 0 -3.7856626703473808e-06 -0.013389623825406717 0 -1.1974360282112935e-05 -0.013293663715753853 0 2.0712151357612391e-05 -0.013163829898346276 0 -2.9240732972761197e-06 -0.013059351131280152 0 5.099154321136009e-05 -0.013122651151746724 0 -5.1432222295551891e-05 -0.013224719809422426 0 2.0712151357612391e-05 -0.013163829898346276 0 -2.9240732972761197e-06 -0.013059351131280152 0 0.00010423920456038045 -0.013913260135054202 0 0.00012226323924366498 -0.014053203519821861 0 -2.1868743875216692e-05 -0.01405936473716062 0 -1.1974360282112935e-05 -0.013293663715753853 0 -5.1841466685351849e-05 -0.013010272586208583 0 -1.0651572647796677e-06 -0.013481329507292791 0 5.5970389622239827e-05 -0.013359413384064591 0 3.8883102190505339e-05 -0.013345802150048191 0 1.148337021485739e-05 -0.014013105088968287 0 5.2079125959354492e-05 -0.013388574145910133 0 -7.2059590473898979e-05 -0.013479727760956966 0 -1.0651572647796677e-06 -0.013481329507292791 0 3.8883102190505339e-05 -0.013345802150048191 0 1.148337021485739e-05 -0.014013105088968287 0 6.8260546357741859e-05 -0.014557580297306884 0 9.5473819848185228e-07 -0.014918310059169142 0 -1.4938463012386727e-05 -0.014910932127171067 0 -1.1634059630007467e-05 -0.014915808409302676 0 -2.387222265153417e-05 -0.014917498418607098 0 -1.7938105444324852e-05 -0.014911116042817319 0 -1.1634059630007467e-05 -0.014915808409302676 0 -1.740748029463642e-05 -0.014908281927281207 0 -1.4938463012386727e-05 -0.014910932127171067 0 -1.7938105444324852e-05 -0.014911116042817319 0 -1.4938463012386727e-05 -0.014910932127171067 0 -1.7938105444324852e-05 -0.014911116042817319 0 -1.1634059630007467e-05 -0.014915808409302676 0 1.2328424573644338e-05 -0.014921141565314848 0 9.5473819848185228e-07 -0.014918310059169142 0 -6.8602576896331863e-06 -0.014919104684639034 0 9.5473819848185228e-07 -0.014918310059169142 0 -1.4938463012386727e-05 -0.014910932127171067 0 -6.8602576896331863e-06 -0.014919104684639034 0 6.8260546357741859e-05 -0.014557580297306884 0 0.00015651356798952645 -0.014423677665962897 0 0.00015651356798952645 -0.014423677665962897 0 5.2079125959354492e-05 -0.013388574145910133 0 0.00012226323924366498 -0.014053203519821861 0 0.00014016076694259752 -0.014195400642411402 0 -2.1868743875216692e-05 -0.01405936473716062 0 0.00052165477662739757 -0.013669724147147715 0 0.00018201174701407987 -0.013545427173973452 0 6.10272352292041e-05 -0.013289645075658095 0 0.00052165477662739757 -0.013669724147147715 0 0.00018201174701407987 -0.013545427173973452 0 0.00023700339352670239 -0.013754693056701387 0 0.00018201174701407987 -0.013545427173973452 0 0.00023700339352670239 -0.013754693056701387 0 -0.00011011502434157196 -0.013490029209455238 0 0.00044632635931234104 -0.013037365777186125 0 0.00046217574066414449 -0.013260563190016238 0 0.00035437889589759827 -0.013161891368783655 0 0.00044632635931234104 -0.013037365777186125 0 0.00046217574066414449 -0.013260563190016238 0 0.00064573064312045377 -0.013182798340791885 0 0.00032023769065036482 -0.013384702148974807 0 0.00045090943118188614 -0.014273853410586745 0 0.00052165477662739757 -0.013669724147147715 0 0.00023700339352670239 -0.013754693056701387 0 0.00056690764754788409 -0.014042042771622422 0 0.00046217574066414449 -0.013260563190016238 0 0.0002835986303813504 -0.013263953633217267 0 0.00035437889589759827 -0.013161891368783655 0 0.00046217574066414449 -0.013260563190016238 0 0.00034011633016021775 -0.013423777195597156 0 0.0002835986303813504 -0.013263953633217267 0 0.00046217574066414449 -0.013260563190016238 0 0.00051912460677559411 -0.013437087319944625 0 0.00034011633016021775 -0.013423777195597156 0 0.00046217574066414449 -0.013260563190016238 0 0.00051912460677559411 -0.013437087319944625 0 0.00064573064312045377 -0.013182798340791885 0 0.00062945784756782272 -0.01517251965692964 0 0.0004431777704362743 -0.015024849189401222 0 0.00061162781031951483 -0.014874057731617651 0 6.2354872885422518e-05 -0.014905024814430304 0 6.1950135984754573e-05 -0.014902822851657791 0 6.3979868975803009e-05 -0.014902745824316322 0 0.00051912460677559411 -0.013437087319944625 0 0.00064573064312045377 -0.013182798340791885 0 0.0007145625379155942 -0.013660683681201657 0 0.00045090943118188614 -0.014273853410586745 0 0.00029125484595005752 -0.015045440821357361 0 0.00045090943118188614 -0.014273853410586745 0 0.00067085957993464945 -0.014246469088353395 0 1.2328424573644338e-05 -0.014921141565314848 0 -6.8602576896331863e-06 -0.014919104684639034 0 1.2079837743306641e-05 -0.014926035066537533 0 6.2354872885422518e-05 -0.014905024814430304 0 6.1950135984754573e-05 -0.014902822851657791 0 6.4725748464877303e-05 -0.014903046222583932 0 6.0010879535646967e-05 -0.014891312123284721 0 6.1950135984754573e-05 -0.014902822851657791 0 6.4725748464877303e-05 -0.014903046222583932 0 0.00015651356798952645 -0.014423677665962897 0 7.3019643995080068e-05 -0.0149170696367148 0 0.00015651356798952645 -0.014423677665962897 0 0.00045090943118188614 -0.014273853410586745 0 1.2328424573644338e-05 -0.014921141565314848 0 1.2079837743306641e-05 -0.014926035066537533 0 2.8546009508805375e-05 -0.014921310228010217 0 1.6533803503447008e-05 -0.014924951236998076 0 2.8546009508805375e-05 -0.014921310228010217 0 3.7107905203485894e-05 -0.014920848812982558 0 2.8546009508805375e-05 -0.014921310228010217 0 3.7107905203485894e-05 -0.014920848812982558 0 5.1509365642248695e-05 -0.01491160034271488 0 3.7107905203485894e-05 -0.014920848812982558 0 5.7668579754303732e-05 -0.014903756202786302 0 5.1509365642248695e-05 -0.01491160034271488 0 6.2354872885422518e-05 -0.014905024814430304 0 6.4725748464877303e-05 -0.014903046222583932 0 5.1509365642248695e-05 -0.01491160034271488 0 7.3019643995080068e-05 -0.0149170696367148 0 3.8354392706707477e-05 -0.014904136192128973 0 1.2079837743306641e-05 -0.014926035066537533 0 2.8546009508805375e-05 -0.014921310228010217 0 5.1509365642248695e-05 -0.01491160034271488 0 1.8338496553564549e-05 -0.014937822025277499 0 2.451815072871361e-05 -0.014928725881553292 0 3.8897047546939832e-05 -0.014921036333049103 0 2.451815072871361e-05 -0.014928725881553292 0 3.7107905203485894e-05 -0.014920848812982558 0 3.8897047546939832e-05 -0.014921036333049103 0 2.451815072871361e-05 -0.014928725881553292 0 1.6533803503447008e-05 -0.014924951236998076 0 3.7107905203485894e-05 -0.014920848812982558 0 3.7107905203485894e-05 -0.014920848812982558 0 3.8897047546939832e-05 -0.014921036333049103 0 5.7668579754303732e-05 -0.014903756202786302 0 6.0019302305142415e-05 -0.014893302288614945 0 5.7668579754303732e-05 -0.014903756202786302 0 8.466781254395525e-05 -0.014869492050458772 0 6.0019302305142415e-05 -0.014893302288614945 0 3.8897047546939832e-05 -0.014921036333049103 0 5.7668579754303732e-05 -0.014903756202786302 0 5.7668579754303732e-05 -0.014903756202786302 0 6.3979868975803009e-05 -0.014902745824316322 0 8.466781254395525e-05 -0.014869492050458772 0 5.7668579754303732e-05 -0.014903756202786302 0 5.1509365642248695e-05 -0.01491160034271488 0 6.3979868975803009e-05 -0.014902745824316322 0 0.00029125484595005752 -0.015045440821357361 0 0.00015396132458798202 -0.014851332994650902 0 6.2354872885422518e-05 -0.014905024814430304 0 5.1509365642248695e-05 -0.01491160034271488 0 6.3979868975803009e-05 -0.014902745824316322 0 0.0004431777704362743 -0.015024849189401222 0 0.00041867377045801298 -0.014831612640830017 0 0.00025256068509215546 -0.014865584120315292 0 0.00041867377045801298 -0.014831612640830017 0 0.00025256068509215546 -0.014865584120315292 0 0.00030457933914963668 -0.01472184775748994 0 0.00011456805239778288 -0.014802935807392188 0 0.00015396132458798202 -0.014851332994650902 0 0.00011331406929918913 -0.014795111651976086 0 6.0019302305142415e-05 -0.014893302288614945 0 8.466781254395525e-05 -0.014869492050458772 0 0.00011331406929918913 -0.014795111651976086 0 0.00025256068509215546 -0.014865584120315292 0 0.00030457933914963668 -0.01472184775748994 0 0.00011331406929918913 -0.014795111651976086 0 0.00030457933914963668 -0.01472184775748994 0 0.00028911292004097961 -0.014639053503671241 0 0.00030457933914963668 -0.01472184775748994 0 0.00056114449847214276 -0.014417100673066998 0 0.00028911292004097961 -0.014639053503671241 0 0.00041867377045801298 -0.014831612640830017 0 0.00030457933914963668 -0.01472184775748994 0 0.00056114449847214276 -0.014417100673066998 0 0.00067085957993464945 -0.014246469088353395 0 0.00057721503924439415 -0.014400276965429211 0 0.00044168371181269983 -0.013755203427351573 0 0.0007145625379155942 -0.013660683681201657 0 0.00056114449847214276 -0.014417100673066998 0 0.00041867377045801298 -0.014831612640830017 0 0.00061162781031951483 -0.014874057731617651 0 0.00056114449847214276 -0.014417100673066998 0 0.00034219255461603946 -0.014053627658400923 0 0.00044168371181269983 -0.013755203427351573 0 0.00056114449847214276 -0.014417100673066998 0 0.00051912460677559411 -0.013437087319944625 0 0.00044168371181269983 -0.013755203427351573 0 0.0007145625379155942 -0.013660683681201657 0 0.00051912460677559411 -0.013437087319944625 0 0.00044168371181269983 -0.013755203427351573 0 0.00034011633016021775 -0.013423777195597156 0 0.0004431777704362743 -0.015024849189401222 0 0.00041867377045801298 -0.014831612640830017 0 0.00061162781031951483 -0.014874057731617651 0 0.00019692775176714984 -0.013635203475705043 0 -3.4281956973113491e-05 -0.013690840218027583 0 6.4590571028547042e-05 -0.013280968341323635 0 -3.4281956973113491e-05 -0.013690840218027583 0 -0.00022334236007990309 -0.01341387396216126 0 6.4590571028547042e-05 -0.013280968341323635 0 0.00019692775176714984 -0.013635203475705043 0 0.00015783630775007706 -0.013295313808607833 0 6.4590571028547042e-05 -0.013280968341323635 0 0.00044168371181269983 -0.013755203427351573 0 0.00019692775176714984 -0.013635203475705043 0 0.00034011633016021775 -0.013423777195597156 0 0.00034219255461603946 -0.014053627658400923 0 0.00019692775176714984 -0.013635203475705043 0 6.1355061585380673e-05 -0.014117687790535854 0 0.00034219255461603946 -0.014053627658400923 0 0.00044168371181269983 -0.013755203427351573 0 0.00019692775176714984 -0.013635203475705043 0 0.00019692775176714984 -0.013635203475705043 0 -3.4281956973113491e-05 -0.013690840218027583 0 6.1355061585380673e-05 -0.014117687790535854 0 -3.4281956973113491e-05 -0.013690840218027583 0 -0.00035572828927118554 -0.013822333106140694 0 6.1355061585380673e-05 -0.014117687790535854 0 -3.4281956973113491e-05 -0.013690840218027583 0 -0.00035572828927118554 -0.013822333106140694 0 -0.00022334236007990309 -0.01341387396216126 0 -9.7885718683556191e-05 -0.014073405176016428 0 0.00010440967707375749 -0.014217380244387769 0 0.00012040392713375 -0.014259013712583845 0 5.0731414576129407e-05 -0.014200859249044996 0 6.7019193516117671e-05 -0.014237762836034463 0 -0.00035572828927118554 -0.013822333106140694 0 -0.00054598084089824356 -0.01327706599199068 0 -0.0010102367464080559 -0.013480701438733637 0 0.00012040392713375 -0.014259013712583845 0 6.7019193516117671e-05 -0.014237762836034463 0 9.0250080033745891e-05 -0.014266783267069549 0 -9.7885718683556191e-05 -0.014073405176016428 0 -0.00055297196156402478 -0.013634820383612294 0 6.7019193516117671e-05 -0.014237762836034463 0 6.8237126816852759e-05 -0.014269708783642955 0 9.0250080033745891e-05 -0.014266783267069549 0 -0.00065990609323789899 -0.013306115756944095 0 -0.00055297196156402478 -0.013634820383612294 0 -0.00054598084089824356 -0.01327706599199068 0 -0.00082834421546165422 -0.013173584359734571 0 -0.00085568100416720039 -0.0132867015408297 0 -0.00054598084089824356 -0.01327706599199068 0 -0.00060996627407509973 -0.012811778534416675 0 -0.00081571760527689836 -0.012998354998203704 0 -0.00054598084089824356 -0.01327706599199068 0 -0.00081571760527689836 -0.012998354998203704 0 -0.00082834421546165422 -0.013173584359734571 0 -0.00035572828927118554 -0.013822333106140694 0 -0.00054598084089824356 -0.01327706599199068 0 -0.00022334236007990309 -0.01341387396216126 0 -0.00054598084089824356 -0.01327706599199068 0 -0.00022334236007990309 -0.01341387396216126 0 -0.00028911266572080862 -0.012929408714725069 0 -0.00022334236007990309 -0.01341387396216126 0 -0.00028911266572080862 -0.012929408714725069 0 6.4590571028547042e-05 -0.013280968341323635 0 -0.00028911266572080862 -0.012929408714725069 0 4.1505773903750061e-05 -0.012630363027429602 0 6.4590571028547042e-05 -0.013280968341323635 0 -0.00028911266572080862 -0.012929408714725069 0 -0.00044506284664881261 -0.012567849045814513 0 -0.00019858667136618733 -0.012449190340613139 0 -0.00028911266572080862 -0.012929408714725069 0 -0.00019858667136618733 -0.012449190340613139 0 4.1505773903750061e-05 -0.012630363027429602 0 -0.00054598084089824356 -0.01327706599199068 0 -0.00028911266572080862 -0.012929408714725069 0 -0.00060996627407509973 -0.012811778534416675 0 -0.00028911266572080862 -0.012929408714725069 0 -0.00060996627407509973 -0.012811778534416675 0 -0.00044506284664881261 -0.012567849045814513 0 -0.00060996627407509973 -0.012811778534416675 0 -0.0006723886620152781 -0.012404926103265634 0 -0.00044506284664881261 -0.012567849045814513 0 -0.00060996627407509973 -0.012811778534416675 0 -0.0006723886620152781 -0.012404926103265634 0 -0.00086827240881652611 -0.012665767666800627 0 -0.00046591624807867975 -0.012318983374645463 0 -0.00032719354915739912 -0.012101843791950463 0 -0.00069451856301291481 -0.012067046544817833 0 -0.0006723886620152781 -0.012404926103265634 0 -0.00044506284664881261 -0.012567849045814513 0 -0.00046591624807867975 -0.012318983374645463 0 -0.0006723886620152781 -0.012404926103265634 0 -0.00046591624807867975 -0.012318983374645463 0 -0.00069451856301291481 -0.012067046544817833 0 -0.00019858667136618733 -0.012449190340613139 0 1.7416716328766737e-05 -0.012340786505325286 0 4.1505773903750061e-05 -0.012630363027429602 0 -0.00044506284664881261 -0.012567849045814513 0 -0.00046591624807867975 -0.012318983374645463 0 -0.00019858667136618733 -0.012449190340613139 0 -0.00046591624807867975 -0.012318983374645463 0 -0.00019858667136618733 -0.012449190340613139 0 -0.00032719354915739912 -0.012101843791950463 0 -0.00019858667136618733 -0.012449190340613139 0 -5.8226938869879764e-05 -0.012225640235037187 0 -0.00032719354915739912 -0.012101843791950463 0 -0.00019858667136618733 -0.012449190340613139 0 -5.8226938869879764e-05 -0.012225640235037187 0 1.7416716328766737e-05 -0.012340786505325286 0 1.7416716328766737e-05 -0.012340786505325286 0 7.2604404220056486e-05 -0.012214053257474187 0 0.0001618417201564559 -0.012197154039823523 0 -5.8226938869879764e-05 -0.012225640235037187 0 1.7416716328766737e-05 -0.012340786505325286 0 7.2604404220056486e-05 -0.012214053257474187 0 0.00045391612349098866 -0.012193483425217633 0 0.00049463319098781483 -0.012450657572900212 0 4.1505773903750061e-05 -0.012630363027429602 0 0.00033125149867841287 -0.012161839202684047 0 3.6336588750956149e-05 -0.012594025492549326 0 1.7416716328766737e-05 -0.012340786505325286 0 0.0001618417201564559 -0.012197154039823523 0 4.1505773903750061e-05 -0.012630363027429602 0 0.00035065415335765193 -0.012764382534815807 0 7.5894513164292556e-05 -0.013277633611957881 0 0.00015118870179436941 -0.013199105771336825 0 0.00015783630775007706 -0.013295313808607833 0 6.4590571028547042e-05 -0.013280968341323635 0 0.00049463319098781483 -0.012450657572900212 0 4.1505773903750061e-05 -0.012630363027429602 0 6.4590571028547042e-05 -0.013280968341323635 0 0.00019692775176714984 -0.013635203475705043 0 0.00015783630775007706 -0.013295313808607833 0 0.00034011633016021775 -0.013423777195597156 0 0.00015783630775007706 -0.013295313808607833 0 0.0002835986303813504 -0.013263953633217267 0 0.00020451814922800278 -0.013240174653458989 0 0.00015118870179436941 -0.013199105771336825 0 0.00015783630775007706 -0.013295313808607833 0 0.00020451814922800278 -0.013240174653458989 0 0.00015783630775007706 -0.013295313808607833 0 0.00034011633016021775 -0.013423777195597156 0 0.0002835986303813504 -0.013263953633217267 0 0.0002835986303813504 -0.013263953633217267 0 0.00035437889589759827 -0.013161891368783655 0 0.00024826974329231167 -0.013191976664040376 0 0.00035065415335765193 -0.012764382534815807 0 0.00030172880387335874 -0.012624916426296094 0 0.00015118870179436941 -0.013199105771336825 0 0.00027408978622024731 -0.013086424087680978 0 0.00026155024294149048 -0.012908500826802605 0 0.00045391612349098866 -0.012193483425217633 0 0.00049463319098781483 -0.012450657572900212 0 0.00078430274607238135 -0.011790699149892147 0 0.00015118870179436941 -0.013199105771336825 0 0.00024826974329231167 -0.013191976664040376 0 0.00027408978622024731 -0.013086424087680978 0 0.00015118870179436941 -0.013199105771336825 0 0.00020451814922800278 -0.013240174653458989 0 0.00024826974329231167 -0.013191976664040376 0 0.0002835986303813504 -0.013263953633217267 0 0.00020451814922800278 -0.013240174653458989 0 0.00024826974329231167 -0.013191976664040376 0 0.00044632635931234104 -0.013037365777186125 0 0.00035437889589759827 -0.013161891368783655 0 0.00027408978622024731 -0.013086424087680978 0 0.00035437889589759827 -0.013161891368783655 0 0.00024826974329231167 -0.013191976664040376 0 0.00027408978622024731 -0.013086424087680978 0 0.00032023769065036482 -0.013384702148974807 0 0.00030172880387335874 -0.012624916426296094 0 0.00044632635931234104 -0.013037365777186125 0 0.00027408978622024731 -0.013086424087680978 0 0.00026155024294149048 -0.012908500826802605 0 0.00033125149867841287 -0.012161839202684047 0 0.00030172880387335874 -0.012624916426296094 0 0.0001618417201564559 -0.012197154039823523 0 4.8131495656858971e-05 -0.012163921447667024 0 -0.00010633800377346316 -0.012144895232999229 0 4.8131495656858971e-05 -0.012163921447667024 0 -4.7888557038644303e-05 -0.012169915216899686 0 -0.00010633800377346316 -0.012144895232999229 0 -7.8568372276810016e-05 -0.012195293251534643 0 -0.0001371494593206066 -0.012187854916272436 0 -0.00010633800377346316 -0.012144895232999229 0 -4.7888557038644303e-05 -0.012169915216899686 0 -7.8568372276810016e-05 -0.012195293251534643 0 -0.00010633800377346316 -0.012144895232999229 0 4.8131495656858971e-05 -0.012163921447667024 0 -4.7888557038644303e-05 -0.012169915216899686 0 3.274733553402254e-05 -0.012176393536573257 0 -4.7888557038644303e-05 -0.012169915216899686 0 3.274733553402254e-05 -0.012176393536573257 0 -2.1198975437718373e-05 -0.012206657320488878 0 -2.1198975437718373e-05 -0.012206657320488878 0 -8.6715531505096973e-05 -0.012244379020044356 0 -1.1599642590444709e-05 -0.012287239754849317 0 3.274733553402254e-05 -0.012176393536573257 0 -2.1198975437718373e-05 -0.012206657320488878 0 4.8167299360646293e-05 -0.012199200284096958 0 -2.1198975437718373e-05 -0.012206657320488878 0 4.8167299360646293e-05 -0.012199200284096958 0 -1.1599642590444709e-05 -0.012287239754849317 0 -8.6715531505096973e-05 -0.012244379020044356 0 -0.0001371494593206066 -0.012187854916272436 0 -0.00013177629218279809 -0.012328602204863485 0 -7.8568372276810016e-05 -0.012195293251534643 0 -8.6715531505096973e-05 -0.012244379020044356 0 -0.0001371494593206066 -0.012187854916272436 0 -2.1198975437718373e-05 -0.012206657320488878 0 -7.8568372276810016e-05 -0.012195293251534643 0 -8.6715531505096973e-05 -0.012244379020044356 0 -4.7888557038644303e-05 -0.012169915216899686 0 -2.1198975437718373e-05 -0.012206657320488878 0 -7.8568372276810016e-05 -0.012195293251534643 0 0.00030172880387335874 -0.012624916426296094 0 5.2079125959354492e-05 -0.013388574145910133 0 0.00018201174701407987 -0.013545427173973452 0 -0.00011011502434157196 -0.013490029209455238 0 6.10272352292041e-05 -0.013289645075658095 0 -0.0001371494593206066 -0.012187854916272436 0 -0.00013574428312492843 -0.012146511366251892 0 -0.00031621880993129515 -0.012368249392907945 0 0.00030172880387335874 -0.012624916426296094 0 -5.1841466685351849e-05 -0.013010272586208583 0 0.00028398289976077869 -0.012574054912227078 0 0.00030172880387335874 -0.012624916426296094 0 4.7939902619103981e-05 -0.012153390766375484 0 0.00012929037580383139 -0.012115870322388658 0 -8.7331602652410554e-05 -0.012080349108778631 0 -5.8226938869879764e-05 -0.012225640235037187 0 7.2604404220056486e-05 -0.012214053257474187 0 4.7939902619103981e-05 -0.012153390766375484 0 7.2604404220056486e-05 -0.012214053257474187 0 4.7939902619103981e-05 -0.012153390766375484 0 0.00010412073501291796 -0.012155921740187982 0 4.7939902619103981e-05 -0.012153390766375484 0 0.00010412073501291796 -0.012155921740187982 0 0.00012929037580383139 -0.012115870322388658 0 0.0001618417201564559 -0.012197154039823523 0 4.8131495656858971e-05 -0.012163921447667024 0 0.00010412073501291796 -0.012155921740187982 0 7.2604404220056486e-05 -0.012214053257474187 0 0.0001618417201564559 -0.012197154039823523 0 0.00010412073501291796 -0.012155921740187982 0 4.8131495656858971e-05 -0.012163921447667024 0 0.00010412073501291796 -0.012155921740187982 0 8.8335505451448857e-05 -0.012158743723963387 0 4.8131495656858971e-05 -0.012163921447667024 0 3.274733553402254e-05 -0.012176393536573257 0 8.8335505451448857e-05 -0.012158743723963387 0 3.274733553402254e-05 -0.012176393536573257 0 8.8335505451448857e-05 -0.012158743723963387 0 4.8167299360646293e-05 -0.012199200284096958 0 8.8335505451448857e-05 -0.012158743723963387 0 4.8167299360646293e-05 -0.012199200284096958 0 0.00010902099562081021 -0.012207164886083519 0 4.8167299360646293e-05 -0.012199200284096958 0 0.00010902099562081021 -0.012207164886083519 0 -1.1599642590444709e-05 -0.012287239754849317 0 8.8335505451448857e-05 -0.012158743723963387 0 0.00010902099562081021 -0.012207164886083519 0 0.00012929037580383139 -0.012115870322388658 0 0.00010412073501291796 -0.012155921740187982 0 8.8335505451448857e-05 -0.012158743723963387 0 0.00012929037580383139 -0.012115870322388658 0 0.00010902099562081021 -0.012207164886083519 0 5.9278958255363281e-05 -0.012244550308292853 0 1.315365136595469e-05 -0.012309531170760517 0 9.756709502321206e-05 -0.012242809756248781 0 0.00015940388677625211 -0.012721118552944333 0 0.00010902099562081021 -0.012207164886083519 0 1.6466369200876896e-05 -0.012564289998591525 0 0.00032636877871812417 -0.01318429008553396 0 0.00010902099562081021 -0.012207164886083519 0 0.00012929037580383139 -0.012115870322388658 0 5.9278958255363281e-05 -0.012244550308292853 0 0.00010902099562081021 -0.012207164886083519 0 1.6466369200876896e-05 -0.012564289998591525 0 -1.1599642590444709e-05 -0.012287239754849317 0 1.6466369200876896e-05 -0.012564289998591525 0 -0.00031621880993129515 -0.012368249392907945 0 0.00012568905017509038 -0.012969207036501697 0 3.7527495008716385e-05 -0.01299217340040739 0 6.3419596439224938e-05 -0.013034660163228903 0 0.00012568905017509038 -0.012969207036501697 0 -5.1841466685351849e-05 -0.013010272586208583 0 6.7726714489622924e-05 -0.012853197464264478 0 0.00032709613621075283 -0.01270483597881604 0 4.9502191893253256e-05 -0.013291455308639601 0 -8.1246865385826625e-05 -0.013185280616739596 0 -5.1841466685351849e-05 -0.013010272586208583 0 5.2079125959354492e-05 -0.013388574145910133 0 -0.0001371494593206066 -0.012187854916272436 0 -0.00031621880993129515 -0.012368249392907945 0 -0.00013177629218279809 -0.012328602204863485 0 1.6466369200876896e-05 -0.012564289998591525 0 -0.00031621880993129515 -0.012368249392907945 0 -0.00013177629218279809 -0.012328602204863485 0 -8.6715531505096973e-05 -0.012244379020044356 0 -0.00013177629218279809 -0.012328602204863485 0 -1.1599642590444709e-05 -0.012287239754849317 0 1.6466369200876896e-05 -0.012564289998591525 0 -0.00013177629218279809 -0.012328602204863485 0 -1.1599642590444709e-05 -0.012287239754849317 0 -2.9240732972761197e-06 -0.013059351131280152 0 3.7527495008716385e-05 -0.01299217340040739 0 6.3419596439224938e-05 -0.013034660163228903 0 -2.9240732972761197e-06 -0.013059351131280152 0 5.099154321136009e-05 -0.013122651151746724 0 6.3419596439224938e-05 -0.013034660163228903 0 2.0712151357612391e-05 -0.013163829898346276 0 5.099154321136009e-05 -0.013122651151746724 0 6.8943095339713914e-05 -0.013239556223020582 0 5.099154321136009e-05 -0.013122651151746724 0 9.544295312666452e-05 -0.013150870491676053 0 6.8943095339713914e-05 -0.013239556223020582 0 5.099154321136009e-05 -0.013122651151746724 0 9.544295312666452e-05 -0.013150870491676053 0 6.3419596439224938e-05 -0.013034660163228903 0 9.544295312666452e-05 -0.013150870491676053 0 6.3419596439224938e-05 -0.013034660163228903 0 0.00012568905017509038 -0.012969207036501697 0 1.6466369200876896e-05 -0.012564289998591525 0 0.00012568905017509038 -0.012969207036501697 0 0.00032636877871812417 -0.01318429008553396 0 0.00012568905017509038 -0.012969207036501697 0 0.00017472016127114488 -0.013215253131078686 0 0.00032636877871812417 -0.01318429008553396 0 9.544295312666452e-05 -0.013150870491676053 0 0.00012568905017509038 -0.012969207036501697 0 0.00017472016127114488 -0.013215253131078686 0 0.00017472016127114488 -0.013215253131078686 0 0.00017665245627873725 -0.013281437171699093 0 0.00032636877871812417 -0.01318429008553396 0 9.544295312666452e-05 -0.013150870491676053 0 0.00017472016127114488 -0.013215253131078686 0 0.00013134445989696283 -0.013299974148838949 0 0.00017472016127114488 -0.013215253131078686 0 0.00017665245627873725 -0.013281437171699093 0 0.00013134445989696283 -0.013299974148838949 0 7.6582183273271525e-05 -0.013338407954173596 0 0.00013134445989696283 -0.013299974148838949 0 6.8943095339713914e-05 -0.013239556223020582 0 9.544295312666452e-05 -0.013150870491676053 0 0.00013134445989696283 -0.013299974148838949 0 6.8943095339713914e-05 -0.013239556223020582 0 -0.00010303081323920988 -0.012369907527701797 0 -6.1404481024373704e-05 -0.012312699895886001 0 5.3059776059330496e-06 -0.01231026435836992 0 -0.00012363192294382556 -0.012232403406230776 0 -0.00010303081323920988 -0.012369907527701797 0 -6.1404481024373704e-05 -0.012312699895886001 0 -0.00042119772756571639 -0.011533863893819604 0 -0.00012218109312956506 -0.011771211574236086 0 -2.2197663501707052e-05 -0.012778759668215742 0 0.00015940388677625211 -0.012721118552944333 0 6.3767498970209525e-05 -0.013318182480455285 0 0.00017665245627873725 -0.013281437171699093 0 0.00032636877871812417 -0.01318429008553396 0 -0.00012363192294382556 -0.012232403406230776 0 -6.1404481024373704e-05 -0.012312699895886001 0 1.315365136595469e-05 -0.012309531170760517 0 -6.1404481024373704e-05 -0.012312699895886001 0 1.315365136595469e-05 -0.012309531170760517 0 5.3059776059330496e-06 -0.01231026435836992 0 5.9278958255363281e-05 -0.012244550308292853 0 1.315365136595469e-05 -0.012309531170760517 0 5.3059776059330496e-06 -0.01231026435836992 0 -0.0007041626712838365 -0.010694151143744779 0 -0.00023540356917790074 -0.011231499326827238 0 -0.00067517198432201064 -0.011096441131637224 0 -0.00023540356917790074 -0.011231499326827238 0 -0.00067517198432201064 -0.011096441131637224 0 -0.00058151062464852359 -0.011415217063349975 0 -0.00023540356917790074 -0.011231499326827238 0 -0.00058151062464852359 -0.011415217063349975 0 -0.00033579268706526759 -0.011513649150409191 0 -0.00058151062464852359 -0.011415217063349975 0 -0.00033579268706526759 -0.011513649150409191 0 -0.00052323738349723914 -0.011760742347829109 0 -0.00033579268706526759 -0.011513649150409191 0 -0.00027606102630987439 -0.01181020596884701 0 -0.00052323738349723914 -0.011760742347829109 0 -0.00058151062464852359 -0.011415217063349975 0 -0.00052323738349723914 -0.011760742347829109 0 -0.00082071542622341449 -0.011639381558162241 0 0.00012929037580383139 -0.012115870322388658 0 5.9278958255363281e-05 -0.012244550308292853 0 5.3059776059330496e-06 -0.01231026435836992 0 0.00012929037580383139 -0.012115870322388658 0 -0.00033579268706526759 -0.011513649150409191 0 -0.00027606102630987439 -0.01181020596884701 0 0.00012929037580383139 -0.012115870322388658 0 -0.00023540356917790074 -0.011231499326827238 0 -0.00033579268706526759 -0.011513649150409191 0 0.00010571406563100993 -0.01207824156533357 0 -0.00012218109312956506 -0.011771211574236086 0 0.00012929037580383139 -0.012115870322388658 0 -0.00027606102630987439 -0.01181020596884701 0 -8.7331602652410554e-05 -0.012080349108778631 0 -0.00027606102630987439 -0.01181020596884701 0 -0.00032719354915739912 -0.012101843791950463 0 -8.7331602652410554e-05 -0.012080349108778631 0 -5.8226938869879764e-05 -0.012225640235037187 0 -0.00032719354915739912 -0.012101843791950463 0 -8.7331602652410554e-05 -0.012080349108778631 0 -5.8226938869879764e-05 -0.012225640235037187 0 4.7939902619103981e-05 -0.012153390766375484 0 -8.7331602652410554e-05 -0.012080349108778631 0 -0.00032719354915739912 -0.012101843791950463 0 -0.00052323738349723914 -0.011760742347829109 0 -0.00069451856301291481 -0.012067046544817833 0 -0.00052323738349723914 -0.011760742347829109 0 -0.00069451856301291481 -0.012067046544817833 0 -0.00082071542622341449 -0.011639381558162241 0 -0.00027606102630987439 -0.01181020596884701 0 -0.00032719354915739912 -0.012101843791950463 0 -0.00052323738349723914 -0.011760742347829109 0 -0.00069451856301291481 -0.012067046544817833 0 -0.00082071542622341449 -0.011639381558162241 0 -0.0011116326543648479 -0.011964800503028405 0 -0.0011542966402358556 -0.011481469726561857 0 -0.0015504413237601552 -0.011561806720796054 0 -0.0011116326543648479 -0.011964800503028405 0 -0.0011542966402358556 -0.011481469726561857 0 -0.00082071542622341449 -0.011639381558162241 0 -0.0011116326543648479 -0.011964800503028405 0 -0.0011542966402358556 -0.011481469726561857 0 -0.001117643687621486 -0.011045273241559928 0 -0.0013183946976850454 -0.011146608718916373 0 -0.0011542966402358556 -0.011481469726561857 0 -0.00087665042247297813 -0.011259644592431528 0 -0.001117643687621486 -0.011045273241559928 0 -0.0011542966402358556 -0.011481469726561857 0 -0.00082071542622341449 -0.011639381558162241 0 -0.00087665042247297813 -0.011259644592431528 0 -0.00058151062464852359 -0.011415217063349975 0 -0.00082071542622341449 -0.011639381558162241 0 -0.00087665042247297813 -0.011259644592431528 0 -0.00067517198432201064 -0.011096441131637224 0 -0.00058151062464852359 -0.011415217063349975 0 -0.00087665042247297813 -0.011259644592431528 0 -0.00067517198432201064 -0.011096441131637224 0 -0.00087665042247297813 -0.011259644592431528 0 -0.00092772165658778442 -0.01090273145109239 0 -0.00087665042247297813 -0.011259644592431528 0 -0.001117643687621486 -0.011045273241559928 0 -0.00092772165658778442 -0.01090273145109239 0 -0.001117643687621486 -0.011045273241559928 0 -0.0011477119581385685 -0.010741201736861042 0 -0.00092772165658778442 -0.01090273145109239 0 -0.0010190729927627362 -0.010642744671572352 0 -0.0011477119581385685 -0.010741201736861042 0 -0.00092772165658778442 -0.01090273145109239 0 -0.0010190729927627362 -0.010642744671572352 0 -0.0011483423201380067 -0.010546656922235468 0 -0.0011477119581385685 -0.010741201736861042 0 -0.0007041626712838365 -0.010694151143744779 0 -0.00067517198432201064 -0.011096441131637224 0 -0.00092772165658778442 -0.01090273145109239 0 -0.0010190729927627362 -0.010642744671572352 0 -0.0007041626712838365 -0.010694151143744779 0 -0.00092772165658778442 -0.01090273145109239 0 -0.00150123657041361 -0.010653199084752447 0 -0.0012848296214670017 -0.010593262015161082 0 -0.0013376181787628514 -0.010840846525516408 0 -0.0011477119581385685 -0.010741201736861042 0 -0.0012848296214670017 -0.010593262015161082 0 -0.0013376181787628514 -0.010840846525516408 0 -0.0011483423201380067 -0.010546656922235468 0 -0.0011477119581385685 -0.010741201736861042 0 -0.0012848296214670017 -0.010593262015161082 0 -0.001117643687621486 -0.011045273241559928 0 -0.0011477119581385685 -0.010741201736861042 0 -0.0013376181787628514 -0.010840846525516408 0 -0.0013376181787628514 -0.010840846525516408 0 -0.001536522723549589 -0.010923149606282637 0 -0.0013183946976850454 -0.011146608718916373 0 -0.001117643687621486 -0.011045273241559928 0 -0.0013376181787628514 -0.010840846525516408 0 -0.0013183946976850454 -0.011146608718916373 0 -0.00150123657041361 -0.010653199084752447 0 -0.0013376181787628514 -0.010840846525516408 0 -0.001536522723549589 -0.010923149606282637 0 -0.001536522723549589 -0.010923149606282637 0 -0.0015372610690994209 -0.01124650257064121 0 -0.0013183946976850454 -0.011146608718916373 0 -0.0016405827158620368 -0.011113620498835719 0 -0.001536522723549589 -0.010923149606282637 0 -0.0015372610690994209 -0.01124650257064121 0 -0.0016906723799980355 -0.011307040537074743 0 -0.0016405827158620368 -0.011113620498835719 0 -0.0015372610690994209 -0.01124650257064121 0 -0.0015372610690994209 -0.01124650257064121 0 -0.0013183946976850454 -0.011146608718916373 0 -0.0015504413237601552 -0.011561806720796054 0 -0.0011542966402358556 -0.011481469726561857 0 -0.0013183946976850454 -0.011146608718916373 0 -0.0015504413237601552 -0.011561806720796054 0 -0.0016906723799980355 -0.011307040537074743 0 -0.0015504413237601552 -0.011561806720796054 0 -0.0016312583256652834 -0.011492328643931328 0 -0.0016906723799980355 -0.011307040537074743 0 -0.0015372610690994209 -0.01124650257064121 0 -0.0015504413237601552 -0.011561806720796054 0 -0.0016312583256652834 -0.011492328643931328 0 -0.0016143142348886558 -0.011512716571949315 0 -0.0016517269795078891 -0.011524647329378567 0 -0.0016944653316941305 -0.01154399407135924 0 -0.0016312583256652834 -0.011492328643931328 0 -0.0016517269795078891 -0.011524647329378567 0 -0.0016143142348886558 -0.011512716571949315 0 -0.001625035244816748 -0.011526497554434035 0 -0.0016517269795078891 -0.011524647329378567 0 -0.0015655390101790559 -0.011964670919495029 0 -0.0016131952582220891 -0.012092936906761394 0 -0.0015504413237601552 -0.011561806720796054 0 -0.0015698429075361206 -0.012355080939758704 0 -0.0011116326543648479 -0.011964800503028405 0 -0.0015504413237601552 -0.011561806720796054 0 -0.0016312583256652834 -0.011492328643931328 0 -0.0016143142348886558 -0.011512716571949315 0 -0.0015798274946734008 -0.011601720045465625 0 -0.0015655390101790559 -0.011964670919495029 0 -0.0011116326543648479 -0.011964800503028405 0 -0.00089645894665561917 -0.012322006629148554 0 -0.0011671083280096238 -0.012530133189112252 0 -0.0015698429075361206 -0.012355080939758704 0 -0.0011116326543648479 -0.011964800503028405 0 -0.0011671083280096238 -0.012530133189112252 0 -0.00069451856301291481 -0.012067046544817833 0 -0.0011116326543648479 -0.011964800503028405 0 -0.00089645894665561917 -0.012322006629148554 0 -0.0006723886620152781 -0.012404926103265634 0 -0.00069451856301291481 -0.012067046544817833 0 -0.00089645894665561917 -0.012322006629148554 0 -0.0006723886620152781 -0.012404926103265634 0 -0.00089645894665561917 -0.012322006629148554 0 -0.00086827240881652611 -0.012665767666800627 0 -0.00089645894665561917 -0.012322006629148554 0 -0.00086827240881652611 -0.012665767666800627 0 -0.0011671083280096238 -0.012530133189112252 0 -0.00086827240881652611 -0.012665767666800627 0 -0.0010803245261675946 -0.01294083351428762 0 -0.00081571760527689836 -0.012998354998203704 0 -0.00086827240881652611 -0.012665767666800627 0 -0.0011671083280096238 -0.012530133189112252 0 -0.0010803245261675946 -0.01294083351428762 0 -0.00060996627407509973 -0.012811778534416675 0 -0.00086827240881652611 -0.012665767666800627 0 -0.00081571760527689836 -0.012998354998203704 0 -0.0015698429075361206 -0.012355080939758704 0 -0.0011671083280096238 -0.012530133189112252 0 -0.0014577262333675424 -0.012983355203206171 0 -0.0011671083280096238 -0.012530133189112252 0 -0.0014577262333675424 -0.012983355203206171 0 -0.0010803245261675946 -0.01294083351428762 0 -0.0016131952582220891 -0.012092936906761394 0 -0.00069974802981158076 -0.013238625354122853 0 -0.001625035244816748 -0.011526497554434035 0 -0.0016082825187153354 -0.011558076669264273 0 -0.0016397777540876068 -0.011533989460924406 0 -0.0014577262333675424 -0.012983355203206171 0 -0.001172646849890129 -0.013213203825975984 0 -0.0013017117837046408 -0.013496097231405138 0 -0.0014577262333675424 -0.012983355203206171 0 -0.0010803245261675946 -0.01294083351428762 0 -0.001172646849890129 -0.013213203825975984 0 -0.00081571760527689836 -0.012998354998203704 0 -0.00097427118026930867 -0.013113504505548953 0 -0.00082834421546165422 -0.013173584359734571 0 -0.0010803245261675946 -0.01294083351428762 0 -0.001172646849890129 -0.013213203825975984 0 -0.00097427118026930867 -0.013113504505548953 0 -0.0010803245261675946 -0.01294083351428762 0 -0.00081571760527689836 -0.012998354998203704 0 -0.00097427118026930867 -0.013113504505548953 0 -0.001172646849890129 -0.013213203825975984 0 -0.00097427118026930867 -0.013113504505548953 0 -0.00090324181832359904 -0.013266117180736945 0 -0.00097427118026930867 -0.013113504505548953 0 -0.00090324181832359904 -0.013266117180736945 0 -0.00082834421546165422 -0.013173584359734571 0 -0.00090324181832359904 -0.013266117180736945 0 -0.00082834421546165422 -0.013173584359734571 0 -0.00085568100416720039 -0.0132867015408297 0 -0.00065471932974636726 -0.013572279600058289 0 -0.00055297196156402478 -0.013634820383612294 0 5.0731414576129407e-05 -0.014200859249044996 0 3.8922385198175078e-05 -0.014225184334381922 0 -1.3491912920678919e-06 -0.014222281754130503 0 -0.00090324181832359904 -0.013266117180736945 0 -0.00084074441942676853 -0.013294824108620262 0 -0.0013017117837046408 -0.013496097231405138 0 -0.00055297196156402478 -0.013634820383612294 0 -0.00069974802981158076 -0.013238625354122853 0 5.0731414576129407e-05 -0.014200859249044996 0 3.8922385198175078e-05 -0.014225184334381922 0 6.7019193516117671e-05 -0.014237762836034463 0 4.1635295686813688e-05 -0.014241508559932689 0 -1.3491912920678919e-06 -0.014222281754130503 0 3.2894580875116311e-05 -0.014258274024939824 0 3.8922385198175078e-05 -0.014225184334381922 0 4.1635295686813688e-05 -0.014241508559932689 0 -1.3491912920678919e-06 -0.014222281754130503 0 3.8922385198175078e-05 -0.014225184334381922 0 4.1635295686813688e-05 -0.014241508559932689 0 6.7019193516117671e-05 -0.014237762836034463 0 4.1635295686813688e-05 -0.014241508559932689 0 6.7019193516117671e-05 -0.014237762836034463 0 6.8237126816852759e-05 -0.014269708783642955 0 -0.001172646849890129 -0.013213203825975984 0 -0.00090324181832359904 -0.013266117180736945 0 -0.0013017117837046408 -0.013496097231405138 0 -0.00069974802981158076 -0.013238625354122853 0 -0.00084902227356261435 -0.012422265499378927 0 -0.00011003593136809156 -0.013707198851463476 0 -0.00051757384098350062 -0.013904992429930221 0 -0.0001882136377710277 -0.014029905321905508 0 -0.0016082825187153354 -0.011558076669264273 0 -0.0016332510705385367 -0.011550002713461609 0 -0.0016393929798690077 -0.011570906921899406 0 -0.0016082825187153354 -0.011558076669264273 0 -0.0016332510705385367 -0.011550002713461609 0 -0.0016397777540876068 -0.011533989460924406 0 -0.0016332510705385367 -0.011550002713461609 0 -0.0016465684935468264 -0.011547570928879942 0 -0.0016397777540876068 -0.011533989460924406 0 -0.0016465684935468264 -0.011547570928879942 0 -0.0016630963677309641 -0.011531058304456769 0 -0.0016397777540876068 -0.011533989460924406 0 -0.0016332510705385367 -0.011550002713461609 0 -0.0016465684935468264 -0.011547570928879942 0 -0.0016393929798690077 -0.011570906921899406 0 -0.0016465684935468264 -0.011547570928879942 0 -0.001684915181711073 -0.011550022064649956 0 -0.0016393929798690077 -0.011570906921899406 0 -0.0017418610300199019 -0.011553666154036506 0 -0.001684915181711073 -0.011550022064649956 0 -0.0017048320434158441 -0.01151344184023778 0 -0.001684915181711073 -0.011550022064649956 0 -0.0017048320434158441 -0.01151344184023778 0 -0.0016630963677309641 -0.011531058304456769 0 -0.0016465684935468264 -0.011547570928879942 0 -0.001684915181711073 -0.011550022064649956 0 -0.0016630963677309641 -0.011531058304456769 0 -0.0016944653316941305 -0.01154399407135924 0 -0.0017048320434158441 -0.01151344184023778 0 -0.0016517269795078891 -0.011524647329378567 0 -0.0017048320434158441 -0.01151344184023778 0 -0.0016630963677309641 -0.011531058304456769 0 -0.0016517269795078891 -0.011524647329378567 0 -0.001625035244816748 -0.011526497554434035 0 -0.0016517269795078891 -0.011524647329378567 0 -0.0016397777540876068 -0.011533989460924406 0 -0.0016630963677309641 -0.011531058304456769 0 -0.0016517269795078891 -0.011524647329378567 0 -0.0016397777540876068 -0.011533989460924406 0 -1.7004342271989426e-07 -0.012215508359830797 0 5.842882195741504e-06 -0.012238181190569658 0 2.5505950383530948e-05 -0.01221891744286451 0 -1.7004342271989426e-07 -0.012215508359830797 0 5.842882195741504e-06 -0.012238181190569658 0 -1.3495833444950367e-05 -0.012242226101749583 0 -1.7004342271989426e-07 -0.012215508359830797 0 -2.1836074334081769e-05 -0.0122152552443588 0 -1.3495833444950367e-05 -0.012242226101749583 0 -3.2051750339128546e-05 -0.01223652330094701 0 -2.1836074334081769e-05 -0.0122152552443588 0 -1.3495833444950367e-05 -0.012242226101749583 0 -3.2051750339128546e-05 -0.01223652330094701 0 -4.0870353185293328e-05 -0.01221034277704473 0 -5.1217063695618537e-05 -0.012227747270478859 0 -3.2051750339128546e-05 -0.01223652330094701 0 -4.0870353185293328e-05 -0.01221034277704473 0 -2.1836074334081769e-05 -0.0122152552443588 0 -4.0870353185293328e-05 -0.01221034277704473 0 -2.1836074334081769e-05 -0.0122152552443588 0 -1.6600870805916738e-05 -0.012181437617861982 0 -1.6600870805916738e-05 -0.012181437617861982 0 -4.7637840271129415e-05 -0.012190401261644853 0 -4.2820567852378529e-05 -0.012165961818968401 0 -4.0870353185293328e-05 -0.01221034277704473 0 -1.6600870805916738e-05 -0.012181437617861982 0 -4.7637840271129415e-05 -0.012190401261644853 0 -1.6600870805916738e-05 -0.012181437617861982 0 1.6572477827272592e-05 -0.012178706369281074 0 1.5726033092319644e-06 -0.01213761074960721 0 -1.7004342271989426e-07 -0.012215508359830797 0 -1.6600870805916738e-05 -0.012181437617861982 0 1.6572477827272592e-05 -0.012178706369281074 0 -1.7004342271989426e-07 -0.012215508359830797 0 -2.1836074334081769e-05 -0.0122152552443588 0 -1.6600870805916738e-05 -0.012181437617861982 0 1.6572477827272592e-05 -0.012178706369281074 0 4.4148618774370262e-05 -0.012179496713794074 0 4.857152256757584e-05 -0.012122369431297859 0 1.6572477827272592e-05 -0.012178706369281074 0 4.4148618774370262e-05 -0.012179496713794074 0 2.5505950383530948e-05 -0.01221891744286451 0 6.7118337471597816e-05 -0.012234996256254889 0 4.4148618774370262e-05 -0.012179496713794074 0 7.8818518970468301e-05 -0.012130897034391928 0 6.7118337471597816e-05 -0.012234996256254889 0 4.4148618774370262e-05 -0.012179496713794074 0 2.5505950383530948e-05 -0.01221891744286451 0 6.7118337471597816e-05 -0.012234996256254889 0 2.5505950383530948e-05 -0.01221891744286451 0 1.6879672152865378e-05 -0.012248890894564043 0 -1.7004342271989426e-07 -0.012215508359830797 0 1.6572477827272592e-05 -0.012178706369281074 0 2.5505950383530948e-05 -0.01221891744286451 0 5.842882195741504e-06 -0.012238181190569658 0 2.5505950383530948e-05 -0.01221891744286451 0 1.6879672152865378e-05 -0.012248890894564043 0 6.7118337471597816e-05 -0.012234996256254889 0 1.6879672152865378e-05 -0.012248890894564043 0 -1.2308371213797814e-05 -0.012289252846872288 0 -0.0017707251520076462 -0.011596499368362033 0 -0.001684915181711073 -0.011550022064649956 0 -0.0016393929798690077 -0.011570906921899406 0 -0.0018774223886938084 -0.011468615822362922 0 -0.00084902227356261435 -0.012422265499378927 0 -0.00077178848642598687 -0.01179111675802663 0 -0.00084902227356261435 -0.012422265499378927 0 -0.0017012475147743233 -0.011596698360877341 0 -0.0017235456229293231 -0.011527812258243489 0 -0.0015480838505379723 -0.011485106815887516 0 -0.0017418610300199019 -0.011553666154036506 0 -0.0017707251520076462 -0.011596499368362033 0 -0.001684915181711073 -0.011550022064649956 0 -1.2308371213797814e-05 -0.012289252846872288 0 -1.5131895065007239e-05 -0.012260234873327556 0 -2.5680508375157565e-05 -0.012257080606023188 0 -1.2308371213797814e-05 -0.012289252846872288 0 -4.1007935411689691e-05 -0.012247892086574536 0 -7.4353219711410941e-05 -0.012231310820503003 0 -1.2308371213797814e-05 -0.012289252846872288 0 -2.6991519363964424e-06 -0.01225771282072142 0 -1.5131895065007239e-05 -0.012260234873327556 0 -0.00084902227356261435 -0.012422265499378927 0 6.8956839716928473e-05 -0.013400025786240902 0 1.6879672152865378e-05 -0.012248890894564043 0 -1.2308371213797814e-05 -0.012289252846872288 0 -2.6991519363964424e-06 -0.01225771282072142 0 -2.6991519363964424e-06 -0.01225771282072142 0 -1.5131895065007239e-05 -0.012260234873327556 0 -1.3495833444950367e-05 -0.012242226101749583 0 -1.5131895065007239e-05 -0.012260234873327556 0 -1.3495833444950367e-05 -0.012242226101749583 0 -2.1592190721579981e-05 -0.012249015951689372 0 5.842882195741504e-06 -0.012238181190569658 0 -2.6991519363964424e-06 -0.01225771282072142 0 -1.3495833444950367e-05 -0.012242226101749583 0 5.842882195741504e-06 -0.012238181190569658 0 1.6879672152865378e-05 -0.012248890894564043 0 -2.6991519363964424e-06 -0.01225771282072142 0 -3.2051750339128546e-05 -0.01223652330094701 0 -4.1007935411689691e-05 -0.012247892086574536 0 -5.1217063695618537e-05 -0.012227747270478859 0 -3.2051750339128546e-05 -0.01223652330094701 0 -4.1007935411689691e-05 -0.012247892086574536 0 -2.5680508375157565e-05 -0.012257080606023188 0 -3.2051750339128546e-05 -0.01223652330094701 0 -2.1592190721579981e-05 -0.012249015951689372 0 -2.5680508375157565e-05 -0.012257080606023188 0 -3.2051750339128546e-05 -0.01223652330094701 0 -1.3495833444950367e-05 -0.012242226101749583 0 -2.1592190721579981e-05 -0.012249015951689372 0 -1.5131895065007239e-05 -0.012260234873327556 0 -2.1592190721579981e-05 -0.012249015951689372 0 -2.5680508375157565e-05 -0.012257080606023188 0 -1.2308371213797814e-05 -0.012289252846872288 0 -4.1007935411689691e-05 -0.012247892086574536 0 -2.5680508375157565e-05 -0.012257080606023188 0 -0.00011003593136809156 -0.013707198851463476 0 -0.0001882136377710277 -0.014029905321905508 0 1.3752566974981312e-05 -0.014279580891031707 0 -1.3491912920678919e-06 -0.014222281754130503 0 3.2894580875116311e-05 -0.014258274024939824 0 1.3752566974981312e-05 -0.014279580891031707 0 -0.00069974802981158076 -0.013238625354122853 0 0.0002042500625940261 -0.014586935089341222 0 -0.00051757384098350062 -0.013904992429930221 0 -0.0001882136377710277 -0.014029905321905508 0 -5.170907378631529e-05 -0.014299503026930603 0 -0.0001882136377710277 -0.014029905321905508 0 1.3752566974981312e-05 -0.014279580891031707 0 -5.170907378631529e-05 -0.014299503026930603 0 6.8237126816852759e-05 -0.014269708783642955 0 3.2894580875116311e-05 -0.014258274024939824 0 5.055459818908721e-05 -0.014278022741296401 0 4.1635295686813688e-05 -0.014241508559932689 0 6.8237126816852759e-05 -0.014269708783642955 0 3.2894580875116311e-05 -0.014258274024939824 0 3.2894580875116311e-05 -0.014258274024939824 0 5.055459818908721e-05 -0.014278022741296401 0 1.3752566974981312e-05 -0.014279580891031707 0 6.8237126816852759e-05 -0.014269708783642955 0 5.055459818908721e-05 -0.014278022741296401 0 8.6631809578209068e-05 -0.014308894120007536 0 8.6631809578209068e-05 -0.014308894120007536 0 1.3752566974981312e-05 -0.014279580891031707 0 0.0001031019908275632 -0.014357152305369688 0 5.055459818908721e-05 -0.014278022741296401 0 8.6631809578209068e-05 -0.014308894120007536 0 1.3752566974981312e-05 -0.014279580891031707 0 6.8956839716928473e-05 -0.013400025786240902 0 -5.102747843007389e-05 -0.013228672404342622 0 1.3752566974981312e-05 -0.014279580891031707 0 -5.170907378631529e-05 -0.014299503026930603 0 0.0001031019908275632 -0.014357152305369688 0 -7.4353219711410941e-05 -0.012231310820503003 0 -7.5801152493127068e-05 -0.012187658604912456 0 -0.0001413087264113123 -0.012165327251540087 0 -5.8178041784621523e-05 -0.012209567659026258 0 -7.4353219711410941e-05 -0.012231310820503003 0 -7.5801152493127068e-05 -0.012187658604912456 0 -4.1007935411689691e-05 -0.012247892086574536 0 -5.1217063695618537e-05 -0.012227747270478859 0 -7.4353219711410941e-05 -0.012231310820503003 0 -5.8178041784621523e-05 -0.012209567659026258 0 -5.1217063695618537e-05 -0.012227747270478859 0 -7.4353219711410941e-05 -0.012231310820503003 0 -4.0870353185293328e-05 -0.01221034277704473 0 -5.8178041784621523e-05 -0.012209567659026258 0 -5.1217063695618537e-05 -0.012227747270478859 0 -7.5801152493127068e-05 -0.012187658604912456 0 -4.7637840271129415e-05 -0.012190401261644853 0 -4.2820567852378529e-05 -0.012165961818968401 0 -5.8178041784621523e-05 -0.012209567659026258 0 -7.5801152493127068e-05 -0.012187658604912456 0 -4.7637840271129415e-05 -0.012190401261644853 0 -4.0870353185293328e-05 -0.01221034277704473 0 -5.8178041784621523e-05 -0.012209567659026258 0 -4.7637840271129415e-05 -0.012190401261644853 0 -4.2820567852378529e-05 -0.012165961818968401 0 -4.8003776357266297e-05 -0.012142316984710657 0 -8.3168148514106314e-05 -0.012153285346324727 0 -7.5801152493127068e-05 -0.012187658604912456 0 -4.2820567852378529e-05 -0.012165961818968401 0 -8.3168148514106314e-05 -0.012153285346324727 0 -8.3168148514106314e-05 -0.012153285346324727 0 -6.2481205243656814e-05 -0.012120807391153274 0 -0.00011139250293189717 -0.012130314887340747 0 -4.8003776357266297e-05 -0.012142316984710657 0 -6.2481205243656814e-05 -0.012120807391153274 0 -2.6847394401368087e-05 -0.012124202412819139 0 -4.8003776357266297e-05 -0.012142316984710657 0 -8.3168148514106314e-05 -0.012153285346324727 0 -6.2481205243656814e-05 -0.012120807391153274 0 -6.2481205243656814e-05 -0.012120807391153274 0 -2.713854383005538e-05 -0.012099129827183327 0 -2.6847394401368087e-05 -0.012124202412819139 0 -8.3168148514106314e-05 -0.012153285346324727 0 -0.0001413087264113123 -0.012165327251540087 0 -0.00011139250293189717 -0.012130314887340747 0 -0.0001413087264113123 -0.012165327251540087 0 -0.00011139250293189717 -0.012130314887340747 0 -0.00014844488001622722 -0.012127103580504839 0 -7.5801152493127068e-05 -0.012187658604912456 0 -8.3168148514106314e-05 -0.012153285346324727 0 -0.0001413087264113123 -0.012165327251540087 0 -0.00011139250293189717 -0.012130314887340747 0 -0.00014844488001622722 -0.012127103580504839 0 -0.00012763609596569279 -0.012107932394285056 0 -0.00011139250293189717 -0.012130314887340747 0 -0.00010549814439899909 -0.012093243427530336 0 -0.00012763609596569279 -0.012107932394285056 0 -0.00010549814439899909 -0.012093243427530336 0 -0.00012530263286386536 -0.012084698617645448 0 -9.9778646518224758e-05 -0.012064105016523365 0 -0.00010549814439899909 -0.012093243427530336 0 -0.00012530263286386536 -0.012084698617645448 0 -0.00012763609596569279 -0.012107932394285056 0 -0.00014844488001622722 -0.012127103580504839 0 -0.00012763609596569279 -0.012107932394285056 0 -0.00014300738843517471 -0.012106090372332042 0 -0.00012530263286386536 -0.012084698617645448 0 -0.00012763609596569279 -0.012107932394285056 0 -0.00014300738843517471 -0.012106090372332042 0 -6.2481205243656814e-05 -0.012120807391153274 0 -4.4153905272627093e-05 -0.012083566123028019 0 -7.9148458925212443e-05 -0.012094925604194564 0 -6.2481205243656814e-05 -0.012120807391153274 0 -4.4153905272627093e-05 -0.012083566123028019 0 -2.713854383005538e-05 -0.012099129827183327 0 -6.2481205243656814e-05 -0.012120807391153274 0 -0.00011139250293189717 -0.012130314887340747 0 -7.9148458925212443e-05 -0.012094925604194564 0 -0.00011139250293189717 -0.012130314887340747 0 -0.00010549814439899909 -0.012093243427530336 0 -7.9148458925212443e-05 -0.012094925604194564 0 -7.9148458925212443e-05 -0.012094925604194564 0 -8.4463749991307036e-05 -0.012071164720589349 0 -5.7609589973312883e-05 -0.012058338755817603 0 -0.00010549814439899909 -0.012093243427530336 0 -7.9148458925212443e-05 -0.012094925604194564 0 -8.4463749991307036e-05 -0.012071164720589349 0 -0.00010549814439899909 -0.012093243427530336 0 -8.4463749991307036e-05 -0.012071164720589349 0 -9.9778646518224758e-05 -0.012064105016523365 0 -8.4463749991307036e-05 -0.012071164720589349 0 -9.9778646518224758e-05 -0.012064105016523365 0 -7.8562316610832737e-05 -0.012046105280439376 0 -8.4463749991307036e-05 -0.012071164720589349 0 -5.7609589973312883e-05 -0.012058338755817603 0 -7.8562316610832737e-05 -0.012046105280439376 0 -4.4153905272627093e-05 -0.012083566123028019 0 -7.9148458925212443e-05 -0.012094925604194564 0 -5.7609589973312883e-05 -0.012058338755817603 0 -4.4153905272627093e-05 -0.012083566123028019 0 -5.7609589973312883e-05 -0.012058338755817603 0 -2.2012677709136025e-05 -0.012048099148776532 0 -5.7609589973312883e-05 -0.012058338755817603 0 -2.2012677709136025e-05 -0.012048099148776532 0 -3.7519656456507931e-05 -0.012037517859497719 0 -2.2012677709136025e-05 -0.012048099148776532 0 1.0275527853824494e-05 -0.012033750040729051 0 -1.0695782544654321e-05 -0.01201351903611742 0 1.0275527853824494e-05 -0.012033750040729051 0 2.2265769768426661e-05 -0.012055427408556488 0 -1.2129304232275721e-05 -0.012070359556489243 0 -2.2012677709136025e-05 -0.012048099148776532 0 1.0275527853824494e-05 -0.012033750040729051 0 -1.2129304232275721e-05 -0.012070359556489243 0 -4.4153905272627093e-05 -0.012083566123028019 0 -2.2012677709136025e-05 -0.012048099148776532 0 -1.2129304232275721e-05 -0.012070359556489243 0 2.2265769768426661e-05 -0.012055427408556488 0 5.0201321382039392e-05 -0.012061462071695726 0 6.7019750080130674e-05 -0.012022365296480529 0 1.0275527853824494e-05 -0.012033750040729051 0 2.2265769768426661e-05 -0.012055427408556488 0 6.7019750080130674e-05 -0.012022365296480529 0 5.1071042399202204e-06 -0.012091652886952475 0 3.2438895394378451e-05 -0.012099908858040982 0 5.0201321382039392e-05 -0.012061462071695726 0 2.2265769768426661e-05 -0.012055427408556488 0 5.1071042399202204e-06 -0.012091652886952475 0 5.0201321382039392e-05 -0.012061462071695726 0 -4.4153905272627093e-05 -0.012083566123028019 0 -1.2129304232275721e-05 -0.012070359556489243 0 -2.713854383005538e-05 -0.012099129827183327 0 2.2265769768426661e-05 -0.012055427408556488 0 5.1071042399202204e-06 -0.012091652886952475 0 -1.2129304232275721e-05 -0.012070359556489243 0 5.1071042399202204e-06 -0.012091652886952475 0 -1.2129304232275721e-05 -0.012070359556489243 0 -2.713854383005538e-05 -0.012099129827183327 0 5.1071042399202204e-06 -0.012091652886952475 0 -2.6847394401368087e-05 -0.012124202412819139 0 1.5726033092319644e-06 -0.01213761074960721 0 -4.8003776357266297e-05 -0.012142316984710657 0 -2.6847394401368087e-05 -0.012124202412819139 0 -2.296726805576095e-05 -0.012146483497313678 0 5.1071042399202204e-06 -0.012091652886952475 0 -2.713854383005538e-05 -0.012099129827183327 0 -2.6847394401368087e-05 -0.012124202412819139 0 5.1071042399202204e-06 -0.012091652886952475 0 3.2438895394378451e-05 -0.012099908858040982 0 1.5726033092319644e-06 -0.01213761074960721 0 1.6572477827272592e-05 -0.012178706369281074 0 1.5726033092319644e-06 -0.01213761074960721 0 4.857152256757584e-05 -0.012122369431297859 0 3.2438895394378451e-05 -0.012099908858040982 0 1.5726033092319644e-06 -0.01213761074960721 0 4.857152256757584e-05 -0.012122369431297859 0 -1.6600870805916738e-05 -0.012181437617861982 0 1.5726033092319644e-06 -0.01213761074960721 0 -2.296726805576095e-05 -0.012146483497313678 0 -1.6600870805916738e-05 -0.012181437617861982 0 -4.2820567852378529e-05 -0.012165961818968401 0 -2.296726805576095e-05 -0.012146483497313678 0 -4.2820567852378529e-05 -0.012165961818968401 0 -4.8003776357266297e-05 -0.012142316984710657 0 -2.296726805576095e-05 -0.012146483497313678 0 -2.6847394401368087e-05 -0.012124202412819139 0 1.5726033092319644e-06 -0.01213761074960721 0 -2.296726805576095e-05 -0.012146483497313678 0 4.4148618774370262e-05 -0.012179496713794074 0 7.8818518970468301e-05 -0.012130897034391928 0 4.857152256757584e-05 -0.012122369431297859 0 7.8818518970468301e-05 -0.012130897034391928 0 4.857152256757584e-05 -0.012122369431297859 0 9.3757238182314207e-05 -0.012081044562417587 0 3.2438895394378451e-05 -0.012099908858040982 0 4.857152256757584e-05 -0.012122369431297859 0 7.2272974726611005e-05 -0.012069362723826702 0 4.857152256757584e-05 -0.012122369431297859 0 9.3757238182314207e-05 -0.012081044562417587 0 7.2272974726611005e-05 -0.012069362723826702 0 9.3757238182314207e-05 -0.012081044562417587 0 0.00010903043563670992 -0.012050531006495648 0 7.2272974726611005e-05 -0.012069362723826702 0 0.00012465084296645599 -0.01202186566201968 0 0.00010903043563670992 -0.012050531006495648 0 8.7311525700796565e-05 -0.012042803220805677 0 0.00012465084296645599 -0.01202186566201968 0 8.7311525700796565e-05 -0.012042803220805677 0 6.7019750080130674e-05 -0.012022365296480529 0 0.00010903043563670992 -0.012050531006495648 0 8.7311525700796565e-05 -0.012042803220805677 0 7.2272974726611005e-05 -0.012069362723826702 0 3.2438895394378451e-05 -0.012099908858040982 0 7.2272974726611005e-05 -0.012069362723826702 0 5.0201321382039392e-05 -0.012061462071695726 0 8.7311525700796565e-05 -0.012042803220805677 0 7.2272974726611005e-05 -0.012069362723826702 0 5.0201321382039392e-05 -0.012061462071695726 0 8.7311525700796565e-05 -0.012042803220805677 0 5.0201321382039392e-05 -0.012061462071695726 0 6.7019750080130674e-05 -0.012022365296480529 0 1.1772021245399154e-05 -0.011569831672608525 0 4.622124176978755e-05 -0.01150713093651193 0 1.1772021245399154e-05 -0.011569831672608525 0 -0.00021430772083147562 -0.010859423646674382 0 0.00012465084296645599 -0.01202186566201968 0 6.7019750080130674e-05 -0.012022365296480529 0 0.00011234734003598792 -0.011863798603571335 0 0.0001256207110022687 -0.011397010851983446 0 4.2180238599482361e-05 -0.011117695290550367 0 -5.5570346744914294e-05 -0.011118625221671681 0 3.7484634341519954e-05 -0.011980846846256393 0 8.3414970957825871e-06 -0.01195503008645394 0 0.00011234734003598792 -0.011863798603571335 0 6.7019750080130674e-05 -0.012022365296480529 0 3.7484634341519954e-05 -0.011980846846256393 0 0.00011234734003598792 -0.011863798603571335 0 -1.0695782544654321e-05 -0.01201351903611742 0 -3.9420482835902843e-05 -0.012019978929964367 0 -2.5665149868185559e-05 -0.011996496955480515 0 -1.0695782544654321e-05 -0.01201351903611742 0 8.3414970957825871e-06 -0.01195503008645394 0 -2.5665149868185559e-05 -0.011996496955480515 0 -2.2012677709136025e-05 -0.012048099148776532 0 -1.0695782544654321e-05 -0.01201351903611742 0 -3.7519656456507931e-05 -0.012037517859497719 0 1.0275527853824494e-05 -0.012033750040729051 0 -1.0695782544654321e-05 -0.01201351903611742 0 3.7484634341519954e-05 -0.011980846846256393 0 -1.0695782544654321e-05 -0.01201351903611742 0 3.7484634341519954e-05 -0.011980846846256393 0 8.3414970957825871e-06 -0.01195503008645394 0 1.0275527853824494e-05 -0.012033750040729051 0 6.7019750080130674e-05 -0.012022365296480529 0 3.7484634341519954e-05 -0.011980846846256393 0 8.3414970957825871e-06 -0.01195503008645394 0 -5.9946526777644605e-06 -0.011875969718608697 0 -2.2827311943243511e-05 -0.011938878135493739 0 8.3414970957825871e-06 -0.01195503008645394 0 -3.4947819939440667e-05 -0.011981111295887265 0 -2.5665149868185559e-05 -0.011996496955480515 0 8.3414970957825871e-06 -0.01195503008645394 0 -3.4947819939440667e-05 -0.011981111295887265 0 -2.2827311943243511e-05 -0.011938878135493739 0 -5.9946526777644605e-06 -0.011875969718608697 0 0.00011234734003598792 -0.011863798603571335 0 -4.3055250846620792e-05 -0.011752832513874538 0 8.3414970957825871e-06 -0.01195503008645394 0 -5.9946526777644605e-06 -0.011875969718608697 0 0.00011234734003598792 -0.011863798603571335 0 4.2180238599482361e-05 -0.011117695290550367 0 -5.5570346744914294e-05 -0.011118625221671681 0 -4.2866500879636384e-05 -0.010852831362189 0 1.8934504914485173e-05 -0.010292863546533868 0 -0.00015763967846459142 -0.010232848571831482 0 -5.9977494313631835e-05 -0.010339741339186064 0 -0.00041682635732355662 -0.010621347696664667 0 -0.00062320553249984938 -0.0099546336483210176 0 0.00013201464090622752 -0.010007164005844159 0 0.00016138744242398612 -0.010312776798881007 0 -6.0113569333726409e-05 -0.010033054889206207 0 -0.00021430772083147562 -0.010859423646674382 0 -0.00015763967846459142 -0.010232848571831482 0 0.00011234734003598792 -0.011863798603571335 0 2.4806858768930943e-05 -0.011573469993083863 0 -4.3055250846620792e-05 -0.011752832513874538 0 4.622124176978755e-05 -0.01150713093651193 0 -9.6272888659444184e-05 -0.011264752619689532 0 -5.5570346744914294e-05 -0.011118625221671681 0 -4.2866500879636384e-05 -0.010852831362189 0 -0.00022802434647977842 -0.010856319528207699 0 -0.00015763967846459142 -0.010232848571831482 0 -6.3597767420038007e-05 -0.0096995413381200726 0 -4.2866500879636384e-05 -0.010852831362189 0 -0.00022154143731371029 -0.010731652941657953 0 -0.00022802434647977842 -0.010856319528207699 0 -1.411149884886541e-05 -0.0099376882394682162 0 -0.0001404142209438066 -0.0098445331261626315 0 -6.9761414221962257e-05 -0.0097652285171172856 0 -0.00015763967846459142 -0.010232848571831482 0 -0.00019293354969749215 -0.010259536743425548 0 0.00013201464090622752 -0.010007164005844159 0 4.7458380749192109e-05 -0.009858200366716351 0 0.00018452324462866419 -0.0097285119288500442 0 -6.0113569333726409e-05 -0.010033054889206207 0 4.7458380749192109e-05 -0.009858200366716351 0 -6.9761414221962257e-05 -0.0097652285171172856 0 0.00013201464090622752 -0.010007164005844159 0 -6.0113569333726409e-05 -0.010033054889206207 0 4.7458380749192109e-05 -0.009858200366716351 0 -0.00014777645593062804 -0.011473736834223735 0 -9.6170272860808827e-05 -0.01129394066708903 0 -0.00015174091432285474 -0.011346919309405941 0 -0.00014777645593062804 -0.011473736834223735 0 -0.00024525798518191123 -0.011486600896819115 0 -0.00021826498307940027 -0.011573977777318568 0 -0.00014777645593062804 -0.011473736834223735 0 -0.00024525798518191123 -0.011486600896819115 0 -0.0002182618638550059 -0.011409188393170469 0 -0.00014777645593062804 -0.011473736834223735 0 -0.0002182618638550059 -0.011409188393170469 0 -0.00015174091432285474 -0.011346919309405941 0 -9.6272888659444184e-05 -0.011264752619689532 0 -0.00025019369112983116 -0.010659177397586445 0 -0.00022154143731371029 -0.010731652941657953 0 -0.00022802434647977842 -0.010856319528207699 0 -0.00039050085850847471 -0.010610308592006418 0 -0.00014777645593062804 -0.011473736834223735 0 2.4806858768930943e-05 -0.011573469993083863 0 -9.6170272860808827e-05 -0.01129394066708903 0 2.4806858768930943e-05 -0.011573469993083863 0 -0.0001179292340411574 -0.011623889272334653 0 -4.3055250846620792e-05 -0.011752832513874538 0 -0.00014777645593062804 -0.011473736834223735 0 2.4806858768930943e-05 -0.011573469993083863 0 -0.0001179292340411574 -0.011623889272334653 0 -0.0001179292340411574 -0.011623889272334653 0 -0.00014030754751173319 -0.011696540254642156 0 -4.3055250846620792e-05 -0.011752832513874538 0 -0.0001682776876246072 -0.011655974752340724 0 -0.00021826498307940027 -0.011573977777318568 0 -0.00019605464655299737 -0.011729813285033908 0 -0.00016579912827282897 -0.011793375145238521 0 -0.00013672393621713244 -0.011773647729364085 0 -0.00024579598986435199 -0.011568443217873384 0 -0.00021826498307940027 -0.011573977777318568 0 -0.00019605464655299737 -0.011729813285033908 0 -0.00032417901100412173 -0.011496383713286771 0 -0.00014030754751173319 -0.011696540254642156 0 -0.0001682776876246072 -0.011655974752340724 0 -0.00019605464655299737 -0.011729813285033908 0 -0.0001179292340411574 -0.011623889272334653 0 -0.00014030754751173319 -0.011696540254642156 0 -0.0001682776876246072 -0.011655974752340724 0 -0.00014777645593062804 -0.011473736834223735 0 -0.0001179292340411574 -0.011623889272334653 0 -0.00021826498307940027 -0.011573977777318568 0 -0.0001179292340411574 -0.011623889272334653 0 -0.0001682776876246072 -0.011655974752340724 0 -0.00021826498307940027 -0.011573977777318568 0 -0.0001528680586863473 -0.011945192588513093 0 -7.222930021101916e-05 -0.012002257938484317 0 -0.00015644028036246964 -0.012092080851469985 0 -0.00015745405044395461 -0.012093423174468336 0 -0.00016096718028380859 -0.012096717784717341 0 -0.00016579912827282897 -0.011793375145238521 0 -0.00013672393621713244 -0.011773647729364085 0 -7.3781140181408586e-05 -0.011994962455727941 0 -0.00015644028036246964 -0.012092080851469985 0 -0.00015238440800864533 -0.012087047132264208 0 -0.00015745405044395461 -0.012093423174468336 0 -0.00015644028036246964 -0.012092080851469985 0 -0.00015238440800864533 -0.012087047132264208 0 -0.00014660925584263776 -0.012079477541798927 0 -0.00014030754751173319 -0.011696540254642156 0 -0.00019605464655299737 -0.011729813285033908 0 -0.00011497746207917441 -0.011755593526249629 0 -0.00015644028036246964 -0.012092080851469985 0 -0.00013178110620997474 -0.012062559039422499 0 -9.9787473193254693e-05 -0.012026154612854764 0 -0.00013178110620997474 -0.012062559039422499 0 -0.0001441521023234855 -0.012076760637944906 0 -0.00013682797078592678 -0.012069322805872482 0 -0.00015644028036246964 -0.012092080851469985 0 -0.00013178110620997474 -0.012062559039422499 0 -0.00014660925584263776 -0.012079477541798927 0 -0.0001441521023234855 -0.012076760637944906 0 -0.00014918693925737404 -0.012084078106301415 0 -0.00013682797078592678 -0.012069322805872482 0 -0.0001441521023234855 -0.012076760637944906 0 -0.00014918693925737404 -0.012084078106301415 0 -0.00015238440800864533 -0.012087047132264208 0 -0.00013178110620997474 -0.012062559039422499 0 -0.0001441521023234855 -0.012076760637944906 0 -0.00014660925584263776 -0.012079477541798927 0 -0.0001441521023234855 -0.012076760637944906 0 -0.00015238440800864533 -0.012087047132264208 0 -0.00014660925584263776 -0.012079477541798927 0 -0.00015644028036246964 -0.012092080851469985 0 -7.3781140181408586e-05 -0.011994962455727941 0 -9.9787473193254693e-05 -0.012026154612854764 0 -0.00019605464655299737 -0.011729813285033908 0 -8.0835154421418369e-05 -0.011843510006584481 0 -5.6116943670070738e-05 -0.011979873370618059 0 -0.0001664490079953325 -0.011755540617660463 0 -5.5856925524988065e-05 -0.01196000775778552 0 -0.00013672393621713244 -0.011773647729364085 0 -5.6116943670070738e-05 -0.011979873370618059 0 -7.3781140181408586e-05 -0.011994962455727941 0 -4.3055250846620792e-05 -0.011752832513874538 0 -0.00011497746207917441 -0.011755593526249629 0 -8.0835154421418369e-05 -0.011843510006584481 0 -0.00014030754751173319 -0.011696540254642156 0 -4.3055250846620792e-05 -0.011752832513874538 0 -0.00011497746207917441 -0.011755593526249629 0 -0.00019605464655299737 -0.011729813285033908 0 -0.00011497746207917441 -0.011755593526249629 0 -8.0835154421418369e-05 -0.011843510006584481 0 -8.0835154421418369e-05 -0.011843510006584481 0 -3.8813338553698784e-05 -0.01190830369194339 0 -5.6116943670070738e-05 -0.011979873370618059 0 -5.9946526777644605e-06 -0.011875969718608697 0 -4.3055250846620792e-05 -0.011752832513874538 0 -8.0835154421418369e-05 -0.011843510006584481 0 -5.9946526777644605e-06 -0.011875969718608697 0 -8.0835154421418369e-05 -0.011843510006584481 0 -3.8813338553698784e-05 -0.01190830369194339 0 -5.9946526777644605e-06 -0.011875969718608697 0 -3.8813338553698784e-05 -0.01190830369194339 0 -2.2827311943243511e-05 -0.011938878135493739 0 -3.4947819939440667e-05 -0.011981111295887265 0 -5.6116943670070738e-05 -0.011979873370618059 0 -5.7460258567920502e-05 -0.011997816092078421 0 -3.4947819939440667e-05 -0.011981111295887265 0 -2.2827311943243511e-05 -0.011938878135493739 0 -5.6116943670070738e-05 -0.011979873370618059 0 -3.8813338553698784e-05 -0.01190830369194339 0 -2.2827311943243511e-05 -0.011938878135493739 0 -5.6116943670070738e-05 -0.011979873370618059 0 -5.6116943670070738e-05 -0.011979873370618059 0 -5.7460258567920502e-05 -0.011997816092078421 0 -7.3781140181408586e-05 -0.011994962455727941 0 -7.3781140181408586e-05 -0.011994962455727941 0 -9.9787473193254693e-05 -0.012026154612854764 0 -9.2600729549101931e-05 -0.012031248345984518 0 -9.9787473193254693e-05 -0.012026154612854764 0 -0.00010677908813102045 -0.012041181637885326 0 -9.2600729549101931e-05 -0.012031248345984518 0 -9.9787473193254693e-05 -0.012026154612854764 0 -0.00010677908813102045 -0.012041181637885326 0 -0.00011600700716532748 -0.012045693271524546 0 -9.9778646518224758e-05 -0.012064105016523365 0 -9.2600729549101931e-05 -0.012031248345984518 0 -0.00011055988189061989 -0.012055338798994954 0 -0.00010677908813102045 -0.012041181637885326 0 -9.2600729549101931e-05 -0.012031248345984518 0 -0.00011055988189061989 -0.012055338798994954 0 -9.9778646518224758e-05 -0.012064105016523365 0 -7.8562316610832737e-05 -0.012046105280439376 0 -9.2600729549101931e-05 -0.012031248345984518 0 -7.8562316610832737e-05 -0.012046105280439376 0 -9.2600729549101931e-05 -0.012031248345984518 0 -7.0514961262547557e-05 -0.01202020501004906 0 -7.3781140181408586e-05 -0.011994962455727941 0 -9.2600729549101931e-05 -0.012031248345984518 0 -7.0514961262547557e-05 -0.01202020501004906 0 -5.7460258567920502e-05 -0.011997816092078421 0 -7.0514961262547557e-05 -0.01202020501004906 0 -4.9699469908786104e-05 -0.012010041140563719 0 -5.7460258567920502e-05 -0.011997816092078421 0 -7.3781140181408586e-05 -0.011994962455727941 0 -7.0514961262547557e-05 -0.01202020501004906 0 -7.0514961262547557e-05 -0.01202020501004906 0 -5.7417547276348442e-05 -0.01203400213270627 0 -4.9699469908786104e-05 -0.012010041140563719 0 -5.7609589973312883e-05 -0.012058338755817603 0 -7.8562316610832737e-05 -0.012046105280439376 0 -5.7417547276348442e-05 -0.01203400213270627 0 -7.8562316610832737e-05 -0.012046105280439376 0 -7.0514961262547557e-05 -0.01202020501004906 0 -5.7417547276348442e-05 -0.01203400213270627 0 -5.7417547276348442e-05 -0.01203400213270627 0 -3.7519656456507931e-05 -0.012037517859497719 0 -3.9420482835902843e-05 -0.012019978929964367 0 -1.0695782544654321e-05 -0.01201351903611742 0 -3.7519656456507931e-05 -0.012037517859497719 0 -3.9420482835902843e-05 -0.012019978929964367 0 -5.7609589973312883e-05 -0.012058338755817603 0 -5.7417547276348442e-05 -0.01203400213270627 0 -3.7519656456507931e-05 -0.012037517859497719 0 -3.9420482835902843e-05 -0.012019978929964367 0 -4.9699469908786104e-05 -0.012010041140563719 0 -2.5665149868185559e-05 -0.011996496955480515 0 -5.7417547276348442e-05 -0.01203400213270627 0 -3.9420482835902843e-05 -0.012019978929964367 0 -4.9699469908786104e-05 -0.012010041140563719 0 -3.4947819939440667e-05 -0.011981111295887265 0 -5.7460258567920502e-05 -0.011997816092078421 0 -4.9699469908786104e-05 -0.012010041140563719 0 -3.4947819939440667e-05 -0.011981111295887265 0 -4.9699469908786104e-05 -0.012010041140563719 0 -2.5665149868185559e-05 -0.011996496955480515 0 -0.00013989023260342593 -0.012076192943149445 0 -0.00014662151580265758 -0.012092837665172513 0 -0.00015147672255768117 -0.012090683119455003 0 -0.00014918693925737404 -0.012084078106301415 0 -0.00013989023260342593 -0.012076192943149445 0 -0.00015147672255768117 -0.012090683119455003 0 -0.00014918693925737404 -0.012084078106301415 0 -0.00013989023260342593 -0.012076192943149445 0 -0.00013682797078592678 -0.012069322805872482 0 -0.00013989023260342593 -0.012076192943149445 0 -0.00013682797078592678 -0.012069322805872482 0 -0.00012983540968724837 -0.012064028134470418 0 -0.00013178110620997474 -0.012062559039422499 0 -9.9787473193254693e-05 -0.012026154612854764 0 -0.00011600700716532748 -0.012045693271524546 0 -0.00013178110620997474 -0.012062559039422499 0 -0.00013682797078592678 -0.012069322805872482 0 -0.0001254378708252485 -0.012056265650829926 0 -0.00013178110620997474 -0.012062559039422499 0 -0.0001254378708252485 -0.012056265650829926 0 -0.00011600700716532748 -0.012045693271524546 0 -0.00013682797078592678 -0.012069322805872482 0 -0.0001254378708252485 -0.012056265650829926 0 -0.00012983540968724837 -0.012064028134470418 0 -0.0001254378708252485 -0.012056265650829926 0 -0.00011600700716532748 -0.012045693271524546 0 -0.00011852218122952596 -0.012052728900337725 0 -0.00010677908813102045 -0.012041181637885326 0 -0.00011852218122952596 -0.012052728900337725 0 -0.00011055988189061989 -0.012055338798994954 0 -0.00010677908813102045 -0.012041181637885326 0 -0.00011600700716532748 -0.012045693271524546 0 -0.00011852218122952596 -0.012052728900337725 0 -0.00013989023260342593 -0.012076192943149445 0 -0.00012983540968724837 -0.012064028134470418 0 -0.00012940517824113992 -0.012070986541903066 0 -0.00011852218122952596 -0.012052728900337725 0 -0.00012983540968724837 -0.012064028134470418 0 -0.00012940517824113992 -0.012070986541903066 0 -0.0001254378708252485 -0.012056265650829926 0 -0.00011852218122952596 -0.012052728900337725 0 -0.00012983540968724837 -0.012064028134470418 0 -0.00011852218122952596 -0.012052728900337725 0 -0.00012940517824113992 -0.012070986541903066 0 -0.00011055988189061989 -0.012055338798994954 0 -0.00012530263286386536 -0.012084698617645448 0 -9.9778646518224758e-05 -0.012064105016523365 0 -0.00011055988189061989 -0.012055338798994954 0 -0.00012530263286386536 -0.012084698617645448 0 -0.00012940517824113992 -0.012070986541903066 0 -0.00011055988189061989 -0.012055338798994954 0 -0.00012530263286386536 -0.012084698617645448 0 -0.00014300738843517471 -0.012106090372332042 0 -0.00014662151580265758 -0.012092837665172513 0 -0.00012530263286386536 -0.012084698617645448 0 -0.00012940517824113992 -0.012070986541903066 0 -0.00014662151580265758 -0.012092837665172513 0 -0.00013989023260342593 -0.012076192943149445 0 -0.00012940517824113992 -0.012070986541903066 0 -0.00014662151580265758 -0.012092837665172513 0 -0.00014662151580265758 -0.012092837665172513 0 -0.00015942442506745123 -0.012103499081231907 0 -0.00016419433555835605 -0.012117535121830151 0 -0.00014300738843517471 -0.012106090372332042 0 -0.00014662151580265758 -0.012092837665172513 0 -0.00016419433555835605 -0.012117535121830151 0 -0.00015942442506745123 -0.012103499081231907 0 -0.00017309162427572866 -0.012118688137630299 0 -0.00016419433555835605 -0.012117535121830151 0 -0.00014662151580265758 -0.012092837665172513 0 -0.00015942442506745123 -0.012103499081231907 0 -0.00015147672255768117 -0.012090683119455003 0 -0.00017693857173130446 -0.012129217592305829 0 -0.00017309162427572866 -0.012118688137630299 0 -0.00016419433555835605 -0.012117535121830151 0 -0.00017693857173130446 -0.012129217592305829 0 -0.00017309162427572866 -0.012118688137630299 0 -0.00019017571100848579 -0.012140105707695149 0 -0.00017309162427572866 -0.012118688137630299 0 -0.0001855624552936495 -0.012129570515021537 0 -0.00017154205989778596 -0.012112165998515566 0 -0.00017309162427572866 -0.012118688137630299 0 -0.00016082372149703924 -0.012100742115542254 0 -0.00017154205989778596 -0.012112165998515566 0 -0.00014918693925737404 -0.012084078106301415 0 -0.00016082372149703924 -0.012100742115542254 0 -0.00015147672255768117 -0.012090683119455003 0 -0.00015942442506745123 -0.012103499081231907 0 -0.00016082372149703924 -0.012100742115542254 0 -0.00015147672255768117 -0.012090683119455003 0 -0.00015942442506745123 -0.012103499081231907 0 -0.00017309162427572866 -0.012118688137630299 0 -0.00016082372149703924 -0.012100742115542254 0 -0.00019017571100848579 -0.012140105707695149 0 -0.00021782542208857099 -0.01216842468132434 0 -0.00017868708487268957 -0.01213668727643185 0 -0.00017309162427572866 -0.012118688137630299 0 -0.00019017571100848579 -0.012140105707695149 0 -0.0001855624552936495 -0.012129570515021537 0 -0.00019017571100848579 -0.012140105707695149 0 -0.0001855624552936495 -0.012129570515021537 0 -0.00020261106862613781 -0.012148197708737919 0 -0.00019017571100848579 -0.012140105707695149 0 -0.00020261106862613781 -0.012148197708737919 0 -0.00021782542208857099 -0.01216842468132434 0 -0.00020058821690822207 -0.012139648626286251 0 -0.00022013723057103747 -0.012146949702431941 0 -0.00023176113227815046 -0.012162848533707867 0 -0.00020261106862613781 -0.012148197708737919 0 -0.00020058821690822207 -0.012139648626286251 0 -0.00023176113227815046 -0.012162848533707867 0 -0.0001855624552936495 -0.012129570515021537 0 -0.00020261106862613781 -0.012148197708737919 0 -0.00020058821690822207 -0.012139648626286251 0 -0.0001855624552936495 -0.012129570515021537 0 -0.00020058821690822207 -0.012139648626286251 0 -0.00018221912081232909 -0.012121052833312036 0 -0.00020058821690822207 -0.012139648626286251 0 -0.00018221912081232909 -0.012121052833312036 0 -0.00019641272129676966 -0.012127678847446881 0 -0.00018221912081232909 -0.012121052833312036 0 -0.00019641272129676966 -0.012127678847446881 0 -0.00017870744693353815 -0.012112270832111785 0 -0.00020058821690822207 -0.012139648626286251 0 -0.00019641272129676966 -0.012127678847446881 0 -0.00022013723057103747 -0.012146949702431941 0 -0.00019641272129676966 -0.012127678847446881 0 -0.00022013723057103747 -0.012146949702431941 0 -0.00021830017243549453 -0.012127594256159469 0 -0.00016010435244570977 -0.012097828819452285 0 -0.00016754761855872674 -0.012104926805936021 0 -0.0001603599011758976 -0.01209689449344525 0 -0.00015238440800864533 -0.012087047132264208 0 -0.00016010435244570977 -0.012097828819452285 0 -0.0001603599011758976 -0.01209689449344525 0 -0.00014918693925737404 -0.012084078106301415 0 -0.00015238440800864533 -0.012087047132264208 0 -0.00016010435244570977 -0.012097828819452285 0 -0.00014918693925737404 -0.012084078106301415 0 -0.00016082372149703924 -0.012100742115542254 0 -0.00016010435244570977 -0.012097828819452285 0 -0.00016082372149703924 -0.012100742115542254 0 -0.00016010435244570977 -0.012097828819452285 0 -0.00017154205989778596 -0.012112165998515566 0 -0.00016010435244570977 -0.012097828819452285 0 -0.00017154205989778596 -0.012112165998515566 0 -0.00016754761855872674 -0.012104926805936021 0 -0.0001855624552936495 -0.012129570515021537 0 -0.00018221912081232909 -0.012121052833312036 0 -0.00017154205989778596 -0.012112165998515566 0 -0.00018221912081232909 -0.012121052833312036 0 -0.00017154205989778596 -0.012112165998515566 0 -0.00016754761855872674 -0.012104926805936021 0 -0.00018221912081232909 -0.012121052833312036 0 -0.00016754761855872674 -0.012104926805936021 0 -0.00017870744693353815 -0.012112270832111785 0 -0.00016754761855872674 -0.012104926805936021 0 -0.00017870744693353815 -0.012112270832111785 0 -0.00016642519147795339 -0.012099518055989709 0 -0.00016754761855872674 -0.012104926805936021 0 -0.00016096718028380859 -0.012096717784717341 0 -0.00016642519147795339 -0.012099518055989709 0 -0.00015644028036246964 -0.012092080851469985 0 -0.00016096718028380859 -0.012096717784717341 0 -0.00016642519147795339 -0.012099518055989709 0 -0.00016754761855872674 -0.012104926805936021 0 -0.0001603599011758976 -0.01209689449344525 0 -0.00016096718028380859 -0.012096717784717341 0 -0.00015238440800864533 -0.012087047132264208 0 -0.0001603599011758976 -0.01209689449344525 0 -0.00015745405044395461 -0.012093423174468336 0 -0.0001603599011758976 -0.01209689449344525 0 -0.00015745405044395461 -0.012093423174468336 0 -0.00016096718028380859 -0.012096717784717341 0 -0.0001528680586863473 -0.011945192588513093 0 -0.00023415001885770389 -0.01185045337349316 0 -0.00016579912827282897 -0.011793375145238521 0 -0.00029687112643668402 -0.011605731000457474 0 -0.00024579598986435199 -0.011568443217873384 0 -0.0001664490079953325 -0.011755540617660463 0 -0.00028518052319764873 -0.011532786690874382 0 -0.00015644028036246964 -0.012092080851469985 0 -0.0001721095659990313 -0.012097358860838733 0 -0.00016642519147795339 -0.012099518055989709 0 -0.0001721095659990313 -0.012097358860838733 0 -0.00017600872410458631 -0.012103769475774425 0 -0.00016642519147795339 -0.012099518055989709 0 -0.00017870744693353815 -0.012112270832111785 0 -0.00017600872410458631 -0.012103769475774425 0 -0.00016642519147795339 -0.012099518055989709 0 -0.00017870744693353815 -0.012112270832111785 0 -0.00017600872410458631 -0.012103769475774425 0 -0.00018793271497786446 -0.012112043526448884 0 -0.00019641272129676966 -0.012127678847446881 0 -0.00017870744693353815 -0.012112270832111785 0 -0.00018793271497786446 -0.012112043526448884 0 -0.00017600872410458631 -0.012103769475774425 0 -0.00018793271497786446 -0.012112043526448884 0 -0.00018169573890911665 -0.01210276037656418 0 -0.00019641272129676966 -0.012127678847446881 0 -0.00018793271497786446 -0.012112043526448884 0 -0.00021830017243549453 -0.012127594256159469 0 -0.00018793271497786446 -0.012112043526448884 0 -0.00021830017243549453 -0.012127594256159469 0 -0.00019465546985555853 -0.012100859813599091 0 -0.00019465546985555853 -0.012100859813599091 0 -0.00021024597685406407 -0.012075304132587063 0 -0.00022364055691597297 -0.012105581448523077 0 -0.00021830017243549453 -0.012127594256159469 0 -0.00019465546985555853 -0.012100859813599091 0 -0.00022364055691597297 -0.012105581448523077 0 -0.0001721095659990313 -0.012097358860838733 0 -0.00019465546985555853 -0.012100859813599091 0 -0.00018169573890911665 -0.01210276037656418 0 -0.0001721095659990313 -0.012097358860838733 0 -0.00017600872410458631 -0.012103769475774425 0 -0.00018169573890911665 -0.01210276037656418 0 -0.0001721095659990313 -0.012097358860838733 0 -0.00019465546985555853 -0.012100859813599091 0 -0.00021024597685406407 -0.012075304132587063 0 -0.00018793271497786446 -0.012112043526448884 0 -0.00019465546985555853 -0.012100859813599091 0 -0.00018169573890911665 -0.01210276037656418 0 -0.00032417901100412173 -0.011496383713286771 0 -0.00035901042427948242 -0.011352089764345012 0 -0.00044592012946045753 -0.011280592813715904 0 -0.0001721095659990313 -0.012097358860838733 0 -0.00021024597685406407 -0.012075304132587063 0 -0.00021203538536105111 -0.012007489382618135 0 -0.00023415001885770389 -0.01185045337349316 0 -0.00034482897209082687 -0.011696508692440806 0 -0.00028518052319764873 -0.011532786690874382 0 -0.00042402898043376115 -0.011306183128787842 0 -0.00029687112643668402 -0.011605731000457474 0 -0.00024579598986435199 -0.011568443217873384 0 -0.00039655570132479185 -0.011334906155034541 0 -0.00029687112643668402 -0.011605731000457474 0 -0.00047548139792909059 -0.01139358693813672 0 -0.00039655570132479185 -0.011334906155034541 0 -0.00029456330875349994 -0.011401166750100314 0 -0.00030757241477411429 -0.011337053046358497 0 -0.00035901042427948242 -0.011352089764345012 0 -0.00029456330875349994 -0.011401166750100314 0 -0.00032417901100412173 -0.011496383713286771 0 -0.00035901042427948242 -0.011352089764345012 0 -0.0002182618638550059 -0.011409188393170469 0 -0.00029456330875349994 -0.011401166750100314 0 -0.00025835434838768407 -0.011342697101897918 0 -0.0002182618638550059 -0.011409188393170469 0 -0.00029456330875349994 -0.011401166750100314 0 -0.00027939165113158179 -0.01145271917664166 0 -0.00029456330875349994 -0.011401166750100314 0 -0.00025835434838768407 -0.011342697101897918 0 -0.00030757241477411429 -0.011337053046358497 0 -0.00024525798518191123 -0.011486600896819115 0 -0.00021826498307940027 -0.011573977777318568 0 -0.00032417901100412173 -0.011496383713286771 0 -0.00029456330875349994 -0.011401166750100314 0 -0.00027939165113158179 -0.01145271917664166 0 -0.00032417901100412173 -0.011496383713286771 0 -0.00024525798518191123 -0.011486600896819115 0 -0.00027939165113158179 -0.01145271917664166 0 -0.00032417901100412173 -0.011496383713286771 0 -0.00024525798518191123 -0.011486600896819115 0 -0.0002182618638550059 -0.011409188393170469 0 -0.00027939165113158179 -0.01145271917664166 0 -0.00035137909265456433 -0.012101032263626587 0 -0.0002826362535749326 -0.012070900412727887 0 -0.00030708790984340244 -0.012139453547827268 0 -0.00035137909265456433 -0.012101032263626587 0 -0.00031806556360663231 -0.01202315642954512 0 -0.0002826362535749326 -0.012070900412727887 0 -0.00035137909265456433 -0.012101032263626587 0 -0.00039549729310248756 -0.012163450611148145 0 -0.0004768337511071143 -0.012133559965354302 0 -0.00035137909265456433 -0.012101032263626587 0 -0.0003922544501746136 -0.012046356214299203 0 -0.0004768337511071143 -0.012133559965354302 0 -0.0003922544501746136 -0.012046356214299203 0 -0.0004768337511071143 -0.012133559965354302 0 -0.00047062351212536277 -0.012009336058230225 0 -0.0003922544501746136 -0.012046356214299203 0 -0.00047062351212536277 -0.012009336058230225 0 -0.00037589921344785381 -0.011987345200257954 0 -0.0003922544501746136 -0.012046356214299203 0 -0.00031806556360663231 -0.01202315642954512 0 -0.00037589921344785381 -0.011987345200257954 0 -0.00035137909265456433 -0.012101032263626587 0 -0.0003922544501746136 -0.012046356214299203 0 -0.00031806556360663231 -0.01202315642954512 0 -0.00031806556360663231 -0.01202315642954512 0 -0.0002690272180472631 -0.012023315882622509 0 -0.00030584547078138112 -0.01194439587459495 0 -0.0002690272180472631 -0.012023315882622509 0 -0.00024045664881921784 -0.012054468559258557 0 -0.0002826362535749326 -0.012070900412727887 0 -0.00031806556360663231 -0.01202315642954512 0 -0.0002690272180472631 -0.012023315882622509 0 -0.0002826362535749326 -0.012070900412727887 0 -0.0002690272180472631 -0.012023315882622509 0 -0.00024045664881921784 -0.012054468559258557 0 -0.00021203538536105111 -0.012007489382618135 0 -0.00021024597685406407 -0.012075304132587063 0 -0.00024045664881921784 -0.012054468559258557 0 -0.00021203538536105111 -0.012007489382618135 0 -0.00021024597685406407 -0.012075304132587063 0 -0.00024045664881921784 -0.012054468559258557 0 -0.00025011796558485752 -0.012093737004630354 0 -0.00025011796558485752 -0.012093737004630354 0 -0.0002826362535749326 -0.012070900412727887 0 -0.00030708790984340244 -0.012139453547827268 0 -0.00024045664881921784 -0.012054468559258557 0 -0.00025011796558485752 -0.012093737004630354 0 -0.0002826362535749326 -0.012070900412727887 0 -0.00025011796558485752 -0.012093737004630354 0 -0.00025183263062880158 -0.0121255957302609 0 -0.00030708790984340244 -0.012139453547827268 0 -0.00021024597685406407 -0.012075304132587063 0 -0.00025011796558485752 -0.012093737004630354 0 -0.00022364055691597297 -0.012105581448523077 0 -0.00021830017243549453 -0.012127594256159469 0 -0.00025183263062880158 -0.0121255957302609 0 -0.00022364055691597297 -0.012105581448523077 0 -0.00025011796558485752 -0.012093737004630354 0 -0.00025183263062880158 -0.0121255957302609 0 -0.00022364055691597297 -0.012105581448523077 0 -0.00021830017243549453 -0.012127594256159469 0 -0.00025183263062880158 -0.0121255957302609 0 -0.00025468685025856999 -0.012155515351186081 0 -0.00025183263062880158 -0.0121255957302609 0 -0.00030708790984340244 -0.012139453547827268 0 -0.00025468685025856999 -0.012155515351186081 0 -0.00030708790984340244 -0.012139453547827268 0 -0.00033342054642366284 -0.012212504362172107 0 -0.00025468685025856999 -0.012155515351186081 0 -0.00030708790984340244 -0.012139453547827268 0 -0.00039549729310248756 -0.012163450611148145 0 -0.00033342054642366284 -0.012212504362172107 0 -0.00035137909265456433 -0.012101032263626587 0 -0.00030708790984340244 -0.012139453547827268 0 -0.00039549729310248756 -0.012163450611148145 0 -0.00015047177145702519 -0.013387265465119999 0 -9.5751273038827752e-05 -0.013965550228798529 0 -0.00044322295249800176 -0.013519236804501886 0 -0.00033342054642366284 -0.012212504362172107 0 -0.00023176113227815046 -0.012162848533707867 0 -0.00021782542208857099 -0.01216842468132434 0 -0.00033342054642366284 -0.012212504362172107 0 -0.00025468685025856999 -0.012155515351186081 0 -0.00023176113227815046 -0.012162848533707867 0 -0.00025457924343038366 -0.012790166145353934 0 -7.5563124480195094e-05 -0.013019385172260891 0 -0.00022013723057103747 -0.012146949702431941 0 -0.00021830017243549453 -0.012127594256159469 0 -0.00025468685025856999 -0.012155515351186081 0 -0.00022013723057103747 -0.012146949702431941 0 -0.00025468685025856999 -0.012155515351186081 0 -0.00023176113227815046 -0.012162848533707867 0 -0.00015047177145702519 -0.013387265465119999 0 0.00010046477211948568 -0.013888982854296164 0 -9.5751273038827752e-05 -0.013965550228798529 0 -0.00020261106862613781 -0.012148197708737919 0 -0.00023176113227815046 -0.012162848533707867 0 -0.00021782542208857099 -0.01216842468132434 0 3.3060296762642901e-05 -0.014232816316744517 0 -0.00013146891979866031 -0.014019811595722345 0 0.00014085263281013848 -0.014485315378928356 0 0.0001732484747545285 -0.014490970908651596 0 0.00017466075205907554 -0.014514126443657058 0 0.00014085263281013848 -0.014485315378928356 0 0.00017466075205907554 -0.014514126443657058 0 0.00018243714549859145 -0.014547941181243947 0 0.00015147129999017731 -0.014438546226853881 0 0.00017923904303111026 -0.014467235522681903 0 0.0001732484747545285 -0.014490970908651596 0 0.00014085263281013848 -0.014485315378928356 0 0.00015147129999017731 -0.014438546226853881 0 0.0001732484747545285 -0.014490970908651596 0 0.00015147129999017731 -0.014438546226853881 0 0.00014795347229926007 -0.014404476175650585 0 0.00017923904303111026 -0.014467235522681903 0 0.00014795347229926007 -0.014404476175650585 0 0.00016953540040385711 -0.014416851789591052 0 0.00017923904303111026 -0.014467235522681903 0 0.00014795347229926007 -0.014404476175650585 0 0.00013644112969654165 -0.014367052196459265 0 0.00012593454264786221 -0.014341318352215532 0 0.00015147129999017731 -0.014438546226853881 0 0.00014795347229926007 -0.014404476175650585 0 0.00012593454264786221 -0.014341318352215532 0 0.00014085263281013848 -0.014485315378928356 0 0.00015147129999017731 -0.014438546226853881 0 0.00012593454264786221 -0.014341318352215532 0 3.3060296762642901e-05 -0.014232816316744517 0 0.00013194479169959233 -0.014340486708022602 0 0.00010046477211948568 -0.013888982854296164 0 -9.5751273038827752e-05 -0.013965550228798529 0 0.00012593454264786221 -0.014341318352215532 0 -7.5563124480195094e-05 -0.013019385172260891 0 1.171661270035812e-05 -0.013213001368036553 0 0.00010046477211948568 -0.013888982854296164 0 0.00012593454264786221 -0.014341318352215532 0 0.00020355897630404635 -0.014300905022624079 0 -0.00017693857173130446 -0.012129217592305829 0 -0.00019017571100848579 -0.012140105707695149 0 -0.00017868708487268957 -0.01213668727643185 0 -0.00014844488001622722 -0.012127103580504839 0 -0.00017868708487268957 -0.01213668727643185 0 -0.00016419433555835605 -0.012117535121830151 0 -0.00014844488001622722 -0.012127103580504839 0 -0.00014300738843517471 -0.012106090372332042 0 -0.00016419433555835605 -0.012117535121830151 0 -0.00017693857173130446 -0.012129217592305829 0 -0.00017868708487268957 -0.01213668727643185 0 -0.00016419433555835605 -0.012117535121830151 0 -0.0001413087264113123 -0.012165327251540087 0 -0.00014844488001622722 -0.012127103580504839 0 -0.00017868708487268957 -0.01213668727643185 0 0.0001031019908275632 -0.014357152305369688 0 0.00020355897630404635 -0.014300905022624079 0 0.00014499545909162591 -0.014351913301687948 0 -5.102747843007389e-05 -0.013228672404342622 0 1.171661270035812e-05 -0.013213001368036553 0 0.00012593454264786221 -0.014341318352215532 0 0.00020355897630404635 -0.014300905022624079 0 0.00014499545909162591 -0.014351913301687948 0 0.00013644112969654165 -0.014367052196459265 0 0.00012593454264786221 -0.014341318352215532 0 0.00014499545909162591 -0.014351913301687948 0 0.00013644112969654165 -0.014367052196459265 0 0.00014499545909162591 -0.014351913301687948 0 0.00013142613343657673 -0.014333061917750953 0 8.6631809578209068e-05 -0.014308894120007536 0 0.00014499545909162591 -0.014351913301687948 0 0.00013142613343657673 -0.014333061917750953 0 8.6631809578209068e-05 -0.014308894120007536 0 0.0001031019908275632 -0.014357152305369688 0 0.00014499545909162591 -0.014351913301687948 0 8.6631809578209068e-05 -0.014308894120007536 0 0.00013142613343657673 -0.014333061917750953 0 0.00010417529353113162 -0.014297474948264489 0 0.00012040392713375 -0.014259013712583845 0 0.00010417529353113162 -0.014297474948264489 0 9.0250080033745891e-05 -0.014266783267069549 0 6.8237126816852759e-05 -0.014269708783642955 0 8.6631809578209068e-05 -0.014308894120007536 0 0.00010417529353113162 -0.014297474948264489 0 6.8237126816852759e-05 -0.014269708783642955 0 0.00010417529353113162 -0.014297474948264489 0 9.0250080033745891e-05 -0.014266783267069549 0 0.00012040392713375 -0.014259013712583845 0 0.00013142613343657673 -0.014333061917750953 0 0.00015389773624529992 -0.014322522543118749 0 0.00012040392713375 -0.014259013712583845 0 0.00013142613343657673 -0.014333061917750953 0 0.00010417529353113162 -0.014297474948264489 0 0.00013142613343657673 -0.014333061917750953 0 0.00015389773624529992 -0.014322522543118749 0 0.00015293885583543069 -0.014369443430589695 0 0.00015389773624529992 -0.014322522543118749 0 0.00015293885583543069 -0.014369443430589695 0 0.00017977129627901116 -0.01438272490312585 0 0.00034219255461603946 -0.014053627658400923 0 6.1355061585380673e-05 -0.014117687790535854 0 0.00037731115841096053 -0.014393375651047055 0 0.00010440967707375749 -0.014217380244387769 0 0.00028016108867043733 -0.014386924317392557 0 0.00016953540040385711 -0.014416851789591052 0 0.00015293885583543069 -0.014369443430589695 0 0.00017977129627901116 -0.01438272490312585 0 0.00014795347229926007 -0.014404476175650585 0 0.00016953540040385711 -0.014416851789591052 0 0.00015293885583543069 -0.014369443430589695 0 0.00013644112969654165 -0.014367052196459265 0 0.00013142613343657673 -0.014333061917750953 0 0.00015293885583543069 -0.014369443430589695 0 0.00014795347229926007 -0.014404476175650585 0 0.00013644112969654165 -0.014367052196459265 0 0.00015293885583543069 -0.014369443430589695 0 0.0003251609115544675 -0.014495504813301413 0 0.00028016108867043733 -0.014386924317392557 0 0.00021331227167245074 -0.014466974382220884 0 0.00017977129627901116 -0.01438272490312585 0 0.00018891894886843602 -0.014450511573136308 0 0.00016953540040385711 -0.014416851789591052 0 0.00017977129627901116 -0.01438272490312585 0 0.00018891894886843602 -0.014450511573136308 0 0.00034219255461603946 -0.014053627658400923 0 0.00037731115841096053 -0.014393375651047055 0 0.00056114449847214276 -0.014417100673066998 0 0.00044877102524849838 -0.014512590295353274 0 0.00056114449847214276 -0.014417100673066998 0 0.00038423373366905833 -0.01454452628218165 0 0.00044877102524849838 -0.014512590295353274 0 0.00037731115841096053 -0.014393375651047055 0 0.00056114449847214276 -0.014417100673066998 0 0.00056114449847214276 -0.014417100673066998 0 0.00038423373366905833 -0.01454452628218165 0 0.00028911292004097961 -0.014639053503671241 0 0.00011331406929918913 -0.014795111651976086 0 0.00020305174401549119 -0.014674280002256146 0 0.00028911292004097961 -0.014639053503671241 0 0.00038423373366905833 -0.01454452628218165 0 0.00020305174401549119 -0.014674280002256146 0 0.00028911292004097961 -0.014639053503671241 0 0.00038423373366905833 -0.01454452628218165 0 0.00020305174401549119 -0.014674280002256146 0 0.00027187782264618301 -0.014593970676831523 0 0.00020305174401549119 -0.014674280002256146 0 0.00027187782264618301 -0.014593970676831523 0 0.00011514254107160982 -0.014755276304993379 0 0.00044877102524849838 -0.014512590295353274 0 0.00027187782264618301 -0.014593970676831523 0 0.00023658793069701066 -0.014581183981019293 0 0.00044877102524849838 -0.014512590295353274 0 0.00038423373366905833 -0.01454452628218165 0 0.00027187782264618301 -0.014593970676831523 0 0.00021331227167245074 -0.014466974382220884 0 0.00023658793069701066 -0.014581183981019293 0 0.00021636400757925705 -0.014568196305506575 0 0.0003251609115544675 -0.014495504813301413 0 0.00025357373437646057 -0.014562595218121989 0 0.00023658793069701066 -0.014581183981019293 0 0.00021023071544826159 -0.014600474198113705 0 0.00021636400757925705 -0.014568196305506575 0 0.00027187782264618301 -0.014593970676831523 0 0.00023658793069701066 -0.014581183981019293 0 0.00013020895482042133 -0.014684716194440511 0 0.00023658793069701066 -0.014581183981019293 0 0.00017580941191144321 -0.014637655578307429 0 0.00013020895482042133 -0.014684716194440511 0 0.00025651452761443435 -0.014621862686083799 0 0.00013049257666651029 -0.014716083689244437 0 0.00023658793069701066 -0.014581183981019293 0 0.00017580941191144321 -0.014637655578307429 0 0.00021023071544826159 -0.014600474198113705 0 0.00017580941191144321 -0.014637655578307429 0 0.00019350774581833167 -0.01461163641497744 0 0.00013592177016674359 -0.014676338063579623 0 0.00021023071544826159 -0.014600474198113705 0 0.00019350774581833167 -0.01461163641497744 0 0.00021636400757925705 -0.014568196305506575 0 0.00017580941191144321 -0.014637655578307429 0 0.00021023071544826159 -0.014600474198113705 0 0.00019350774581833167 -0.01461163641497744 0 0.00019350774581833167 -0.01461163641497744 0 0.00021636400757925705 -0.014568196305506575 0 0.00020681765095443888 -0.014578104538863816 0 0.00021636400757925705 -0.014568196305506575 0 0.00020681765095443888 -0.014578104538863816 0 0.00020765365517858456 -0.014551610799923793 0 0.00020765365517858456 -0.014551610799923793 0 0.00019413009830077191 -0.01451202522369179 0 0.00019619777670336179 -0.014533426307292392 0 0.00020765365517858456 -0.014551610799923793 0 0.00020460656010332646 -0.014515094374476414 0 0.00019413009830077191 -0.01451202522369179 0 0.00021636400757925705 -0.014568196305506575 0 0.00020765365517858456 -0.014551610799923793 0 0.00020460656010332646 -0.014515094374476414 0 0.00021331227167245074 -0.014466974382220884 0 0.00020460656010332646 -0.014515094374476414 0 0.00018891894886843602 -0.014450511573136308 0 0.00021331227167245074 -0.014466974382220884 0 0.00021636400757925705 -0.014568196305506575 0 0.00020460656010332646 -0.014515094374476414 0 0.00020460656010332646 -0.014515094374476414 0 0.00018891894886843602 -0.014450511573136308 0 0.00017923904303111026 -0.014467235522681903 0 0.00016953540040385711 -0.014416851789591052 0 0.00018891894886843602 -0.014450511573136308 0 0.00017923904303111026 -0.014467235522681903 0 0.00017923904303111026 -0.014467235522681903 0 0.00019413009830077191 -0.01451202522369179 0 0.0001732484747545285 -0.014490970908651596 0 0.00020460656010332646 -0.014515094374476414 0 0.00017923904303111026 -0.014467235522681903 0 0.00019413009830077191 -0.01451202522369179 0 0.00019413009830077191 -0.01451202522369179 0 0.0001732484747545285 -0.014490970908651596 0 0.00019619777670336179 -0.014533426307292392 0 0.00019619777670336179 -0.014533426307292392 0 0.00019984676657375337 -0.014552833799021937 0 0.00018243714549859145 -0.014547941181243947 0 0.0001732484747545285 -0.014490970908651596 0 0.00017466075205907554 -0.014514126443657058 0 0.00019619777670336179 -0.014533426307292392 0 0.00017466075205907554 -0.014514126443657058 0 0.00019619777670336179 -0.014533426307292392 0 0.00018243714549859145 -0.014547941181243947 0 0.00020765365517858456 -0.014551610799923793 0 0.00019619777670336179 -0.014533426307292392 0 0.0002059765833877436 -0.014560466682052133 0 0.00019619777670336179 -0.014533426307292392 0 0.00019984676657375337 -0.014552833799021937 0 0.0002059765833877436 -0.014560466682052133 0 0.00019984676657375337 -0.014552833799021937 0 0.00019963661627780851 -0.014558520775058786 0 0.00020325935160109889 -0.014558262784919906 0 0.00019984676657375337 -0.014552833799021937 0 0.00018243714549859145 -0.014547941181243947 0 0.00019963661627780851 -0.014558520775058786 0 -0.00013146891979866031 -0.014019811595722345 0 -0.00038172104704709735 -0.013898532043294734 0 0.00019984676657375337 -0.014552833799021937 0 0.00020325935160109889 -0.014558262784919906 0 0.0002059765833877436 -0.014560466682052133 0 -0.00044322295249800176 -0.013519236804501886 0 -0.00049667931194326536 -0.013169758900840907 0 -0.00093489893426070122 -0.013019341854418755 0 -0.00015047177145702519 -0.013387265465119999 0 -0.00044322295249800176 -0.013519236804501886 0 -0.00049667931194326536 -0.013169758900840907 0 -0.00039549729310248756 -0.012163450611148145 0 -0.00033342054642366284 -0.012212504362172107 0 -0.00056436679810139515 -0.012216400233219963 0 -0.00025457924343038366 -0.012790166145353934 0 -0.00056607166859034869 -0.012490054625106488 0 -0.00015047177145702519 -0.013387265465119999 0 -0.00051743637209375264 -0.012792627931020791 0 -0.00049667931194326536 -0.013169758900840907 0 -0.00039549729310248756 -0.012163450611148145 0 -0.00056436679810139515 -0.012216400233219963 0 -0.0004768337511071143 -0.012133559965354302 0 -0.00051743637209375264 -0.012792627931020791 0 -0.00058662959713450165 -0.012981328911789299 0 -0.00070807140276745589 -0.012887728067327674 0 -0.00051743637209375264 -0.012792627931020791 0 -0.00049667931194326536 -0.013169758900840907 0 -0.00058662959713450165 -0.012981328911789299 0 -0.00049667931194326536 -0.013169758900840907 0 -0.00058662959713450165 -0.012981328911789299 0 -0.00093489893426070122 -0.013019341854418755 0 -0.00058662959713450165 -0.012981328911789299 0 -0.00093489893426070122 -0.013019341854418755 0 -0.00070807140276745589 -0.012887728067327674 0 -0.00038172104704709735 -0.013898532043294734 0 -0.00055803474208567416 -0.013341892879558614 0 -0.00090560018860648124 -0.012960999030419699 0 -0.0008833192457556111 -0.012672477886923338 0 -0.00070807140276745589 -0.012887728067327674 0 -0.00051743637209375264 -0.012792627931020791 0 -0.0008833192457556111 -0.012672477886923338 0 -0.00070807140276745589 -0.012887728067327674 0 -0.00051743637209375264 -0.012792627931020791 0 -0.0008833192457556111 -0.012672477886923338 0 -0.00098053373091000137 -0.012162033121324689 0 -0.00056436679810139515 -0.012216400233219963 0 -0.00068181372147932493 -0.012086729538498597 0 -0.00098053373091000137 -0.012162033121324689 0 -0.00056607166859034869 -0.012490054625106488 0 -0.00096407687924066434 -0.012164682461124331 0 -0.00056436679810139515 -0.012216400233219963 0 -0.00068181372147932493 -0.012086729538498597 0 -0.00057063741670454677 -0.012127837528679093 0 -0.00068181372147932493 -0.012086729538498597 0 -0.0005677334998121081 -0.012067963476949436 0 -0.00057063741670454677 -0.012127837528679093 0 -0.0005677334998121081 -0.012067963476949436 0 -0.0004768337511071143 -0.012133559965354302 0 -0.00047062351212536277 -0.012009336058230225 0 -0.0005677334998121081 -0.012067963476949436 0 -0.0004768337511071143 -0.012133559965354302 0 -0.00057063741670454677 -0.012127837528679093 0 -0.00056436679810139515 -0.012216400233219963 0 -0.0004768337511071143 -0.012133559965354302 0 -0.00057063741670454677 -0.012127837528679093 0 -0.0016370758310566013 -0.012192968743935708 0 -0.0013018041823669008 -0.012544893393212698 0 -0.0012684255782902691 -0.012032755684014986 0 -0.0009727885309028302 -0.013438576296645216 0 -0.00071670410941400637 -0.013695425185857943 0 -0.00015396365380311854 -0.014797168985286694 0 -0.00013450634280237186 -0.014833130472050114 0 -0.0001507948791003202 -0.014852110790851407 0 -0.0008833192457556111 -0.012672477886923338 0 -0.0013018041823669008 -0.012544893393212698 0 -0.00098053373091000137 -0.012162033121324689 0 -0.0013018041823669008 -0.012544893393212698 0 -0.00098053373091000137 -0.012162033121324689 0 -0.0012684255782902691 -0.012032755684014986 0 -0.00012545163135938407 -0.014839602166267406 0 -0.00013450634280237186 -0.014833130472050114 0 -0.00013807585312377861 -0.014856965991937147 0 -0.00090560018860648124 -0.012960999030419699 0 -0.0008833192457556111 -0.012672477886923338 0 -0.0013018041823669008 -0.012544893393212698 0 -0.00038172104704709735 -0.013898532043294734 0 -0.00071670410941400637 -0.013695425185857943 0 -0.0001507948791003202 -0.014852110790851407 0 -0.00013807585312377861 -0.014856965991937147 0 -0.00015730353847064678 -0.014868170445820988 0 -0.00013450634280237186 -0.014833130472050114 0 -0.0001507948791003202 -0.014852110790851407 0 -0.00013807585312377861 -0.014856965991937147 0 -1.6372963390874957e-05 -0.014785408747774138 0 -0.00012541636842064438 -0.01490368604187399 0 -1.6372963390874957e-05 -0.014785408747774138 0 5.559313799391217e-05 -0.014725540412354432 0 0.00019875727889092187 -0.014556343706786682 0 0.00018134374706813277 -0.014597469908889387 0 0.00014483624015054503 -0.014596796693069652 0 -0.00014305586819294181 -0.014902534485756675 0 -6.593215287702219e-05 -0.014863959819152731 0 -4.2010709210100294e-05 -0.014916484811106731 0 0.00019875727889092187 -0.014556343706786682 0 0.00020121289148994367 -0.01457597941197044 0 0.00018134374706813277 -0.014597469908889387 0 0.00019963661627780851 -0.014558520775058786 0 0.00019875727889092187 -0.014556343706786682 0 0.00020325935160109889 -0.014558262784919906 0 -0.00038172104704709735 -0.013898532043294734 0 -1.6372963390874957e-05 -0.014785408747774138 0 0.00019875727889092187 -0.014556343706786682 0 0.00020325935160109889 -0.014558262784919906 0 0.00020121289148994367 -0.01457597941197044 0 0.00020325935160109889 -0.014558262784919906 0 0.0002059765833877436 -0.014560466682052133 0 0.00020121289148994367 -0.01457597941197044 0 0.00019350774581833167 -0.01461163641497744 0 0.00020681765095443888 -0.014578104538863816 0 0.00020121289148994367 -0.01457597941197044 0 0.00020681765095443888 -0.014578104538863816 0 0.00020765365517858456 -0.014551610799923793 0 0.0002059765833877436 -0.014560466682052133 0 0.00020681765095443888 -0.014578104538863816 0 0.0002059765833877436 -0.014560466682052133 0 0.00020121289148994367 -0.01457597941197044 0 0.00019350774581833167 -0.01461163641497744 0 0.00018134374706813277 -0.014597469908889387 0 0.00013592177016674359 -0.014676338063579623 0 0.00019350774581833167 -0.01461163641497744 0 0.00020121289148994367 -0.01457597941197044 0 0.00018134374706813277 -0.014597469908889387 0 0.00018134374706813277 -0.014597469908889387 0 0.00014483624015054503 -0.014596796693069652 0 0.00013592177016674359 -0.014676338063579623 0 3.5023596157069111e-05 -0.014790367682924563 0 0.00014483624015054503 -0.014596796693069652 0 0.00013592177016674359 -0.014676338063579623 0 3.5062203554465666e-05 -0.014777884631466003 0 5.559313799391217e-05 -0.014725540412354432 0 3.5023596157069111e-05 -0.014790367682924563 0 3.8015130592264369e-06 -0.01487797451677407 0 -6.593215287702219e-05 -0.014863959819152731 0 3.5023596157069111e-05 -0.014790367682924563 0 3.8015130592264369e-06 -0.01487797451677407 0 3.9110298651898401e-05 -0.014916113351788314 0 -0.00012541636842064438 -0.01490368604187399 0 -4.1375066981147087e-06 -0.014931042168311051 0 3.8015130592264369e-06 -0.01487797451677407 0 -4.2010709210100294e-05 -0.014916484811106731 0 2.9177789693392548e-05 -0.014936041289651853 0 3.8015130592264369e-06 -0.01487797451677407 0 -6.593215287702219e-05 -0.014863959819152731 0 -4.2010709210100294e-05 -0.014916484811106731 0 -0.0001507948791003202 -0.014852110790851407 0 -0.00015730353847064678 -0.014868170445820988 0 -0.00015893893906551845 -0.014880224727282194 0 -0.0001507948791003202 -0.014852110790851407 0 -0.00015893893906551845 -0.014880224727282194 0 -0.00017361136597547454 -0.014822633966243195 0 -0.00015730353847064678 -0.014868170445820988 0 -0.00015893893906551845 -0.014880224727282194 0 -0.00010286341528829484 -0.014914443452337481 0 -0.00015730353847064678 -0.014868170445820988 0 -0.00010286341528829484 -0.014914443452337481 0 -4.0821657323854975e-05 -0.014921322634074887 0 -0.00010286341528829484 -0.014914443452337481 0 -5.4772841907708713e-05 -0.014947454208844895 0 -4.0821657323854975e-05 -0.014921322634074887 0 -0.00010286341528829484 -0.014914443452337481 0 -8.0712243235740654e-05 -0.01496569412041859 0 -5.4772841907708713e-05 -0.014947454208844895 0 -0.00015893893906551845 -0.014880224727282194 0 -0.00010286341528829484 -0.014914443452337481 0 -8.0712243235740654e-05 -0.01496569412041859 0 -8.0712243235740654e-05 -0.01496569412041859 0 -9.0758308188273594e-05 -0.014982064287378999 0 -2.7788260506279938e-05 -0.01498606734936668 0 -0.00015893893906551845 -0.014880224727282194 0 -8.0712243235740654e-05 -0.01496569412041859 0 -9.0758308188273594e-05 -0.014982064287378999 0 -0.00021806104596687844 -0.014807284879978937 0 -0.00019849498311611343 -0.014799016933939202 0 -0.00020734551026838039 -0.014782566349262052 0 -0.00019849498311611343 -0.014799016933939202 0 -0.00017361136597547454 -0.014822633966243195 0 -0.00019008977648612768 -0.014784857523097309 0 -0.00015893893906551845 -0.014880224727282194 0 -0.00021806104596687844 -0.014807284879978937 0 -0.00017361136597547454 -0.014822633966243195 0 -0.00016020334403730378 -0.014880208938440397 0 -0.00015255088127805308 -0.014891673478303192 0 -0.00015396365380311854 -0.014797168985286694 0 -0.0001507948791003202 -0.014852110790851407 0 -0.00017361136597547454 -0.014822633966243195 0 -0.00021806104596687844 -0.014807284879978937 0 -0.00019849498311611343 -0.014799016933939202 0 -0.00017361136597547454 -0.014822633966243195 0 -0.00015396365380311854 -0.014797168985286694 0 -0.00017361136597547454 -0.014822633966243195 0 -0.00019008977648612768 -0.014784857523097309 0 -1.0573892886103792e-08 -0.015000015218615617 0 -2.6466165801078755e-05 -0.014974575779921281 0 -1.9728464952691865e-05 -0.01500644886439011 0 -1.0573892886103792e-08 -0.015000015218615617 0 -2.6466165801078755e-05 -0.014974575779921281 0 7.4993697442884315e-09 -0.014999885484800916 0 -7.5285945316587549e-05 -0.014966822576275213 0 -2.5666822505507941e-05 -0.014995217538748461 0 -8.0712243235740654e-05 -0.01496569412041859 0 -2.6466165801078755e-05 -0.014974575779921281 0 -1.9728464952691865e-05 -0.01500644886439011 0 -8.0712243235740654e-05 -0.01496569412041859 0 -2.6466165801078755e-05 -0.014974575779921281 0 -5.4772841907708713e-05 -0.014947454208844895 0 -2.6466165801078755e-05 -0.014974575779921281 0 -5.4772841907708713e-05 -0.014947454208844895 0 -4.0821657323854975e-05 -0.014921322634074887 0 -2.6466165801078755e-05 -0.014974575779921281 0 -4.0821657323854975e-05 -0.014921322634074887 0 7.4993697442884315e-09 -0.014999885484800916 0 -4.1375066981147087e-06 -0.014931042168311051 0 -4.0924999154363351e-09 -0.014999971921391983 0 2.9177789693392548e-05 -0.014936041289651853 0 3.9666736332821707e-08 -0.014999937434807641 0 3.9110298651898401e-05 -0.014916113351788314 0 3.9666736332821707e-08 -0.014999937434807641 0 3.9110298651898401e-05 -0.014916113351788314 0 3.8635723760309198e-08 -0.014999846845923101 0 3.8015130592264369e-06 -0.01487797451677407 0 2.9177789693392548e-05 -0.014936041289651853 0 3.9110298651898401e-05 -0.014916113351788314 0 3.9110298651898401e-05 -0.014916113351788314 0 1.080925763868196e-05 -0.014982462342946723 0 5.1468000893127168e-05 -0.014795745313070614 0 3.5023596157069111e-05 -0.014790367682924563 0 3.9110298651898401e-05 -0.014916113351788314 0 5.1468000893127168e-05 -0.014795745313070614 0 3.9110298651898401e-05 -0.014916113351788314 0 1.080925763868196e-05 -0.014982462342946723 0 3.8635723760309198e-08 -0.014999846845923101 0 1.080925763868196e-05 -0.014982462342946723 0 2.0869411332224469e-05 -0.014956386312655046 0 4.4061411711928829e-05 -0.014899153160584037 0 1.080925763868196e-05 -0.014982462342946723 0 3.8635723760309198e-08 -0.014999846845923101 0 3.2261273385521247e-08 -0.014999894912689606 0 1.080925763868196e-05 -0.014982462342946723 0 2.0869411332224469e-05 -0.014956386312655046 0 3.2261273385521247e-08 -0.014999894912689606 0 3.2261273385521247e-08 -0.014999894912689606 0 2.4517532279152801e-05 -0.014941400950196014 0 1.267452782230794e-09 -0.014999896669019828 0 2.0869411332224469e-05 -0.014956386312655046 0 3.2261273385521247e-08 -0.014999894912689606 0 2.4517532279152801e-05 -0.014941400950196014 0 2.0869411332224469e-05 -0.014956386312655046 0 2.4517532279152801e-05 -0.014941400950196014 0 4.4061411711928829e-05 -0.014899153160584037 0 2.4517532279152801e-05 -0.014941400950196014 0 4.4061411711928829e-05 -0.014899153160584037 0 6.9335008888528734e-05 -0.014840930760960347 0 2.4517532279152801e-05 -0.014941400950196014 0 6.9335008888528734e-05 -0.014840930760960347 0 4.3576661244279781e-05 -0.014892992591869221 0 1.495443697357215e-05 -0.014957937589817869 0 4.5556935430464366e-05 -0.014849678169238116 0 3.5023596157069111e-05 -0.014790367682924563 0 8.4876613689072696e-05 -0.014737456346526014 0 0.00013592177016674359 -0.014676338063579623 0 5.1468000893127168e-05 -0.014795745313070614 0 8.4876613689072696e-05 -0.014737456346526014 0 0.00013020895482042133 -0.014684716194440511 0 3.5023596157069111e-05 -0.014790367682924563 0 5.1468000893127168e-05 -0.014795745313070614 0 8.4876613689072696e-05 -0.014737456346526014 0 8.4876613689072696e-05 -0.014737456346526014 0 0.00013592177016674359 -0.014676338063579623 0 0.00013020895482042133 -0.014684716194440511 0 0.00017580941191144321 -0.014637655578307429 0 0.00013592177016674359 -0.014676338063579623 0 0.00013020895482042133 -0.014684716194440511 0 4.5556935430464366e-05 -0.014849678169238116 0 0.00013049257666651029 -0.014716083689244437 0 4.4061411711928829e-05 -0.014899153160584037 0 0.00011514254107160982 -0.014755276304993379 0 6.9335008888528734e-05 -0.014840930760960347 0 0.00011514254107160982 -0.014755276304993379 0 6.9335008888528734e-05 -0.014840930760960347 0 0.00012133137703671425 -0.014771086803925942 0 6.9335008888528734e-05 -0.014840930760960347 0 0.00012133137703671425 -0.014771086803925942 0 4.3576661244279781e-05 -0.014892992591869221 0 0.00020305174401549119 -0.014674280002256146 0 0.00011514254107160982 -0.014755276304993379 0 0.00012133137703671425 -0.014771086803925942 0 0.00011331406929918913 -0.014795111651976086 0 0.00020305174401549119 -0.014674280002256146 0 0.00012133137703671425 -0.014771086803925942 0 7.2660805055884897e-05 -0.014964832633604302 0 0.00012133137703671425 -0.014771086803925942 0 5.6276426799322265e-05 -0.014890348505999599 0 5.8824480821954996e-05 -0.01487956968731686 0 0.00011420764328059134 -0.014786151709503729 0 0.00012133137703671425 -0.014771086803925942 0 5.6276426799322265e-05 -0.014890348505999599 0 4.3576661244279781e-05 -0.014892992591869221 0 1.7085507694899372e-05 -0.014965087403123909 0 5.6276426799322265e-05 -0.014890348505999599 0 4.3576661244279781e-05 -0.014892992591869221 0 3.8131472030022278e-09 -0.014999978778783738 0 1.7085507694899372e-05 -0.014965087403123909 0 1.267452782230794e-09 -0.014999896669019828 0 1.7085507694899372e-05 -0.014965087403123909 0 1.267452782230794e-09 -0.014999896669019828 0 4.3576661244279781e-05 -0.014892992591869221 0 2.4517532279152801e-05 -0.014941400950196014 0 1.267452782230794e-09 -0.014999896669019828 0 4.3576661244279781e-05 -0.014892992591869221 0 2.0864561608725918e-06 -0.014996053510211249 0 7.5627094720273144e-06 -0.014996024974574534 0 5.7682082854304524e-06 -0.014997183637907027 0 2.0864561608725918e-06 -0.014996053510211249 0 5.7682082854304524e-06 -0.014997183637907027 0 -2.5250761203506732e-10 -0.015000014641353691 0 2.0864561608725918e-06 -0.014996053510211249 0 -1.4571054688695303e-06 -0.014993471920422476 0 -2.5250761203506732e-10 -0.015000014641353691 0 -1.4571054688695303e-06 -0.014993471920422476 0 -8.4938347018040231e-09 -0.014999958720113815 0 -2.5250761203506732e-10 -0.015000014641353691 0 2.0864561608725918e-06 -0.014996053510211249 0 -1.4571054688695303e-06 -0.014993471920422476 0 -2.4029583073155195e-06 -0.014976069963249858 0 -1.4571054688695303e-06 -0.014993471920422476 0 -8.4938347018040231e-09 -0.014999958720113815 0 -2.4029583073155195e-06 -0.014976069963249858 0 -2.4029583073155195e-06 -0.014976069963249858 0 -7.950780347776995e-05 -0.0148578679293314 0 -5.1346373068844527e-05 -0.014942536491290568 0 2.0864561608725918e-06 -0.014996053510211249 0 -2.4029583073155195e-06 -0.014976069963249858 0 7.5627094720273144e-06 -0.014996024974574534 0 -9.2047826363264707e-06 -0.014968129410691138 0 -2.8511166104681698e-05 -0.014929461639048161 0 -0.00010838803600743726 -0.014904301874331918 0 -0.00014455059440314963 -0.014856657972899966 0 -7.950780347776995e-05 -0.0148578679293314 0 -0.00010838803600743726 -0.014904301874331918 0 -7.950780347776995e-05 -0.0148578679293314 0 -5.1346373068844527e-05 -0.014942536491290568 0 -0.00014455059440314963 -0.014856657972899966 0 -0.00017763502638871862 -0.01483596739202319 0 -0.00017775863171342173 -0.014875768460337392 0 -0.00010838803600743726 -0.014904301874331918 0 -0.00014455059440314963 -0.014856657972899966 0 -0.00017775863171342173 -0.014875768460337392 0 -0.00014455059440314963 -0.014856657972899966 0 -7.950780347776995e-05 -0.0148578679293314 0 -0.00016423402707108761 -0.0148176418828951 0 -0.00014455059440314963 -0.014856657972899966 0 -0.00016423402707108761 -0.0148176418828951 0 -0.00017763502638871862 -0.01483596739202319 0 -2.8511166104681698e-05 -0.014929461639048161 0 -0.00012720823948697519 -0.014916651519539333 0 7.5627094720273144e-06 -0.014996024974574534 0 1.8400859184347639e-06 -0.014994362642148623 0 5.7682082854304524e-06 -0.014997183637907027 0 -9.7911865760143838e-05 -0.014963804756846902 0 -0.00014576660609255741 -0.014979331735662217 0 -5.6784946538326841e-05 -0.015005265231055966 0 -0.00012720823948697519 -0.014916651519539333 0 -1.3388614849113256e-05 -0.01500986243094799 0 -9.7911865760143838e-05 -0.014963804756846902 0 -6.0830676848359782e-05 -0.014971624649852824 0 -5.6784946538326841e-05 -0.015005265231055966 0 -9.7911865760143838e-05 -0.014963804756846902 0 -0.00014576660609255741 -0.014979331735662217 0 -0.00013569050528535229 -0.014946732528902286 0 -0.00014576660609255741 -0.014979331735662217 0 -0.00013569050528535229 -0.014946732528902286 0 -0.00015671198947725032 -0.014929078083597877 0 -0.00014205518574963934 -0.01492235358426564 0 -9.3345197004093372e-05 -0.014933564207614684 0 -0.00013695493226827815 -0.014893255264580529 0 -0.00013569050528535229 -0.014946732528902286 0 -0.00014205518574963934 -0.01492235358426564 0 -0.00015671198947725032 -0.014929078083597877 0 -9.7911865760143838e-05 -0.014963804756846902 0 -0.00013569050528535229 -0.014946732528902286 0 -0.00014205518574963934 -0.01492235358426564 0 -9.7911865760143838e-05 -0.014963804756846902 0 -9.3345197004093372e-05 -0.014933564207614684 0 -6.0830676848359782e-05 -0.014971624649852824 0 -9.7911865760143838e-05 -0.014963804756846902 0 -0.00014205518574963934 -0.01492235358426564 0 -9.3345197004093372e-05 -0.014933564207614684 0 -9.3345197004093372e-05 -0.014933564207614684 0 -3.7223881127960165e-05 -0.014968095487799041 0 -6.0830676848359782e-05 -0.014971624649852824 0 -3.7223881127960165e-05 -0.014968095487799041 0 -6.0830676848359782e-05 -0.014971624649852824 0 -2.6687775931558359e-05 -0.014989012259282982 0 -6.0830676848359782e-05 -0.014971624649852824 0 -2.6687775931558359e-05 -0.014989012259282982 0 -5.6784946538326841e-05 -0.015005265231055966 0 -1.3388614849113256e-05 -0.01500986243094799 0 -2.782590950965738e-08 -0.014999994980054649 0 -2.6687775931558359e-05 -0.014989012259282982 0 -5.6784946538326841e-05 -0.015005265231055966 0 -1.844705605940844e-09 -0.015000024158470886 0 -2.6687775931558359e-05 -0.014989012259282982 0 -1.844705605940844e-09 -0.015000024158470886 0 -1.8627165621666221e-08 -0.014999995520710119 0 -3.7223881127960165e-05 -0.014968095487799041 0 -1.8627165621666221e-08 -0.014999995520710119 0 -1.6748588338175774e-05 -0.014970737725908968 0 -3.7223881127960165e-05 -0.014968095487799041 0 -2.6687775931558359e-05 -0.014989012259282982 0 -1.8627165621666221e-08 -0.014999995520710119 0 -1.6748588338175774e-05 -0.014970737725908968 0 1.913721828739611e-08 -0.014999824751534817 0 -2.5755031253113636e-05 -0.01492647213397707 0 -1.8627165621666221e-08 -0.014999995520710119 0 -1.6748588338175774e-05 -0.014970737725908968 0 1.913721828739611e-08 -0.014999824751534817 0 -3.7223881127960165e-05 -0.014968095487799041 0 -1.6748588338175774e-05 -0.014970737725908968 0 -6.0457646269541437e-05 -0.014926025849498106 0 -9.3345197004093372e-05 -0.014933564207614684 0 -3.7223881127960165e-05 -0.014968095487799041 0 -6.0457646269541437e-05 -0.014926025849498106 0 -1.6748588338175774e-05 -0.014970737725908968 0 -6.0457646269541437e-05 -0.014926025849498106 0 -2.5755031253113636e-05 -0.01492647213397707 0 -6.0457646269541437e-05 -0.014926025849498106 0 -4.1228762168609284e-05 -0.014857187087384078 0 -0.00010205566916885772 -0.014876117230546106 0 -6.0457646269541437e-05 -0.014926025849498106 0 -2.5755031253113636e-05 -0.01492647213397707 0 -4.1228762168609284e-05 -0.014857187087384078 0 -2.6853708237896734e-05 -0.014919488984928507 0 -8.7472941062829448e-05 -0.01486997524715023 0 1.913721828739611e-08 -0.014999824751534817 0 -2.5755031253113636e-05 -0.01492647213397707 0 -3.2677515198946458e-05 -0.014856361689977277 0 9.0189718624742992e-08 -0.015000064440021254 0 -8.7472941062829448e-05 -0.01486997524715023 0 5.6071192453167277e-09 -0.015000028945014445 0 -2.2034886735700746e-05 -0.015007454462103118 0 -2.6138741301294669e-08 -0.014999983030484077 0 -2.6138741301294669e-08 -0.014999983030484077 0 -2.6291422605981808e-05 -0.014999066804761709 0 -2.7788260506279938e-05 -0.01498606734936668 0 -2.2034886735700746e-05 -0.015007454462103118 0 -2.6138741301294669e-08 -0.014999983030484077 0 -2.6291422605981808e-05 -0.014999066804761709 0 -2.2034886735700746e-05 -0.015007454462103118 0 -2.6291422605981808e-05 -0.014999066804761709 0 -5.0472998491734234e-05 -0.014997738615258842 0 -0.00023958096909689947 -0.01472853123294888 0 -0.0002350495434056524 -0.014750045564979728 0 -0.00022928367279190047 -0.014738014169040557 0 -8.7472941062829448e-05 -0.01486997524715023 0 -0.00014828704778492569 -0.014871478735467845 0 -8.7472941062829448e-05 -0.01486997524715023 0 -2.8293546005876178e-05 -0.014870846871397156 0 -2.6291422605981808e-05 -0.014999066804761709 0 -2.7788260506279938e-05 -0.01498606734936668 0 -5.0472998491734234e-05 -0.014997738615258842 0 -1.0573892886103792e-08 -0.015000015218615617 0 -5.1437403215082874e-10 -0.015000010875130386 0 -1.9728464952691865e-05 -0.01500644886439011 0 -5.4030968886407364e-09 -0.015000001470943157 0 -2.5666822505507941e-05 -0.014995217538748461 0 -0.0009727885309028302 -0.013438576296645216 0 -0.00067113527834826404 -0.013646204703527835 0 -0.0016370758310566013 -0.012192968743935708 0 -0.0019607951953366132 -0.011914273808347746 0 -0.0014853286573389044 -0.011747964953650606 0 -0.00015396365380311854 -0.014797168985286694 0 -0.00019973060710342936 -0.014749505846589588 0 -0.00019008977648612768 -0.014784857523097309 0 -0.00069662449498782825 -0.013823605198774815 0 -0.00067113527834826404 -0.013646204703527835 0 -0.00020318563701822003 -0.014758173199732777 0 -0.00019973060710342936 -0.014749505846589588 0 -0.00019008977648612768 -0.014784857523097309 0 -0.00020318563701822003 -0.014758173199732777 0 -0.00019008977648612768 -0.014784857523097309 0 -0.00020734551026838039 -0.014782566349262052 0 -0.00019849498311611343 -0.014799016933939202 0 -0.00019008977648612768 -0.014784857523097309 0 -0.00020734551026838039 -0.014782566349262052 0 -0.00021806104596687844 -0.014807284879978937 0 -0.0002350495434056524 -0.014750045564979728 0 -0.0002154842632018994 -0.014761766082021649 0 -0.00015255088127805308 -0.014891673478303192 0 -0.00014828704778492569 -0.014871478735467845 0 -0.00021806104596687844 -0.014807284879978937 0 -0.00020734551026838039 -0.014782566349262052 0 -0.0002154842632018994 -0.014761766082021649 0 -9.0758308188273594e-05 -0.014982064287378999 0 -2.7788260506279938e-05 -0.01498606734936668 0 -5.0472998491734234e-05 -0.014997738615258842 0 -0.00020318563701822003 -0.014758173199732777 0 -0.00020734551026838039 -0.014782566349262052 0 -0.0002154842632018994 -0.014761766082021649 0 -0.0002350495434056524 -0.014750045564979728 0 -0.0002154842632018994 -0.014761766082021649 0 -0.00022928367279190047 -0.014738014169040557 0 -0.00020168237151550045 -0.01475297132398139 0 -0.0002154842632018994 -0.014761766082021649 0 -0.00022928367279190047 -0.014738014169040557 0 -0.00020318563701822003 -0.014758173199732777 0 -0.00020168237151550045 -0.01475297132398139 0 -0.0002154842632018994 -0.014761766082021649 0 -0.00067113527834826404 -0.013646204703527835 0 -2.8293546005876178e-05 -0.014870846871397156 0 -0.00013452432538361403 -0.014751829994681031 0 -8.5234415137471305e-05 -0.014802083548305199 0 -0.00016359070951052333 -0.014835114917370188 0 -0.0019607951953366132 -0.011914273808347746 0 -0.0017076773476369011 -0.011422060010939783 0 -0.0014853286573389044 -0.011747964953650606 0 -0.00067113527834826404 -0.013646204703527835 0 -0.00096288465367139263 -0.013057995430347578 0 -0.00016359070951052333 -0.014835114917370188 0 -0.00010205566916885772 -0.014876117230546106 0 -0.00013695493226827815 -0.014893255264580529 0 -8.5234415137471305e-05 -0.014802083548305199 0 -0.00016359070951052333 -0.014835114917370188 0 -0.00010205566916885772 -0.014876117230546106 0 -4.1228762168609284e-05 -0.014857187087384078 0 -8.5234415137471305e-05 -0.014802083548305199 0 -0.00010205566916885772 -0.014876117230546106 0 -9.3345197004093372e-05 -0.014933564207614684 0 -6.0457646269541437e-05 -0.014926025849498106 0 -0.00010205566916885772 -0.014876117230546106 0 -9.3345197004093372e-05 -0.014933564207614684 0 -0.00010205566916885772 -0.014876117230546106 0 -0.00013695493226827815 -0.014893255264580529 0 -0.00016359070951052333 -0.014835114917370188 0 -0.00013695493226827815 -0.014893255264580529 0 -0.00017658208335429449 -0.014887181514118629 0 -0.00014205518574963934 -0.01492235358426564 0 -0.00013695493226827815 -0.014893255264580529 0 -0.00017658208335429449 -0.014887181514118629 0 -0.0013041084236453636 -0.010648336013372575 0 -0.0012985191299600355 -0.01134185332577441 0 -0.0014672090075272509 -0.011061916381401913 0 -0.0013436251448349674 -0.011038255678250231 0 -0.001297710291416732 -0.011276189984582475 0 -0.0012597323644094609 -0.010760574061869898 0 -0.0010333647393372285 -0.010866474588914661 0 -0.001297710291416732 -0.011276189984582475 0 -0.0012597323644094609 -0.010760574061869898 0 -0.0010333647393372285 -0.010866474588914661 0 -0.0010600712989655575 -0.010627980866086963 0 -0.0010333647393372285 -0.010866474588914661 0 -0.001297710291416732 -0.011276189984582475 0 -0.00094736759466782156 -0.01138378275960201 0 -0.001297710291416732 -0.011276189984582475 0 -0.0010865247553607312 -0.01165368072557204 0 -0.00094736759466782156 -0.01138378275960201 0 -0.0017076773476369011 -0.011422060010939783 0 -0.0014672090075272509 -0.011061916381401913 0 -0.001297710291416732 -0.011276189984582475 0 -0.00096288465367139263 -0.013057995430347578 0 -0.00082276610722658043 -0.013136073112589644 0 -0.0017076773476369011 -0.011422060010939783 0 -0.001297710291416732 -0.011276189984582475 0 -0.0014853286573389044 -0.011747964953650606 0 -0.001297710291416732 -0.011276189984582475 0 -0.0014853286573389044 -0.011747964953650606 0 -0.0010865247553607312 -0.01165368072557204 0 -0.0014853286573389044 -0.011747964953650606 0 -0.0010865247553607312 -0.01165368072557204 0 -0.0012684255782902691 -0.012032755684014986 0 -0.00098053373091000137 -0.012162033121324689 0 -0.0012684255782902691 -0.012032755684014986 0 -0.00085413143912849219 -0.011900912064980507 0 -0.0010865247553607312 -0.01165368072557204 0 -0.0012684255782902691 -0.012032755684014986 0 -0.00085413143912849219 -0.011900912064980507 0 -0.0016370758310566013 -0.012192968743935708 0 -0.0014853286573389044 -0.011747964953650606 0 -0.0012684255782902691 -0.012032755684014986 0 -0.00059267561349062091 -0.011917500867320978 0 -0.00052231674712232071 -0.011740183938396287 0 -0.00040992865287402578 -0.011911664162150523 0 -0.00059267561349062091 -0.011917500867320978 0 -0.00047062351212536277 -0.012009336058230225 0 -0.00040992865287402578 -0.011911664162150523 0 -0.0005677334998121081 -0.012067963476949436 0 -0.00059267561349062091 -0.011917500867320978 0 -0.00047062351212536277 -0.012009336058230225 0 -0.00068181372147932493 -0.012086729538498597 0 -0.0005677334998121081 -0.012067963476949436 0 -0.00059267561349062091 -0.011917500867320978 0 -0.00068181372147932493 -0.012086729538498597 0 -0.00059267561349062091 -0.011917500867320978 0 -0.00085413143912849219 -0.011900912064980507 0 -0.00068181372147932493 -0.012086729538498597 0 -0.00098053373091000137 -0.012162033121324689 0 -0.00085413143912849219 -0.011900912064980507 0 -0.00059267561349062091 -0.011917500867320978 0 -0.00085413143912849219 -0.011900912064980507 0 -0.00073704063042856255 -0.011658682853667229 0 -0.0010865247553607312 -0.01165368072557204 0 -0.00073704063042856255 -0.011658682853667229 0 -0.00094736759466782156 -0.01138378275960201 0 -0.0010865247553607312 -0.01165368072557204 0 -0.00085413143912849219 -0.011900912064980507 0 -0.00073704063042856255 -0.011658682853667229 0 -0.00073704063042856255 -0.011658682853667229 0 -0.00052231674712232071 -0.011740183938396287 0 -0.00059328669089917538 -0.011382665762188993 0 -0.00052231674712232071 -0.011740183938396287 0 -0.00059328669089917538 -0.011382665762188993 0 -0.00033175059728353612 -0.011769530708686485 0 -0.0007303746609484301 -0.011173900827001945 0 -0.00050394246908651644 -0.011465195413064615 0 -0.00059267561349062091 -0.011917500867320978 0 -0.00073704063042856255 -0.011658682853667229 0 -0.00052231674712232071 -0.011740183938396287 0 -0.00084332322608834541 -0.010976635393185465 0 -0.00081758598373596802 -0.010807532475251383 0 -0.00068900436606730028 -0.010973583252670196 0 -0.0010333647393372285 -0.010866474588914661 0 -0.00059328669089917538 -0.011382665762188993 0 -0.00094736759466782156 -0.01138378275960201 0 -0.0010212323483544932 -0.010880995667756656 0 -0.0007303746609484301 -0.011173900827001945 0 -0.00073704063042856255 -0.011658682853667229 0 -0.00059328669089917538 -0.011382665762188993 0 -0.00094736759466782156 -0.01138378275960201 0 -0.0010333647393372285 -0.010866474588914661 0 -0.00081758598373596802 -0.010807532475251383 0 -0.00091131228328113895 -0.010678016821963406 0 -0.0010333647393372285 -0.010866474588914661 0 -0.00084332322608834541 -0.010976635393185465 0 -0.00081758598373596802 -0.010807532475251383 0 -0.0010333647393372285 -0.010866474588914661 0 -0.00091131228328113895 -0.010678016821963406 0 -0.0010600712989655575 -0.010627980866086963 0 -0.00081758598373596802 -0.010807532475251383 0 -0.00077395103713338669 -0.010577684956093262 0 -0.00060843636298530031 -0.010778395502131466 0 -0.00081758598373596802 -0.010807532475251383 0 -0.00077395103713338669 -0.010577684956093262 0 -0.00091131228328113895 -0.010678016821963406 0 -0.00077395103713338669 -0.010577684956093262 0 -0.00081024689784635101 -0.010422372501628741 0 -0.00091421874797285299 -0.010509067527069945 0 -0.00077395103713338669 -0.010577684956093262 0 -0.00091421874797285299 -0.010509067527069945 0 -0.00091131228328113895 -0.010678016821963406 0 -0.00077395103713338669 -0.010577684956093262 0 -0.00081024689784635101 -0.010422372501628741 0 -0.00069719158002900529 -0.010401820231394276 0 -0.00081024689784635101 -0.010422372501628741 0 -0.00087963358438865292 -0.010377049425422228 0 -0.00084474453738286805 -0.01027079133881152 0 -0.00081024689784635101 -0.010422372501628741 0 -0.00076444320747664997 -0.010250857596776391 0 -0.00084474453738286805 -0.01027079133881152 0 -0.00081024689784635101 -0.010422372501628741 0 -0.00076444320747664997 -0.010250857596776391 0 -0.00069719158002900529 -0.010401820231394276 0 -0.00095838175476108491 -0.010377559618020064 0 -0.00089872793101325042 -0.010287930914202863 0 -0.00093267058319241377 -0.010242454893938917 0 -0.00089872793101325042 -0.010287930914202863 0 -0.00087963358438865292 -0.010377049425422228 0 -0.00084474453738286805 -0.01027079133881152 0 -0.00095838175476108491 -0.010377559618020064 0 -0.00089872793101325042 -0.010287930914202863 0 -0.00087963358438865292 -0.010377049425422228 0 -0.00081024689784635101 -0.010422372501628741 0 -0.00087963358438865292 -0.010377049425422228 0 -0.00091421874797285299 -0.010509067527069945 0 -0.00095838175476108491 -0.010377559618020064 0 -0.00087963358438865292 -0.010377049425422228 0 -0.00091421874797285299 -0.010509067527069945 0 -0.00095838175476108491 -0.010377559618020064 0 -0.00091421874797285299 -0.010509067527069945 0 -0.0010433581339373548 -0.010470621630478299 0 -0.00091421874797285299 -0.010509067527069945 0 -0.0010600712989655575 -0.010627980866086963 0 -0.0010433581339373548 -0.010470621630478299 0 -0.00091421874797285299 -0.010509067527069945 0 -0.00091131228328113895 -0.010678016821963406 0 -0.0010600712989655575 -0.010627980866086963 0 -0.0012597323644094609 -0.010760574061869898 0 -0.0010600712989655575 -0.010627980866086963 0 -0.001190142262017332 -0.010474547278716504 0 -0.0013041084236453636 -0.010648336013372575 0 -0.0010372182328463528 -0.012057700256749123 0 -0.0014672090075272509 -0.011061916381401913 0 -0.0013436251448349674 -0.011038255678250231 0 -0.0013305280376175435 -0.01088585784055751 0 -0.0010600712989655575 -0.010627980866086963 0 -0.0010433581339373548 -0.010470621630478299 0 -0.001190142262017332 -0.010474547278716504 0 -0.00017658208335429449 -0.014887181514118629 0 -0.00017247983108613043 -0.014904954584681421 0 -0.00017849536428932183 -0.014888593323349308 0 -0.00014205518574963934 -0.01492235358426564 0 -0.00017658208335429449 -0.014887181514118629 0 -0.00017247983108613043 -0.014904954584681421 0 -0.00082276610722658043 -0.013136073112589644 0 -0.0010372182328463528 -0.012057700256749123 0 -0.00014205518574963934 -0.01492235358426564 0 -0.00017247983108613043 -0.014904954584681421 0 -0.00015671198947725032 -0.014929078083597877 0 -0.00012720823948697519 -0.014916651519539333 0 -0.00020850704036112243 -0.014895258952010104 0 -0.0002553530386058447 -0.014853761765994818 0 -0.00018675212735832751 -0.014896955323574625 0 -0.00018363940310654108 -0.01485064798432981 0 -0.00014576660609255741 -0.014979331735662217 0 -0.00015671198947725032 -0.014929078083597877 0 -0.00018675212735832751 -0.014896955323574625 0 -0.00012720823948697519 -0.014916651519539333 0 -0.00021333859345727487 -0.014839379162714671 0 -0.00017247983108613043 -0.014904954584681421 0 -0.00015671198947725032 -0.014929078083597877 0 -0.00018675212735832751 -0.014896955323574625 0 -0.00017247983108613043 -0.014904954584681421 0 -0.00018675212735832751 -0.014896955323574625 0 -0.00017849536428932183 -0.014888593323349308 0 -0.0010372182328463528 -0.012057700256749123 0 -0.00049540532755436956 -0.011822249659096893 0 -0.00017849536428932183 -0.014888593323349308 0 -0.00018363940310654108 -0.01485064798432981 0 -0.00018230587058888311 -0.014813845348679359 0 -0.0011661901092364043 -0.010532323163499746 0 -0.0010738503708000102 -0.010345251066690262 0 -0.0011505052832141611 -0.010072336156472244 0 -0.00095838175476108491 -0.010377559618020064 0 -0.0010433581339373548 -0.010470621630478299 0 -0.0010738503708000102 -0.010345251066690262 0 -0.0010433581339373548 -0.010470621630478299 0 -0.001190142262017332 -0.010474547278716504 0 -0.0010738503708000102 -0.010345251066690262 0 -0.00018675212735832751 -0.014896955323574625 0 -0.00017849536428932183 -0.014888593323349308 0 -0.00018363940310654108 -0.01485064798432981 0 -0.0010372182328463528 -0.012057700256749123 0 -0.00080368516000310782 -0.010234392378469266 0 -0.00095838175476108491 -0.010377559618020064 0 -0.0010738503708000102 -0.010345251066690262 0 -0.00093267058319241377 -0.010242454893938917 0 -0.0010738503708000102 -0.010345251066690262 0 -0.0011505052832141611 -0.010072336156472244 0 -0.00093267058319241377 -0.010242454893938917 0 -0.00076215188317023538 -0.01023144277975583 0 -0.0008443338324553456 -0.01023518187686215 0 -0.00093267058319241377 -0.010242454893938917 0 -0.00049540532755436956 -0.011822249659096893 0 -0.0012854727961984405 -0.0099575301044181278 0 -0.00016423402707108761 -0.0148176418828951 0 -0.00018363940310654108 -0.01485064798432981 0 -0.00017763502638871862 -0.01483596739202319 0 -0.00018363940310654108 -0.01485064798432981 0 -0.00018230587058888311 -0.014813845348679359 0 -0.00017763502638871862 -0.01483596739202319 0 -0.00049540532755436956 -0.011822249659096893 0 -0.00023448382883643241 -0.012763942020455448 0 -0.00018230587058888311 -0.014813845348679359 0 -0.00017763502638871862 -0.01483596739202319 0 -0.00017775863171342173 -0.014875768460337392 0 -0.00060283753845272994 -0.010295866315863532 0 -0.00043476522457268785 -0.010407895842339112 0 -0.00060557732103756301 -0.010411384976643036 0 -0.00069411921815217654 -0.010331802582910025 0 -0.00084698862072175797 -0.01025521866777109 0 -0.00079690842675333128 -0.010406823534895011 0 -0.0008443338324553456 -0.01023518187686215 0 -0.00069411921815217654 -0.010331802582910025 0 -0.00084698862072175797 -0.01025521866777109 0 -0.00049540532755436956 -0.011822249659096893 0 -0.00064515005228190834 -0.010144272715970081 0 -0.00076215188317023538 -0.01023144277975583 0 -0.0008443338324553456 -0.01023518187686215 0 -0.00069411921815217654 -0.010331802582910025 0 -0.00084698862072175797 -0.01025521866777109 0 -0.00086499649030630677 -0.010182045028024988 0 -0.00087392901572150284 -0.010216108581302851 0 -0.00084698862072175797 -0.01025521866777109 0 -0.00086750809567673218 -0.010291878319959268 0 -0.00086499649030630677 -0.010182045028024988 0 -0.00084698862072175797 -0.01025521866777109 0 -0.00086750809567673218 -0.010291878319959268 0 -0.00079690842675333128 -0.010406823534895011 0 -0.00088477319674729743 -0.010174236612056875 0 -0.00090095296192807181 -0.010285213849625311 0 -0.00086750809567673218 -0.010291878319959268 0 -0.00086499649030630677 -0.010182045028024988 0 -0.00096448525542197584 -0.010376245193438527 0 -0.00086499649030630677 -0.010182045028024988 0 -0.00077127645159650389 -0.010128397274366588 0 -0.00087102513770721877 -0.01004060335402049 0 -0.00079165704908796663 -0.010161455133380251 0 -0.00086499649030630677 -0.010182045028024988 0 -0.00077127645159650389 -0.010128397274366588 0 -0.00086499649030630677 -0.010182045028024988 0 -0.00082170547074194179 -0.010194579413872151 0 -0.00087392901572150284 -0.010216108581302851 0 -0.00079165704908796663 -0.010161455133380251 0 -0.00082170547074194179 -0.010194579413872151 0 -0.00071197208686173228 -0.010145468208477689 0 -0.00079165704908796663 -0.010161455133380251 0 -0.00086499649030630677 -0.010182045028024988 0 -0.00082170547074194179 -0.010194579413872151 0 -0.00076444320747664997 -0.010250857596776391 0 -0.00082170547074194179 -0.010194579413872151 0 -0.00071197208686173228 -0.010145468208477689 0 -0.00082170547074194179 -0.010194579413872151 0 -0.00084474453738286805 -0.01027079133881152 0 -0.00087392901572150284 -0.010216108581302851 0 -0.00076444320747664997 -0.010250857596776391 0 -0.00082170547074194179 -0.010194579413872151 0 -0.00084474453738286805 -0.01027079133881152 0 -0.00089872793101325042 -0.010287930914202863 0 -0.00084474453738286805 -0.01027079133881152 0 -0.00087392901572150284 -0.010216108581302851 0 -0.00089872793101325042 -0.010287930914202863 0 -0.00093267058319241377 -0.010242454893938917 0 -0.00087392901572150284 -0.010216108581302851 0 -0.0008443338324553456 -0.01023518187686215 0 -0.00084698862072175797 -0.01025521866777109 0 -0.00087392901572150284 -0.010216108581302851 0 -0.0008443338324553456 -0.01023518187686215 0 -0.00093267058319241377 -0.010242454893938917 0 -0.00087392901572150284 -0.010216108581302851 0 -0.00038384457784199533 -0.0099193734258836517 0 -0.00036814256432650259 -0.0094645170048047837 0 -0.00050924961424095208 -0.010064438018810115 0 -0.00022396165647082736 -0.0097366933736164254 0 -0.00036814256432650259 -0.0094645170048047837 0 -9.3194423976158342e-05 -0.0095640463430503395 0 -0.00022396165647082736 -0.0097366933736164254 0 8.0509196690049364e-05 -0.0095839883474007868 0 -0.00039274149403332705 -0.010103959526757741 0 -0.00022396165647082736 -0.0097366933736164254 0 -0.00038384457784199533 -0.0099193734258836517 0 -0.00036814256432650259 -0.0094645170048047837 0 -0.00022396165647082736 -0.0097366933736164254 0 -0.00038384457784199533 -0.0099193734258836517 0 -0.00039274149403332705 -0.010103959526757741 0 -0.00059416006889542879 -0.0092499647494696975 0 -0.00036814256432650259 -0.0094645170048047837 0 -0.00050924961424095208 -0.010064438018810115 0 -0.00066789456815941842 -0.0096444766367762974 0 -0.00050292999630728477 -0.010095286642807887 0 -0.00071197208686173228 -0.010145468208477689 0 -0.00077127645159650389 -0.010128397274366588 0 -0.00050924961424095208 -0.010064438018810115 0 -0.00071197208686173228 -0.010145468208477689 0 -0.00066115090035784503 -0.01018977110142804 0 -0.00050924961424095208 -0.010064438018810115 0 -0.00076444320747664997 -0.010250857596776391 0 -0.00071197208686173228 -0.010145468208477689 0 -0.00066115090035784503 -0.01018977110142804 0 -0.00079165704908796663 -0.010161455133380251 0 -0.00071197208686173228 -0.010145468208477689 0 -0.00077127645159650389 -0.010128397274366588 0 -0.00059416006889542879 -0.0092499647494696975 0 -0.00037443296817302402 -0.0091952441318163668 0 -0.00036814256432650259 -0.0094645170048047837 0 -0.00036814256432650259 -0.0094645170048047837 0 4.7821048208336915e-05 -0.0094223856066235293 0 -9.3194423976158342e-05 -0.0095640463430503395 0 -0.00036260452331006074 -0.0094428562471927796 0 -5.5321606562314645e-05 -0.009296199744623871 0 -0.00036814256432650259 -0.0094645170048047837 0 -0.00023977711954138825 -0.0091814960900443564 0 -0.00011519498863338139 -0.0091661678117357197 0 -0.00037443296817302402 -0.0091952441318163668 0 -0.00036814256432650259 -0.0094645170048047837 0 -0.00023977711954138825 -0.0091814960900443564 0 -0.00023977711954138825 -0.0091814960900443564 0 -0.00011519498863338139 -0.0091661678117357197 0 -0.00014849867835367011 -0.0090653257696862496 0 -0.00011519498863338139 -0.0091661678117357197 0 -9.5775265635666428e-05 -0.0090375865207320254 0 -0.00014849867835367011 -0.0090653257696862496 0 -0.00011519498863338139 -0.0091661678117357197 0 -6.9578822440038345e-05 -0.0089758217147286115 0 -9.5775265635666428e-05 -0.0090375865207320254 0 -5.5321606562314645e-05 -0.009296199744623871 0 1.3245541113321236e-05 -0.0091096939944585731 0 4.7821048208336915e-05 -0.0094223856066235293 0 9.9053591631507228e-05 -0.0092702782198423577 0 8.9932397278194831e-05 -0.0092642970742925178 0 4.7821048208336915e-05 -0.0094223856066235293 0 8.0509196690049364e-05 -0.0095839883474007868 0 9.9053591631507228e-05 -0.0092702782198423577 0 -0.00038999815967950341 -0.0089225185798736291 0 -0.00051437577542740769 -0.0089057779429621408 0 -0.00028751365558372667 -0.0088331517175052054 0 -0.00024021998553229001 -0.0092355249697681097 0 -0.00011779065404384818 -0.009057082574057242 0 -0.00038999815967950341 -0.0089225185798736291 0 -0.00051437577542740769 -0.0089057779429621408 0 -0.00047751997576274288 -0.0090124836994327513 0 -0.00038999815967950341 -0.0089225185798736291 0 -0.00037135781887382129 -0.0090240479560724455 0 -0.00031077333363396553 -0.0089039878331562874 0 -0.00024021998553229001 -0.0092355249697681097 0 -0.00051601103620962387 -0.0097148550395928478 0 -0.00022396165647082736 -0.0097366933736164254 0 -9.3194423976158342e-05 -0.0095640463430503395 0 8.0509196690049364e-05 -0.0095839883474007868 0 4.7821048208336915e-05 -0.0094223856066235293 0 -9.3194423976158342e-05 -0.0095640463430503395 0 8.0509196690049364e-05 -0.0095839883474007868 0 -0.00051437577542740769 -0.0089057779429621408 0 -0.00059477921791886094 -0.0090425592236755281 0 -0.00074137010092801701 -0.0090102658175006817 0 -0.00059477921791886094 -0.0090425592236755281 0 -0.00047751997576274288 -0.0090124836994327513 0 -0.00047100868051477412 -0.0091627885784687155 0 -0.00051437577542740769 -0.0089057779429621408 0 -0.00059477921791886094 -0.0090425592236755281 0 -0.00047751997576274288 -0.0090124836994327513 0 -0.00037135781887382129 -0.0090240479560724455 0 -0.00047751997576274288 -0.0090124836994327513 0 -0.00047100868051477412 -0.0091627885784687155 0 -0.00038999815967950341 -0.0089225185798736291 0 -0.00037135781887382129 -0.0090240479560724455 0 -0.00047751997576274288 -0.0090124836994327513 0 -0.00037135781887382129 -0.0090240479560724455 0 -0.00047100868051477412 -0.0091627885784687155 0 -0.00031369350031231689 -0.0092391032655970307 0 -0.00047100868051477412 -0.0091627885784687155 0 -0.00061312574244474344 -0.0091959913261493043 0 -0.00049364463563395086 -0.0093835073353569654 0 -0.00059477921791886094 -0.0090425592236755281 0 -0.00047100868051477412 -0.0091627885784687155 0 -0.00061312574244474344 -0.0091959913261493043 0 -0.00039098740491024436 -0.010610067097695587 0 -0.00059595414017145582 -0.010544439219453241 0 -0.00060843636298530031 -0.010778395502131466 0 -0.00039098740491024436 -0.010610067097695587 0 -0.00052227666033764547 -0.010353396788066944 0 -0.00059595414017145582 -0.010544439219453241 0 -0.00059477921791886094 -0.0090425592236755281 0 -0.00061312574244474344 -0.0091959913261493043 0 -0.00074137010092801701 -0.0090102658175006817 0 -0.00052349494362730401 -0.0098886627740154553 0 -0.00051601103620962387 -0.0097148550395928478 0 -0.00038384457784199533 -0.0099193734258836517 0 -0.00039274149403332705 -0.010103959526757741 0 -0.00050924961424095208 -0.010064438018810115 0 -0.00051601103620962387 -0.0097148550395928478 0 -0.00073424690349327155 -0.01040901633257733 0 -0.00039274149403332705 -0.010103959526757741 0 -0.00050924961424095208 -0.010064438018810115 0 -0.00069719158002900529 -0.010401820231394276 0 -0.00052227666033764547 -0.010353396788066944 0 -0.00069719158002900529 -0.010401820231394276 0 -0.00059595414017145582 -0.010544439219453241 0 -0.00066115090035784503 -0.01018977110142804 0 -0.00050924961424095208 -0.010064438018810115 0 -0.00069719158002900529 -0.010401820231394276 0 -0.00076444320747664997 -0.010250857596776391 0 -0.00066115090035784503 -0.01018977110142804 0 -0.00069719158002900529 -0.010401820231394276 0 -0.00077395103713338669 -0.010577684956093262 0 -0.00059595414017145582 -0.010544439219453241 0 -0.00060843636298530031 -0.010778395502131466 0 -0.00077395103713338669 -0.010577684956093262 0 -0.00069719158002900529 -0.010401820231394276 0 -0.00059595414017145582 -0.010544439219453241 0 -0.00081758598373596802 -0.010807532475251383 0 -0.00060843636298530031 -0.010778395502131466 0 -0.00068900436606730028 -0.010973583252670196 0 -0.00039098740491024436 -0.010610067097695587 0 -0.00060843636298530031 -0.010778395502131466 0 -0.00045222116928194837 -0.010894767183239786 0 -0.00060843636298530031 -0.010778395502131466 0 -0.00045222116928194837 -0.010894767183239786 0 -0.00056914836891611554 -0.010951194323222771 0 -0.00056914836891611554 -0.010951194323222771 0 -0.00057666075492816002 -0.011090723291835228 0 -0.00049361772565077451 -0.011050334518030157 0 -0.00045222116928194837 -0.010894767183239786 0 -0.00056914836891611554 -0.010951194323222771 0 -0.00049361772565077451 -0.011050334518030157 0 -0.00060843636298530031 -0.010778395502131466 0 -0.00056914836891611554 -0.010951194323222771 0 -0.00068900436606730028 -0.010973583252670196 0 -0.00056914836891611554 -0.010951194323222771 0 -0.00068900436606730028 -0.010973583252670196 0 -0.00057666075492816002 -0.011090723291835228 0 -0.00084332322608834541 -0.010976635393185465 0 -0.00068900436606730028 -0.010973583252670196 0 -0.00067154672975431381 -0.011165864307805097 0 -0.00068900436606730028 -0.010973583252670196 0 -0.00067154672975431381 -0.011165864307805097 0 -0.00057666075492816002 -0.011090723291835228 0 -0.00057666075492816002 -0.011090723291835228 0 -0.00044592012946045753 -0.011280592813715904 0 -0.00046123680969844774 -0.011146621302442039 0 -0.00057083316424361358 -0.01110535494433099 0 -0.00042402898043376115 -0.011306183128787842 0 -0.00057666075492816002 -0.011090723291835228 0 -0.00049361772565077451 -0.011050334518030157 0 -0.00046123680969844774 -0.011146621302442039 0 -0.00067154672975431381 -0.011165864307805097 0 -0.00057666075492816002 -0.011090723291835228 0 -0.00047548139792909059 -0.01139358693813672 0 -0.00057666075492816002 -0.011090723291835228 0 -0.00047548139792909059 -0.01139358693813672 0 -0.00039655570132479185 -0.011334906155034541 0 -0.00050394246908651644 -0.011465195413064615 0 -0.00034482897209082687 -0.011696508692440806 0 -0.00033175059728353612 -0.011769530708686485 0 -0.00021203538536105111 -0.012007489382618135 0 -0.00030584547078138112 -0.01194439587459495 0 -0.0002690272180472631 -0.012023315882622509 0 -0.00021203538536105111 -0.012007489382618135 0 -0.00030584547078138112 -0.01194439587459495 0 -0.00030584547078138112 -0.01194439587459495 0 -0.00040992865287402578 -0.011911664162150523 0 -0.00037589921344785381 -0.011987345200257954 0 -0.00031806556360663231 -0.01202315642954512 0 -0.00030584547078138112 -0.01194439587459495 0 -0.00037589921344785381 -0.011987345200257954 0 -0.00047062351212536277 -0.012009336058230225 0 -0.00040992865287402578 -0.011911664162150523 0 -0.00037589921344785381 -0.011987345200257954 0 -0.00052231674712232071 -0.011740183938396287 0 -0.00033175059728353612 -0.011769530708686485 0 -0.00040992865287402578 -0.011911664162150523 0 -0.00033175059728353612 -0.011769530708686485 0 -0.00030584547078138112 -0.01194439587459495 0 -0.00040992865287402578 -0.011911664162150523 0 -0.0002854153914132735 -0.011217271912060036 0 -0.00033334827177699102 -0.011286822428374317 0 -0.00036309233695366774 -0.011221304706117579 0 -0.0002854153914132735 -0.011217271912060036 0 -0.00028827652126766777 -0.011296617193774811 0 -0.00033334827177699102 -0.011286822428374317 0 -0.0002854153914132735 -0.011217271912060036 0 -0.00024179647038631395 -0.011289724654565375 0 -0.00020217818843871173 -0.01124230186286429 0 -0.0002854153914132735 -0.011217271912060036 0 -0.00028827652126766777 -0.011296617193774811 0 -0.00024179647038631395 -0.011289724654565375 0 -0.00028827652126766777 -0.011296617193774811 0 -0.00024179647038631395 -0.011289724654565375 0 -0.00025835434838768407 -0.011342697101897918 0 -0.00024179647038631395 -0.011289724654565375 0 -0.00025835434838768407 -0.011342697101897918 0 -0.00020473332607055326 -0.011310130821359255 0 -0.00028827652126766777 -0.011296617193774811 0 -0.00025835434838768407 -0.011342697101897918 0 -0.00030757241477411429 -0.011337053046358497 0 -0.00028827652126766777 -0.011296617193774811 0 -0.00030757241477411429 -0.011337053046358497 0 -0.00033334827177699102 -0.011286822428374317 0 -0.00030757241477411429 -0.011337053046358497 0 -0.00033334827177699102 -0.011286822428374317 0 -0.00035901042427948242 -0.011352089764345012 0 -0.00035901042427948242 -0.011352089764345012 0 -0.00044592012946045753 -0.011280592813715904 0 -0.00038344261483967121 -0.011269086912763147 0 -0.00033334827177699102 -0.011286822428374317 0 -0.00035901042427948242 -0.011352089764345012 0 -0.00038344261483967121 -0.011269086912763147 0 -0.00044592012946045753 -0.011280592813715904 0 -0.00041435135063880887 -0.011206744829811948 0 -0.00038344261483967121 -0.011269086912763147 0 -0.00044592012946045753 -0.011280592813715904 0 -0.00041435135063880887 -0.011206744829811948 0 -0.00046123680969844774 -0.011146621302442039 0 -0.00033334827177699102 -0.011286822428374317 0 -0.00038344261483967121 -0.011269086912763147 0 -0.00036309233695366774 -0.011221304706117579 0 -0.00041435135063880887 -0.011206744829811948 0 -0.00038344261483967121 -0.011269086912763147 0 -0.00036309233695366774 -0.011221304706117579 0 -0.00041435135063880887 -0.011206744829811948 0 -0.00036309233695366774 -0.011221304706117579 0 -0.00036574732300383357 -0.011104742664230347 0 -0.00049361772565077451 -0.011050334518030157 0 -0.00046123680969844774 -0.011146621302442039 0 -0.00036574732300383357 -0.011104742664230347 0 -0.00041435135063880887 -0.011206744829811948 0 -0.00046123680969844774 -0.011146621302442039 0 -0.00036574732300383357 -0.011104742664230347 0 -0.0002854153914132735 -0.011217271912060036 0 -0.00036574732300383357 -0.011104742664230347 0 -0.00019669646530081798 -0.011074823091704397 0 -0.0002854153914132735 -0.011217271912060036 0 -0.00019669646530081798 -0.011074823091704397 0 -0.00020217818843871173 -0.01124230186286429 0 -0.0002854153914132735 -0.011217271912060036 0 -0.00036309233695366774 -0.011221304706117579 0 -0.00036574732300383357 -0.011104742664230347 0 -0.00049364463563395086 -0.0093835073353569654 0 -0.00029038937116026198 -0.0094213527347906979 0 -0.0003807469156412719 -0.009566951899743421 0 -0.00036574732300383357 -0.011104742664230347 0 -0.00028905905799330307 -0.010853698544944385 0 -0.00019669646530081798 -0.011074823091704397 0 -0.00038851993840246461 -0.010123574671330189 0 -0.00028754492592239636 -0.010296355419844111 0 -0.00045222116928194837 -0.010894767183239786 0 -0.00049361772565077451 -0.011050334518030157 0 -0.00036574732300383357 -0.011104742664230347 0 -0.00045222116928194837 -0.010894767183239786 0 -0.00036574732300383357 -0.011104742664230347 0 -0.00028905905799330307 -0.010853698544944385 0 -0.00052349494362730401 -0.0098886627740154553 0 -0.00038851993840246461 -0.010123574671330189 0 -0.00039098740491024436 -0.010610067097695587 0 -0.00045222116928194837 -0.010894767183239786 0 -0.00028905905799330307 -0.010853698544944385 0 -0.00047100868051477412 -0.0091627885784687155 0 -0.00049364463563395086 -0.0093835073353569654 0 -0.00031369350031231689 -0.0092391032655970307 0 -0.00021339317446647903 -0.0093192411941592657 0 -0.00029038937116026198 -0.0094213527347906979 0 -0.00031369350031231689 -0.0092391032655970307 0 -0.00049364463563395086 -0.0093835073353569654 0 -0.00029038937116026198 -0.0094213527347906979 0 -0.00031369350031231689 -0.0092391032655970307 0 -0.00021339317446647903 -0.0093192411941592657 0 -0.0001956499443520776 -0.0092182697431029484 0 -0.00031369350031231689 -0.0092391032655970307 0 -0.00021339317446647903 -0.0093192411941592657 0 -0.00013394848175798352 -0.009391848544263233 0 -0.00029038937116026198 -0.0094213527347906979 0 -0.00012505485772228674 -0.0092729311230887786 0 -0.00021339317446647903 -0.0093192411941592657 0 -0.0001956499443520776 -0.0092182697431029484 0 -0.00012505485772228674 -0.0092729311230887786 0 -0.00021339317446647903 -0.0093192411941592657 0 -0.00013394848175798352 -0.009391848544263233 0 -0.00013394848175798352 -0.009391848544263233 0 -0.00021270568663965468 -0.0095123226223808068 0 -0.00029038937116026198 -0.0094213527347906979 0 -0.00013394848175798352 -0.009391848544263233 0 -0.00021270568663965468 -0.0095123226223808068 0 -8.8189122078500214e-05 -0.0095163657926128874 0 -0.00021270568663965468 -0.0095123226223808068 0 -0.00029038937116026198 -0.0094213527347906979 0 -0.0003807469156412719 -0.009566951899743421 0 -0.00021270568663965468 -0.0095123226223808068 0 -0.0003807469156412719 -0.009566951899743421 0 -0.00023547909967569627 -0.0096320149722289913 0 -0.00019669646530081798 -0.011074823091704397 0 -0.00020217818843871173 -0.01124230186286429 0 -0.00011599915251053572 -0.011275182632521899 0 -0.0003807469156412719 -0.009566951899743421 0 -0.00023547909967569627 -0.0096320149722289913 0 -0.00026880836949314918 -0.0097482378815980635 0 -0.00028754492592239636 -0.010296355419844111 0 -0.00025019369112983116 -0.010659177397586445 0 -0.00021270568663965468 -0.0095123226223808068 0 -0.00015424753320678449 -0.0096077653435927765 0 -0.00023547909967569627 -0.0096320149722289913 0 -0.00021270568663965468 -0.0095123226223808068 0 -0.00015424753320678449 -0.0096077653435927765 0 -8.8189122078500214e-05 -0.0095163657926128874 0 -0.00015424753320678449 -0.0096077653435927765 0 -0.00023547909967569627 -0.0096320149722289913 0 -0.00016274889410949463 -0.0097228052922111053 0 -0.00023547909967569627 -0.0096320149722289913 0 -0.00016274889410949463 -0.0097228052922111053 0 -0.00026880836949314918 -0.0097482378815980635 0 -0.0001404142209438066 -0.0098445331261626315 0 -0.00016274889410949463 -0.0097228052922111053 0 -0.00026880836949314918 -0.0097482378815980635 0 -0.00019293354969749215 -0.010259536743425548 0 -0.00025019369112983116 -0.010659177397586445 0 -0.00019669646530081798 -0.011074823091704397 0 -9.7899021031497974e-05 -0.011292536158105456 0 -0.00011599915251053572 -0.011275182632521899 0 -9.6170272860808827e-05 -0.01129394066708903 0 -0.00015174091432285474 -0.011346919309405941 0 -0.00011599915251053572 -0.011275182632521899 0 -0.00015174091432285474 -0.011346919309405941 0 -0.00016882085334769283 -0.011293388283368353 0 -0.00011599915251053572 -0.011275182632521899 0 -0.0002182618638550059 -0.011409188393170469 0 -0.00025835434838768407 -0.011342697101897918 0 -0.00020473332607055326 -0.011310130821359255 0 -0.0002182618638550059 -0.011409188393170469 0 -0.00015174091432285474 -0.011346919309405941 0 -0.00020473332607055326 -0.011310130821359255 0 -0.00015174091432285474 -0.011346919309405941 0 -0.00020473332607055326 -0.011310130821359255 0 -0.00016882085334769283 -0.011293388283368353 0 -0.00016882085334769283 -0.011293388283368353 0 -0.00020217818843871173 -0.01124230186286429 0 -0.00011599915251053572 -0.011275182632521899 0 -0.00024179647038631395 -0.011289724654565375 0 -0.00020473332607055326 -0.011310130821359255 0 -0.00020217818843871173 -0.01124230186286429 0 -0.00020473332607055326 -0.011310130821359255 0 -0.00016882085334769283 -0.011293388283368353 0 -0.00020217818843871173 -0.01124230186286429 0 -0.00025019369112983116 -0.010659177397586445 0 -0.00016509681405656155 -0.010759072216409071 0 4.7458380749192109e-05 -0.009858200366716351 0 4.5885163248696183e-05 -0.0096790319130044735 0 -6.9761414221962257e-05 -0.0097652285171172856 0 4.7458380749192109e-05 -0.009858200366716351 0 4.5885163248696183e-05 -0.0096790319130044735 0 0.00018452324462866419 -0.0097285119288500442 0 -0.0001404142209438066 -0.0098445331261626315 0 -0.00016274889410949463 -0.0097228052922111053 0 -6.9761414221962257e-05 -0.0097652285171172856 0 -0.00016274889410949463 -0.0097228052922111053 0 -6.9761414221962257e-05 -0.0097652285171172856 0 -6.4213897752171393e-05 -0.0096508967979015738 0 4.5885163248696183e-05 -0.0096790319130044735 0 -6.9761414221962257e-05 -0.0097652285171172856 0 -6.4213897752171393e-05 -0.0096508967979015738 0 -0.00015424753320678449 -0.0096077653435927765 0 -0.00016274889410949463 -0.0097228052922111053 0 -6.4213897752171393e-05 -0.0096508967979015738 0 -0.00015424753320678449 -0.0096077653435927765 0 -6.4213897752171393e-05 -0.0096508967979015738 0 -8.8189122078500214e-05 -0.0095163657926128874 0 -6.4213897752171393e-05 -0.0096508967979015738 0 3.21086904822837e-05 -0.0095421428846230484 0 -8.8189122078500214e-05 -0.0095163657926128874 0 4.5885163248696183e-05 -0.0096790319130044735 0 3.21086904822837e-05 -0.0095421428846230484 0 0.00017551342844645247 -0.0095814408638136266 0 4.5885163248696183e-05 -0.0096790319130044735 0 0.00017551342844645247 -0.0095814408638136266 0 0.00018452324462866419 -0.0097285119288500442 0 4.5885163248696183e-05 -0.0096790319130044735 0 -6.4213897752171393e-05 -0.0096508967979015738 0 3.21086904822837e-05 -0.0095421428846230484 0 3.21086904822837e-05 -0.0095421428846230484 0 7.7071203361004636e-06 -0.0093952756690851985 0 0.00024695562507637432 -0.0094450156343295812 0 -0.00013394848175798352 -0.009391848544263233 0 7.7071203361004636e-06 -0.0093952756690851985 0 -8.8189122078500214e-05 -0.0095163657926128874 0 3.21086904822837e-05 -0.0095421428846230484 0 7.7071203361004636e-06 -0.0093952756690851985 0 -8.8189122078500214e-05 -0.0095163657926128874 0 -0.00013394848175798352 -0.009391848544263233 0 7.7071203361004636e-06 -0.0093952756690851985 0 -2.880143421121179e-05 -0.0093089515887733558 0 -2.880143421121179e-05 -0.0093089515887733558 0 2.5491461644634768e-05 -0.009241090416212008 0 -4.9154413702434388e-05 -0.0092255397010195216 0 -0.00012505485772228674 -0.0092729311230887786 0 -0.00013394848175798352 -0.009391848544263233 0 -2.880143421121179e-05 -0.0093089515887733558 0 -0.00012505485772228674 -0.0092729311230887786 0 -2.880143421121179e-05 -0.0093089515887733558 0 -4.9154413702434388e-05 -0.0092255397010195216 0 7.7071203361004636e-06 -0.0093952756690851985 0 0.00011790644615719905 -0.0092914254720276555 0 0.00024695562507637432 -0.0094450156343295812 0 -2.880143421121179e-05 -0.0093089515887733558 0 0.00011790644615719905 -0.0092914254720276555 0 2.5491461644634768e-05 -0.009241090416212008 0 7.7071203361004636e-06 -0.0093952756690851985 0 -2.880143421121179e-05 -0.0093089515887733558 0 0.00011790644615719905 -0.0092914254720276555 0 -0.00015271191873106953 -0.0089169479653484901 0 3.2052836540589503e-05 -0.0087913518020683087 0 0.00011790644615719905 -0.0092914254720276555 0 2.5491461644634768e-05 -0.009241090416212008 0 -3.4625467703900577e-06 -0.0091400131943266873 0 2.5536474684017642e-05 -0.0091598912863990242 0 -0.00015271191873106953 -0.0089169479653484901 0 -7.8029374240798068e-05 -0.0090116900227269932 0 -0.0002626466640743367 -0.0087772981489012969 0 0.00010173892545403789 -0.0088363046546947252 0 -0.00015271191873106953 -0.0089169479653484901 0 -8.1292139285764787e-05 -0.0087356246263885096 0 -0.00018747750129333068 -0.008869453420699256 0 -0.00019307451904331885 -0.0088962228437452842 0 -0.00017836969012834626 -0.008854553787612492 0 -0.00019149309736630791 -0.0088800559110886797 0 -0.00018747750129333068 -0.008869453420699256 0 -0.00019307451904331885 -0.0088962228437452842 0 -0.00019149309736630791 -0.0088800559110886797 0 -0.00018901612764499369 -0.0088611090537112462 0 -0.00018747750129333068 -0.008869453420699256 0 -0.00019149309736630791 -0.0088800559110886797 0 -0.00019267997257139233 -0.0088726104944693261 0 -0.00018901612764499369 -0.0088611090537112462 0 -0.00019267997257139233 -0.0088726104944693261 0 -0.00018901612764499369 -0.0088611090537112462 0 -0.00019169438114150452 -0.0088557182020162703 0 -0.00018472593520453562 -0.0088545612544166496 0 -0.00018747750129333068 -0.008869453420699256 0 -0.00017836969012834626 -0.008854553787612492 0 -0.00018901612764499369 -0.0088611090537112462 0 -0.00018472593520453562 -0.0088545612544166496 0 -0.00018499424659232909 -0.0088340843626638649 0 -0.00018901612764499369 -0.0088611090537112462 0 -0.00018472593520453562 -0.0088545612544166496 0 -0.00018747750129333068 -0.008869453420699256 0 -0.00019387460711536999 -0.0088955776895597617 0 -0.0001917353786592701 -0.0088927197412639585 0 -0.00022242857532250884 -0.0089488540120580239 0 -0.00015271191873106953 -0.0089169479653484901 0 -0.00020225299629686111 -0.0090313707720626295 0 -0.00020305410587404695 -0.0088951038858981844 0 -0.00019546415877414526 -0.0088915194225290799 0 -0.00022242857532250884 -0.0089488540120580239 0 -0.00019546415877414526 -0.0088915194225290799 0 -0.00019387460711536999 -0.0088955776895597617 0 -0.00022242857532250884 -0.0089488540120580239 0 -0.00020305410587404695 -0.0088951038858981844 0 -0.00019546415877414526 -0.0088915194225290799 0 -0.00019554285037996178 -0.008873970522838533 0 -0.00019267997257139233 -0.0088726104944693261 0 -0.00019546415877414526 -0.0088915194225290799 0 -0.00019554285037996178 -0.008873970522838533 0 -0.00019149309736630791 -0.0088800559110886797 0 -0.00019267997257139233 -0.0088726104944693261 0 -0.00019546415877414526 -0.0088915194225290799 0 -0.00019149309736630791 -0.0088800559110886797 0 -0.0001930637984285701 -0.0088915295740682933 0 -0.00019307451904331885 -0.0088962228437452842 0 -0.00019149309736630791 -0.0088800559110886797 0 -0.00019546415877414526 -0.0088915194225290799 0 -0.0001930637984285701 -0.0088915295740682933 0 -0.00019546415877414526 -0.0088915194225290799 0 -0.00019387460711536999 -0.0088955776895597617 0 -0.0001930637984285701 -0.0088915295740682933 0 -0.00019387460711536999 -0.0088955776895597617 0 -0.0001930637984285701 -0.0088915295740682933 0 -0.0001931309843624729 -0.0088940528473879423 0 -0.0001930637984285701 -0.0088915295740682933 0 -0.0001931309843624729 -0.0088940528473879423 0 -0.00019307451904331885 -0.0088962228437452842 0 -4.0078178812377316e-06 -0.0091413340395515522 0 -2.8182760328023065e-05 -0.0091514584253556512 0 -0.00012324852829513264 -0.0091605247010867544 0 -4.0078178812377316e-06 -0.0091413340395515522 0 -0.00012324852829513264 -0.0091605247010867544 0 -0.00019216656451345542 -0.0090890408236027655 0 -2.8182760328023065e-05 -0.0091514584253556512 0 -4.9154413702434388e-05 -0.0092255397010195216 0 -0.00012324852829513264 -0.0091605247010867544 0 2.5491461644634768e-05 -0.009241090416212008 0 -3.4625467703900577e-06 -0.0091400131943266873 0 -1.3865233253046186e-05 -0.0091894955728690463 0 -2.8182760328023065e-05 -0.0091514584253556512 0 -1.3865233253046186e-05 -0.0091894955728690463 0 -4.9154413702434388e-05 -0.0092255397010195216 0 -0.00019387460711536999 -0.0088955776895597617 0 -0.0001931309843624729 -0.0088940528473879423 0 -0.00019307451904331885 -0.0088962228437452842 0 -0.00015919349605531647 -0.0089106004345550754 0 -0.00015271191873106953 -0.0089169479653484901 0 -0.00015271191873106953 -0.0089169479653484901 0 -0.00013214761674757848 -0.00893809914598734 0 -3.4625467703900577e-06 -0.0091400131943266873 0 -2.8182760328023065e-05 -0.0091514584253556512 0 -1.3865233253046186e-05 -0.0091894955728690463 0 2.5491461644634768e-05 -0.009241090416212008 0 -1.3865233253046186e-05 -0.0091894955728690463 0 -4.9154413702434388e-05 -0.0092255397010195216 0 -0.00012505485772228674 -0.0092729311230887786 0 -4.9154413702434388e-05 -0.0092255397010195216 0 -0.00012324852829513264 -0.0091605247010867544 0 -0.0001956499443520776 -0.0092182697431029484 0 -0.00031369350031231689 -0.0092391032655970307 0 -0.00019216656451345542 -0.0090890408236027655 0 -0.00012505485772228674 -0.0092729311230887786 0 -0.0001956499443520776 -0.0092182697431029484 0 -0.00012324852829513264 -0.0091605247010867544 0 -0.0001956499443520776 -0.0092182697431029484 0 -0.00012324852829513264 -0.0091605247010867544 0 -0.00019216656451345542 -0.0090890408236027655 0 -0.00037135781887382129 -0.0090240479560724455 0 -0.00031369350031231689 -0.0092391032655970307 0 -0.00019216656451345542 -0.0090890408236027655 0 -0.00037218982840092092 -0.0090137962643159486 0 -0.00020225299629686111 -0.0090313707720626295 0 -0.00037135781887382129 -0.0090240479560724455 0 -0.00022242857532250884 -0.0089488540120580239 0 -0.00026936639493884264 -0.0089309802114004855 0 -0.00022242857532250884 -0.0089488540120580239 0 -0.00022018742762854574 -0.0089021877025548639 0 -0.00026936639493884264 -0.0089309802114004855 0 -0.00020305410587404695 -0.0088951038858981844 0 -0.00022242857532250884 -0.0089488540120580239 0 -0.00022018742762854574 -0.0089021877025548639 0 -0.00022018742762854574 -0.0089021877025548639 0 -0.00020519455784601966 -0.0088807127473999759 0 -0.00020089748062645829 -0.0088806403883851196 0 -0.00020305410587404695 -0.0088951038858981844 0 -0.00022018742762854574 -0.0089021877025548639 0 -0.00020089748062645829 -0.0088806403883851196 0 -0.00022018742762854574 -0.0089021877025548639 0 -0.00026936639493884264 -0.0089309802114004855 0 -0.00025542744330486462 -0.00889005248484479 0 -0.00022018742762854574 -0.0089021877025548639 0 -0.00021668173330716508 -0.0088769244160679991 0 -0.00025542744330486462 -0.00889005248484479 0 -0.00022018742762854574 -0.0089021877025548639 0 -0.00021668173330716508 -0.0088769244160679991 0 -0.00020519455784601966 -0.0088807127473999759 0 -0.00021668173330716508 -0.0088769244160679991 0 -0.00020057795048596022 -0.0088741213868117411 0 -0.00020519455784601966 -0.0088807127473999759 0 -0.00020057795048596022 -0.0088741213868117411 0 -0.00020519455784601966 -0.0088807127473999759 0 -0.00019631898080555316 -0.0088691190491117528 0 -0.00020057795048596022 -0.0088741213868117411 0 -0.00018995715749215553 -0.0088689007167330955 0 -0.00019631898080555316 -0.0088691190491117528 0 -0.00037135781887382129 -0.0090240479560724455 0 -0.00031077333363396553 -0.0089039878331562874 0 -0.00026936639493884264 -0.0089309802114004855 0 -0.00031077333363396553 -0.0089039878331562874 0 -0.00026936639493884264 -0.0089309802114004855 0 -0.00025542744330486462 -0.00889005248484479 0 -0.00031077333363396553 -0.0089039878331562874 0 -0.00025542744330486462 -0.00889005248484479 0 -0.00028751365558372667 -0.0088331517175052054 0 -0.00021668173330716508 -0.0088769244160679991 0 -0.00025542744330486462 -0.00889005248484479 0 -0.00028751365558372667 -0.0088331517175052054 0 -0.00038999815967950341 -0.0089225185798736291 0 -0.00031077333363396553 -0.0089039878331562874 0 -0.00028751365558372667 -0.0088331517175052054 0 9.9053591631507228e-05 -0.0092702782198423577 0 8.9932397278194831e-05 -0.0092642970742925178 0 -0.00015699250317494193 -0.0089263130422804256 0 -0.00011779065404384818 -0.009057082574057242 0 -0.00017719872041265425 -0.0089411581630219929 0 1.3245541113321236e-05 -0.0091096939944585731 0 -0.00011409571276340633 -0.0088939103747408491 0 -0.00021668173330716508 -0.0088769244160679991 0 -0.00028751365558372667 -0.0088331517175052054 0 -0.00020722326524281407 -0.0088744145404897265 0 -0.00028751365558372667 -0.0088331517175052054 0 -0.00020722326524281407 -0.0088744145404897265 0 -0.00016433422035813951 -0.0089043073460920146 0 -6.9578822440038345e-05 -0.0089758217147286115 0 -9.7487582610812672e-05 -0.008842866868806306 0 -8.6002822820513202e-05 -0.008891561118560893 0 9.9053591631507228e-05 -0.0092702782198423577 0 -0.00015699250317494193 -0.0089263130422804256 0 -0.00016433422035813951 -0.0089043073460920146 0 -0.00018362702683638897 -0.0088788743529794878 0 -0.00019688614001498811 -0.0088747699585859114 0 -0.00020722326524281407 -0.0088744145404897265 0 -0.00018362702683638897 -0.0088788743529794878 0 -0.00019688614001498811 -0.0088747699585859114 0 -0.00018995715749215553 -0.0088689007167330955 0 -0.00020057795048596022 -0.0088741213868117411 0 -0.00019688614001498811 -0.0088747699585859114 0 -0.00018995715749215553 -0.0088689007167330955 0 -0.00021668173330716508 -0.0088769244160679991 0 -0.00019688614001498811 -0.0088747699585859114 0 -0.00020722326524281407 -0.0088744145404897265 0 -0.00021668173330716508 -0.0088769244160679991 0 -0.00020057795048596022 -0.0088741213868117411 0 -0.00019688614001498811 -0.0088747699585859114 0 -0.00018362702683638897 -0.0088788743529794878 0 -0.00020722326524281407 -0.0088744145404897265 0 -0.00016433422035813951 -0.0089043073460920146 0 -0.00015699250317494193 -0.0089263130422804256 0 -0.00016433422035813951 -0.0089043073460920146 0 -0.00018105267611628626 -0.0088629428566285532 0 -0.00015699250317494193 -0.0089263130422804256 0 -0.00018105267611628626 -0.0088629428566285532 0 -0.00018847249004972819 -0.0088314736315688105 0 -0.00015699250317494193 -0.0089263130422804256 0 -0.00018847249004972819 -0.0088314736315688105 0 -0.00017535415070645555 -0.0087692711918263451 0 -0.00018362702683638897 -0.0088788743529794878 0 -0.00016433422035813951 -0.0089043073460920146 0 -0.00018105267611628626 -0.0088629428566285532 0 -0.00018362702683638897 -0.0088788743529794878 0 -0.00018105267611628626 -0.0088629428566285532 0 -0.00018995715749215553 -0.0088689007167330955 0 -0.00018105267611628626 -0.0088629428566285532 0 -0.00018995715749215553 -0.0088689007167330955 0 -0.00019165056621111415 -0.0088536667566322079 0 -0.00019165056621111415 -0.0088536667566322079 0 -0.00018847249004972819 -0.0088314736315688105 0 -0.00019028820912864351 -0.0088289162341411535 0 -0.00018105267611628626 -0.0088629428566285532 0 -0.00019165056621111415 -0.0088536667566322079 0 -0.00018847249004972819 -0.0088314736315688105 0 -0.00018485485096476957 -0.0087926316741428374 0 -0.00017535415070645555 -0.0087692711918263451 0 -0.00018231552460007614 -0.0087269362134253185 0 -0.00018485485096476957 -0.0087926316741428374 0 -0.00019028820912864351 -0.0088289162341411535 0 -0.00018274891312729092 -0.0087889477366995504 0 -0.00018847249004972819 -0.0088314736315688105 0 -0.00018485485096476957 -0.0087926316741428374 0 -0.00017535415070645555 -0.0087692711918263451 0 -0.00018847249004972819 -0.0088314736315688105 0 -0.00018485485096476957 -0.0087926316741428374 0 -0.00019028820912864351 -0.0088289162341411535 0 -0.00019028820912864351 -0.0088289162341411535 0 -0.00019169438114150452 -0.0088557182020162703 0 -0.00019334187190460543 -0.0088553615195737598 0 -0.00019028820912864351 -0.0088289162341411535 0 -0.00018274891312729092 -0.0087889477366995504 0 -0.00018499424659232909 -0.0088340843626638649 0 -0.00018901612764499369 -0.0088611090537112462 0 -0.00019169438114150452 -0.0088557182020162703 0 -0.00018499424659232909 -0.0088340843626638649 0 -0.00019028820912864351 -0.0088289162341411535 0 -0.00019169438114150452 -0.0088557182020162703 0 -0.00018499424659232909 -0.0088340843626638649 0 -0.00019267997257139233 -0.0088726104944693261 0 -0.00019169438114150452 -0.0088557182020162703 0 -0.00019554285037996178 -0.008873970522838533 0 -0.00019169438114150452 -0.0088557182020162703 0 -0.00019554285037996178 -0.008873970522838533 0 -0.00019334187190460543 -0.0088553615195737598 0 -0.00019554285037996178 -0.008873970522838533 0 -0.00019538639533753501 -0.0088654981193334939 0 -0.00019334187190460543 -0.0088553615195737598 0 -0.00019554285037996178 -0.008873970522838533 0 -0.00020089748062645829 -0.0088806403883851196 0 -0.00019538639533753501 -0.0088654981193334939 0 -0.00020305410587404695 -0.0088951038858981844 0 -0.00019554285037996178 -0.008873970522838533 0 -0.00020089748062645829 -0.0088806403883851196 0 -0.00020519455784601966 -0.0088807127473999759 0 -0.00020089748062645829 -0.0088806403883851196 0 -0.00019631898080555316 -0.0088691190491117528 0 -0.00020089748062645829 -0.0088806403883851196 0 -0.00019538639533753501 -0.0088654981193334939 0 -0.00019631898080555316 -0.0088691190491117528 0 -0.00018995715749215553 -0.0088689007167330955 0 -0.00019165056621111415 -0.0088536667566322079 0 -0.00019631898080555316 -0.0088691190491117528 0 -0.00019165056621111415 -0.0088536667566322079 0 -0.00019538639533753501 -0.0088654981193334939 0 -0.00019631898080555316 -0.0088691190491117528 0 -0.00019165056621111415 -0.0088536667566322079 0 -0.00019028820912864351 -0.0088289162341411535 0 -0.00019334187190460543 -0.0088553615195737598 0 -0.00019165056621111415 -0.0088536667566322079 0 -0.00019538639533753501 -0.0088654981193334939 0 -0.00019334187190460543 -0.0088553615195737598 0 -0.00012665576211838737 -0.0088052079939720616 0 -9.6274027192081276e-05 -0.0088503855731957917 0 -0.00011327937034532065 -0.0088217111711436334 0 -0.00012665576211838737 -0.0088052079939720616 0 -0.00010088296065935602 -0.0088499002674188275 0 -9.6274027192081276e-05 -0.0088503855731957917 0 -0.00012665576211838737 -0.0088052079939720616 0 -0.00017535415070645555 -0.0087692711918263451 0 -0.00015649742114389381 -0.0087314727840759956 0 -0.00012665576211838737 -0.0088052079939720616 0 -0.00012891658789274376 -0.0087967228871751804 0 -0.00015649742114389381 -0.0087314727840759956 0 -0.00012665576211838737 -0.0088052079939720616 0 -0.00017535415070645555 -0.0087692711918263451 0 -0.00013144108328533665 -0.0088122283642255717 0 -0.00011409571276340633 -0.0088939103747408491 0 -0.00017004908667074122 -0.008789175840258864 0 -9.7487582610812672e-05 -0.008842866868806306 0 -0.00017535415070645555 -0.0087692711918263451 0 -0.00013144108328533665 -0.0088122283642255717 0 -0.00012665576211838737 -0.0088052079939720616 0 -0.00013144108328533665 -0.0088122283642255717 0 -0.00010088296065935602 -0.0088499002674188275 0 -0.00013144108328533665 -0.0088122283642255717 0 -0.00010590865842134673 -0.0088420210543339317 0 -0.00010088296065935602 -0.0088499002674188275 0 -9.7487582610812672e-05 -0.008842866868806306 0 -0.00013144108328533665 -0.0088122283642255717 0 -0.00010590865842134673 -0.0088420210543339317 0 -9.7487582610812672e-05 -0.008842866868806306 0 -9.5679021626957715e-05 -0.0088595431189688791 0 -8.6002822820513202e-05 -0.008891561118560893 0 -9.7487582610812672e-05 -0.008842866868806306 0 -0.00010590865842134673 -0.0088420210543339317 0 -9.5679021626957715e-05 -0.0088595431189688791 0 -9.5679021626957715e-05 -0.0088595431189688791 0 -8.6002822820513202e-05 -0.008891561118560893 0 -8.4543006787825571e-05 -0.0088938012270237399 0 -8.4543006787825571e-05 -0.0088938012270237399 0 -0.00010088296065935602 -0.0088499002674188275 0 -8.5617481389994941e-05 -0.0088882150988297496 0 -9.5679021626957715e-05 -0.0088595431189688791 0 -8.4543006787825571e-05 -0.0088938012270237399 0 -0.00010088296065935602 -0.0088499002674188275 0 -0.00010590865842134673 -0.0088420210543339317 0 -9.5679021626957715e-05 -0.0088595431189688791 0 -0.00010088296065935602 -0.0088499002674188275 0 -6.9578822440038345e-05 -0.0089758217147286115 0 -7.9237437398590533e-05 -0.0089324658674745597 0 -8.3536280274704156e-05 -0.0089723756884199177 0 -6.9578822440038345e-05 -0.0089758217147286115 0 -8.6002822820513202e-05 -0.008891561118560893 0 -8.4543006787825571e-05 -0.0088938012270237399 0 -6.9578822440038345e-05 -0.0089758217147286115 0 -8.4543006787825571e-05 -0.0088938012270237399 0 -7.9237437398590533e-05 -0.0089324658674745597 0 -8.4543006787825571e-05 -0.0088938012270237399 0 -7.9237437398590533e-05 -0.0089324658674745597 0 -8.5617481389994941e-05 -0.0088882150988297496 0 -7.9237437398590533e-05 -0.0089324658674745597 0 -8.6481329245364561e-05 -0.0089258956894935817 0 -8.3536280274704156e-05 -0.0089723756884199177 0 -7.9237437398590533e-05 -0.0089324658674745597 0 -8.6481329245364561e-05 -0.0089258956894935817 0 -8.5617481389994941e-05 -0.0088882150988297496 0 -8.6481329245364561e-05 -0.0089258956894935817 0 -8.5617481389994941e-05 -0.0088882150988297496 0 -9.0002696684546082e-05 -0.0088675209114984499 0 -8.5617481389994941e-05 -0.0088882150988297496 0 -9.6274027192081276e-05 -0.0088503855731957917 0 -9.0002696684546082e-05 -0.0088675209114984499 0 -0.00010088296065935602 -0.0088499002674188275 0 -8.5617481389994941e-05 -0.0088882150988297496 0 -9.6274027192081276e-05 -0.0088503855731957917 0 -0.00011214218232675226 -0.0088466479224365308 0 -1.328889623849824e-05 -0.008917795740427982 0 -9.6274027192081276e-05 -0.0088503855731957917 0 -0.0001067934297801251 -0.008825443847255322 0 -0.00011327937034532065 -0.0088217111711436334 0 -9.6274027192081276e-05 -0.0088503855731957917 0 -9.0002696684546082e-05 -0.0088675209114984499 0 -0.0001067934297801251 -0.008825443847255322 0 -8.7361804291194212e-05 -0.0088475228845661599 0 -9.1834338462421029e-05 -0.0088346341892677465 0 -0.00011424649969825911 -0.0088506014818369848 0 -9.0002696684546082e-05 -0.0088675209114984499 0 -8.7361804291194212e-05 -0.0088475228845661599 0 -0.00011424649969825911 -0.0088506014818369848 0 -9.0002696684546082e-05 -0.0088675209114984499 0 -7.932133457676768e-05 -0.0088459487050298082 0 -8.7361804291194212e-05 -0.0088475228845661599 0 -7.932133457676768e-05 -0.0088459487050298082 0 -8.7361804291194212e-05 -0.0088475228845661599 0 -8.2532332827765743e-05 -0.0088348638220484242 0 -7.932133457676768e-05 -0.0088459487050298082 0 -7.4933214155530476e-05 -0.0088253232505926954 0 -7.7172009933684394e-05 -0.0088311108295204277 0 -0.0001067934297801251 -0.008825443847255322 0 -0.00012891658789274376 -0.0087967228871751804 0 -0.00013881750354599162 -0.008819465438836627 0 -1.328889623849824e-05 -0.008917795740427982 0 -0.0007153316796316636 -0.0080111996298177172 0 -7.932133457676768e-05 -0.0088459487050298082 0 -7.7172009933684394e-05 -0.0088311108295204277 0 -8.2532332827765743e-05 -0.0088348638220484242 0 -0.0001067934297801251 -0.008825443847255322 0 -0.00011327937034532065 -0.0088217111711436334 0 -0.00012891658789274376 -0.0087967228871751804 0 -0.00012665576211838737 -0.0088052079939720616 0 -0.00011327937034532065 -0.0088217111711436334 0 -0.00012891658789274376 -0.0087967228871751804 0 -0.00012891658789274376 -0.0087967228871751804 0 -0.00015649742114389381 -0.0087314727840759956 0 -0.00016926319943273872 -0.0087794649559406503 0 -0.001512921651986001 -0.0072444746048285352 0 -0.0011924937107160051 -0.007271524825421434 0 -0.0011291675886791021 -0.0075918043081566111 0 -0.00012891658789274376 -0.0087967228871751804 0 -0.00013881750354599162 -0.008819465438836627 0 -0.00016926319943273872 -0.0087794649559406503 0 -0.0007153316796316636 -0.0080111996298177172 0 -0.00066307695131004665 -0.0081812192828678229 0 -0.00031757289210549789 -0.0081046841968916601 0 -0.00060471959566662191 -0.0073408573881798668 0 -0.0013237293662955649 -0.0071315412005080658 0 -0.0014044852068359035 -0.0070603136689505411 0 -0.0011114327162285488 -0.0067945962182421387 0 -0.0007153316796316636 -0.0080111996298177172 0 -0.0011092058029238555 -0.0069019541102235552 0 -6.5774844117455727e-05 -0.0080866075671765826 0 -4.3312027540015347e-05 -0.008032455989551511 0 -9.3499871468597139e-06 -0.0079973940544434078 0 -7.4933214155530476e-05 -0.0088253232505926954 0 -7.6406819018179692e-05 -0.0088245802132390569 0 -7.7172009933684394e-05 -0.0088311108295204277 0 -0.0007153316796316636 -0.0080111996298177172 0 -0.00031757289210549789 -0.0081046841968916601 0 -6.5774844117455727e-05 -0.0080866075671765826 0 -0.00010321842697776132 -0.0080559434676539775 0 -4.3312027540015347e-05 -0.008032455989551511 0 -7.9257899469915735e-05 -0.0088300588327063431 0 -7.7172009933684394e-05 -0.0088311108295204277 0 -8.2532332827765743e-05 -0.0088348638220484242 0 -7.5302239110509934e-05 -0.008827441240778635 0 -7.9257899469915735e-05 -0.0088300588327063431 0 -7.7172009933684394e-05 -0.0088311108295204277 0 -0.00031757289210549789 -0.0081046841968916601 0 -0.00032221817426214051 -0.0084717198814600551 0 -7.5302239110509934e-05 -0.008827441240778635 0 -7.9257899469915735e-05 -0.0088300588327063431 0 -7.8582546820841483e-05 -0.0088243705642004882 0 -0.00031757289210549789 -0.0081046841968916601 0 -8.7897109058230805e-05 -0.0084589716280640114 0 -7.9257899469915735e-05 -0.0088300588327063431 0 -7.8582546820841483e-05 -0.0088243705642004882 0 -8.2532332827765743e-05 -0.0088348638220484242 0 -7.380081950277756e-05 -0.0081628197384785196 0 -9.2865727686979466e-05 -0.008030287473939841 0 -0.00017828100543216193 -0.0085182920742043634 0 -8.7897109058230805e-05 -0.0084589716280640114 0 -5.7292006263111306e-05 -0.0080761518461835539 0 -0.00012490128811150759 -0.0084476224534405595 0 -7.380081950277756e-05 -0.0081628197384785196 0 -4.3312027540015347e-05 -0.008032455989551511 0 -0.00012490128811150759 -0.0084476224534405595 0 -7.380081950277756e-05 -0.0081628197384785196 0 -0.00017828100543216193 -0.0085182920742043634 0 -8.7897109058230805e-05 -0.0084589716280640114 0 -0.00013338035051877712 -0.0084627832808192097 0 -7.380081950277756e-05 -0.0081628197384785196 0 -4.3312027540015347e-05 -0.008032455989551511 0 -6.3639893259301222e-05 -0.0079411118320281988 0 -4.3312027540015347e-05 -0.008032455989551511 0 -3.8982520000452325e-05 -0.0078768600984668626 0 -6.3639893259301222e-05 -0.0079411118320281988 0 -4.3312027540015347e-05 -0.008032455989551511 0 -3.8982520000452325e-05 -0.0078768600984668626 0 -9.3499871468597139e-06 -0.0079973940544434078 0 -3.8982520000452325e-05 -0.0078768600984668626 0 -4.0006355415263338e-05 -0.0076880426018902286 0 -6.3639893259301222e-05 -0.0079411118320281988 0 -4.0006355415263338e-05 -0.0076880426018902286 0 -6.3639893259301222e-05 -0.0079411118320281988 0 -9.3586343945866262e-05 -0.0079148686840968228 0 -7.380081950277756e-05 -0.0081628197384785196 0 -6.3639893259301222e-05 -0.0079411118320281988 0 -9.3586343945866262e-05 -0.0079148686840968228 0 -7.380081950277756e-05 -0.0081628197384785196 0 -9.3586343945866262e-05 -0.0079148686840968228 0 -9.2865727686979466e-05 -0.008030287473939841 0 -9.3586343945866262e-05 -0.0079148686840968228 0 -1.3461175851551082e-08 -0.0084288842972216546 0 -2.5716579888839322e-07 -0.0075536491489259453 0 -9.3586343945866262e-05 -0.0079148686840968228 0 -1.3461175851551082e-08 -0.0084288842972216546 0 -9.2865727686979466e-05 -0.008030287473939841 0 -4.0006355415263338e-05 -0.0076880426018902286 0 -9.3586343945866262e-05 -0.0079148686840968228 0 -2.5716579888839322e-07 -0.0075536491489259453 0 -0.00011843125083807394 -0.0091806674689777507 0 -3.0876718908151803e-07 -0.009125748541078697 0 -0.00012577730494457248 -0.0089823381834089923 0 -5.1975114708588639e-08 -0.0084302856375085156 0 -0.00011187666144434883 -0.0085160953916939668 0 1.4095475700200051e-07 -0.0084313355088016708 0 -3.0876718908151803e-07 -0.009125748541078697 0 -0.00012577730494457248 -0.0089823381834089923 0 1.4095475700200051e-07 -0.0084313355088016708 0 -0.00012577730494457248 -0.0089823381834089923 0 -0.00011986168461634767 -0.0089951963847218104 0 -0.00011986168461634767 -0.0089951963847218104 0 -0.00014596675907914617 -0.0089521523962847408 0 -0.00023732009396246139 -0.0085939328598053765 0 -0.00012577730494457248 -0.0089823381834089923 0 -0.00011986168461634767 -0.0089951963847218104 0 -0.00014596675907914617 -0.0089521523962847408 0 -0.00011187666144434883 -0.0085160953916939668 0 -0.0002033476875895473 -0.0085773804942460927 0 -0.00011843125083807394 -0.0091806674689777507 0 -0.00012577730494457248 -0.0089823381834089923 0 -0.00014596675907914617 -0.0089521523962847408 0 -0.00011843125083807394 -0.0091806674689777507 0 -0.00014596675907914617 -0.0089521523962847408 0 -0.00013856310708791188 -0.0090372969015046784 0 -0.00014596675907914617 -0.0089521523962847408 0 -0.00018422863322290029 -0.0088097137373073058 0 -0.00013856310708791188 -0.0090372969015046784 0 -0.00018422863322290029 -0.0088097137373073058 0 -0.00014170182453038631 -0.0088942296955027839 0 -0.00013856310708791188 -0.0090372969015046784 0 -0.00018422863322290029 -0.0088097137373073058 0 -0.00023732009396246139 -0.0085939328598053765 0 -0.0002229489808492904 -0.0087829011786854753 0 -9.2865727686979466e-05 -0.008030287473939841 0 -0.00023732009396246139 -0.0085939328598053765 0 -0.00017828100543216193 -0.0085182920742043634 0 -0.00023732009396246139 -0.0085939328598053765 0 -0.00017828100543216193 -0.0085182920742043634 0 -0.0002229489808492904 -0.0087829011786854753 0 -0.00014596675907914617 -0.0089521523962847408 0 -0.00018422863322290029 -0.0088097137373073058 0 -0.00023732009396246139 -0.0085939328598053765 0 -0.00014115160982584762 -0.0085465441145138946 0 -0.00017828100543216193 -0.0085182920742043634 0 -0.0002229489808492904 -0.0087829011786854753 0 -7.8582546820841483e-05 -0.0088243705642004882 0 -8.2532332827765743e-05 -0.0088348638220484242 0 -9.1834338462421029e-05 -0.0088346341892677465 0 -8.7897109058230805e-05 -0.0084589716280640114 0 -0.0001767754051874816 -0.0088338480253666394 0 -8.7361804291194212e-05 -0.0088475228845661599 0 -8.2532332827765743e-05 -0.0088348638220484242 0 -9.1834338462421029e-05 -0.0088346341892677465 0 -0.00018422863322290029 -0.0088097137373073058 0 -0.0002229489808492904 -0.0087829011786854753 0 -0.00014170182453038631 -0.0088942296955027839 0 -0.0001767754051874816 -0.0088338480253666394 0 -0.00010893709274505888 -0.0088398716787412776 0 -0.0002229489808492904 -0.0087829011786854753 0 -0.00014170182453038631 -0.0088942296955027839 0 -0.0001019732253219233 -0.0088402150449418213 0 -7.5679462697379439e-05 -0.0089425099378849914 0 -0.00014170182453038631 -0.0088942296955027839 0 -0.0001019732253219233 -0.0088402150449418213 0 -6.0813522448645363e-05 -0.0088880685245667154 0 -7.5679462697379439e-05 -0.0089425099378849914 0 -0.0001019732253219233 -0.0088402150449418213 0 -6.0813522448645363e-05 -0.0088880685245667154 0 1.5352055760787699e-05 -0.0089630075512012932 0 -7.5679462697379439e-05 -0.0089425099378849914 0 -6.0813522448645363e-05 -0.0088880685245667154 0 1.5352055760787699e-05 -0.0089630075512012932 0 -3.9077355999822278e-05 -0.0088958568312702928 0 1.5352055760787699e-05 -0.0089630075512012932 0 -7.9800729983621539e-05 -0.0090990801524043589 0 0.000113855885744719 -0.0091233604171414434 0 1.5352055760787699e-05 -0.0089630075512012932 0 -7.5679462697379439e-05 -0.0089425099378849914 0 -7.9800729983621539e-05 -0.0090990801524043589 0 -7.9800729983621539e-05 -0.0090990801524043589 0 -0.00014170182453038631 -0.0088942296955027839 0 -0.00013856310708791188 -0.0090372969015046784 0 -7.5679462697379439e-05 -0.0089425099378849914 0 -7.9800729983621539e-05 -0.0090990801524043589 0 -0.00014170182453038631 -0.0088942296955027839 0 -7.9800729983621539e-05 -0.0090990801524043589 0 -0.00013856310708791188 -0.0090372969015046784 0 -9.8379731791956907e-05 -0.0092936825416032286 0 -0.00011843125083807394 -0.0091806674689777507 0 -0.00013856310708791188 -0.0090372969015046784 0 -9.8379731791956907e-05 -0.0092936825416032286 0 -7.9800729983621539e-05 -0.0090990801524043589 0 -9.8379731791956907e-05 -0.0092936825416032286 0 -5.0156218571543689e-05 -0.0094686781305962225 0 -7.9800729983621539e-05 -0.0090990801524043589 0 -5.0156218571543689e-05 -0.0094686781305962225 0 0.000113855885744719 -0.0091233604171414434 0 -5.0156218571543689e-05 -0.0094686781305962225 0 2.3992027617252147e-05 -0.0098445608391026194 0 0.000113855885744719 -0.0091233604171414434 0 2.3992027617252147e-05 -0.0098445608391026194 0 -4.5583469915783572e-07 -0.0098217684192125482 0 1.0628001854997363e-06 -0.010516178411453346 0 -5.0156218571543689e-05 -0.0094686781305962225 0 2.3992027617252147e-05 -0.0098445608391026194 0 -4.5583469915783572e-07 -0.0098217684192125482 0 -9.8379731791956907e-05 -0.0092936825416032286 0 -5.0156218571543689e-05 -0.0094686781305962225 0 -4.5583469915783572e-07 -0.0098217684192125482 0 -0.00011843125083807394 -0.0091806674689777507 0 -3.0876718908151803e-07 -0.009125748541078697 0 -4.5583469915783572e-07 -0.0098217684192125482 0 -0.00011843125083807394 -0.0091806674689777507 0 -9.8379731791956907e-05 -0.0092936825416032286 0 -4.5583469915783572e-07 -0.0098217684192125482 0 -3.0578394079370283e-05 -0.010962474713564995 0 -2.7455799562486242e-07 -0.01094664706219509 0 -1.9480740637678221e-05 -0.011101175171645661 0 -3.0578394079370283e-05 -0.010962474713564995 0 -2.7455799562486242e-07 -0.01094664706219509 0 3.2284426473501597e-07 -0.010519010821893396 0 1.3280881936558854e-07 -0.010517358081754734 0 0.00024216183791027989 -0.010338464739173074 0 2.3992027617252147e-05 -0.0098445608391026194 0 1.0628001854997363e-06 -0.010516178411453346 0 0.00041528575292359223 -0.0095172356207596596 0 -3.0578394079370283e-05 -0.010962474713564995 0 3.2284426473501597e-07 -0.010519010821893396 0 0.00010215589773718404 -0.011013962499270859 0 0.00024216183791027989 -0.010338464739173074 0 -7.25494356116037e-05 -0.0095274449533468124 0 0.00041528575292359223 -0.0095172356207596596 0 0.000113855885744719 -0.0091233604171414434 0 0.00049615292503081749 -0.0088054189612939218 0 2.3992027617252147e-05 -0.0098445608391026194 0 0.00041528575292359223 -0.0095172356207596596 0 0.000113855885744719 -0.0091233604171414434 0 -3.0578394079370283e-05 -0.010962474713564995 0 -1.7654874493064948e-05 -0.011114134667647872 0 -5.3614399539962697e-05 -0.01103217913401193 0 -3.0578394079370283e-05 -0.010962474713564995 0 0.00010215589773718404 -0.011013962499270859 0 -1.7654874493064948e-05 -0.011114134667647872 0 0.00010215589773718404 -0.011013962499270859 0 -1.7654874493064948e-05 -0.011114134667647872 0 8.5095339985898929e-05 -0.011175219757185382 0 -1.7654874493064948e-05 -0.011114134667647872 0 8.5095339985898929e-05 -0.011175219757185382 0 -6.1669326582060598e-05 -0.011214835836287905 0 8.5095339985898929e-05 -0.011175219757185382 0 -2.386939105825066e-05 -0.011281074516612083 0 -6.1669326582060598e-05 -0.011214835836287905 0 1.5352055760787699e-05 -0.0089630075512012932 0 0.000113855885744719 -0.0091233604171414434 0 7.8802223636423096e-05 -0.0089801269487080008 0 0.00028091088210634808 -0.0089901796287996747 0 -7.25494356116037e-05 -0.0095274449533468124 0 -7.25494356116037e-05 -0.0095274449533468124 0 -0.00027685549734209107 -0.0087699625791425248 0 -6.0813522448645363e-05 -0.0088880685245667154 0 -3.9077355999822278e-05 -0.0088958568312702928 0 -0.00011225760353698304 -0.0088593492274022557 0 7.8802223636423096e-05 -0.0089801269487080008 0 -3.9077355999822278e-05 -0.0088958568312702928 0 -0.00011387579047972289 -0.0088448715263200924 0 1.5352055760787699e-05 -0.0089630075512012932 0 7.8802223636423096e-05 -0.0089801269487080008 0 -3.9077355999822278e-05 -0.0088958568312702928 0 -0.00044349225883500635 -0.0090008625047383762 0 -0.00039954259720243975 -0.0089579391751508797 0 -0.00041537088654296673 -0.0089431506458668708 0 -0.00044349225883500635 -0.0090008625047383762 0 -0.00041537088654296673 -0.0089431506458668708 0 -0.00041870822407637996 -0.0089074655538982101 0 -7.25494356116037e-05 -0.0095274449533468124 0 -0.00025378015637765562 -0.010158075146572479 0 -0.00039954259720243975 -0.0089579391751508797 0 -0.00041537088654296673 -0.0089431506458668708 0 -0.00040867627329288546 -0.0089128143066471797 0 -0.00041537088654296673 -0.0089431506458668708 0 -0.00040867627329288546 -0.0089128143066471797 0 -0.00041870822407637996 -0.0089074655538982101 0 -0.00040867627329288546 -0.0089128143066471797 0 -0.00041870822407637996 -0.0089074655538982101 0 -0.00041290476664869089 -0.008917389337792514 0 -0.00027685549734209107 -0.0087699625791425248 0 -0.00035061848527876473 -0.0090092165023936271 0 -0.00041870822407637996 -0.0089074655538982101 0 -0.00041290476664869089 -0.008917389337792514 0 -0.00036222783832909404 -0.0089473365416096861 0 -0.00011387579047972289 -0.0088448715263200924 0 -0.00017425237167513342 -0.0088862025224050716 0 -0.00036222783832909404 -0.0089473365416096861 0 -0.00011387579047972289 -0.0088448715263200924 0 -0.00017425237167513342 -0.0088862025224050716 0 -0.00011225760353698304 -0.0088593492274022557 0 -3.9077355999822278e-05 -0.0088958568312702928 0 -0.00011387579047972289 -0.0088448715263200924 0 -0.00011225760353698304 -0.0088593492274022557 0 -0.00011298349519393611 -0.0088583835450732461 0 -0.00010893709274505888 -0.0088398716787412776 0 -0.00011225760353698304 -0.0088593492274022557 0 -0.00011424649969825911 -0.0088506014818369848 0 -0.00012052276827623353 -0.0088671342627163318 0 -6.0813522448645363e-05 -0.0088880685245667154 0 -0.00011225760353698304 -0.0088593492274022557 0 -0.0001019732253219233 -0.0088402150449418213 0 -9.0002696684546082e-05 -0.0088675209114984499 0 -0.00011424649969825911 -0.0088506014818369848 0 -0.00012052276827623353 -0.0088671342627163318 0 -9.0002696684546082e-05 -0.0088675209114984499 0 -0.00012052276827623353 -0.0088671342627163318 0 -0.00011190567234407799 -0.0089160551493606775 0 -0.00017425237167513342 -0.0088862025224050716 0 -0.00012052276827623353 -0.0088671342627163318 0 -0.00015764948973116065 -0.0089138211337837937 0 -0.00012052276827623353 -0.0088671342627163318 0 -0.00015764948973116065 -0.0089138211337837937 0 -0.00011190567234407799 -0.0089160551493606775 0 -0.00017425237167513342 -0.0088862025224050716 0 -0.00011225760353698304 -0.0088593492274022557 0 -0.00012052276827623353 -0.0088671342627163318 0 -0.00015764948973116065 -0.0089138211337837937 0 -0.00016565178784053945 -0.0089834923138917572 0 -0.0002486210820465915 -0.0089708153706476324 0 -0.00015764948973116065 -0.0089138211337837937 0 -0.00016565178784053945 -0.0089834923138917572 0 -0.00011190567234407799 -0.0089160551493606775 0 -0.00016565178784053945 -0.0089834923138917572 0 -0.00011190567234407799 -0.0089160551493606775 0 -0.00010571315072102648 -0.0089794404473867908 0 -8.6481329245364561e-05 -0.0089258956894935817 0 -9.0002696684546082e-05 -0.0088675209114984499 0 -0.00011190567234407799 -0.0089160551493606775 0 -8.6481329245364561e-05 -0.0089258956894935817 0 -0.00011190567234407799 -0.0089160551493606775 0 -0.00010571315072102648 -0.0089794404473867908 0 -8.6481329245364561e-05 -0.0089258956894935817 0 -0.00010571315072102648 -0.0089794404473867908 0 -8.3536280274704156e-05 -0.0089723756884199177 0 -0.00010571315072102648 -0.0089794404473867908 0 -9.5775265635666428e-05 -0.0090375865207320254 0 -0.00014849867835367011 -0.0090653257696862496 0 -6.9578822440038345e-05 -0.0089758217147286115 0 -9.5775265635666428e-05 -0.0090375865207320254 0 -8.3536280274704156e-05 -0.0089723756884199177 0 -0.00010571315072102648 -0.0089794404473867908 0 -9.5775265635666428e-05 -0.0090375865207320254 0 -8.3536280274704156e-05 -0.0089723756884199177 0 -0.00016565178784053945 -0.0089834923138917572 0 -0.00014849867835367011 -0.0090653257696862496 0 -0.00026566172295343045 -0.0090762551594349393 0 -0.00016565178784053945 -0.0089834923138917572 0 -0.00010571315072102648 -0.0089794404473867908 0 -0.00014849867835367011 -0.0090653257696862496 0 -0.00023977711954138825 -0.0091814960900443564 0 -0.00014849867835367011 -0.0090653257696862496 0 -0.00026566172295343045 -0.0090762551594349393 0 -0.00026566172295343045 -0.0090762551594349393 0 -0.00041846752739680342 -0.0090621514139769318 0 -0.0002486210820465915 -0.0089708153706476324 0 -0.00037443296817302402 -0.0091952441318163668 0 -0.00023977711954138825 -0.0091814960900443564 0 -0.00026566172295343045 -0.0090762551594349393 0 -0.00037443296817302402 -0.0091952441318163668 0 -0.00026566172295343045 -0.0090762551594349393 0 -0.00041846752739680342 -0.0090621514139769318 0 -0.00059416006889542879 -0.0092499647494696975 0 -0.00037443296817302402 -0.0091952441318163668 0 -0.00041846752739680342 -0.0090621514139769318 0 -0.00059416006889542879 -0.0092499647494696975 0 -0.00041846752739680342 -0.0090621514139769318 0 -0.00052515098804986734 -0.0090059626051945847 0 -0.00041846752739680342 -0.0090621514139769318 0 -0.00036222783832909404 -0.0089473365416096861 0 -0.0002486210820465915 -0.0089708153706476324 0 -0.00041290476664869089 -0.008917389337792514 0 -0.00036222783832909404 -0.0089473365416096861 0 -0.00052515098804986734 -0.0090059626051945847 0 -0.00041846752739680342 -0.0090621514139769318 0 -0.00036222783832909404 -0.0089473365416096861 0 -0.00052515098804986734 -0.0090059626051945847 0 -0.00017425237167513342 -0.0088862025224050716 0 -0.00015764948973116065 -0.0089138211337837937 0 -0.0002486210820465915 -0.0089708153706476324 0 -0.00017425237167513342 -0.0088862025224050716 0 -0.00036222783832909404 -0.0089473365416096861 0 -0.0002486210820465915 -0.0089708153706476324 0 -0.00016565178784053945 -0.0089834923138917572 0 -0.00026566172295343045 -0.0090762551594349393 0 -0.0002486210820465915 -0.0089708153706476324 0 -0.00080466721375735742 -0.010662270000069468 0 -0.0009865923726171857 -0.01056848927462401 0 -0.00085908603259948139 -0.010846403388722715 0 -0.00086166354405828663 -0.010523487311959779 0 -0.00080466721375735742 -0.010662270000069468 0 -0.0009865923726171857 -0.01056848927462401 0 -0.00086166354405828663 -0.010523487311959779 0 -0.00080466721375735742 -0.010662270000069468 0 -0.00071296220719838782 -0.010590482928662225 0 -0.00086166354405828663 -0.010523487311959779 0 -0.0009865923726171857 -0.01056848927462401 0 -0.00096448525542197584 -0.010376245193438527 0 -0.00066789456815941842 -0.0096444766367762974 0 -0.00076321870738488046 -0.0097642303023338234 0 -0.00076321870738488046 -0.0097642303023338234 0 -0.00090095296192807181 -0.010285213849625311 0 -0.00077127645159650389 -0.010128397274366588 0 -0.00087168792783492066 -0.0099119883427314856 0 -0.00087102513770721877 -0.01004060335402049 0 -0.00086166354405828663 -0.010523487311959779 0 -0.00096448525542197584 -0.010376245193438527 0 -0.00079690842675333128 -0.010406823534895011 0 -0.00086750809567673218 -0.010291878319959268 0 -0.00096448525542197584 -0.010376245193438527 0 -0.00079690842675333128 -0.010406823534895011 0 -0.00086166354405828663 -0.010523487311959779 0 -0.00079690842675333128 -0.010406823534895011 0 -0.00071296220719838782 -0.010590482928662225 0 -0.00069411921815217654 -0.010331802582910025 0 -0.00079690842675333128 -0.010406823534895011 0 -0.00062844476716417727 -0.010528397264944143 0 -0.00064515005228190834 -0.010144272715970081 0 -0.00063623263232285004 -0.010583693222387827 0 -0.00079690842675333128 -0.010406823534895011 0 -0.00062844476716417727 -0.010528397264944143 0 -0.00071296220719838782 -0.010590482928662225 0 -0.00043476522457268785 -0.010407895842339112 0 -0.00060557732103756301 -0.010411384976643036 0 -0.00048262021070667678 -0.010532701723370711 0 -0.00060557732103756301 -0.010411384976643036 0 -0.00062844476716417727 -0.010528397264944143 0 -0.00048262021070667678 -0.010532701723370711 0 -0.00062844476716417727 -0.010528397264944143 0 -0.00048262021070667678 -0.010532701723370711 0 -0.00057090014366478715 -0.010615512183084477 0 -0.00068276535812124186 -0.010841659766071004 0 -0.00039150781442797469 -0.010674482653279102 0 -0.00067354650659339919 -0.010852911621863328 0 -0.00047183505908998023 -0.01092194105346689 0 -0.000394278233162174 -0.010686199367693721 0 -0.00057090014366478715 -0.010615512183084477 0 -0.00063035418088397855 -0.010739376311329183 0 -0.000394278233162174 -0.010686199367693721 0 -0.00048262021070667678 -0.010532701723370711 0 -0.00057090014366478715 -0.010615512183084477 0 -0.000394278233162174 -0.010686199367693721 0 -0.00080466721375735742 -0.010662270000069468 0 -0.00071296220719838782 -0.010590482928662225 0 -0.00063035418088397855 -0.010739376311329183 0 -0.00062844476716417727 -0.010528397264944143 0 -0.00057090014366478715 -0.010615512183084477 0 -0.00071296220719838782 -0.010590482928662225 0 -0.00057090014366478715 -0.010615512183084477 0 -0.00071296220719838782 -0.010590482928662225 0 -0.00063035418088397855 -0.010739376311329183 0 -0.00066982359805380553 -0.010978955379472417 0 -0.00077857757791212736 -0.0109445799932682 0 -0.00087895778469583184 -0.011092557803559114 0 -0.00067354650659339919 -0.010852911621863328 0 -0.00077857757791212736 -0.0109445799932682 0 -0.00092373073266798823 -0.010987699700327485 0 -0.00068276535812124186 -0.010841659766071004 0 -0.00078932666142591461 -0.010569777008986762 0 -0.00067354650659339919 -0.010852911621863328 0 -0.00066982359805380553 -0.010978955379472417 0 -0.00077857757791212736 -0.0109445799932682 0 -0.00047183505908998023 -0.01092194105346689 0 -0.00060128075873051 -0.011089233920185952 0 -0.00030176744157277361 -0.0110918258017987 0 -0.00067354650659339919 -0.010852911621863328 0 -0.00066982359805380553 -0.010978955379472417 0 -0.00047183505908998023 -0.01092194105346689 0 -0.00066982359805380553 -0.010978955379472417 0 -0.00047183505908998023 -0.01092194105346689 0 -0.00060128075873051 -0.011089233920185952 0 -0.00029206813810265234 -0.011378216319978153 0 -0.00021664415464933527 -0.011413025938089212 0 -0.00018708548067000586 -0.011368070521927816 0 -0.00045229876047194639 -0.011259543397195849 0 -0.00024710206572903958 -0.011164649211215467 0 -0.00029206813810265234 -0.011378216319978153 0 -0.00025612511134335398 -0.011428000929250179 0 -0.00021664415464933527 -0.011413025938089212 0 -0.00029206813810265234 -0.011378216319978153 0 -0.00028702275357946278 -0.011398649635952343 0 -0.00027411711535707024 -0.011414181166833777 0 -0.00029206813810265234 -0.011378216319978153 0 -0.00031946686555795113 -0.011388631121907401 0 -0.00025612511134335398 -0.011428000929250179 0 -0.00045229876047194639 -0.011259543397195849 0 -0.00052721748442739703 -0.011006988740986519 0 -0.00066982359805380553 -0.010978955379472417 0 -0.00060128075873051 -0.011089233920185952 0 -0.00087895778469583184 -0.011092557803559114 0 -0.00029206813810265234 -0.011378216319978153 0 -0.00028702275357946278 -0.011398649635952343 0 -0.00031946686555795113 -0.011388631121907401 0 -0.00028702275357946278 -0.011398649635952343 0 -0.00025367192645127249 -0.011386903800291687 0 -0.00025558266176677866 -0.011358784049642051 0 -0.00025367192645127249 -0.011386903800291687 0 -0.00022855689042920591 -0.011400838227909693 0 -0.00027185517851602964 -0.011409156974012543 0 -0.00028702275357946278 -0.011398649635952343 0 -0.00025367192645127249 -0.011386903800291687 0 -0.00027185517851602964 -0.011409156974012543 0 -0.00028702275357946278 -0.011398649635952343 0 -0.00027185517851602964 -0.011409156974012543 0 -0.00027411711535707024 -0.011414181166833777 0 -0.00022855689042920591 -0.011400838227909693 0 -0.00014078597694509463 -0.011385844337530187 0 -0.00021141252193921143 -0.011365887339181466 0 -0.00022855689042920591 -0.011400838227909693 0 -0.00020847764964202563 -0.01143434187153651 0 -0.00014078597694509463 -0.011385844337530187 0 -0.00025367192645127249 -0.011386903800291687 0 -0.00022855689042920591 -0.011400838227909693 0 -0.00021141252193921143 -0.011365887339181466 0 -0.00061239215686033647 -0.010265783818400116 0 -0.00070136370452896131 -0.01041529879828014 0 -0.00032303027314830516 -0.010217446526282249 0 -0.00052918073540910739 -0.01077213220010783 0 -0.00066917759168434016 -0.010779075609737782 0 -0.00063118231704404075 -0.010857794646707844 0 -0.00022855689042920591 -0.011400838227909693 0 -0.00020847764964202563 -0.01143434187153651 0 -0.00025960378704432865 -0.011432914493705084 0 -0.00046323161966448399 -0.010641565587809629 0 -0.00052721748442739703 -0.011006988740986519 0 -0.00046323161966448399 -0.010641565587809629 0 -0.0006800495861136388 -0.010781429074088049 0 -0.00062086566489492261 -0.010115626917500124 0 -0.00061239215686033647 -0.010265783818400116 0 -0.00078084997110699269 -0.010250459690406657 0 -0.00062086566489492261 -0.010115626917500124 0 -0.00061239215686033647 -0.010265783818400116 0 -0.000470429276677137 -0.010174784972562021 0 -0.00077857757791212736 -0.0109445799932682 0 -0.00087895778469583184 -0.011092557803559114 0 -0.0009003146827688569 -0.011047730316662089 0 -0.00022855689042920591 -0.011400838227909693 0 -0.00027185517851602964 -0.011409156974012543 0 -0.00025960378704432865 -0.011432914493705084 0 -0.00046789662446491287 -0.011120118815286283 0 -0.00052721748442739703 -0.011006988740986519 0 -0.00052721748442739703 -0.011006988740986519 0 -0.0006800495861136388 -0.010781429074088049 0 -0.00080466721375735742 -0.010662270000069468 0 -0.00063035418088397855 -0.010739376311329183 0 -0.00085908603259948139 -0.010846403388722715 0 -0.00076321870738488046 -0.0097642303023338234 0 -0.00078932666142591461 -0.010569777008986762 0 -0.00086646275998377299 -0.011001207790699352 0 -0.0006800495861136388 -0.010781429074088049 0 -0.00077857757791212736 -0.0109445799932682 0 -0.00089588067767930682 -0.011043760657638738 0 -0.00092373073266798823 -0.010987699700327485 0 -0.00078932666142591461 -0.010569777008986762 0 -0.00046000002621966035 -0.0094633323998156316 0 -0.00061239215686033647 -0.010265783818400116 0 -0.00078084997110699269 -0.010250459690406657 0 -0.00070136370452896131 -0.01041529879828014 0 -0.0006800495861136388 -0.010781429074088049 0 -0.00078932666142591461 -0.010569777008986762 0 -0.00041290476664869089 -0.008917389337792514 0 -0.00052515098804986734 -0.0090059626051945847 0 -0.00045580333893298765 -0.0089002676418030117 0 -0.0007011112968703172 -0.0098555004797369929 0 -0.0006554217505634032 -0.0099479742003134239 0 -0.0006958785299644272 -0.0099674019471805864 0 -0.00076321870738488046 -0.0097642303023338234 0 -0.00046000002621966035 -0.0094633323998156316 0 -0.00032516487859420078 -0.0088756264868420885 0 -0.00046000002621966035 -0.0094633323998156316 0 -0.00040867627329288546 -0.0089128143066471797 0 -0.00041290476664869089 -0.008917389337792514 0 -0.00045580333893298765 -0.0089002676418030117 0 -0.00040867627329288546 -0.0089128143066471797 0 -0.00037511452756820821 -0.0089109397025656425 0 -0.00037484088835315827 -0.0089162891643717965 0 -0.00061239215686033647 -0.010265783818400116 0 -0.000470429276677137 -0.010174784972562021 0 -0.00032303027314830516 -0.010217446526282249 0 -0.00062086566489492261 -0.010115626917500124 0 -0.000470429276677137 -0.010174784972562021 0 -0.00032783808365561857 -0.010100377699289717 0 -0.00046323161966448399 -0.010641565587809629 0 -0.00037832948389900941 -0.009890608216806469 0 -0.00046000002621966035 -0.0094633323998156316 0 -0.00037832948389900941 -0.009890608216806469 0 -0.000470429276677137 -0.010174784972562021 0 -0.00032303027314830516 -0.010217446526282249 0 -0.00032783808365561857 -0.010100377699289717 0 -0.00039127896537277635 -0.010430688434981118 0 -0.00020930865863915546 -0.010421647679432332 0 -0.00021043872695990692 -0.010279472103225133 0 -0.00046323161966448399 -0.010641565587809629 0 -0.00018431724221565471 -0.010447502635900118 0 -0.00037832948389900941 -0.009890608216806469 0 -0.00018431724221565471 -0.010447502635900118 0 -0.00040867627329288546 -0.0089128143066471797 0 -0.00037484088835315827 -0.0089162891643717965 0 -0.00037309974164755852 -0.0089297270538118891 0 -0.00039954259720243975 -0.0089579391751508797 0 -0.00040867627329288546 -0.0089128143066471797 0 -0.00037309974164755852 -0.0089297270538118891 0 -0.00025378015637765562 -0.010158075146572479 0 -0.00018431724221565471 -0.010447502635900118 0 -2.386939105825066e-05 -0.011281074516612083 0 -0.00013517914971135226 -0.011377271701378231 0 -0.00013610081068253581 -0.011313454934101087 0 -0.00014078597694509463 -0.011385844337530187 0 -0.00013610081068253581 -0.011313454934101087 0 -0.00021141252193921143 -0.011365887339181466 0 -0.00018431724221565471 -0.010447502635900118 0 -0.00014839250370325108 -0.011384191651873193 0 -0.00013610081068253581 -0.011313454934101087 0 -6.1669326582060598e-05 -0.011214835836287905 0 -0.00015827755426603808 -0.011242233770546924 0 -0.00013610081068253581 -0.011313454934101087 0 -0.00019765107725498908 -0.011310706014188552 0 -0.00015827755426603808 -0.011242233770546924 0 -2.386939105825066e-05 -0.011281074516612083 0 -0.00013610081068253581 -0.011313454934101087 0 -6.1669326582060598e-05 -0.011214835836287905 0 -0.00025558266176677866 -0.011358784049642051 0 -0.0002379628906140923 -0.011269584950433941 0 -0.00031946686555795113 -0.011388631121907401 0 -0.00025367192645127249 -0.011386903800291687 0 -0.00025558266176677866 -0.011358784049642051 0 -0.00021141252193921143 -0.011365887339181466 0 -0.00013610081068253581 -0.011313454934101087 0 -0.00021141252193921143 -0.011365887339181466 0 -0.00019765107725498908 -0.011310706014188552 0 -0.00025558266176677866 -0.011358784049642051 0 -0.00021141252193921143 -0.011365887339181466 0 -0.00019765107725498908 -0.011310706014188552 0 -0.00019765107725498908 -0.011310706014188552 0 -0.0002379628906140923 -0.011269584950433941 0 -0.00015827755426603808 -0.011242233770546924 0 -0.00025558266176677866 -0.011358784049642051 0 -0.00019765107725498908 -0.011310706014188552 0 -0.0002379628906140923 -0.011269584950433941 0 -0.0002379628906140923 -0.011269584950433941 0 -0.0001913517528862962 -0.011173176621532867 0 -0.00028223187374091618 -0.011183539044180971 0 -0.0002379628906140923 -0.011269584950433941 0 -0.0001913517528862962 -0.011173176621532867 0 -0.00015827755426603808 -0.011242233770546924 0 -0.0001913517528862962 -0.011173176621532867 0 -0.00022178529985295351 -0.011076267237843581 0 -0.00028223187374091618 -0.011183539044180971 0 -6.1669326582060598e-05 -0.011214835836287905 0 -0.00015827755426603808 -0.011242233770546924 0 -0.00011425978474395096 -0.011168165307875288 0 -0.0001913517528862962 -0.011173176621532867 0 -0.00015827755426603808 -0.011242233770546924 0 -0.00011425978474395096 -0.011168165307875288 0 -0.00011425978474395096 -0.011168165307875288 0 -7.115464638145791e-05 -0.011102208834205441 0 -0.00012931212346615527 -0.011110367539992269 0 -0.0001913517528862962 -0.011173176621532867 0 -0.00011425978474395096 -0.011168165307875288 0 -0.00012931212346615527 -0.011110367539992269 0 -1.7654874493064948e-05 -0.011114134667647872 0 -6.1669326582060598e-05 -0.011214835836287905 0 -0.00011425978474395096 -0.011168165307875288 0 -1.7654874493064948e-05 -0.011114134667647872 0 -0.00011425978474395096 -0.011168165307875288 0 -7.115464638145791e-05 -0.011102208834205441 0 -1.7654874493064948e-05 -0.011114134667647872 0 -7.115464638145791e-05 -0.011102208834205441 0 -5.3614399539962697e-05 -0.01103217913401193 0 -5.3614399539962697e-05 -0.01103217913401193 0 0.00011654782510703525 -0.011089989593038313 0 -1.9480740637678221e-05 -0.011101175171645661 0 -5.3614399539962697e-05 -0.01103217913401193 0 -0.00012931212346615527 -0.011110367539992269 0 -0.00022178529985295351 -0.011076267237843581 0 -9.763866509306194e-05 -0.011066986561635871 0 3.3196384547191174e-05 -0.01098055339841246 0 -7.115464638145791e-05 -0.011102208834205441 0 -5.3614399539962697e-05 -0.01103217913401193 0 -0.00012931212346615527 -0.011110367539992269 0 0.00011654782510703525 -0.011089989593038313 0 -1.9480740637678221e-05 -0.011101175171645661 0 0.00030164828035315634 -0.011264156042731031 0 -0.0001913517528862962 -0.011173176621532867 0 -0.00012931212346615527 -0.011110367539992269 0 -0.00022178529985295351 -0.011076267237843581 0 -2.791436325548738e-05 -0.011307841064014123 0 0.00030566506614196549 -0.011258237568791418 0 -4.0180864826981172e-05 -0.011583198105206777 0 0.00028926126163498941 -0.011635943101108794 0 0.00030164828035315634 -0.011264156042731031 0 1.395649322434529e-08 -0.011747959636641055 0 4.7628727992144724e-07 -0.012265952559379269 0 -1.3203384327348951e-08 -0.012268022955813529 0 -7.1441673522722842e-08 -0.011748087278310034 0 0.00011097266756251999 -0.011962917809276458 0 -1.0934785602223775e-08 -0.011746928933151069 0 -4.0180864826981172e-05 -0.011583198105206777 0 0.00028926126163498941 -0.011635943101108794 0 -5.0540704848237879e-08 -0.010948846956837713 0 -1.0934785602223775e-08 -0.011746928933151069 0 -4.0180864826981172e-05 -0.011583198105206777 0 -3.0578394079370283e-05 -0.010962474713564995 0 -5.3614399539962697e-05 -0.01103217913401193 0 -1.9480740637678221e-05 -0.011101175171645661 0 -9.6412446034955733e-08 -0.010948161943591949 0 -2.791436325548738e-05 -0.011307841064014123 0 1.4902776846835989e-07 -0.012788756180896251 0 6.4926282326041651e-06 -0.012815771528691674 0 3.0275781293712488e-06 -0.013457958776276036 0 0.00031716594792798096 -0.013096313802777577 0 -5.9047801970679771e-05 -0.014205108583605021 0 7.8322020384320636e-07 -0.012788124828728464 0 0.00031716594792798096 -0.013096313802777577 0 1.7217556867052104e-08 -0.012787539746068683 0 -3.5275776552223979e-07 -0.012748382298568509 0 -1.3203384327348951e-08 -0.012268022955813529 0 0.00031716594792798096 -0.013096313802777577 0 0.00011097266756251999 -0.011962917809276458 0 -3.5275776552223979e-07 -0.012748382298568509 0 4.7628727992144724e-07 -0.012265952559379269 0 -1.3203384327348951e-08 -0.012268022955813529 0 0.0006528051638862595 -0.011596568379173909 0 0.00028926126163498941 -0.011635943101108794 0 0.00030164828035315634 -0.011264156042731031 0 0.0006528051638862595 -0.011596568379173909 0 0.00030164828035315634 -0.011264156042731031 0 0.00049703863054883493 -0.01100642802082393 0 0.00011654782510703525 -0.011089989593038313 0 0.00030164828035315634 -0.011264156042731031 0 0.00049703863054883493 -0.01100642802082393 0 -0.00022178529985295351 -0.011076267237843581 0 -0.00039666347869625257 -0.011128730982883335 0 -0.00028223187374091618 -0.011183539044180971 0 3.3196384547191174e-05 -0.01098055339841246 0 -0.00015501632277377039 -0.01228896080375526 0 0.00031716594792798096 -0.013096313802777577 0 -0.00015501632277377039 -0.01228896080375526 0 7.0873379236524288e-05 -0.014818045541616436 0 5.558944968545108e-05 -0.014781854816521825 0 8.4483935657284138e-05 -0.014817003780849256 0 5.558944968545108e-05 -0.014781854816521825 0 7.8780775113686358e-05 -0.014789694519998073 0 8.4483935657284138e-05 -0.014817003780849256 0 -0.00015501632277377039 -0.01228896080375526 0 -0.00010303921366099207 -0.01321124400069665 0 -0.00031090946902110521 -0.011586246600858772 0 -0.00025533837683093617 -0.011492268533201708 0 -0.00019988420651242649 -0.011553722723873769 0 -0.00031090946902110521 -0.011586246600858772 0 -0.00025533837683093617 -0.011492268533201708 0 -0.00031946686555795113 -0.011388631121907401 0 -0.00039666347869625257 -0.011128730982883335 0 -0.00028223187374091618 -0.011183539044180971 0 -0.00031946686555795113 -0.011388631121907401 0 -0.00015501632277377039 -0.01228896080375526 0 -0.00041237007593016532 -0.010982224505059085 0 -0.0002379628906140923 -0.011269584950433941 0 -0.00028223187374091618 -0.011183539044180971 0 -0.00031946686555795113 -0.011388631121907401 0 -0.00028702275357946278 -0.011398649635952343 0 -0.00025558266176677866 -0.011358784049642051 0 -0.00031946686555795113 -0.011388631121907401 0 -0.00025533837683093617 -0.011492268533201708 0 -0.00031946686555795113 -0.011388631121907401 0 -0.00025612511134335398 -0.011428000929250179 0 -0.00025533837683093617 -0.011492268533201708 0 -0.00025612511134335398 -0.011428000929250179 0 -0.00017569531090270366 -0.011485765789892863 0 1.4902776846835989e-07 -0.012788756180896251 0 3.0275781293712488e-06 -0.013457958776276036 0 -7.4798209833300872e-08 -0.014999482092844367 0 -0.00025612511134335398 -0.011428000929250179 0 -0.00017569531090270366 -0.011485765789892863 0 -0.00021664415464933527 -0.011413025938089212 0 -0.00017569531090270366 -0.011485765789892863 0 -0.00021664415464933527 -0.011413025938089212 0 -0.00016022840810791194 -0.011418322134534878 0 -0.00017569531090270366 -0.011485765789892863 0 -0.00013328830684872979 -0.011472677890811423 0 -0.00016022840810791194 -0.011418322134534878 0 -4.0596567068623425e-05 -0.012314913690679941 0 0.00019074521602539313 -0.01357467288802881 0 -8.9782108866381989e-05 -0.011449229171546534 0 -0.00013328830684872979 -0.011472677890811423 0 -0.00010583429691530462 -0.011538795577111892 0 8.9392187677314306e-06 -0.013314863642480062 0 -6.072250140697227e-05 -0.013696060106766489 0 0.00011422905118051766 -0.013648689424521876 0 -4.0596567068623425e-05 -0.012314913690679941 0 -0.00027015703840256892 -0.011464371790762418 0 -8.9782108866381989e-05 -0.011449229171546534 0 -0.00013328830684872979 -0.011472677890811423 0 -0.00016022840810791194 -0.011418322134534878 0 -0.00017569531090270366 -0.011485765789892863 0 -0.00013328830684872979 -0.011472677890811423 0 -0.00010583429691530462 -0.011538795577111892 0 0.00013316879711452808 -0.014799164320699278 0 0.0001084296112540684 -0.014851153646429601 0 0.00020692844202211625 -0.014710181615153759 0 0.0001084296112540684 -0.014851153646429601 0 6.9312860898446338e-05 -0.014903155524122656 0 7.4848916047937197e-05 -0.014968158077133613 0 7.3442099924979443e-05 -0.014986705188182322 0 0.00011318927715081761 -0.014425181439077986 0 0.00019074521602539313 -0.01357467288802881 0 0.00011318927715081761 -0.014425181439077986 0 0.00014584804820918219 -0.014726141357051642 0 0.00013316879711452808 -0.014799164320699278 0 0.00020692844202211625 -0.014710181615153759 0 0.00019074521602539313 -0.01357467288802881 0 4.9687062813010754e-05 -0.014852558305223078 0 0.0001349060882727727 -0.014762594620813285 0 0.00013316879711452808 -0.014799164320699278 0 0.0001009680284100885 -0.014806897073477968 0 -0.00017569531090270366 -0.011485765789892863 0 -0.00010583429691530462 -0.011538795577111892 0 -0.00019988420651242649 -0.011553722723873769 0 0.0001349060882727727 -0.014762594620813285 0 0.0001009680284100885 -0.014806897073477968 0 7.8780775113686358e-05 -0.014789694519998073 0 -0.00025533837683093617 -0.011492268533201708 0 -0.00017569531090270366 -0.011485765789892863 0 -0.00019988420651242649 -0.011553722723873769 0 0.00019074521602539313 -0.01357467288802881 0 -0.00010303921366099207 -0.01321124400069665 0 0.0001009680284100885 -0.014806897073477968 0 8.4483935657284138e-05 -0.014817003780849256 0 0.0001084296112540684 -0.014851153646429601 0 8.4483935657284138e-05 -0.014817003780849256 0 0.0001084296112540684 -0.014851153646429601 0 9.7222573656063609e-05 -0.014831352099703694 0 0.0001009680284100885 -0.014806897073477968 0 7.8780775113686358e-05 -0.014789694519998073 0 8.4483935657284138e-05 -0.014817003780849256 0 0.00013316879711452808 -0.014799164320699278 0 0.0001009680284100885 -0.014806897073477968 0 0.0001084296112540684 -0.014851153646429601 0 0.0001084296112540684 -0.014851153646429601 0 8.5081612264001238e-05 -0.01486095104675687 0 9.7222573656063609e-05 -0.014831352099703694 0 0.0001084296112540684 -0.014851153646429601 0 8.5081612264001238e-05 -0.01486095104675687 0 6.9312860898446338e-05 -0.014903155524122656 0 8.5081612264001238e-05 -0.01486095104675687 0 9.7222573656063609e-05 -0.014831352099703694 0 7.5047782893116724e-05 -0.014842879950812876 0 -5.9047801970679771e-05 -0.014205108583605021 0 1.5598341305416257e-05 -0.014498865960593466 0 7.0873379236524288e-05 -0.014818045541616436 0 8.4483935657284138e-05 -0.014817003780849256 0 9.7222573656063609e-05 -0.014831352099703694 0 3.0275781293712488e-06 -0.013457958776276036 0 -7.4798209833300872e-08 -0.014999482092844367 0 6.2098735168163667e-06 -0.014132388122201434 0 -5.8854423603866086e-06 -0.014881841772847052 0 -7.4798209833300872e-08 -0.014999482092844367 0 2.6844100631377931e-09 -0.014999996492640038 0 -5.8854423603866086e-06 -0.014881841772847052 0 2.8671354012328157e-05 -0.014931547496174216 0 2.6844100631377931e-09 -0.014999996492640038 0 -5.8854423603866086e-06 -0.014881841772847052 0 -7.4798209833300872e-08 -0.014999482092844367 0 6.2098735168163667e-06 -0.014132388122201434 0 -5.8854423603866086e-06 -0.014881841772847052 0 7.5047782893116724e-05 -0.014842879950812876 0 4.8506437167055017e-05 -0.01488489651760311 0 -5.5178114910093138e-05 -0.014792122528012656 0 1.5598341305416257e-05 -0.014498865960593466 0 8.5081612264001238e-05 -0.01486095104675687 0 7.5047782893116724e-05 -0.014842879950812876 0 4.8506437167055017e-05 -0.01488489651760311 0 -5.8854423603866086e-06 -0.014881841772847052 0 4.8506437167055017e-05 -0.01488489651760311 0 2.8671354012328157e-05 -0.014931547496174216 0 8.5081612264001238e-05 -0.01486095104675687 0 4.8506437167055017e-05 -0.01488489651760311 0 6.9312860898446338e-05 -0.014903155524122656 0 4.8506437167055017e-05 -0.01488489651760311 0 6.9312860898446338e-05 -0.014903155524122656 0 2.8671354012328157e-05 -0.014931547496174216 0 2.8671354012328157e-05 -0.014931547496174216 0 2.6844100631377931e-09 -0.014999996492640038 0 3.8084634545917292e-05 -0.014965091728556413 0 2.6844100631377931e-09 -0.014999996492640038 0 3.8084634545917292e-05 -0.014965091728556413 0 1.6922181728824797e-05 -0.014995100139805101 0 3.8084634545917292e-05 -0.014965091728556413 0 7.4848916047937197e-05 -0.014968158077133613 0 1.6922181728824797e-05 -0.014995100139805101 0 6.9312860898446338e-05 -0.014903155524122656 0 5.1318919162762693e-05 -0.014941391433543134 0 7.4848916047937197e-05 -0.014968158077133613 0 6.9312860898446338e-05 -0.014903155524122656 0 2.8671354012328157e-05 -0.014931547496174216 0 5.1318919162762693e-05 -0.014941391433543134 0 2.8671354012328157e-05 -0.014931547496174216 0 5.1318919162762693e-05 -0.014941391433543134 0 3.8084634545917292e-05 -0.014965091728556413 0 5.1318919162762693e-05 -0.014941391433543134 0 3.8084634545917292e-05 -0.014965091728556413 0 7.4848916047937197e-05 -0.014968158077133613 0 8.9392187677314306e-06 -0.013314863642480062 0 0.00011422905118051766 -0.013648689424521876 0 0.00027767132289608661 -0.013418795342345016 0 0.000148144306402837 -0.014465466033316438 0 0.00012301796675084518 -0.014500668400937231 0 7.9056973395610775e-05 -0.014486553777083683 0 0.00011318927715081761 -0.014425181439077986 0 3.9794644775118732e-05 -0.0148414309056804 0 0.00011318927715081761 -0.014425181439077986 0 0.00015166665569776858 -0.014029720961842181 0 0.00015166665569776858 -0.014029720961842181 0 3.9794644775118732e-05 -0.0148414309056804 0 -4.0596567068623425e-05 -0.012314913690679941 0 0.00015166665569776858 -0.014029720961842181 0 9.2915659339689834e-05 -0.013230341658527449 0 -1.4298872734239923e-06 -0.013200435188806496 0 2.1565327727905084e-05 -0.01328237963367767 0 2.2816718435556863e-09 -0.014999982251027322 0 1.9779533500992984e-06 -0.014996653086408551 0 1.2857191208828327e-09 -0.014999998473401525 0 -3.4835726777127993e-08 -0.014999905778252626 0 3.9794644775118732e-05 -0.0148414309056804 0 4.2976093193846131e-08 -0.014999899441963685 0 3.9794644775118732e-05 -0.0148414309056804 0 2.2816718435556863e-09 -0.014999982251027322 0 2.5407947236396745e-06 -0.014993891867374539 0 1.9779533500992984e-06 -0.014996653086408551 0 3.6085011688924899e-11 -0.014999999014437215 0 2.0566681879447804e-10 -0.015000000117988068 0 5.1694402879410844e-07 -0.01499915255435514 0 7.0209997731999092e-06 -0.01499009511747474 0 2.5407947236396745e-06 -0.014993891867374539 0 1.9779533500992984e-06 -0.014996653086408551 0 1.9779533500992984e-06 -0.014996653086408551 0 1.2857191208828327e-09 -0.014999998473401525 0 1.6959022564088057e-06 -0.014998778842314571 0 7.0209997731999092e-06 -0.01499009511747474 0 1.9779533500992984e-06 -0.014996653086408551 0 1.6959022564088057e-06 -0.014998778842314571 0 0.00015166665569776858 -0.014029720961842181 0 -1.2453758163357757e-05 -0.014438837043155269 0 -1.2453758163357757e-05 -0.014438837043155269 0 -2.60871453482469e-08 -0.014999364059898565 0 1.6838284893892915e-10 -0.015000000821449019 0 -3.8106463327171591e-07 -0.014997724172861824 0 -2.841503623989204e-10 -0.014999996450732351 0 2.2409890061000391e-07 -0.014999703966623102 0 -1.2453758163357757e-05 -0.014438837043155269 0 7.3422871858848174e-08 -0.014998276870730895 0 2.5814605897657876e-10 -0.014999995522288504 0 -3.7084501525033018e-10 -0.015000000862809571 0 -1.2453758163357757e-05 -0.014438837043155269 0 -2.2013007907409722e-07 -0.015000083985620451 0 -6.9975690811231244e-06 -0.015007051689645666 0 -1.4024263654749766e-08 -0.015000021623633949 0 -1.3572590377505177e-05 -0.014993499329787436 0 -1.2453758163357757e-05 -0.014438837043155269 0 -3.7426559437571657e-05 -0.013323220793752219 0 4.7296509295305726e-05 -0.013331363709940253 0 -2.286728336563439e-05 -0.013323619458475752 0 -1.2570695643602831e-05 -0.01326968371776628 0 -6.9975690811231244e-06 -0.015007051689645666 0 -1.3572590377505177e-05 -0.014993499329787436 0 -4.076560709234419e-05 -0.01498928704561304 0 1.8571149825541123e-05 -0.012083265010987769 0 -3.7426559437571657e-05 -0.013323220793752219 0 -1.4298872734239923e-06 -0.013200435188806496 0 -0.00011880254265070758 -0.013371235986678132 0 2.1565327727905084e-05 -0.01328237963367767 0 -0.00011880254265070758 -0.013371235986678132 0 2.1565327727905084e-05 -0.01328237963367767 0 7.0882350852515311e-05 -0.013349452181302845 0 -1.2453758163357757e-05 -0.014438837043155269 0 1.8571149825541123e-05 -0.012083265010987769 0 -8.893323158457126e-05 -0.011454030130784618 0 -7.3498455898026951e-05 -0.011371228311915329 0 -0.00012771133883655484 -0.011402685971512654 0 -4.0596567068623425e-05 -0.012314913690679941 0 1.8571149825541123e-05 -0.012083265010987769 0 1.8571149825541123e-05 -0.012083265010987769 0 -0.00024710206572903958 -0.011164649211215467 0 9.2915659339689834e-05 -0.013230341658527449 0 2.1565327727905084e-05 -0.01328237963367767 0 7.0882350852515311e-05 -0.013349452181302845 0 -7.3498455898026951e-05 -0.011371228311915329 0 -0.00012771133883655484 -0.011402685971512654 0 -0.00018708548067000586 -0.011368070521927816 0 -8.893323158457126e-05 -0.011454030130784618 0 -0.00012771133883655484 -0.011402685971512654 0 -0.00016022840810791194 -0.011418322134534878 0 -0.00021664415464933527 -0.011413025938089212 0 -0.00016022840810791194 -0.011418322134534878 0 -0.00018708548067000586 -0.011368070521927816 0 -0.00012771133883655484 -0.011402685971512654 0 -0.00016022840810791194 -0.011418322134534878 0 -0.00018708548067000586 -0.011368070521927816 0 -0.00047183505908998023 -0.01092194105346689 0 -0.00030176744157277361 -0.0110918258017987 0 -0.00019801289380388487 -0.010843419863397713 0 8.3281530258121135e-06 -0.011094168536010652 0 -0.00030176744157277361 -0.0110918258017987 0 -0.00019801289380388487 -0.010843419863397713 0 8.3281530258121135e-06 -0.011094168536010652 0 -0.00019801289380388487 -0.010843419863397713 0 6.3138937230897482e-05 -0.010808930777181371 0 -0.00011697174356324592 -0.014952377415973795 0 -5.2965809279019847e-05 -0.014997472970022668 0 -4.4721444923083647e-05 -0.014973607604287925 0 -0.00019801289380388487 -0.010843419863397713 0 -0.00019535179965122164 -0.010580683159575098 0 6.3138937230897482e-05 -0.010808930777181371 0 -0.00018963903070009212 -0.012691424206295156 0 -3.7426559437571657e-05 -0.013323220793752219 0 -0.00019801289380388487 -0.010843419863397713 0 -0.000394278233162174 -0.010686199367693721 0 -0.00019535179965122164 -0.010580683159575098 0 -0.00047183505908998023 -0.01092194105346689 0 -0.00019801289380388487 -0.010843419863397713 0 -0.000394278233162174 -0.010686199367693721 0 -0.00023448382883643241 -0.012763942020455448 0 -0.00018963903070009212 -0.012691424206295156 0 -0.00043476522457268785 -0.010407895842339112 0 -0.00048262021070667678 -0.010532701723370711 0 -0.00019535179965122164 -0.010580683159575098 0 -0.00048262021070667678 -0.010532701723370711 0 -0.000394278233162174 -0.010686199367693721 0 -0.00019535179965122164 -0.010580683159575098 0 -0.00010838803600743726 -0.014904301874331918 0 -0.00017775863171342173 -0.014875768460337392 0 -0.00011697174356324592 -0.014952377415973795 0 -0.00011697174356324592 -0.014952377415973795 0 -7.8987854439139472e-05 -0.014944032127261435 0 -4.4721444923083647e-05 -0.014973607604287925 0 -0.00010838803600743726 -0.014904301874331918 0 -7.8987854439139472e-05 -0.014944032127261435 0 -5.1346373068844527e-05 -0.014942536491290568 0 -0.00010838803600743726 -0.014904301874331918 0 -0.00011697174356324592 -0.014952377415973795 0 -7.8987854439139472e-05 -0.014944032127261435 0 -2.4029583073155195e-06 -0.014976069963249858 0 -5.1346373068844527e-05 -0.014942536491290568 0 -1.5172092097052428e-05 -0.014982209506201776 0 -7.8987854439139472e-05 -0.014944032127261435 0 -5.1346373068844527e-05 -0.014942536491290568 0 -4.4721444923083647e-05 -0.014973607604287925 0 -5.1346373068844527e-05 -0.014942536491290568 0 -1.5172092097052428e-05 -0.014982209506201776 0 -4.4721444923083647e-05 -0.014973607604287925 0 -8.4938347018040231e-09 -0.014999958720113815 0 -2.4029583073155195e-06 -0.014976069963249858 0 -2.8396647077143231e-09 -0.014999958749210849 0 -2.4029583073155195e-06 -0.014976069963249858 0 -2.8396647077143231e-09 -0.014999958749210849 0 -1.5172092097052428e-05 -0.014982209506201776 0 -1.4024263654749766e-08 -0.015000021623633949 0 -2.8396647077143231e-09 -0.014999958749210849 0 -1.3572590377505177e-05 -0.014993499329787436 0 -2.8396647077143231e-09 -0.014999958749210849 0 -1.5172092097052428e-05 -0.014982209506201776 0 -1.3572590377505177e-05 -0.014993499329787436 0 -1.3572590377505177e-05 -0.014993499329787436 0 -4.076560709234419e-05 -0.01498928704561304 0 -4.4721444923083647e-05 -0.014973607604287925 0 -3.7426559437571657e-05 -0.013323220793752219 0 -0.00017500658021060448 -0.015321220877226429 0 -1.5172092097052428e-05 -0.014982209506201776 0 -1.3572590377505177e-05 -0.014993499329787436 0 -4.4721444923083647e-05 -0.014973607604287925 0 0.0012294979398740544 -0.0084240522043571367 0 0.0012745026721138581 -0.0083587412836712057 0 0.0013077858432983622 -0.0084231832327738235 0 0.0012294979398740544 -0.0084240522043571367 0 0.0011214767840290057 -0.0082910285076494075 0 0.0012745026721138581 -0.0083587412836712057 0 0.0010001588947963491 -0.0064031528579884976 0 0.0001111397724166537 -0.0039988140042964858 0 0.00062239294254692228 -0.0038426560813366118 0 0.00023804404711082959 -0.0034553320205446716 0 0.00031908174398256423 -0.0040083488588725643 0 -0.00079996021898472494 -4.2947718844750059e-06 0 -0.00065321399743553373 0.00048097900116467472 0 -0.00049930188932833879 -0.0003129434111680827 0 -0.00038978543341387404 -0.0010719851633008315 0 -7.3593889740924286e-05 -0.0022901415081280443 0 0.00062239294254692228 -0.0038426560813366118 0 0.00023804404711082959 -0.0034553320205446716 0 0.00044969546593518021 -0.0032439014423439987 0 -0.00079996021898472494 -4.2947718844750059e-06 0 -0.00097171657897811899 -0.0004195281108874036 0 -0.001019491386054302 9.6961100473404982e-05 0 -0.00079996021898472494 -4.2947718844750059e-06 0 -0.00085589760559533733 0.00027924066963638989 0 -0.001019491386054302 9.6961100473404982e-05 0 -0.00079996021898472494 -4.2947718844750059e-06 0 -0.00085589760559533733 0.00027924066963638989 0 -0.00065321399743553373 0.00048097900116467472 0 -0.00029626558677537849 -0.00045670984168836139 0 -0.00038978543341387404 -0.0010719851633008315 0 -0.00085589760559533733 0.00027924066963638989 0 -0.000786323695298728 0.00041975604857759005 0 -0.00095120663151719554 0.00040723075190307102 0 -0.00085589760559533733 0.00027924066963638989 0 -0.00095120663151719554 0.00040723075190307102 0 -0.001073837871255105 0.00032830317461891775 0 -0.0010072486848318593 0.000694951685360817 0 -0.0011728009869805117 0.00078946940004089689 0 -0.00078580033667298595 0.00087135662038341304 0 -0.00082392932056469745 0.0004169543848896954 0 -0.00067188517559378658 0.00057909939807060005 0 -0.0008434576935782205 0.00055958086032165458 0 -0.00038978543341387404 -0.0010719851633008315 0 0.0001111397724166537 -0.0039988140042964858 0 -0.00067188517559378658 0.00057909939807060005 0 -0.0008434576935782205 0.00055958086032165458 0 -0.00082670895204189291 0.00067626083967112346 0 -0.00095120663151719554 0.00040723075190307102 0 -0.00092804539551876526 0.00051678478819118924 0 -0.0010492162970270938 0.0005187499843968057 0 -0.000786323695298728 0.00041975604857759005 0 -0.00095120663151719554 0.00040723075190307102 0 -0.00092804539551876526 0.00051678478819118924 0 -0.00038978543341387404 -0.0010719851633008315 0 -0.00057953200928477391 -4.7594340161643806e-05 0 -0.000786323695298728 0.00041975604857759005 0 -0.00092804539551876526 0.00051678478819118924 0 -0.0008434576935782205 0.00055958086032165458 0 -0.0008434576935782205 0.00055958086032165458 0 -0.0010072486848318593 0.000694951685360817 0 -0.00082670895204189291 0.00067626083967112346 0 -0.00092804539551876526 0.00051678478819118924 0 -0.0008434576935782205 0.00055958086032165458 0 -0.0010072486848318593 0.000694951685360817 0 -0.00092804539551876526 0.00051678478819118924 0 -0.0010072486848318593 0.000694951685360817 0 -0.0010492162970270938 0.0005187499843968057 0 -0.0010072486848318593 0.000694951685360817 0 -0.00082670895204189291 0.00067626083967112346 0 -0.00078580033667298595 0.00087135662038341304 0 0.0001111397724166537 -0.0039988140042964858 0 -0.00062034108235664706 -0.00095850545631017033 0 -0.00067188517559378658 0.00057909939807060005 0 -0.00082670895204189291 0.00067626083967112346 0 -0.00078580033667298595 0.00087135662038341304 0 2.7912552703242679e-06 -0.0037302965840175827 0 1.1348211775450411e-05 -0.0038611270531881989 0 4.022668809593138e-05 -0.0038691845187803853 0 2.7912552703242679e-06 -0.0037302965840175827 0 -6.2408591392925993e-05 -0.0039048224722489891 0 1.1348211775450411e-05 -0.0038611270531881989 0 0.0012745026721138581 -0.0083587412836712057 0 0.0012966940662385749 -0.0080248899017080558 0 0.0013806491449868074 -0.0080474702184038151 0 2.7912552703242679e-06 -0.0037302965840175827 0 -0.00017843285602289375 -0.0039284647488836795 0 -6.2408591392925993e-05 -0.0039048224722489891 0 0.0011214767840290057 -0.0082910285076494075 0 0.0012745026721138581 -0.0083587412836712057 0 0.0012966940662385749 -0.0080248899017080558 0 0.0001111397724166537 -0.0039988140042964858 0 0.00046640812863219937 -0.0061901599191125584 0 0.0012793190282023004 -0.0084212124955318282 0 0.0012412539016093897 -0.0084552450687590212 0 0.0012824618383337611 -0.0084607004670605949 0 0.0012817255548577509 -0.0083629936978570941 0 0.0013732268923752945 -0.0082137395169836237 0 0.0012745026721138581 -0.0083587412836712057 0 0.0012793190282023004 -0.0084212124955318282 0 0.0012824618383337611 -0.0084607004670605949 0 0.0012745026721138581 -0.0083587412836712057 0 0.0013806491449868074 -0.0080474702184038151 0 0.0014931384050464363 -0.0080093767049079292 0 0.0012412539016093897 -0.0084552450687590212 0 0.0012218514773643329 -0.0084603623857918541 0 0.001219331311362635 -0.0084613814061930137 0 0.0012793190282023004 -0.0084212124955318282 0 0.0012412539016093897 -0.0084552450687590212 0 0.0012218514773643329 -0.0084603623857918541 0 0.0012218514773643329 -0.0084603623857918541 0 0.0013077858432983622 -0.0084231832327738235 0 0.0012643061229234318 -0.0083912103802984001 0 0.0012793190282023004 -0.0084212124955318282 0 0.0012218514773643329 -0.0084603623857918541 0 0.0013077858432983622 -0.0084231832327738235 0 0.0012745026721138581 -0.0083587412836712057 0 0.0012793190282023004 -0.0084212124955318282 0 0.0013077858432983622 -0.0084231832327738235 0 0.0013077858432983622 -0.0084231832327738235 0 0.0013601467349366389 -0.0083196020025435025 0 0.0014814576049492665 -0.0083129373981288279 0 0.0013077858432983622 -0.0084231832327738235 0 0.0013601467349366389 -0.0083196020025435025 0 0.0012643061229234318 -0.0083912103802984001 0 0.0012218514773643329 -0.0084603623857918541 0 0.0012643061229234318 -0.0083912103802984001 0 0.0011382107291313284 -0.0083924925002194974 0 0.0012643061229234318 -0.0083912103802984001 0 0.0012552036356611876 -0.0082730689900824099 0 0.0011382107291313284 -0.0083924925002194974 0 0.0013601467349366389 -0.0083196020025435025 0 0.0012643061229234318 -0.0083912103802984001 0 0.0012552036356611876 -0.0082730689900824099 0 0.0013601467349366389 -0.0083196020025435025 0 0.0012552036356611876 -0.0082730689900824099 0 0.0015006567126304101 -0.0080741518806836231 0 0.00094545680717206574 -0.004337469359524085 0 0.0010140856169671777 -0.0042434689853931623 0 0.00067180052488888654 -0.0040143433470198123 0 0.0010445966079674772 -0.0066773012698778935 0 0.0010770025457241864 -0.0060649121331500799 0 0.0013601467349366389 -0.0083196020025435025 0 0.0014814576049492665 -0.0083129373981288279 0 0.0015006567126304101 -0.0080741518806836231 0 0.0013074756457483105 -0.0048385490364902398 0 0.00093854605801709206 -0.0053466104168742815 0 0.00067180052488888654 -0.0040143433470198123 0 0.0008768891391052803 -0.0039901748219286683 0 0.0010445966079674772 -0.0066773012698778935 0 0.00055193265726399625 -0.0047331750896780463 0 0.00078427708164745204 -0.0044219631531484662 0 0.00039786727765339365 -0.0045422071103734868 0 0.0010001588947963491 -0.0064031528579884976 0 0.0010445966079674772 -0.0066773012698778935 0 0.0012411493312089652 -0.0089748832064439274 0 0.0010445966079674772 -0.0066773012698778935 0 0.00062239294254692228 -0.0038426560813366118 0 0.00078427708164745204 -0.0044219631531484662 0 0.00051317277894120082 -0.00425955383340142 0 0.0012294979398740544 -0.0084240522043571367 0 0.0013077858432983622 -0.0084231832327738235 0 0.0012469147798342415 -0.0084576018929941096 0 0.00078427708164745204 -0.0044219631531484662 0 0.00051317277894120082 -0.00425955383340142 0 0.00039786727765339365 -0.0045422071103734868 0 -0.00049930188932833879 -0.0003129434111680827 0 -0.00036627879018692093 -0.001214484147979816 0 -0.00097171657897811899 -0.0004195281108874036 0 0.0006035188258826144 -0.0014726720184603849 0 0.00041667786078448748 -0.0012289784270679558 0 0.0002965560102177571 -0.0013764073995008858 0 0.00031908174398256423 -0.0040083488588725643 0 0.00051317277894120082 -0.00425955383340142 0 0.00039786727765339365 -0.0045422071103734868 0 -7.3593889740924286e-05 -0.0022901415081280443 0 0.00025215496012700095 -0.0024911454869732618 0 -0.00079996021898472494 -4.2947718844750059e-06 0 -0.00049930188932833879 -0.0003129434111680827 0 -0.00097171657897811899 -0.0004195281108874036 0 0.00062239294254692228 -0.0038426560813366118 0 0.00031908174398256423 -0.0040083488588725643 0 0.00051317277894120082 -0.00425955383340142 0 0.00025215496012700095 -0.0024911454869732618 0 -0.00031619893613081377 -0.00075618545230913365 0 0.0006035188258826144 -0.0014726720184603849 0 0.00042598006585843119 -0.0015831925804434576 0 0.0002965560102177571 -0.0013764073995008858 0 0.00062501949875461409 -0.0016463825737810997 0 0.00042598006585843119 -0.0015831925804434576 0 0.00033055230014755261 -0.0017429178875140619 0 0.00067010586689589323 -0.0031405884589009165 0 0.00049238114232133274 -0.0029196147097885422 0 0.00054776767251757505 -0.0033110480888805106 0 0.00025215496012700095 -0.0024911454869732618 0 0.00073900825767387571 -0.0027291226397562311 0 0.0008768891391052803 -0.0039901748219286683 0 0.00025215496012700095 -0.0024911454869732618 0 0.0006035188258826144 -0.0014726720184603849 0 0.00062501949875461409 -0.0016463825737810997 0 0.00042598006585843119 -0.0015831925804434576 0 0.0008768891391052803 -0.0039901748219286683 0 0.00073900825767387571 -0.0027291226397562311 0 0.00042598006585843119 -0.0015831925804434576 0 0.00019739829655873259 -0.0016112055949628313 0 0.00033055230014755261 -0.0017429178875140619 0 0.00042598006585843119 -0.0015831925804434576 0 0.00019739829655873259 -0.0016112055949628313 0 0.0002965560102177571 -0.0013764073995008858 0 0.00019739829655873259 -0.0016112055949628313 0 -8.3741740172501479e-05 -0.0013696398303188568 0 4.0950779572801311e-05 -0.0018706226112593883 0 0.00019739829655873259 -0.0016112055949628313 0 -8.3741740172501479e-05 -0.0013696398303188568 0 0.0002965560102177571 -0.0013764073995008858 0 -8.3741740172501479e-05 -0.0013696398303188568 0 0.0002965560102177571 -0.0013764073995008858 0 0.00022466639713260286 -0.00098779975959649869 0 -0.00082257487797289064 -0.00030020549556066965 0 -0.0007637722778085043 0.0001063106202296311 0 0.00041667786078448748 -0.0012289784270679558 0 0.0002965560102177571 -0.0013764073995008858 0 0.00022466639713260286 -0.00098779975959649869 0 -0.0015895149095024859 0.00083112987946823533 0 -0.0015945887655682545 0.00082723904885254149 0 -0.0015914445486195519 0.00088140676139822729 0 -0.0015895149095024859 0.00083112987946823533 0 -0.0016114857571587215 0.00091822418782315919 0 -0.0015914445486195519 0.00088140676139822729 0 -0.00082257487797289064 -0.00030020549556066965 0 -0.00099362140036190452 -0.00040456638450600394 0 -8.3741740172501479e-05 -0.0013696398303188568 0 -0.00037121225187338293 -0.0017340510593143765 0 4.0950779572801311e-05 -0.0018706226112593883 0 -0.0015945887655682545 0.00082723904885254149 0 -0.0015633351329165344 0.00080053871094211296 0 -0.0016005752173330362 0.00085525593822399684 0 -0.0015895149095024859 0.00083112987946823533 0 -0.0015945887655682545 0.00082723904885254149 0 -0.0015633351329165344 0.00080053871094211296 0 -0.0015633351329165344 0.00080053871094211296 0 -0.0016005752173330362 0.00085525593822399684 0 -0.0015399478000626241 0.00085562744349909647 0 -0.0015945887655682545 0.00082723904885254149 0 -0.0016005752173330362 0.00085525593822399684 0 -0.0016282934068802216 0.00083111300929888205 0 -0.0016005752173330362 0.00085525593822399684 0 -0.0016282934068802216 0.00083111300929888205 0 -0.0016555740997768692 0.00091868387342298292 0 -0.0013437703107439785 0.00032064193505669682 0 -0.001283059635003046 0.00038978596474175748 0 -0.0014997816670369278 0.00073839601259205337 0 -0.0007637722778085043 0.0001063106202296311 0 -0.0008561951292465615 0.00010065413241323243 0 -0.0013950138621080215 0.00028045345937613723 0 -0.001073837871255105 0.00032830317461891775 0 -0.001019491386054302 9.6961100473404982e-05 0 -0.001283059635003046 0.00038978596474175748 0 -0.001073837871255105 0.00032830317461891775 0 -0.0011594417237158847 0.00049722664838682841 0 -0.0013950138621080215 0.00028045345937613723 0 -0.001283059635003046 0.00038978596474175748 0 -0.001073837871255105 0.00032830317461891775 0 -0.001073837871255105 0.00032830317461891775 0 -0.0010492162970270938 0.0005187499843968057 0 -0.0011594417237158847 0.00049722664838682841 0 -0.00095120663151719554 0.00040723075190307102 0 -0.001073837871255105 0.00032830317461891775 0 -0.0010492162970270938 0.0005187499843968057 0 -0.00085589760559533733 0.00027924066963638989 0 -0.001073837871255105 0.00032830317461891775 0 -0.001019491386054302 9.6961100473404982e-05 0 -0.00031619893613081377 -0.00075618545230913365 0 -0.0007637722778085043 0.0001063106202296311 0 -0.00097171657897811899 -0.0004195281108874036 0 -0.0013950138621080215 0.00028045345937613723 0 -0.001019491386054302 9.6961100473404982e-05 0 -0.0015895149095024859 0.00083112987946823533 0 -0.0015486223037210942 0.00077660279452545686 0 -0.0015499665167451075 0.00079077705459550465 0 -0.0015895149095024859 0.00083112987946823533 0 -0.0015633351329165344 0.00080053871094211296 0 -0.0015499665167451075 0.00079077705459550465 0 -0.0015633351329165344 0.00080053871094211296 0 -0.0015499665167451075 0.00079077705459550465 0 -0.0014997816670369278 0.00073839601259205337 0 -0.0015486223037210942 0.00077660279452545686 0 -0.0015499665167451075 0.00079077705459550465 0 -0.0014997816670369278 0.00073839601259205337 0 -0.0015633351329165344 0.00080053871094211296 0 -0.0014997816670369278 0.00073839601259205337 0 -0.0015399478000626241 0.00085562744349909647 0 -0.0007637722778085043 0.0001063106202296311 0 -0.0015984865468930253 0.00086741455986927599 0 -0.0014997816670369278 0.00073839601259205337 0 -0.0015399478000626241 0.00085562744349909647 0 -0.0014114933392720488 0.00083011362621708182 0 -0.0014997816670369278 0.00073839601259205337 0 -0.0014114933392720488 0.00083011362621708182 0 -0.0012628577304061785 0.0006344186574191664 0 -0.0014114933392720488 0.00083011362621708182 0 -0.0012628577304061785 0.0006344186574191664 0 -0.0011728009869805117 0.00078946940004089689 0 -0.001283059635003046 0.00038978596474175748 0 -0.0012628577304061785 0.0006344186574191664 0 -0.0011594417237158847 0.00049722664838682841 0 -0.001283059635003046 0.00038978596474175748 0 -0.0014997816670369278 0.00073839601259205337 0 -0.0012628577304061785 0.0006344186574191664 0 -0.0010492162970270938 0.0005187499843968057 0 -0.0011594417237158847 0.00049722664838682841 0 -0.0011232851962710371 0.00064901596577498653 0 -0.0012628577304061785 0.0006344186574191664 0 -0.0011594417237158847 0.00049722664838682841 0 -0.0011232851962710371 0.00064901596577498653 0 -0.0010072486848318593 0.000694951685360817 0 -0.0010492162970270938 0.0005187499843968057 0 -0.0011232851962710371 0.00064901596577498653 0 -0.0010072486848318593 0.000694951685360817 0 -0.0011232851962710371 0.00064901596577498653 0 -0.0011728009869805117 0.00078946940004089689 0 -0.0012628577304061785 0.0006344186574191664 0 -0.0011232851962710371 0.00064901596577498653 0 -0.0011728009869805117 0.00078946940004089689 0 -0.0013738733229751512 0.00096359965833826117 0 -0.00062034108235664706 -0.00095850545631017033 0 -0.00096554514182171783 0.00050162839950364539 0 -0.0011902099947658634 0.00047194223979591846 0 -0.00077376233452026695 0.0002648277208398523 0 -0.0011728009869805117 0.00078946940004089689 0 -0.0014311998953098345 0.00099078209589066948 0 -0.00078580033667298595 0.00087135662038341304 0 -0.0014114933392720488 0.00083011362621708182 0 -0.0011728009869805117 0.00078946940004089689 0 -0.0014311998953098345 0.00099078209589066948 0 -0.0015399478000626241 0.00085562744349909647 0 -0.0014114933392720488 0.00083011362621708182 0 -0.0014311998953098345 0.00099078209589066948 0 -0.0015399478000626241 0.00085562744349909647 0 -0.0014311998953098345 0.00099078209589066948 0 -0.0015913218847836167 0.00097990523811520604 0 -0.0011902099947658634 0.00047194223979591846 0 -0.0012543958792640775 0.00070572280288796108 0 -0.0014980405267224239 0.00067604566407748789 0 -0.0012543958792640775 0.00070572280288796108 0 -0.0010310144943188361 0.0006405395406299646 0 -0.0011230057479378773 0.00077881266992989697 0 -0.0011902099947658634 0.00047194223979591846 0 -0.0012543958792640775 0.00070572280288796108 0 -0.0010310144943188361 0.0006405395406299646 0 -0.0010310144943188361 0.0006405395406299646 0 -0.00096962298246093222 0.00088125460301478181 0 -0.00088708484977927788 0.00062417344238168489 0 -0.00096554514182171783 0.00050162839950364539 0 -0.0010310144943188361 0.0006405395406299646 0 -0.00095414537906773639 0.00058056478648469778 0 -0.0010310144943188361 0.0006405395406299646 0 -0.00095414537906773639 0.00058056478648469778 0 -0.00088708484977927788 0.00062417344238168489 0 -0.00096554514182171783 0.00050162839950364539 0 -0.0011902099947658634 0.00047194223979591846 0 -0.0010310144943188361 0.0006405395406299646 0 -0.0016005752173330362 0.00085525593822399684 0 -0.0015913218847836167 0.00097990523811520604 0 -0.0016555740997768692 0.00091868387342298292 0 -0.0016005752173330362 0.00085525593822399684 0 -0.0015399478000626241 0.00085562744349909647 0 -0.0015913218847836167 0.00097990523811520604 0 -0.0012543958792640775 0.00070572280288796108 0 -0.0014980405267224239 0.00067604566407748789 0 -0.0013811169059547825 0.00081334075391445145 0 -0.0013738733229751512 0.00096359965833826117 0 -0.0015160199385622971 0.00079169019059572231 0 -0.0015160199385622971 0.00079169019059572231 0 -0.0017251071897047467 0.00095818795278396251 0 -0.0015913218847836167 0.00097990523811520604 0 -0.001708684800418758 0.0010424176206846997 0 -0.0016555740997768692 0.00091868387342298292 0 -0.0015179326302943053 0.00092157079499379847 0 -0.0016885377642269273 0.0010640177596631594 0 -0.001734434332450147 0.00086202505067440227 0 -0.0014980405267224239 0.00067604566407748789 0 -0.0015179326302943053 0.00092157079499379847 0 -0.001734434332450147 0.00086202505067440227 0 -0.0015179326302943053 0.00092157079499379847 0 -0.0013811169059547825 0.00081334075391445145 0 -0.0013194178587919096 0.00096817770634331985 0 -0.0014980405267224239 0.00067604566407748789 0 -0.0015179326302943053 0.00092157079499379847 0 -0.0013811169059547825 0.00081334075391445145 0 -0.0014317235531665293 0.0011397954609374602 0 -0.0015179326302943053 0.00092157079499379847 0 -0.0013194178587919096 0.00096817770634331985 0 -0.0014317235531665293 0.0011397954609374602 0 -0.0015179326302943053 0.00092157079499379847 0 -0.0016885377642269273 0.0010640177596631594 0 -0.0010310144943188361 0.0006405395406299646 0 -0.00096962298246093222 0.00088125460301478181 0 -0.0011230057479378773 0.00077881266992989697 0 -0.0010219580896785436 0.00086402567626269638 0 -0.0011230057479378773 0.00077881266992989697 0 -0.0011600460416554279 0.00092815714680833782 0 -0.0012009826014497819 -0.0003011686414515093 0 -0.00084618403708219814 0.00080411254770158553 0 -0.0012543958792640775 0.00070572280288796108 0 -0.0011230057479378773 0.00077881266992989697 0 -0.0012490666765739059 0.00084514494992535066 0 -0.0012543958792640775 0.00070572280288796108 0 -0.0013811169059547825 0.00081334075391445145 0 -0.0012490666765739059 0.00084514494992535066 0 -0.0013811169059547825 0.00081334075391445145 0 -0.0012490666765739059 0.00084514494992535066 0 -0.0013194178587919096 0.00096817770634331985 0 -0.0012490666765739059 0.00084514494992535066 0 -0.0013194178587919096 0.00096817770634331985 0 -0.0011600460416554279 0.00092815714680833782 0 -0.0011230057479378773 0.00077881266992989697 0 -0.0012490666765739059 0.00084514494992535066 0 -0.0011600460416554279 0.00092815714680833782 0 -0.0014317235531665293 0.0011397954609374602 0 -0.0013194178587919096 0.00096817770634331985 0 -0.0012301405604275327 0.0010641950859170031 0 -0.0013194178587919096 0.00096817770634331985 0 -0.0012301405604275327 0.0010641950859170031 0 -0.0011600460416554279 0.00092815714680833782 0 -0.0012301405604275327 0.0010641950859170031 0 -0.0011600460416554279 0.00092815714680833782 0 -0.00108748371739859 0.001050929079616106 0 -0.0012009826014497819 -0.0003011686414515093 0 -0.0012067515039262833 -0.00013459127310104082 0 -0.0010219580896785436 0.00086402567626269638 0 -0.0011600460416554279 0.00092815714680833782 0 -0.00108748371739859 0.001050929079616106 0 -0.0014439948049333048 -0.00098538209801711388 0 -0.001354212795727642 -0.0013193478410629368 0 -0.0015849973400516306 -0.0013290597436646534 0 -0.0012009826014497819 -0.0003011686414515093 0 -0.0011275189395598267 -0.0028971277541034318 0 -0.0014439948049333048 -0.00098538209801711388 0 -0.0015849973400516306 -0.0013290597436646534 0 -0.0018063795439141697 -0.0012696539984947913 0 -0.00023327996022918371 -0.0038435939048080368 0 -0.00069447644399009141 -0.0052397176439685621 0 -0.00032836360204741716 -0.0037333123210016128 0 -0.0011430979860025227 -0.004572334668583946 0 -0.00099752612098197302 -0.0046092848004956584 0 -0.0011131924682901573 -0.004857270282531129 0 -0.00027423820743074592 -0.0045167476945042048 0 -0.00099752612098197302 -0.0046092848004956584 0 -0.00027423820743074592 -0.0045167476945042048 0 -0.00032836360204741716 -0.0037333123210016128 0 -0.00099752612098197302 -0.0046092848004956584 0 -0.0011275189395598267 -0.0028971277541034318 0 -0.00023327996022918371 -0.0038435939048080368 0 0.00012220722505683243 -0.0047160130623759835 0 -0.00021648942650015124 -0.0048035753912765173 0 -0.00031420314133352289 -0.0051765120018030892 0 -0.00023327996022918371 -0.0038435939048080368 0 3.3699950808737174e-05 -0.0046456299239824739 0 0.00012220722505683243 -0.0047160130623759835 0 8.19937441409469e-05 -0.0044147451232042579 0 2.3909337665756831e-06 -0.0044701654549440866 0 0.00012220722505683243 -0.0047160130623759835 0 2.3909337665756831e-06 -0.0044701654549440866 0 -0.00021648942650015124 -0.0048035753912765173 0 -0.00067760235535729363 -0.002207053247978436 0 -0.0010061311239731871 -0.0024652677917764909 0 -0.0010248191374246129 -0.002173284106747293 0 -0.0012009826014497819 -0.0003011686414515093 0 -0.00071747901304475075 -0.0019420625814646959 0 -0.00067760235535729363 -0.002207053247978436 0 -0.0010248191374246129 -0.002173284106747293 0 -0.00076319302639579051 -0.0019002669226872832 0 -0.00023327996022918371 -0.0038435939048080368 0 -0.00071747901304475075 -0.0019420625814646959 0 0.0003743567672627806 -0.0043325223292059647 0 0.00034189459042513373 -0.0042080379088653185 0 8.19937441409469e-05 -0.0044147451232042579 0 9.4627695764025387e-05 -0.0046264878384430358 0 0.0003743567672627806 -0.0043325223292059647 0 8.19937441409469e-05 -0.0044147451232042579 0 -0.00095414537906773639 0.00058056478648469778 0 -0.00088708484977927788 0.00062417344238168489 0 -0.00085795809564543637 0.00052719573329668417 0 -0.00071747901304475075 -0.0019420625814646959 0 -0.00029244581512518784 -0.0021979262650283194 0 -0.00048662644144664626 -0.00093235614580060354 0 -0.00029244581512518784 -0.0021979262650283194 0 -0.00096554514182171783 0.00050162839950364539 0 -0.00095414537906773639 0.00058056478648469778 0 -0.00085795809564543637 0.00052719573329668417 0 -0.00029244581512518784 -0.0021979262650283194 0 -0.00025107894422431995 -0.0043735027712763132 0 0.00034189459042513373 -0.0042080379088653185 0 8.19937441409469e-05 -0.0044147451232042579 0 -0.00011700619314598607 -0.0043967465871194659 0 9.7012453309088819e-05 -0.0040749929781630796 0 -0.00021521421272951898 -0.0042073644934252892 0 -0.00013120815980694844 -0.0040474353512779965 0 8.19937441409469e-05 -0.0044147451232042579 0 2.3909337665756831e-06 -0.0044701654549440866 0 -0.00011700619314598607 -0.0043967465871194659 0 -0.00013120815980694844 -0.0040474353512779965 0 -6.2408591392925993e-05 -0.0039048224722489891 0 -1.5683341195402632e-05 -0.003959717586357687 0 -0.00013120815980694844 -0.0040474353512779965 0 -0.00017843285602289375 -0.0039284647488836795 0 -0.0003537018404350507 -0.0041330721462901005 0 -0.00013120815980694844 -0.0040474353512779965 0 -0.00017843285602289375 -0.0039284647488836795 0 -6.2408591392925993e-05 -0.0039048224722489891 0 1.1348211775450411e-05 -0.0038611270531881989 0 3.9078169340582641e-05 -0.0038695665103464943 0 -1.5683341195402632e-05 -0.003959717586357687 0 9.7012453309088819e-05 -0.0040749929781630796 0 3.9078169340582641e-05 -0.0038695665103464943 0 -1.5683341195402632e-05 -0.003959717586357687 0 -6.2408591392925993e-05 -0.0039048224722489891 0 1.1348211775450411e-05 -0.0038611270531881989 0 -1.5683341195402632e-05 -0.003959717586357687 0 9.7012453309088819e-05 -0.0040749929781630796 0 -0.00013120815980694844 -0.0040474353512779965 0 -1.5683341195402632e-05 -0.003959717586357687 0 -0.00096554514182171783 0.00050162839950364539 0 -0.00084069685792628117 0.00053021585274636669 0 -0.00077376233452026695 0.0002648277208398523 0 -0.00029244581512518784 -0.0021979262650283194 0 -0.00062034108235664706 -0.00095850545631017033 0 -0.00036671532206980251 -0.0011997695837068793 0 -0.00062034108235664706 -0.00095850545631017033 0 0.0013230828888384177 -0.0083132968137373756 0 0.0013488281097155186 -0.0083034211140026355 0 0.0013334810452659107 -0.0083237955880870705 0 0.0012682581776668604 -0.0083964359180421951 0 0.0013732268923752945 -0.0082137395169836237 0 0.0012412539016093897 -0.0084552450687590212 0 0.0012374402675794955 -0.0084815096381461279 0 0.0012824618383337611 -0.0084607004670605949 0 0.0012412539016093897 -0.0084552450687590212 0 0.0012374402675794955 -0.0084815096381461279 0 0.0012228404530447814 -0.008474050364240128 0 0.0012966940662385749 -0.0080248899017080558 0 0.0013806491449868074 -0.0080474702184038151 0 0.0014901126000973883 -0.0080002533130722961 0 0.0014300665573562714 -0.0081390618152445155 0 0.0013732268923752945 -0.0082137395169836237 0 0.00046640812863219937 -0.0061901599191125584 0 0.00065481574074468629 -0.0058694140604604412 0 0.0012966940662385749 -0.0080248899017080558 0 0.0014901126000973883 -0.0080002533130722961 0 0.0015291292695192476 -0.0077218066511919332 0 0.0013732268923752945 -0.0082137395169836237 0 0.0014980064568921453 -0.0080309998446716369 0 0.0014901126000973883 -0.0080002533130722961 0 0.0015291292695192476 -0.0077218066511919332 0 0.0016586241113461368 -0.0077010096675935646 0 -0.00021521421272951898 -0.0042073644934252892 0 -0.00013120815980694844 -0.0040474353512779965 0 -0.0003537018404350507 -0.0041330721462901005 0 2.3909337665756831e-06 -0.0044701654549440866 0 -0.00011700619314598607 -0.0043967465871194659 0 -0.00031025375784955148 -0.0046713255084575248 0 -0.00021521421272951898 -0.0042073644934252892 0 -0.0003537018404350507 -0.0041330721462901005 0 -0.00052725133494414291 -0.0043451132841466353 0 -0.00025107894422431995 -0.0043735027712763132 0 0.00031493959702841317 -0.005919264279635612 0 0.0014980064568921453 -0.0080309998446716369 0 0.00088300881452043787 -0.0072053323553951136 0 0.0015291292695192476 -0.0077218066511919332 0 0.0016586241113461368 -0.0077010096675935646 0 0.001761861369621249 -0.0074418265611537549 0 0.00065481574074468629 -0.0058694140604604412 0 0.00031493959702841317 -0.005919264279635612 0 0.0013227545415018913 -0.0083236219589934626 0 0.0013199956521257018 -0.0083329691058294068 0 0.0013147880275362752 -0.0083233994855886999 0 0.0013334810452659107 -0.0083237955880870705 0 0.0013227545415018913 -0.0083236219589934626 0 0.0013199956521257018 -0.0083329691058294068 0 0.0013230828888384177 -0.0083132968137373756 0 0.0013227545415018913 -0.0083236219589934626 0 0.0013147880275362752 -0.0083233994855886999 0 0.0013230828888384177 -0.0083132968137373756 0 0.0013334810452659107 -0.0083237955880870705 0 0.0013227545415018913 -0.0083236219589934626 0 0.0013334810452659107 -0.0083237955880870705 0 0.0013199956521257018 -0.0083329691058294068 0 0.0013196983480275369 -0.0083325303205499211 0 0.0016586241113461368 -0.0077010096675935646 0 0.0018255297331013828 -0.0074180237906369944 0 0.001761861369621249 -0.0074418265611537549 0 -0.00033386934839579706 -0.0046164687479044687 0 -0.00041813902557526997 -0.0061297900808100388 0 0.0013199956521257018 -0.0083329691058294068 0 0.0013196983480275369 -0.0083325303205499211 0 0.0013252795208710953 -0.0083274855123341394 0 0.00031493959702841317 -0.005919264279635612 0 0.00046740180360057778 -0.0071744762131853487 0 -0.00042209239448537991 -0.0046945119490972237 0 -0.0004782488129218857 -0.0049542431756497514 0 -0.00084082934146194549 -0.0049204284866591914 0 -0.00056119397583395832 -0.0047204820043271764 0 -0.00031025375784955148 -0.0046713255084575248 0 -0.00063149295531368037 -0.0048653557286486918 0 0.00046240800684265706 -0.0065554133720065648 0 0.00066446842764976595 -0.0064902908794334082 0 0.00022563578264571309 -0.0068900012679261134 0 -0.00057965316743991324 -0.004592689697375911 0 -0.00056119397583395832 -0.0047204820043271764 0 -0.00073291210427989934 -0.0047421620389858608 0 0.00088300881452043787 -0.0072053323553951136 0 0.00046740180360057778 -0.0071744762131853487 0 0.00088300881452043787 -0.0072053323553951136 0 0.00031493959702841317 -0.005919264279635612 0 -0.00057965316743991324 -0.004592689697375911 0 -0.00056119397583395832 -0.0047204820043271764 0 -0.00031025375784955148 -0.0046713255084575248 0 -0.00056119397583395832 -0.0047204820043271764 0 -0.00063149295531368037 -0.0048653557286486918 0 -0.00073291210427989934 -0.0047421620389858608 0 -0.00041813902557526997 -0.0061297900808100388 0 0.00046740180360057778 -0.0071744762131853487 0 2.3909337665756831e-06 -0.0044701654549440866 0 -0.00042209239448537991 -0.0046945119490972237 0 -0.00021648942650015124 -0.0048035753912765173 0 -0.00011700619314598607 -0.0043967465871194659 0 -0.00057965316743991324 -0.004592689697375911 0 -0.00031025375784955148 -0.0046713255084575248 0 -4.9003817565176859e-05 -0.0045074109355672937 0 -0.00033386934839579706 -0.0046164687479044687 0 -0.00042209239448537991 -0.0046945119490972237 0 -0.00021648942650015124 -0.0048035753912765173 0 -0.0004782488129218857 -0.0049542431756497514 0 -0.0004782488129218857 -0.0049542431756497514 0 -0.00031420314133352289 -0.0051765120018030892 0 -0.00070962470008989996 -0.005078394571971164 0 -0.00069447644399009141 -0.0052397176439685621 0 -0.00050667292197192047 -0.0065467083842214316 0 -0.00074120755288433545 -0.0059024682616064606 0 -0.00087841521416027828 -0.0060405326074953226 0 -0.00055600331264441319 -0.0061286369167766752 0 -0.00021648942650015124 -0.0048035753912765173 0 -0.0004782488129218857 -0.0049542431756497514 0 -0.00031420314133352289 -0.0051765120018030892 0 -0.00098266795276900042 -0.0063861954142308318 0 -0.00069447644399009141 -0.0052397176439685621 0 -0.00069447644399009141 -0.0052397176439685621 0 -0.00084371389470527065 -0.005145441320092101 0 -0.0011131924682901573 -0.004857270282531129 0 -0.0011428335670280909 -0.0045736762093271073 0 -0.00099752612098197302 -0.0046092848004956584 0 -0.0011131924682901573 -0.004857270282531129 0 -0.0014622248364590689 -0.0049037778196647491 0 -0.0011428335670280909 -0.0045736762093271073 0 -0.00050667292197192047 -0.0065467083842214316 0 -0.00013082841541663527 -0.007653868067131385 0 -0.00040848917383563984 -0.0070378514457097793 0 -0.00057571150703028063 -0.0068340239441200754 0 -0.00019839296511479709 -0.0069347960272289188 0 -0.00041813902557526997 -0.0061297900808100388 0 -0.00013082841541663527 -0.007653868067131385 0 -0.00041813902557526997 -0.0061297900808100388 0 -0.00050667292197192047 -0.0065467083842214316 0 -0.0004782488129218857 -0.0049542431756497514 0 -0.00084082934146194549 -0.0049204284866591914 0 -0.00070962470008989996 -0.005078394571971164 0 -0.00041337120964400864 -0.0079993005578725893 0 -0.00032564028337847561 -0.0079897265907826961 0 -0.00040538030756023466 -0.0078952467087167397 0 -0.00098266795276900042 -0.0063861954142308318 0 -0.00050667292197192047 -0.0065467083842214316 0 -0.00048472513400009079 -0.0079937123023935217 0 -0.00041337120964400864 -0.0079993005578725893 0 -0.00040538030756023466 -0.0078952467087167397 0 -0.00048472513400009079 -0.0079937123023935217 0 -0.00040538030756023466 -0.0078952467087167397 0 -0.00050884290253532341 -0.0078729554456526789 0 -0.00048472513400009079 -0.0079937123023935217 0 -0.00055635808951065525 -0.007978243217952305 0 -0.00050884290253532341 -0.0078729554456526789 0 -0.00055635808951065525 -0.007978243217952305 0 -0.00050884290253532341 -0.0078729554456526789 0 -0.00063790851615317886 -0.0079457830720016005 0 0.00041537328710893035 -0.0084412108481228196 0 0.00056907784582448009 -0.008382405921471962 0 0.00026938913282576127 -0.0085455527718823407 0 0.00041537328710893035 -0.0084412108481228196 0 0.00047171635353451379 -0.0083594885695448713 0 0.00026938913282576127 -0.0085455527718823407 0 -0.00013082841541663527 -0.007653868067131385 0 0.00048040525421035252 -0.0090378477651034718 0 0.00076261214230351638 -0.0085551911729074455 0 0.00048040525421035252 -0.0090378477651034718 0 0.00068221209310379612 -0.0085505127461253331 0 0.00076261214230351638 -0.0085551911729074455 0 0.00028851504385459317 -0.0074142961131606986 0 0.00021232633628502867 -0.007457508163897621 0 0.00020104297687878733 -0.0073840576568296517 0 0.00041537328710893035 -0.0084412108481228196 0 0.00047150800776124384 -0.0083589248648258917 0 0.00056907784582448009 -0.008382405921471962 0 0.00015884414447010911 -0.0074458856809628939 0 0.00021232633628502867 -0.007457508163897621 0 0.00020104297687878733 -0.0073840576568296517 0 0.00076261214230351638 -0.0085551911729074455 0 -0.00013082841541663527 -0.007653868067131385 0 0.00028851504385459317 -0.0074142961131606986 0 0.00020104297687878733 -0.0073840576568296517 0 0.00022996553813392246 -0.0073430375023538384 0 0.0011469218562288018 -0.0084563505615445605 0 0.0010642379264058175 -0.0095374030276008329 0 0.0012310078601901382 -0.0093564941738988796 0 0.0011209827510283818 -0.0093477179812276531 0 0.0011374119242778316 -0.0093060409215203563 0 0.0011763949340581076 -0.0093963163585668568 0 0.0011910009716598027 -0.0093308752165480041 0 0.0010920081120417322 -0.0093991872342489829 0 0.0011763949340581076 -0.0093963163585668568 0 0.0011939608505026169 -0.0093674259945655137 0 0.0011910009716598027 -0.0093308752165480041 0 0.0011939608505026169 -0.0093674259945655137 0 0.001206036629503443 -0.0093472753706155889 0 0.0011910009716598027 -0.0093308752165480041 0 0.00051290545224122312 -0.0079954120502204098 0 0.00046740180360057778 -0.0071744762131853487 0 0.00076261214230351638 -0.0085551911729074455 0 0.00051290545224122312 -0.0079954120502204098 0 0.00091443386323779568 -0.0075628352738306452 0 0.00068123464807361427 -0.0078868737413183166 0 0.00051808507709636461 -0.0076887549405931207 0 0.00088300881452043787 -0.0072053323553951136 0 0.0011469218562288018 -0.0084563505615445605 0 0.00046740180360057778 -0.0071744762131853487 0 0.0011469218562288018 -0.0084563505615445605 0 0.00076261214230351638 -0.0085551911729074455 0 0.0011977186489472217 -0.0096031691614903714 0 0.0012310078601901382 -0.0093564941738988796 0 0.0011209827510283818 -0.0093477179812276531 0 0.0010920081120417322 -0.0093991872342489829 0 0.0011763949340581076 -0.0093963163585668568 0 0.0010920081120417322 -0.0093991872342489829 0 0.0010519040260735845 -0.0094086419963881895 0 0.0010729117460643951 -0.0093657403664600628 0 0.0011209827510283818 -0.0093477179812276531 0 0.0010920081120417322 -0.0093991872342489829 0 0.0010729117460643951 -0.0093657403664600628 0 0.0011209827510283818 -0.0093477179812276531 0 0.0010778072181312191 -0.0093184094550009117 0 0.0010729117460643951 -0.0093657403664600628 0 0.0010920081120417322 -0.0093991872342489829 0 0.0010519040260735845 -0.0094086419963881895 0 0.0013390728979144656 -0.0095855605582819466 0 0.001161567789604792 -0.0096093453287011445 0 0.0012439381543596305 -0.0096765597972691061 0 0.001161567789604792 -0.0096093453287011445 0 0.0010772537795278364 -0.0095983734469195624 0 0.0010808860890226589 -0.0095220917159086794 0 0.0013390728979144656 -0.0095855605582819466 0 0.001161567789604792 -0.0096093453287011445 0 0.0010808860890226589 -0.0095220917159086794 0 0.001161567789604792 -0.0096093453287011445 0 0.0012439381543596305 -0.0096765597972691061 0 0.0010726260536276289 -0.0096707016075700883 0 0.00099237792603028372 -0.0098308016546229879 0 0.0012439381543596305 -0.0096765597972691061 0 0.0010726260536276289 -0.0096707016075700883 0 0.0010726260536276289 -0.0096707016075700883 0 0.00095279798653694926 -0.0097088445690988404 0 0.00097383169920011695 -0.0095916955781638995 0 0.00099237792603028372 -0.0098308016546229879 0 0.0010726260536276289 -0.0096707016075700883 0 0.00095279798653694926 -0.0097088445690988404 0 0.00095279798653694926 -0.0097088445690988404 0 0.00097383169920011695 -0.0095916955781638995 0 0.00090647343811175866 -0.0096382756657404679 0 0.001161567789604792 -0.0096093453287011445 0 0.0010726260536276289 -0.0096707016075700883 0 0.0010772537795278364 -0.0095983734469195624 0 0.0010726260536276289 -0.0096707016075700883 0 0.00097383169920011695 -0.0095916955781638995 0 0.0010772537795278364 -0.0095983734469195624 0 0.00097383169920011695 -0.0095916955781638995 0 0.0010772537795278364 -0.0095983734469195624 0 0.0010808860890226589 -0.0095220917159086794 0 0.00075935728751289891 -0.0097971737487530207 0 0.00083311509236876037 -0.0097061596370363479 0 0.00070801257846887582 -0.0096961709407536283 0 0.00095279798653694926 -0.0097088445690988404 0 0.00083311509236876037 -0.0097061596370363479 0 0.00090647343811175866 -0.0096382756657404679 0 0.00085388893513114496 -0.0098060678569794734 0 0.00095279798653694926 -0.0097088445690988404 0 0.00083311509236876037 -0.0097061596370363479 0 0.00083311509236876037 -0.0097061596370363479 0 0.00090647343811175866 -0.0096382756657404679 0 0.00081843098310879184 -0.0095847960922367387 0 0.00097383169920011695 -0.0095916955781638995 0 0.00090647343811175866 -0.0096382756657404679 0 0.00081843098310879184 -0.0095847960922367387 0 0.00083311509236876037 -0.0097061596370363479 0 0.00081843098310879184 -0.0095847960922367387 0 0.00070801257846887582 -0.0096961709407536283 0 0.00081398073201599367 -0.0094202514227113669 0 0.0010110318519198111 -0.0093440710644200134 0 0.00093764378891973948 -0.0093086675333609939 0 0.00097383169920011695 -0.0095916955781638995 0 0.00081843098310879184 -0.0095847960922367387 0 0.00081398073201599367 -0.0094202514227113669 0 0.00097383169920011695 -0.0095916955781638995 0 0.00081398073201599367 -0.0094202514227113669 0 0.0010808860890226589 -0.0095220917159086794 0 0.00081398073201599367 -0.0094202514227113669 0 0.0010519040260735845 -0.0094086419963881895 0 0.0010110318519198111 -0.0093440710644200134 0 0.00076089331152781527 -0.0093791446971013635 0 0.0011977186489472217 -0.0096031691614903714 0 0.0010729117460643951 -0.0093657403664600628 0 0.0010519040260735845 -0.0094086419963881895 0 0.0010110318519198111 -0.0093440710644200134 0 0.0010729117460643951 -0.0093657403664600628 0 0.0010110318519198111 -0.0093440710644200134 0 0.0010778072181312191 -0.0093184094550009117 0 0.00093764378891973948 -0.0093086675333609939 0 0.0010778072181312191 -0.0093184094550009117 0 0.0011409406392719982 -0.0092396249116959064 0 0.00091301074419212428 -0.0093875760474190981 0 0.0012763509245695285 -0.0089422112331451493 0 0.0010110318519198111 -0.0093440710644200134 0 0.00093764378891973948 -0.0093086675333609939 0 0.0010778072181312191 -0.0093184094550009117 0 0.00093764378891973948 -0.0093086675333609939 0 0.0010646062934201361 -0.0091408393160880754 0 0.0012995674348186515 -0.009190062806972786 0 0.00093764378891973948 -0.0093086675333609939 0 0.00085641306415729893 -0.0091064366922896326 0 0.00071046484869672136 -0.0092610795985957426 0 0.00081398073201599367 -0.0094202514227113669 0 0.00093764378891973948 -0.0093086675333609939 0 0.00071046484869672136 -0.0092610795985957426 0 0.00093764378891973948 -0.0093086675333609939 0 0.00085641306415729893 -0.0091064366922896326 0 0.0010646062934201361 -0.0091408393160880754 0 0.00085641306415729893 -0.0091064366922896326 0 0.00096144489454502117 -0.0090239368721286087 0 0.00084779313764071003 -0.0089287209990880408 0 0.00085641306415729893 -0.0091064366922896326 0 0.00072654460986982118 -0.0089685253817166511 0 0.00084779313764071003 -0.0089287209990880408 0 0.00096144489454502117 -0.0090239368721286087 0 0.0010781210940819352 -0.0089378032024270034 0 0.00084779313764071003 -0.0089287209990880408 0 0.0010646062934201361 -0.0091408393160880754 0 0.0012687190976713354 -0.0091532919092567801 0 0.0010781210940819352 -0.0089378032024270034 0 0.0010646062934201361 -0.0091408393160880754 0 0.00096144489454502117 -0.0090239368721286087 0 0.0010781210940819352 -0.0089378032024270034 0 0.00085641306415729893 -0.0091064366922896326 0 0.0010646062934201361 -0.0091408393160880754 0 0.00096144489454502117 -0.0090239368721286087 0 0.0012917300923835568 -0.0086566416156032312 0 0.0011549540123210304 -0.0087390956104001528 0 0.0012687190976713354 -0.0091532919092567801 0 0.001370444918813666 -0.0091660809723257894 0 0.0010781210940819352 -0.0089378032024270034 0 0.0012078169061881714 -0.0084729145689743345 0 0.0012132290935429617 -0.0084915828487134026 0 0.0011807974747495723 -0.0084743919719058227 0 0.0012374402675794955 -0.0084815096381461279 0 0.0012228404530447814 -0.008474050364240128 0 0.0012132290935429617 -0.0084915828487134026 0 0.0012078169061881714 -0.0084729145689743345 0 0.0012228404530447814 -0.008474050364240128 0 0.0012132290935429617 -0.0084915828487134026 0 0.0013230828888384177 -0.0083132968137373756 0 0.0013028859540068832 -0.008322858844889475 0 0.0013147880275362752 -0.0083233994855886999 0 0.0012682581776668604 -0.0083964359180421951 0 0.0012917300923835568 -0.0086566416156032312 0 0.0012310078601901382 -0.0093564941738988796 0 0.0011374119242778316 -0.0093060409215203563 0 0.0011409406392719982 -0.0092396249116959064 0 0.0011469218562288018 -0.0084563505615445605 0 0.0012763509245695285 -0.0089422112331451493 0 0.0013199956521257018 -0.0083329691058294068 0 0.0013252795208710953 -0.0083274855123341394 0 0.0013362188318998575 -0.0083558199827083405 0 0.0013252795208710953 -0.0083274855123341394 0 0.0013362188318998575 -0.0083558199827083405 0 0.0013436246104996967 -0.0083547112023113976 0 0.0012828992948723692 -0.008276998361937335 0 0.0012917300923835568 -0.0086566416156032312 0 0.0013199956521257018 -0.0083329691058294068 0 0.0013028859540068832 -0.008322858844889475 0 0.0013147880275362752 -0.0083233994855886999 0 0.0011374119242778316 -0.0093060409215203563 0 0.0010778072181312191 -0.0093184094550009117 0 0.0011409406392719982 -0.0092396249116959064 0 0.0010646062934201361 -0.0091408393160880754 0 0.0012687190976713354 -0.0091532919092567801 0 0.0012995674348186515 -0.009190062806972786 0 0.0011209827510283818 -0.0093477179812276531 0 0.0011374119242778316 -0.0093060409215203563 0 0.0010778072181312191 -0.0093184094550009117 0 0.0012687190976713354 -0.0091532919092567801 0 0.001370444918813666 -0.0091660809723257894 0 0.0012985892653107137 -0.0091886814771332762 0 0.0013083226164582705 -0.0090102973974827208 0 0.0012763509245695285 -0.0089422112331451493 0 0.0012917300923835568 -0.0086566416156032312 0 0.0012763509245695285 -0.0089422112331451493 0 0.00017551342844645247 -0.0095814408638136266 0 0.00039536493204588512 -0.0096114489424017225 0 0.00024695562507637432 -0.0094450156343295812 0 0.00017551342844645247 -0.0095814408638136266 0 0.00018452324462866419 -0.0097285119288500442 0 0.00039536493204588512 -0.0096114489424017225 0 0.00034460332506838336 -0.0099362918789472395 0 0.00018452324462866419 -0.0097285119288500442 0 0.00036695890043229651 -0.0097561287848803215 0 0.00018452324462866419 -0.0097285119288500442 0 0.00036695890043229651 -0.0097561287848803215 0 0.00039536493204588512 -0.0096114489424017225 0 0.00036695890043229651 -0.0097561287848803215 0 0.00039536493204588512 -0.0096114489424017225 0 0.00051961179338033854 -0.0097530148868697382 0 0.00035274045557059306 -0.0095570156754706675 0 0.00017829474163770878 -0.0093475783364002484 0 0.00030394171616051263 -0.0094961685795039233 0 0.00064252347781958109 -0.0094877868277456704 0 0.00050726872221707603 -0.009309839034602925 0 0.00030394171616051263 -0.0094961685795039233 0 0.00051961179338033854 -0.0097530148868697382 0 0.00064252347781958109 -0.0094877868277456704 0 0.00035274045557059306 -0.0095570156754706675 0 0.00050628977490419706 -0.0097396755366297542 0 0.00051961179338033854 -0.0097530148868697382 0 0.00070801257846887582 -0.0096961709407536283 0 0.00064252347781958109 -0.0094877868277456704 0 0.00081843098310879184 -0.0095847960922367387 0 0.00070801257846887582 -0.0096961709407536283 0 0.00064252347781958109 -0.0094877868277456704 0 0.0006477645431073243 -0.0098453805333040736 0 0.00051961179338033854 -0.0097530148868697382 0 0.00070801257846887582 -0.0096961709407536283 0 0.00081398073201599367 -0.0094202514227113669 0 0.00064252347781958109 -0.0094877868277456704 0 0.00071046484869672136 -0.0092610795985957426 0 0.00081843098310879184 -0.0095847960922367387 0 0.00081398073201599367 -0.0094202514227113669 0 0.00064252347781958109 -0.0094877868277456704 0 0.00071046484869672136 -0.0092610795985957426 0 0.00051683293602859139 -0.0091336352019856844 0 0.00050726872221707603 -0.009309839034602925 0 0.00064252347781958109 -0.0094877868277456704 0 0.00071046484869672136 -0.0092610795985957426 0 0.00050726872221707603 -0.009309839034602925 0 0.00085641306415729893 -0.0091064366922896326 0 0.00071046484869672136 -0.0092610795985957426 0 0.00067481912081109984 -0.0090834626249562418 0 0.00085641306415729893 -0.0091064366922896326 0 0.00067481912081109984 -0.0090834626249562418 0 0.00072654460986982118 -0.0089685253817166511 0 0.00067481912081109984 -0.0090834626249562418 0 0.00051683293602859139 -0.0091336352019856844 0 0.00054425155532760155 -0.0089634743672899822 0 0.00067481912081109984 -0.0090834626249562418 0 0.00072654460986982118 -0.0089685253817166511 0 0.00054425155532760155 -0.0089634743672899822 0 0.00071046484869672136 -0.0092610795985957426 0 0.00067481912081109984 -0.0090834626249562418 0 0.00051683293602859139 -0.0091336352019856844 0 0.00051683293602859139 -0.0091336352019856844 0 0.00054425155532760155 -0.0089634743672899822 0 0.00037492248015811691 -0.0089991023150940153 0 0.00051683293602859139 -0.0091336352019856844 0 0.00037492248015811691 -0.0089991023150940153 0 0.00033003803502163804 -0.009201979832618553 0 0.00051683293602859139 -0.0091336352019856844 0 0.00050726872221707603 -0.009309839034602925 0 0.00033003803502163804 -0.009201979832618553 0 0.00030394171616051263 -0.0094961685795039233 0 0.00050726872221707603 -0.009309839034602925 0 0.00033003803502163804 -0.009201979832618553 0 0.00030394171616051263 -0.0094961685795039233 0 0.00033003803502163804 -0.009201979832618553 0 0.00011090080887464257 -0.0092535896493877896 0 0.00037492248015811691 -0.0089991023150940153 0 0.00033003803502163804 -0.009201979832618553 0 0.00018275932076785591 -0.0090295906816881717 0 0.00033003803502163804 -0.009201979832618553 0 0.00018275932076785591 -0.0090295906816881717 0 0.00011090080887464257 -0.0092535896493877896 0 0.00037492248015811691 -0.0089991023150940153 0 0.00018275932076785591 -0.0090295906816881717 0 0.000251100189632001 -0.0088784700388248525 0 2.5536474684017642e-05 -0.0091598912863990242 0 0.00017829474163770878 -0.0093475783364002484 0 -7.8029374240798068e-05 -0.0090116900227269932 0 0.00018275932076785591 -0.0090295906816881717 0 0.00011090080887464257 -0.0092535896493877896 0 -7.8029374240798068e-05 -0.0090116900227269932 0 0.00018275932076785591 -0.0090295906816881717 0 0.00010173892545403789 -0.0088363046546947252 0 3.21086904822837e-05 -0.0095421428846230484 0 0.00017551342844645247 -0.0095814408638136266 0 0.00024695562507637432 -0.0094450156343295812 0 -0.00027457764820127626 -0.0087706659414306196 0 4.3777139377913478e-05 -0.0086299940441476996 0 0.00010173892545403789 -0.0088363046546947252 0 -0.00018472593520453562 -0.0088545612544166496 0 -0.00017836969012834626 -0.008854553787612492 0 -0.00018499424659232909 -0.0088340843626638649 0 4.3777139377913478e-05 -0.0086299940441476996 0 0.00010173892545403789 -0.0088363046546947252 0 0.0001777171721057852 -0.0086954272077092651 0 0.000251100189632001 -0.0088784700388248525 0 0.0001777171721057852 -0.0086954272077092651 0 0.00041839426132390652 -0.0088503442846669354 0 0.00010173892545403789 -0.0088363046546947252 0 0.000251100189632001 -0.0088784700388248525 0 0.0001777171721057852 -0.0086954272077092651 0 0.00018275932076785591 -0.0090295906816881717 0 0.00010173892545403789 -0.0088363046546947252 0 0.000251100189632001 -0.0088784700388248525 0 0.00037492248015811691 -0.0089991023150940153 0 0.000251100189632001 -0.0088784700388248525 0 0.00041839426132390652 -0.0088503442846669354 0 0.0001777171721057852 -0.0086954272077092651 0 0.00045296836904720078 -0.0086476962669129603 0 0.00032947737018011622 -0.0084999882642153267 0 0.00020664947632104513 -0.008690688581118133 0 0.00043491857010132808 -0.0086829108448706338 0 -8.1292139285764787e-05 -0.0087356246263885096 0 0.00010818059436632841 -0.0086656216784164394 0 4.3777139377913478e-05 -0.0086299940441476996 0 0.0001777171721057852 -0.0086954272077092651 0 0.00032947737018011622 -0.0084999882642153267 0 0.0001777171721057852 -0.0086954272077092651 0 0.00048902623308415434 -0.0087014161311514161 0 0.00041839426132390652 -0.0088503442846669354 0 0.00054425155532760155 -0.0089634743672899822 0 0.00041839426132390652 -0.0088503442846669354 0 0.00066011497531871636 -0.008856371544867573 0 0.00048902623308415434 -0.0087014161311514161 0 0.00041839426132390652 -0.0088503442846669354 0 0.00066011497531871636 -0.008856371544867573 0 0.00054425155532760155 -0.0089634743672899822 0 0.00037492248015811691 -0.0089991023150940153 0 0.00041839426132390652 -0.0088503442846669354 0 0.00066011497531871636 -0.008856371544867573 0 0.00084779313764071003 -0.0089287209990880408 0 0.00078821420596961688 -0.0087002459727088949 0 0.00072654460986982118 -0.0089685253817166511 0 0.00054425155532760155 -0.0089634743672899822 0 0.00066011497531871636 -0.008856371544867573 0 0.00072654460986982118 -0.0089685253817166511 0 0.00066011497531871636 -0.008856371544867573 0 0.00084779313764071003 -0.0089287209990880408 0 0.00048902623308415434 -0.0087014161311514161 0 0.00066011497531871636 -0.008856371544867573 0 0.00078821420596961688 -0.0087002459727088949 0 0.00043491857010132808 -0.0086829108448706338 0 0.00085995266178251896 -0.0085737773478561201 0 0.00045296836904720078 -0.0086476962669129603 0 0.00061994079419436525 -0.0085153617299317703 0 0.00068119004345393753 -0.0086070995361415669 0 0.00061994079419436525 -0.0085153617299317703 0 0.00068119004345393753 -0.0086070995361415669 0 0.00067768476052082038 -0.0085415852875270655 0 0.00045296836904720078 -0.0086476962669129603 0 0.00057099504301532755 -0.0083977944861875764 0 0.00061994079419436525 -0.0085153617299317703 0 0.00057099504301532755 -0.0083977944861875764 0 0.00061994079419436525 -0.0085153617299317703 0 0.00075167211986782768 -0.0084759511989369093 0 3.7344160697316755e-05 -0.0087891117298513049 0 0.00041985699208955973 -0.0086436553489770123 0 -1.7429040238165636e-05 -0.0085748315347912597 0 3.7344160697316755e-05 -0.0087891117298513049 0 -0.00015464645305949691 -0.0086384513935327499 0 -0.00016071774374905304 -0.0087559442593153833 0 3.7344160697316755e-05 -0.0087891117298513049 0 -0.00015464645305949691 -0.0086384513935327499 0 -1.7429040238165636e-05 -0.0085748315347912597 0 0.00030697303125266039 -0.0085933209689011431 0 0.00010818059436632841 -0.0086656216784164394 0 0.00045296836904720078 -0.0086476962669129603 0 0.00057099504301532755 -0.0083977944861875764 0 0.00032947737018011622 -0.0084999882642153267 0 3.7344160697316755e-05 -0.0087891117298513049 0 -0.00012141397021289051 -0.0088286123430680544 0 -0.00016071774374905304 -0.0087559442593153833 0 -0.00017836969012834626 -0.008854553787612492 0 -0.00012141397021289051 -0.0088286123430680544 0 -0.00017080740808386128 -0.0088126592799647359 0 -0.00012141397021289051 -0.0088286123430680544 0 -0.00016071774374905304 -0.0087559442593153833 0 -0.00017080740808386128 -0.0088126592799647359 0 -0.00015464645305949691 -0.0086384513935327499 0 -0.00016071774374905304 -0.0087559442593153833 0 -0.00018231552460007614 -0.0087269362134253185 0 -0.00016071774374905304 -0.0087559442593153833 0 -0.00018231552460007614 -0.0087269362134253185 0 -0.00018274891312729092 -0.0087889477366995504 0 -0.00018485485096476957 -0.0087926316741428374 0 -0.00018231552460007614 -0.0087269362134253185 0 -0.00018274891312729092 -0.0087889477366995504 0 -0.00016071774374905304 -0.0087559442593153833 0 -0.00018274891312729092 -0.0087889477366995504 0 -0.00017080740808386128 -0.0088126592799647359 0 -0.00018274891312729092 -0.0087889477366995504 0 -0.00017080740808386128 -0.0088126592799647359 0 -0.00018499424659232909 -0.0088340843626638649 0 -0.00017836969012834626 -0.008854553787612492 0 -0.00017080740808386128 -0.0088126592799647359 0 -0.00018499424659232909 -0.0088340843626638649 0 0.0012083585542063751 -0.0084491020027490996 0 0.0012004990707365003 -0.0084638044110175812 0 0.0011752023189877559 -0.0084450936810825071 0 0.0010249225287553003 -0.0085392535329351441 0 0.0008501699783193021 -0.0085700802401902209 0 0.00091912312655822667 -0.0084022674345051347 0 0.0011130790974761015 -0.0084913660985380546 0 0.0010203919667843913 -0.0085054905072256288 0 0.0012218514773643329 -0.0084603623857918541 0 0.0012083585542063751 -0.0084491020027490996 0 0.001219331311362635 -0.0084613814061930137 0 0.0012084599128845328 -0.0084687486074740831 0 0.0011130790974761015 -0.0084913660985380546 0 0.0012218514773643329 -0.0084603623857918541 0 0.0010249225287553003 -0.0085392535329351441 0 0.0011382107291313284 -0.0083924925002194974 0 0.0012412539016093897 -0.0084552450687590212 0 0.0012228404530447814 -0.008474050364240128 0 0.001219331311362635 -0.0084613814061930137 0 0.0012078169061881714 -0.0084729145689743345 0 0.0012228404530447814 -0.008474050364240128 0 0.001219331311362635 -0.0084613814061930137 0 0.0012078169061881714 -0.0084729145689743345 0 0.0012004990707365003 -0.0084638044110175812 0 0.0011807974747495723 -0.0084743919719058227 0 0.0012078169061881714 -0.0084729145689743345 0 0.001219331311362635 -0.0084613814061930137 0 0.0012004990707365003 -0.0084638044110175812 0 0.0012083585542063751 -0.0084491020027490996 0 0.001219331311362635 -0.0084613814061930137 0 0.0012004990707365003 -0.0084638044110175812 0 0.0011807974747495723 -0.0084743919719058227 0 0.0011354763081508621 -0.0084478873199627207 0 0.0011752023189877559 -0.0084450936810825071 0 0.0012004990707365003 -0.0084638044110175812 0 0.0011807974747495723 -0.0084743919719058227 0 0.0011752023189877559 -0.0084450936810825071 0 0.0010781210940819352 -0.0089378032024270034 0 0.00084779313764071003 -0.0089287209990880408 0 0.00078821420596961688 -0.0087002459727088949 0 0.0011549540123210304 -0.0087390956104001528 0 0.00085995266178251896 -0.0085737773478561201 0 0.00072378483855641668 -0.0085445764223941074 0 0.0008501699783193021 -0.0085700802401902209 0 0.00075167211986782768 -0.0084759511989369093 0 0.00085995266178251896 -0.0085737773478561201 0 0.0010203919667843913 -0.0085054905072256288 0 0.00068119004345393753 -0.0086070995361415669 0 0.00072378483855641668 -0.0085445764223941074 0 0.0008501699783193021 -0.0085700802401902209 0 0.00072378483855641668 -0.0085445764223941074 0 0.00067768476052082038 -0.0085415852875270655 0 0.00075167211986782768 -0.0084759511989369093 0 0.00072378483855641668 -0.0085445764223941074 0 0.00067768476052082038 -0.0085415852875270655 0 0.00068910122534988525 -0.0085737968354077515 0 0.00068119004345393753 -0.0086070995361415669 0 0.00072378483855641668 -0.0085445764223941074 0 0.00068910122534988525 -0.0085737968354077515 0 0.00068119004345393753 -0.0086070995361415669 0 0.00067768476052082038 -0.0085415852875270655 0 0.00068910122534988525 -0.0085737968354077515 0 0.00075167211986782768 -0.0084759511989369093 0 0.00077211205798771981 -0.0083310925684643069 0 0.00091912312655822667 -0.0084022674345051347 0 0.0008501699783193021 -0.0085700802401902209 0 0.00075167211986782768 -0.0084759511989369093 0 0.00091912312655822667 -0.0084022674345051347 0 0.00057099504301532755 -0.0083977944861875764 0 0.00075167211986782768 -0.0084759511989369093 0 0.00077211205798771981 -0.0083310925684643069 0 0.00061994079419436525 -0.0085153617299317703 0 0.00067768476052082038 -0.0085415852875270655 0 0.00075167211986782768 -0.0084759511989369093 0 0.00030697303125266039 -0.0085933209689011431 0 0.00059423062141314821 -0.0084787882478835602 0 0.00059423062141314821 -0.0084787882478835602 0 0.00087084473636118976 -0.0083221429135863691 0 0.00077211205798771981 -0.0083310925684643069 0 0.00091912312655822667 -0.0084022674345051347 0 0.0008944733531207179 -0.0082982960298418739 0 0.00091912312655822667 -0.0084022674345051347 0 0.0010859791326966735 -0.0082587510471009429 0 0.0008944733531207179 -0.0082982960298418739 0 0.0010249225287553003 -0.0085392535329351441 0 0.00091912312655822667 -0.0084022674345051347 0 0.0011382107291313284 -0.0083924925002194974 0 0.00091912312655822667 -0.0084022674345051347 0 0.0011382107291313284 -0.0083924925002194974 0 0.0010859791326966735 -0.0082587510471009429 0 0.0012552036356611876 -0.0082730689900824099 0 0.0011382107291313284 -0.0083924925002194974 0 0.0010859791326966735 -0.0082587510471009429 0 0.0010859791326966735 -0.0082587510471009429 0 0.0009755653624943483 -0.0080609519850595914 0 0.0012590162256549613 -0.0080046245987433172 0 0.0009755653624943483 -0.0080609519850595914 0 0.0011093628397851804 -0.0078135576020185865 0 0.0012590162256549613 -0.0080046245987433172 0 0.0009755653624943483 -0.0080609519850595914 0 0.0011093628397851804 -0.0078135576020185865 0 0.00086006794160586192 -0.0078496967845118806 0 0.0009755653624943483 -0.0080609519850595914 0 0.00077302940322248855 -0.0080727909021276138 0 0.00086006794160586192 -0.0078496967845118806 0 0.0010859791326966735 -0.0082587510471009429 0 0.0009755653624943483 -0.0080609519850595914 0 0.0008944733531207179 -0.0082982960298418739 0 0.0009755653624943483 -0.0080609519850595914 0 0.0008944733531207179 -0.0082982960298418739 0 0.00077302940322248855 -0.0080727909021276138 0 0.00041985699208955973 -0.0086436553489770123 0 0.0008944733531207179 -0.0082982960298418739 0 0.0005722953834080449 -0.0082503765812969171 0 0.0008944733531207179 -0.0082982960298418739 0 0.0005722953834080449 -0.0082503765812969171 0 0.00077302940322248855 -0.0080727909021276138 0 0.00041985699208955973 -0.0086436553489770123 0 0.0005722953834080449 -0.0082503765812969171 0 0.00020682172044482534 -0.0083433551924247777 0 0.0005722953834080449 -0.0082503765812969171 0 0.00056809835554213399 -0.0079546989453584439 0 0.00020682172044482534 -0.0083433551924247777 0 0.00025089688477807954 -0.007961844997557985 0 0.00056809835554213399 -0.0079546989453584439 0 0.00020682172044482534 -0.0083433551924247777 0 0.00056809835554213399 -0.0079546989453584439 0 0.00077302940322248855 -0.0080727909021276138 0 0.00086006794160586192 -0.0078496967845118806 0 0.0005722953834080449 -0.0082503765812969171 0 0.00056809835554213399 -0.0079546989453584439 0 0.00077302940322248855 -0.0080727909021276138 0 0.00056809835554213399 -0.0079546989453584439 0 0.00072646804125114201 -0.0076348815273215376 0 0.00086006794160586192 -0.0078496967845118806 0 0.00056809835554213399 -0.0079546989453584439 0 0.00072646804125114201 -0.0076348815273215376 0 0.00048089106618055203 -0.007697602610157347 0 0.00072646804125114201 -0.0076348815273215376 0 0.00048089106618055203 -0.007697602610157347 0 0.0005062314430227642 -0.0074652317403255709 0 0.00025089688477807954 -0.007961844997557985 0 0.00056809835554213399 -0.0079546989453584439 0 0.00048089106618055203 -0.007697602610157347 0 0.00025089688477807954 -0.007961844997557985 0 0.00048089106618055203 -0.007697602610157347 0 0.00025437220598650292 -0.0076110584445692291 0 0.00025437220598650292 -0.0076110584445692291 0 0.00027794483704797192 -0.0073484570925945354 0 -2.3486267619764899e-05 -0.0074411981278719496 0 0.00025437220598650292 -0.0076110584445692291 0 0.00027794483704797192 -0.0073484570925945354 0 0.0005062314430227642 -0.0074652317403255709 0 0.00048089106618055203 -0.007697602610157347 0 0.00025437220598650292 -0.0076110584445692291 0 0.0005062314430227642 -0.0074652317403255709 0 0.00027794483704797192 -0.0073484570925945354 0 0.0005062314430227642 -0.0074652317403255709 0 0.000543067129012055 -0.0072085447038014666 0 0.00072646804125114201 -0.0076348815273215376 0 0.0005062314430227642 -0.0074652317403255709 0 0.00077672635813992065 -0.0073950726435856665 0 0.0005062314430227642 -0.0074652317403255709 0 0.00077672635813992065 -0.0073950726435856665 0 0.000543067129012055 -0.0072085447038014666 0 0.00077672635813992065 -0.0073950726435856665 0 0.0010671247425747534 -0.0073621834714966642 0 0.0009460948154911622 -0.0075925827105983177 0 0.00077672635813992065 -0.0073950726435856665 0 0.0010671247425747534 -0.0073621834714966642 0 0.00092936714177960884 -0.0072250673342026117 0 0.00072646804125114201 -0.0076348815273215376 0 0.00077672635813992065 -0.0073950726435856665 0 0.0009460948154911622 -0.0075925827105983177 0 0.0010671247425747534 -0.0073621834714966642 0 0.0011424234994420026 -0.0075441813470728848 0 0.001239880005749424 -0.0071231118574578041 0 0.0011834576870874438 -0.0075292945487345584 0 0.00081492550764268677 -0.0070863520687667854 0 0.0011424234994420026 -0.0075441813470728848 0 0.0010523370737854018 -0.0071914558527542537 0 0.0012543941047625715 -0.0073584414349187428 0 0.0010671247425747534 -0.0073621834714966642 0 0.0011424234994420026 -0.0075441813470728848 0 0.0009460948154911622 -0.0075925827105983177 0 0.0011424234994420026 -0.0075441813470728848 0 0.0011093628397851804 -0.0078135576020185865 0 0.0009460948154911622 -0.0075925827105983177 0 0.0011424234994420026 -0.0075441813470728848 0 0.0011093628397851804 -0.0078135576020185865 0 0.0012908384489320253 -0.0076346582116773214 0 0.0011093628397851804 -0.0078135576020185865 0 0.00086006794160586192 -0.0078496967845118806 0 0.0009460948154911622 -0.0075925827105983177 0 0.00072646804125114201 -0.0076348815273215376 0 0.00086006794160586192 -0.0078496967845118806 0 0.0009460948154911622 -0.0075925827105983177 0 -0.00015649742114389381 -0.0087314727840759956 0 -0.00018399565795563131 -0.0086304921058401717 0 -0.00019842021739307261 -0.0086743250333432154 0 -0.00017535415070645555 -0.0087692711918263451 0 -0.00015649742114389381 -0.0087314727840759956 0 -0.00018399565795563131 -0.0086304921058401717 0 -0.00017535415070645555 -0.0087692711918263451 0 -0.00018231552460007614 -0.0087269362134253185 0 -0.00018399565795563131 -0.0086304921058401717 0 -0.00015464645305949691 -0.0086384513935327499 0 -0.00018231552460007614 -0.0087269362134253185 0 -0.00018399565795563131 -0.0086304921058401717 0 -0.00015464645305949691 -0.0086384513935327499 0 -0.00018399565795563131 -0.0086304921058401717 0 -0.00019392935121760217 -0.0084124149522612473 0 -0.00018399565795563131 -0.0086304921058401717 0 -0.00019392935121760217 -0.0084124149522612473 0 -0.00019842021739307261 -0.0086743250333432154 0 -0.00019392935121760217 -0.0084124149522612473 0 2.5360236761964957e-05 -0.0081164724908525665 0 -0.00027100908064199033 -0.0077759081536644542 0 -0.00021936243916695206 -0.0084259042713641895 0 -0.00044221514012104317 -0.0083230840009489958 0 -0.00019392935121760217 -0.0084124149522612473 0 -0.00027100908064199033 -0.0077759081536644542 0 -0.00072634782361240009 -0.0079701830476486962 0 -0.00015464645305949691 -0.0086384513935327499 0 -0.00019392935121760217 -0.0084124149522612473 0 -1.7429040238165636e-05 -0.0085748315347912597 0 0.00041985699208955973 -0.0086436553489770123 0 0.00020682172044482534 -0.0083433551924247777 0 -1.7429040238165636e-05 -0.0085748315347912597 0 -0.00019392935121760217 -0.0084124149522612473 0 0.00020682172044482534 -0.0083433551924247777 0 -1.7429040238165636e-05 -0.0085748315347912597 0 0.00025089688477807954 -0.007961844997557985 0 0.00020682172044482534 -0.0083433551924247777 0 2.5360236761964957e-05 -0.0081164724908525665 0 -0.00019392935121760217 -0.0084124149522612473 0 0.00020682172044482534 -0.0083433551924247777 0 2.5360236761964957e-05 -0.0081164724908525665 0 0.00025089688477807954 -0.007961844997557985 0 0.00025437220598650292 -0.0076110584445692291 0 3.8228351330951765e-05 -0.0077906787136390954 0 0.00025089688477807954 -0.007961844997557985 0 2.5360236761964957e-05 -0.0081164724908525665 0 3.8228351330951765e-05 -0.0077906787136390954 0 2.5360236761964957e-05 -0.0081164724908525665 0 3.8228351330951765e-05 -0.0077906787136390954 0 -0.00027100908064199033 -0.0077759081536644542 0 3.8228351330951765e-05 -0.0077906787136390954 0 -2.3486267619764899e-05 -0.0074411981278719496 0 -0.00027100908064199033 -0.0077759081536644542 0 0.00025437220598650292 -0.0076110584445692291 0 3.8228351330951765e-05 -0.0077906787136390954 0 -2.3486267619764899e-05 -0.0074411981278719496 0 -2.3486267619764899e-05 -0.0074411981278719496 0 -5.3482077961198472e-05 -0.0070874853809901007 0 0.00010114965644510146 -0.0072413311808191211 0 0.00027794483704797192 -0.0073484570925945354 0 -2.3486267619764899e-05 -0.0074411981278719496 0 0.00010114965644510146 -0.0072413311808191211 0 -2.3486267619764899e-05 -0.0074411981278719496 0 -0.00037117217364011657 -0.0073065601626159044 0 -5.3482077961198472e-05 -0.0070874853809901007 0 -0.00037117217364011657 -0.0073065601626159044 0 -0.00027100908064199033 -0.0077759081536644542 0 -0.00070348464246256859 -0.0074891429263302632 0 -2.3486267619764899e-05 -0.0074411981278719496 0 -0.00037117217364011657 -0.0073065601626159044 0 -0.00027100908064199033 -0.0077759081536644542 0 -0.00027100908064199033 -0.0077759081536644542 0 -0.00072634782361240009 -0.0079701830476486962 0 -0.00070348464246256859 -0.0074891429263302632 0 -0.00072634782361240009 -0.0079701830476486962 0 -0.00070348464246256859 -0.0074891429263302632 0 -0.0011291675886791021 -0.0075918043081566111 0 -0.00037117217364011657 -0.0073065601626159044 0 -0.00070348464246256859 -0.0074891429263302632 0 -0.00066917361761178833 -0.0071510392778395965 0 -0.00070348464246256859 -0.0074891429263302632 0 -0.00094164948792869671 -0.0072485765523799999 0 -0.00066917361761178833 -0.0071510392778395965 0 -0.00070348464246256859 -0.0074891429263302632 0 -0.0011291675886791021 -0.0075918043081566111 0 -0.00094164948792869671 -0.0072485765523799999 0 -0.0011924937107160051 -0.007271524825421434 0 -0.0011291675886791021 -0.0075918043081566111 0 -0.00094164948792869671 -0.0072485765523799999 0 -0.00015649742114389381 -0.0087314727840759956 0 -0.00019842021739307261 -0.0086743250333432154 0 -0.00016926319943273872 -0.0087794649559406503 0 -0.00044221514012104317 -0.0083230840009489958 0 -0.00066307695131004665 -0.0081812192828678229 0 -0.00060471959566662191 -0.0073408573881798668 0 -0.0003643870027752409 -0.0070237028660454469 0 -0.0008874869538196482 -0.0067297802154722532 0 -0.0011114327162285488 -0.0067945962182421387 0 -0.00078910343459212258 -0.0064826573158569059 0 -9.3499871468597139e-06 -0.0079973940544434078 0 9.3746554253087429e-05 -0.0075569687759322402 0 -9.6309677377014389e-06 -0.0076886144682079575 0 -3.8982520000452325e-05 -0.0078768600984668626 0 -9.3499871468597139e-06 -0.0079973940544434078 0 -9.6309677377014389e-06 -0.0076886144682079575 0 -0.0008874869538196482 -0.0067297802154722532 0 -0.0011114327162285488 -0.0067945962182421387 0 -0.0010045160909726652 -0.0069274540352313591 0 -0.001512921651986001 -0.0072444746048285352 0 -0.0011924937107160051 -0.007271524825421434 0 -0.0010750813287396693 -0.0069798700555948343 0 -0.0013237293662955649 -0.0071315412005080658 0 -0.0011114327162285488 -0.0067945962182421387 0 -0.0010045160909726652 -0.0069274540352313591 0 -0.0011924937107160051 -0.007271524825421434 0 -0.00094164948792869671 -0.0072485765523799999 0 -0.0010750813287396693 -0.0069798700555948343 0 -0.00094164948792869671 -0.0072485765523799999 0 -0.0010750813287396693 -0.0069798700555948343 0 -0.0008486964447915066 -0.007071065070227609 0 -0.0008486964447915066 -0.007071065070227609 0 -0.00066917361761178833 -0.0071510392778395965 0 -0.00072277780290202229 -0.0069521509068933068 0 -0.0010750813287396693 -0.0069798700555948343 0 -0.0008486964447915066 -0.007071065070227609 0 -0.00072277780290202229 -0.0069521509068933068 0 -0.00094164948792869671 -0.0072485765523799999 0 -0.0008486964447915066 -0.007071065070227609 0 -0.00066917361761178833 -0.0071510392778395965 0 -0.00066917361761178833 -0.0071510392778395965 0 -0.00072277780290202229 -0.0069521509068933068 0 -0.00041635974484180557 -0.0069420267866948234 0 -0.00072277780290202229 -0.0069521509068933068 0 -0.00063791982897218661 -0.0067104842827314954 0 -0.00041635974484180557 -0.0069420267866948234 0 -0.0008874869538196482 -0.0067297802154722532 0 -0.0010045160909726652 -0.0069274540352313591 0 -0.00063791982897218661 -0.0067104842827314954 0 -0.0010750813287396693 -0.0069798700555948343 0 -0.00072277780290202229 -0.0069521509068933068 0 -0.00063791982897218661 -0.0067104842827314954 0 -0.0011092058029238555 -0.0069019541102235552 0 -0.00064736026031569005 -0.0067323379413875535 0 -0.0008874869538196482 -0.0067297802154722532 0 -0.00063791982897218661 -0.0067104842827314954 0 -0.00078910343459212258 -0.0064826573158569059 0 -0.00063791982897218661 -0.0067104842827314954 0 -0.00047698430222658128 -0.0064537324927451461 0 -0.00078910343459212258 -0.0064826573158569059 0 -0.00063791982897218661 -0.0067104842827314954 0 -0.00031811442349278564 -0.0066193328083311567 0 -0.00047698430222658128 -0.0064537324927451461 0 -0.00031811442349278564 -0.0066193328083311567 0 -0.00041635974484180557 -0.0069420267866948234 0 -0.00019066799986283876 -0.0068293827068737966 0 -0.00063791982897218661 -0.0067104842827314954 0 -0.00031811442349278564 -0.0066193328083311567 0 -0.00041635974484180557 -0.0069420267866948234 0 -0.00041635974484180557 -0.0069420267866948234 0 -5.3482077961198472e-05 -0.0070874853809901007 0 -0.00019066799986283876 -0.0068293827068737966 0 -0.00037117217364011657 -0.0073065601626159044 0 -0.00041635974484180557 -0.0069420267866948234 0 -5.3482077961198472e-05 -0.0070874853809901007 0 -0.00037117217364011657 -0.0073065601626159044 0 -0.00066917361761178833 -0.0071510392778395965 0 -0.00041635974484180557 -0.0069420267866948234 0 -5.3482077961198472e-05 -0.0070874853809901007 0 2.2666702250143056e-05 -0.0066712693524628979 0 0.00026103994454960603 -0.0069966435339824662 0 -5.3482077961198472e-05 -0.0070874853809901007 0 0.00010114965644510146 -0.0072413311808191211 0 0.00026103994454960603 -0.0069966435339824662 0 -5.3482077961198472e-05 -0.0070874853809901007 0 -0.00019066799986283876 -0.0068293827068737966 0 2.2666702250143056e-05 -0.0066712693524628979 0 -0.00031811442349278564 -0.0066193328083311567 0 -0.00019066799986283876 -0.0068293827068737966 0 2.2666702250143056e-05 -0.0066712693524628979 0 -0.00031811442349278564 -0.0066193328083311567 0 2.2666702250143056e-05 -0.0066712693524628979 0 -0.00023155574987127742 -0.0063773505507753545 0 2.2666702250143056e-05 -0.0066712693524628979 0 3.3727270020232198e-05 -0.0061473238163406753 0 -0.00023155574987127742 -0.0063773505507753545 0 3.3727270020232198e-05 -0.0061473238163406753 0 -0.00023155574987127742 -0.0063773505507753545 0 -0.00041253770437751474 -0.0061321355127085522 0 3.3727270020232198e-05 -0.0061473238163406753 0 -9.5832883132461106e-07 -0.0057976774401494631 0 1.0118046355465759e-06 -0.0056196601716877164 0 3.3727270020232198e-05 -0.0061473238163406753 0 -9.5832883132461106e-07 -0.0057976774401494631 0 -0.00041253770437751474 -0.0061321355127085522 0 -9.0384047502531369e-08 -0.0057995658491093805 0 -0.00019021554095768902 -0.006497714706326577 0 4.9999752819729654e-07 -0.005800067658167281 0 0.00012781880024699064 -0.0068280497406150338 0 3.1958529125433338e-08 -0.0066764497077335967 0 -0.00041253770437751474 -0.0061321355127085522 0 -0.00047698430222658128 -0.0064537324927451461 0 -0.00078910343459212258 -0.0064826573158569059 0 -0.00023155574987127742 -0.0063773505507753545 0 -0.00041253770437751474 -0.0061321355127085522 0 -0.00047698430222658128 -0.0064537324927451461 0 -0.00031811442349278564 -0.0066193328083311567 0 -0.00023155574987127742 -0.0063773505507753545 0 -0.00047698430222658128 -0.0064537324927451461 0 -0.00019021554095768902 -0.006497714706326577 0 -0.0003643870027752409 -0.0070237028660454469 0 0.00012781880024699064 -0.0068280497406150338 0 9.3746554253087429e-05 -0.0075569687759322402 0 -1.3704328397818848e-05 -0.0072822369868714744 0 0.00012781880024699064 -0.0068280497406150338 0 3.1958529125433338e-08 -0.0066764497077335967 0 -1.3704328397818848e-05 -0.0072822369868714744 0 -2.5716579888839322e-07 -0.0075536491489259453 0 3.1958529125433338e-08 -0.0066764497077335967 0 -1.3704328397818848e-05 -0.0072822369868714744 0 -4.0006355415263338e-05 -0.0076880426018902286 0 -2.5716579888839322e-07 -0.0075536491489259453 0 -1.3704328397818848e-05 -0.0072822369868714744 0 -4.0006355415263338e-05 -0.0076880426018902286 0 -1.3704328397818848e-05 -0.0072822369868714744 0 -9.6309677377014389e-06 -0.0076886144682079575 0 9.3746554253087429e-05 -0.0075569687759322402 0 -1.3704328397818848e-05 -0.0072822369868714744 0 -9.6309677377014389e-06 -0.0076886144682079575 0 -3.8982520000452325e-05 -0.0078768600984668626 0 -4.0006355415263338e-05 -0.0076880426018902286 0 -9.6309677377014389e-06 -0.0076886144682079575 0 0.00097762790506899979 -0.0069631476605756786 0 0.00078604992537113251 -0.006588789617889724 0 0.001239297884149948 -0.0064612742808387016 0 0.00065688729354991266 -0.0053954820208358244 0 0.00033867355244915224 -0.0064999388233054683 0 0.0011907279898163091 -0.0054559858508425024 0 0.00065688729354991266 -0.0053954820208358244 0 0.00033867355244915224 -0.0064999388233054683 0 0.00022291489995328187 -0.0051591968871350638 0 0.001239880005749424 -0.0071231118574578041 0 0.00097762790506899979 -0.0069631476605756786 0 0.001239297884149948 -0.0064612742808387016 0 0.00081492550764268677 -0.0070863520687667854 0 0.00057575511777833706 -0.0055775314848689975 0 0.00081492550764268677 -0.0070863520687667854 0 0.0008220687099554381 -0.0048540491471805421 0 0.0010671247425747534 -0.0073621834714966642 0 0.001239880005749424 -0.0071231118574578041 0 0.0010511559770139333 -0.0071745252645247781 0 0.0010511559770139333 -0.0071745252645247781 0 0.00097762790506899979 -0.0069631476605756786 0 0.00092936714177960884 -0.0072250673342026117 0 0.0010671247425747534 -0.0073621834714966642 0 0.0010511559770139333 -0.0071745252645247781 0 0.00092936714177960884 -0.0072250673342026117 0 0.001239880005749424 -0.0071231118574578041 0 0.0010511559770139333 -0.0071745252645247781 0 0.00097762790506899979 -0.0069631476605756786 0 0.00097762790506899979 -0.0069631476605756786 0 0.00092936714177960884 -0.0072250673342026117 0 0.0007595548040611915 -0.0071487444405210383 0 0.00077672635813992065 -0.0073950726435856665 0 0.00092936714177960884 -0.0072250673342026117 0 0.0007595548040611915 -0.0071487444405210383 0 0.000543067129012055 -0.0072085447038014666 0 0.00026103994454960603 -0.0069966435339824662 0 0.00060597448661698088 -0.006877990031666302 0 0.00097762790506899979 -0.0069631476605756786 0 0.0007595548040611915 -0.0071487444405210383 0 0.00060597448661698088 -0.006877990031666302 0 0.00077672635813992065 -0.0073950726435856665 0 0.0007595548040611915 -0.0071487444405210383 0 0.000543067129012055 -0.0072085447038014666 0 0.0007595548040611915 -0.0071487444405210383 0 0.000543067129012055 -0.0072085447038014666 0 0.00060597448661698088 -0.006877990031666302 0 0.00027794483704797192 -0.0073484570925945354 0 0.00010114965644510146 -0.0072413311808191211 0 0.00026103994454960603 -0.0069966435339824662 0 0.00027794483704797192 -0.0073484570925945354 0 0.000543067129012055 -0.0072085447038014666 0 0.00026103994454960603 -0.0069966435339824662 0 2.2666702250143056e-05 -0.0066712693524628979 0 0.00026103994454960603 -0.0069966435339824662 0 0.00038789025790689501 -0.0065213343492530867 0 0.00026103994454960603 -0.0069966435339824662 0 0.00060597448661698088 -0.006877990031666302 0 0.00038789025790689501 -0.0065213343492530867 0 0.00097762790506899979 -0.0069631476605756786 0 0.00078604992537113251 -0.006588789617889724 0 0.00060597448661698088 -0.006877990031666302 0 0.00078604992537113251 -0.006588789617889724 0 0.00060597448661698088 -0.006877990031666302 0 0.00038789025790689501 -0.0065213343492530867 0 0.00078604992537113251 -0.006588789617889724 0 0.00038789025790689501 -0.0065213343492530867 0 0.00070381272711791455 -0.0061011168344223187 0 2.2666702250143056e-05 -0.0066712693524628979 0 3.3727270020232198e-05 -0.0061473238163406753 0 0.00038789025790689501 -0.0065213343492530867 0 3.3727270020232198e-05 -0.0061473238163406753 0 0.00038789025790689501 -0.0065213343492530867 0 0.00070381272711791455 -0.0061011168344223187 0 -8.5913541757875874e-08 -0.0056177296016863025 0 0.00034918332577392041 -0.005528177572788672 0 3.3727270020232198e-05 -0.0061473238163406753 0 1.0118046355465759e-06 -0.0056196601716877164 0 0.00070381272711791455 -0.0061011168344223187 0 -4.9335485122083266e-08 -0.0056166585320991634 0 6.378965294183245e-08 -0.0048322682896049379 0 1.875848313752277e-06 -0.0048844806296342667 0 -6.2794868917366386e-09 -0.0048296381601289325 0 7.946304370202955e-07 -0.0041319421515681812 0 7.8292421950004919e-09 -0.0041665680161833297 0 -1.0738970136611407e-07 -0.0048308744930095592 0 0.0001109837725895597 -0.0044300745472533581 0 6.378965294183245e-08 -0.0048322682896049379 0 1.875848313752277e-06 -0.0048844806296342667 0 0.00011985784573339075 -0.0048948899898045087 0 0.00078604992537113251 -0.006588789617889724 0 0.00070381272711791455 -0.0061011168344223187 0 0.001239297884149948 -0.0064612742808387016 0 1.875848313752277e-06 -0.0048844806296342667 0 0.00012766265192719814 -0.0049627704476455144 0 0.00011985784573339075 -0.0048948899898045087 0 0.00034918332577392041 -0.005528177572788672 0 0.00057575511777833706 -0.0055775314848689975 0 0.0001109837725895597 -0.0044300745472533581 0 0.0005041078712078596 -0.004091216083992529 0 0.00065688729354991266 -0.0053954820208358244 0 0.00021960427588489485 -0.0051552642382559268 0 0.0011088789510445385 -0.0051646761325057468 0 0.00021960427588489485 -0.0051552642382559268 0 0.00016768655547930232 -0.0045539310967400029 0 0.0011088789510445385 -0.0051646761325057468 0 0.00045830111749989993 -0.0053706653638054659 0 0.00057575511777833706 -0.0055775314848689975 0 0.00057575511777833706 -0.0055775314848689975 0 0.0001109837725895597 -0.0044300745472533581 0 -8.2869090153004293e-05 -0.0040073459754176284 0 3.0464846977625151e-08 -0.0037725051225757636 0 0.00015979767015166782 -0.004162570620324514 0 0.0001109837725895597 -0.0044300745472533581 0 -2.6830633133080558e-08 -0.0041649275828479979 0 -8.2869090153004293e-05 -0.0040073459754176284 0 -2.2813164758571165e-08 -0.0041636971233028593 0 3.0464846977625151e-08 -0.0037725051225757636 0 -4.0202313607567305e-08 -0.003768869133113736 0 -4.5595381970459277e-05 -0.0033522028024234804 0 7.1466936627330555e-05 -0.0033000541178833756 0 -4.0202313607567305e-08 -0.003768869133113736 0 5.388140696509033e-08 -0.003235405511032774 0 -4.5595381970459277e-05 -0.0033522028024234804 0 -3.5170181215149392e-07 -0.0037702317284957539 0 0.0005041078712078596 -0.004091216083992529 0 5.388140696509033e-08 -0.003235405511032774 0 -4.5595381970459277e-05 -0.0033522028024234804 0 4.9660875303671567e-05 -0.0032722494995154339 0 9.4509736745119625e-11 -0.003232774889359376 0 1.0032766696315352e-09 -0.0026365395232861885 0 2.1120722657969431e-07 -0.0027730221139016433 0 -1.4381119724793106e-07 -0.0032330744222492961 0 0.00015090226123352251 -0.0029479758675468584 0 0.00033876248201158185 -0.003227283265928727 0 0.00015090226123352251 -0.0029479758675468584 0 0.00066373233652799839 -0.003147422841016705 0 0.00063298419884737916 -0.0030519100773323993 0 0.00055840073941706785 -0.0031054861459872663 0 0.00066373233652799839 -0.003147422841016705 0 0.00059864470274618845 -0.0032488420580516161 0 0.00055840073941706785 -0.0031054861459872663 0 0.00033876248201158185 -0.003227283265928727 0 0.00061846961801228302 -0.0037670880548596763 0 0.00066373233652799839 -0.003147422841016705 0 0.00063298419884737916 -0.0030519100773323993 0 0.00073898174358971985 -0.0030491372911654298 0 -4.5595381970459277e-05 -0.0033522028024234804 0 4.0222569859820887e-05 -0.0032789418258473558 0 7.1466936627330555e-05 -0.0033000541178833756 0 0.00061846961801228302 -0.0037670880548596763 0 0.0005041078712078596 -0.004091216083992529 0 0.0005041078712078596 -0.004091216083992529 0 0.0008220687099554381 -0.0048540491471805421 0 0.00070247573543995561 -0.0041256294565560894 0 0.00068316698872953555 -0.0041127833857178197 0 0.00069064532321514707 -0.0041410722106901684 0 -2.8709287509860685e-09 -0.0021931121350620272 0 -2.2065788447004591e-06 -0.001710676700668722 0 4.2515174800106079e-09 -0.0017435136857503403 0 2.4136216537660572e-05 -0.002244303665431139 0 -3.8483336630425555e-08 -0.0021952488389943379 0 4.683082648296358e-05 -0.0022228463660590152 0 2.3823120916593729e-05 -0.0022463022106898405 0 -3.8483336630425555e-08 -0.0021952488389943379 0 -2.318593036144181e-05 -0.0025763101485769824 0 -8.3250600026241293e-08 -0.0021935717608188468 0 1.9951932368548428e-05 -0.0020058915643638522 0 2.4136216537660572e-05 -0.002244303665431139 0 2.3823120916593729e-05 -0.0022463022106898405 0 -3.8483336630425555e-08 -0.0021952488389943379 0 -3.8483336630425555e-08 -0.0021952488389943379 0 4.2044786389617323e-08 -0.0026345372777905008 0 -2.318593036144181e-05 -0.0025763101485769824 0 0.00039766634964041257 -0.0032103901256530778 0 0.00059864470274618845 -0.0032488420580516161 0 0.00055840073941706785 -0.0031054861459872663 0 0.00021300213494538709 -0.0027283913134711138 0 0.00015090226123352251 -0.0029479758675468584 0 2.3044789777413578e-07 -0.0026363486058643116 0 0.00015090226123352251 -0.0029479758675468584 0 0.00039766634964041257 -0.0032103901256530778 0 0.00055840073941706785 -0.0031054861459872663 0 0.00036558631911261149 -0.0029805622701780999 0 0.00036558631911261149 -0.0029805622701780999 0 0.00059050302147047062 -0.0029849924346873531 0 0.00063342952140053995 -0.0029007493794834241 0 0.00055840073941706785 -0.0031054861459872663 0 0.00036558631911261149 -0.0029805622701780999 0 0.00059050302147047062 -0.0029849924346873531 0 0.00059050302147047062 -0.0029849924346873531 0 0.00063342952140053995 -0.0029007493794834241 0 0.00062235410886571797 -0.0029799533302186068 0 0.00063298419884737916 -0.0030519100773323993 0 0.00055840073941706785 -0.0031054861459872663 0 0.00059050302147047062 -0.0029849924346873531 0 0.00036558631911261149 -0.0029805622701780999 0 0.00063342952140053995 -0.0029007493794834241 0 0.00036008850772129025 -0.0026376362981957316 0 0.00065688729354991266 -0.0053954820208358244 0 0.0011088789510445385 -0.0051646761325057468 0 0.0011907279898163091 -0.0054559858508425024 0 0.00059837223291991297 -0.0029808923577085175 0 0.0005936857604320287 -0.0029857602133002096 0 0.00062235410886571797 -0.0029799533302186068 0 0.00061846961801228302 -0.0037670880548596763 0 0.0008220687099554381 -0.0048540491471805421 0 0.00063298419884737916 -0.0030519100773323993 0 0.00073898174358971985 -0.0030491372911654298 0 0.00062235410886571797 -0.0029799533302186068 0 0.0005936857604320287 -0.0029857602133002096 0 0.00062235410886571797 -0.0029799533302186068 0 0.00053696434075910411 -0.0030201081515473563 0 0.00061846961801228302 -0.0037670880548596763 0 0.00050729734807933736 -0.00298181347415116 0 0.00063298419884737916 -0.0030519100773323993 0 0.00059050302147047062 -0.0029849924346873531 0 0.00062235410886571797 -0.0029799533302186068 0 0.00063342952140053995 -0.0029007493794834241 0 0.00053696434075910411 -0.0030201081515473563 0 0.00062520471451560432 -0.0031051179904629991 0 0.00063342952140053995 -0.0029007493794834241 0 0.00062235410886571797 -0.0029799533302186068 0 0.00053696434075910411 -0.0030201081515473563 0 0.001359381246375718 -0.0067741860482709955 0 0.0014833927512108763 -0.0072856519614573935 0 0.0012543941047625715 -0.0073584414349187428 0 0.0008220687099554381 -0.0048540491471805421 0 0.0010293736978857885 -0.0051714436260729135 0 0.0010523370737854018 -0.0071914558527542537 0 0.001359381246375718 -0.0067741860482709955 0 0.0012543941047625715 -0.0073584414349187428 0 0.0014833927512108763 -0.0072856519614573935 0 0.0012908384489320253 -0.0076346582116773214 0 0.001515964943149328 -0.007729350559412233 0 0.0014833927512108763 -0.0072856519614573935 0 0.0012543941047625715 -0.0073584414349187428 0 0.0012908384489320253 -0.0076346582116773214 0 0.0011424234994420026 -0.0075441813470728848 0 0.0012543941047625715 -0.0073584414349187428 0 0.0012908384489320253 -0.0076346582116773214 0 0.0012908384489320253 -0.0076346582116773214 0 0.001515964943149328 -0.007729350559412233 0 0.0012590162256549613 -0.0080046245987433172 0 0.0010293736978857885 -0.0051714436260729135 0 0.0010048620393703473 -0.005549327665950462 0 0.00053696434075910411 -0.0030201081515473563 0 0.00050661212171515307 -0.0033955199428153861 0 0.00062520471451560432 -0.0031051179904629991 0 0.00063342952140053995 -0.0029007493794834241 0 0.00062520471451560432 -0.0031051179904629991 0 0.0008157830451217755 -0.0032264550641305343 0 0.00065200935363126072 -0.0029078613158251172 0 0.00070101841821995788 -0.0028470511070622265 0 0.00063342952140053995 -0.0029007493794834241 0 0.00036008850772129025 -0.0026376362981957316 0 0.00060439529307211126 -0.0024824979281068277 0 0.00036008850772129025 -0.0026376362981957316 0 0.00038490925958574934 -0.0023527558252427624 0 0.00060439529307211126 -0.0024824979281068277 0 0.00038490925958574934 -0.0023527558252427624 0 0.00060439529307211126 -0.0024824979281068277 0 0.00054071196096193278 -0.002175445337329798 0 0.00050661212171515307 -0.0033955199428153861 0 0.0008157830451217755 -0.0032264550641305343 0 0.00073022540043048265 -0.0035041055143240733 0 0.00050661212171515307 -0.0033955199428153861 0 0.00062520471451560432 -0.0031051179904629991 0 0.0008157830451217755 -0.0032264550641305343 0 0.00070101841821995788 -0.0028470511070622265 0 0.00074305677872826251 -0.0030161369298312068 0 0.0008157830451217755 -0.0032264550641305343 0 0.00073022540043048265 -0.0035041055143240733 0 0.0009305008706844782 -0.0036976445887239593 0 0.00050661212171515307 -0.0033955199428153861 0 0.00073022540043048265 -0.0035041055143240733 0 0.00073254739933302396 -0.003796738963568668 0 0.00073022540043048265 -0.0035041055143240733 0 0.0009305008706844782 -0.0036976445887239593 0 0.00073254739933302396 -0.003796738963568668 0 0.00038490925958574934 -0.0023527558252427624 0 0.00054071196096193278 -0.002175445337329798 0 0.00031997040268488483 -0.0021437411186173289 0 0.00073900825767387571 -0.0027291226397562311 0 0.00035652001106987167 -0.0018965130804045893 0 0.00062501949875461409 -0.0016463825737810997 0 0.00033055230014755261 -0.0017429178875140619 0 0.00036573035150292826 -0.0020023066445557952 0 0.0005030505280063189 -0.0019197341859402875 0 0.00054071196096193278 -0.002175445337329798 0 0.00031997040268488483 -0.0021437411186173289 0 0.00073900825767387571 -0.0027291226397562311 0 0.00074305677872826251 -0.0030161369298312068 0 0.00093854605801709206 -0.0053466104168742815 0 0.00059109021235459859 -0.0039684788914128525 0 0.00067180052488888654 -0.0040143433470198123 0 0.0008768891391052803 -0.0039901748219286683 0 0.0008384715471415966 -0.0042558961225136306 0 0.0010140856169671777 -0.0042434689853931623 0 0.00073254739933302396 -0.003796738963568668 0 0.00067180052488888654 -0.0040143433470198123 0 0.0010140856169671777 -0.0042434689853931623 0 0.0009305008706844782 -0.0036976445887239593 0 0.00073254739933302396 -0.003796738963568668 0 0.00073254739933302396 -0.003796738963568668 0 0.00059109021235459859 -0.0039684788914128525 0 0.00067180052488888654 -0.0040143433470198123 0 0.0012552036356611876 -0.0082730689900824099 0 0.0010859791326966735 -0.0082587510471009429 0 0.0012590162256549613 -0.0080046245987433172 0 0.0012552036356611876 -0.0082730689900824099 0 0.0015006567126304101 -0.0080741518806836231 0 0.0012590162256549613 -0.0080046245987433172 0 0.0011093628397851804 -0.0078135576020185865 0 0.0012908384489320253 -0.0076346582116773214 0 0.0012590162256549613 -0.0080046245987433172 0 0.00050661212171515307 -0.0033955199428153861 0 0.00073254739933302396 -0.003796738963568668 0 0.00059109021235459859 -0.0039684788914128525 0 0.0010048620393703473 -0.005549327665950462 0 0.0010770025457241864 -0.0060649121331500799 0 0.001515964943149328 -0.007729350559412233 0 0.0015006567126304101 -0.0080741518806836231 0 0.0012590162256549613 -0.0080046245987433172 0 -0.00037121225187338293 -0.0017340510593143765 0 -0.00024907792736460937 -0.0022303083177797741 0 -0.00063526578707691177 -0.0020787736106601755 0 -0.00037121225187338293 -0.0017340510593143765 0 4.0950779572801311e-05 -0.0018706226112593883 0 -0.00024907792736460937 -0.0022303083177797741 0 -0.00099362140036190452 -0.00040456638450600394 0 -0.001082604997373178 -0.0005003526643319225 0 4.0950779572801311e-05 -0.0018706226112593883 0 0.00033055230014755261 -0.0017429178875140619 0 0.00036573035150292826 -0.0020023066445557952 0 0.00019739829655873259 -0.0016112055949628313 0 4.0950779572801311e-05 -0.0018706226112593883 0 0.00033055230014755261 -0.0017429178875140619 0 0.00035652001106987167 -0.0018965130804045893 0 9.5507921780779316e-05 -0.0024253435175001464 0 4.0950779572801311e-05 -0.0018706226112593883 0 0.0001029982045813546 -0.0023691388824190777 0 -0.00024907792736460937 -0.0022303083177797741 0 4.0950779572801311e-05 -0.0018706226112593883 0 0.00036573035150292826 -0.0020023066445557952 0 0.0001029982045813546 -0.0023691388824190777 0 0.00036008850772129025 -0.0026376362981957316 0 0.00038490925958574934 -0.0023527558252427624 0 0.0001029982045813546 -0.0023691388824190777 0 0.00038490925958574934 -0.0023527558252427624 0 0.00031997040268488483 -0.0021437411186173289 0 0.0001029982045813546 -0.0023691388824190777 0 0.00036008850772129025 -0.0026376362981957316 0 0.0001029982045813546 -0.0023691388824190777 0 9.2110347746572786e-05 -0.0027231857919905139 0 0.0001029982045813546 -0.0023691388824190777 0 -8.1765001142520446e-05 -0.0025437487235396711 0 9.2110347746572786e-05 -0.0027231857919905139 0 -8.1765001142520446e-05 -0.0025437487235396711 0 -0.00024907792736460937 -0.0022303083177797741 0 -0.00031981742902163079 -0.002563248584460563 0 0.0001029982045813546 -0.0023691388824190777 0 -8.1765001142520446e-05 -0.0025437487235396711 0 -0.00024907792736460937 -0.0022303083177797741 0 -0.00024907792736460937 -0.0022303083177797741 0 -0.00044584700332339297 -0.0023915873962560329 0 -0.00063526578707691177 -0.0020787736106601755 0 -0.00024907792736460937 -0.0022303083177797741 0 -0.00044584700332339297 -0.0023915873962560329 0 -0.00031981742902163079 -0.002563248584460563 0 -0.00044584700332339297 -0.0023915873962560329 0 -0.00031981742902163079 -0.002563248584460563 0 -0.00054054973166193219 -0.0025824543911246978 0 -0.00031981742902163079 -0.002563248584460563 0 -0.00045053422467335045 -0.0028736042972089698 0 -0.00054054973166193219 -0.0025824543911246978 0 -0.00031981742902163079 -0.002563248584460563 0 -0.00016464845708587022 -0.0027847644425047012 0 -0.00045053422467335045 -0.0028736042972089698 0 -8.1765001142520446e-05 -0.0025437487235396711 0 -0.00031981742902163079 -0.002563248584460563 0 -0.00016464845708587022 -0.0027847644425047012 0 -0.00016464845708587022 -0.0027847644425047012 0 -0.00022954275606113368 -0.0030523261819600002 0 6.1111695693160772e-06 -0.0029462845225334362 0 -0.00024565973893596039 -0.0019900362821552112 0 -0.00043729146661279069 -0.0019213651546677072 0 -0.00041605053173222526 -0.0018555320137779194 0 -0.00014878784590671547 -0.0020834105892025986 0 -0.00040035561879871699 -0.0014066600065279792 0 -9.8078792891635071e-05 -0.0010013614797399117 0 -0.00033983835543010101 -0.00090524425902362377 0 -0.00025917594170934467 -0.0010443346460967614 0 -0.00014878784590671547 -0.0020834105892025986 0 -0.00042531242684113851 -0.0023760122946633578 0 -0.00016464845708587022 -0.0027847644425047012 0 -0.00022954275606113368 -0.0030523261819600002 0 -0.00045053422467335045 -0.0028736042972089698 0 0.00036558631911261149 -0.0029805622701780999 0 0.00036008850772129025 -0.0026376362981957316 0 9.2110347746572786e-05 -0.0027231857919905139 0 -8.1765001142520446e-05 -0.0025437487235396711 0 -0.00016464845708587022 -0.0027847644425047012 0 9.2110347746572786e-05 -0.0027231857919905139 0 -0.00016464845708587022 -0.0027847644425047012 0 9.2110347746572786e-05 -0.0027231857919905139 0 6.1111695693160772e-06 -0.0029462845225334362 0 -0.00022954275606113368 -0.0030523261819600002 0 6.1111695693160772e-06 -0.0029462845225334362 0 0.00011764516609377978 -0.0031556021472084242 0 0.00036558631911261149 -0.0029805622701780999 0 9.2110347746572786e-05 -0.0027231857919905139 0 6.1111695693160772e-06 -0.0029462845225334362 0 0.00036558631911261149 -0.0029805622701780999 0 6.1111695693160772e-06 -0.0029462845225334362 0 0.00011764516609377978 -0.0031556021472084242 0 2.4136216537660572e-05 -0.002244303665431139 0 4.0960930834960285e-06 -0.0022312142693553302 0 -3.6618333883901614e-06 -0.0022359999984804019 0 0.00039766634964041257 -0.0032103901256530778 0 0.00036558631911261149 -0.0029805622701780999 0 0.00011764516609377978 -0.0031556021472084242 0 0.00021300213494538709 -0.0027283913134711138 0 7.7732199424452667e-05 -0.0027605967819309164 0 2.4136216537660572e-05 -0.002244303665431139 0 2.3823120916593729e-05 -0.0022463022106898405 0 4.0960930834960285e-06 -0.0022312142693553302 0 -3.0347237076097234e-05 -0.0022138141427791641 0 4.0960930834960285e-06 -0.0022312142693553302 0 -3.6618333883901614e-06 -0.0022359999984804019 0 1.6661151051791763e-05 -0.0012144052736653666 0 -0.00013513325839028509 -0.0011929868268392961 0 0.00013698055200913036 -0.0013122888699766699 0 -0.00012498339994210391 -0.00086047230086724272 0 6.2829889625285903e-06 -0.001475269819745387 0 5.5626723886112218e-05 -0.00158030162683356 0 6.2829889625285903e-06 -0.001475269819745387 0 5.5626723886112218e-05 -0.00158030162683356 0 -0.00012498339994210391 -0.00086047230086724272 0 4.7017444918552074e-05 -0.00088399493303483703 0 3.6268354903032725e-07 -0.0017420597230417764 0 -1.0107507754575276e-07 -0.0008711094492936135 0 9.5574382235450848e-06 -0.00065160344002811242 0 4.7017444918552074e-05 -0.00088399493303483703 0 -1.0107507754575276e-07 -0.0008711094492936135 0 2.4136216537660572e-05 -0.002244303665431139 0 7.9821742482465179e-05 -0.0022255954273458283 0 4.683082648296358e-05 -0.0022228463660590152 0 6.2829889625285903e-06 -0.001475269819745387 0 -1.9453979661328263e-07 -0.0017424690965976513 0 3.1521375207779016e-05 -0.00243025160394568 0 5.5626723886112218e-05 -0.00158030162683356 0 2.4136216537660572e-05 -0.002244303665431139 0 8.8525915206284588e-05 -0.0022285896165927122 0 7.9821742482465179e-05 -0.0022255954273458283 0 6.2829889625285903e-06 -0.001475269819745387 0 1.9951932368548428e-05 -0.0020058915643638522 0 -7.0541032527099599e-05 -0.0016759858377863974 0 -2.2065788447004591e-06 -0.001710676700668722 0 4.2515174800106079e-09 -0.0017435136857503403 0 -0.00014878784590671547 -0.0020834105892025986 0 5.5626723886112218e-05 -0.00158030162683356 0 -0.00014878784590671547 -0.0020834105892025986 0 7.7732199424452667e-05 -0.0027605967819309164 0 -9.8078792891635071e-05 -0.0010013614797399117 0 8.1367736866694109e-05 -0.0011997639815125129 0 -0.00025917594170934467 -0.0010443346460967614 0 -9.8078792891635071e-05 -0.0010013614797399117 0 0.0001539079320175922 -0.0012109963114948869 0 8.1367736866694109e-05 -0.0011997639815125129 0 -0.00028627244311312466 -8.959395844623561e-06 0 -0.000163074356498991 -4.8663742701690179e-05 0 -0.00016454792078021271 -4.3316266452790162e-06 0 -0.00012498339994210391 -0.00086047230086724272 0 -0.00022557216869428798 -0.00062791698939613778 0 9.5574382235450848e-06 -0.00065160344002811242 0 -7.9145358922674705e-05 -0.00020729730344242373 0 -4.6410776377127556e-05 -0.00048740733965228533 0 -0.00012498339994210391 -0.00086047230086724272 0 -0.00014902433329345942 -6.0163583048114244e-05 0 9.5574382235450848e-06 -0.00065160344002811242 0 -4.6410776377127556e-05 -0.00048740733965228533 0 -1.0107507754575276e-07 -0.0008711094492936135 0 -4.6410776377127556e-05 -0.00048740733965228533 0 -1.0107507754575276e-07 -0.0008711094492936135 0 -3.7808503170935446e-07 7.40169778323099e-07 0 -4.6410776377127556e-05 -0.00048740733965228533 0 -4.7515991846762506e-05 -0.00019229222612961289 0 -3.7808503170935446e-07 7.40169778323099e-07 0 -7.9145358922674705e-05 -0.00020729730344242373 0 -4.6410776377127556e-05 -0.00048740733965228533 0 -4.7515991846762506e-05 -0.00019229222612961289 0 -4.7515991846762506e-05 -0.00019229222612961289 0 -3.7808503170935446e-07 7.40169778323099e-07 0 -4.3517938276064358e-05 -3.0894005067370269e-05 0 -7.9145358922674705e-05 -0.00020729730344242373 0 -4.7515991846762506e-05 -0.00019229222612961289 0 -4.3517938276064358e-05 -3.0894005067370269e-05 0 -3.7808503170935446e-07 7.40169778323099e-07 0 -2.2069980844360019e-05 0.00019412060084898894 0 5.9843181555305413e-07 0.00087115276221374344 0 -3.7808503170935446e-07 7.40169778323099e-07 0 -2.2069980844360019e-05 0.00019412060084898894 0 -4.3517938276064358e-05 -3.0894005067370269e-05 0 -0.000163074356498991 -4.8663742701690179e-05 0 2.3356403973042722e-05 1.479431834824777e-06 0 2.8551910910263568e-05 -0.00013837145881340085 0 -0.000163074356498991 -4.8663742701690179e-05 0 -0.00016454792078021271 -4.3316266452790162e-06 0 2.3356403973042722e-05 1.479431834824777e-06 0 -0.00014902433329345942 -6.0163583048114244e-05 0 1.0271963669831569e-05 -3.1129465044953548e-05 0 -7.9145358922674705e-05 -0.00020729730344242373 0 -4.3517938276064358e-05 -3.0894005067370269e-05 0 2.3356403973042722e-05 1.479431834824777e-06 0 -2.2069980844360019e-05 0.00019412060084898894 0 -4.3517938276064358e-05 -3.0894005067370269e-05 0 2.3356403973042722e-05 1.479431834824777e-06 0 2.3356403973042722e-05 1.479431834824777e-06 0 0.00012202388483245911 6.5454014946829812e-05 0 2.8551910910263568e-05 -0.00013837145881340085 0 0.00011689186383399021 0.00076004602400441478 0 -7.0067228739466067e-05 0.00041402897936190948 0 0.00013729505358615933 0.0013638702929795346 0 2.1988413177270911e-05 0.0014491243895038493 0 0.00010854547329419278 0.001488959037390923 0 -2.2069980844360019e-05 0.00019412060084898894 0 2.3356403973042722e-05 1.479431834824777e-06 0 0.00012202388483245911 6.5454014946829812e-05 0 0.00013729505358615933 0.0013638702929795346 0 4.2241916105009064e-07 0.0008734196552840157 0 -6.0027120841004574e-05 0.0013940452499612383 0 0.00011689186383399021 0.00076004602400441478 0 3.4348365307217505e-08 0.00087215038794446662 0 -2.2069980844360019e-05 0.00019412060084898894 0 0.00012202388483245911 6.5454014946829812e-05 0 5.9843181555305413e-07 0.00087115276221374344 0 4.2241916105009064e-07 0.0008734196552840157 0 -4.4017648520601093e-07 0.0015041065279977374 0 -6.0027120841004574e-05 0.0013940452499612383 0 -4.4017648520601093e-07 0.0015041065279977374 0 -5.9716425334723404e-05 0.0015310057008968516 0 -6.0027120841004574e-05 0.0013940452499612383 0 -4.4017648520601093e-07 0.0015041065279977374 0 -5.9716425334723404e-05 0.0015310057008968516 0 4.4705015760892554e-07 0.002134832057766301 0 -5.9716425334723404e-05 0.0015310057008968516 0 -2.0059806497754426e-05 0.0014758097087221905 0 9.0151340947041065e-05 0.0015465859880262312 0 -5.9716425334723404e-05 0.0015310057008968516 0 -3.6982943622121582e-05 0.0014626044942173833 0 -2.0059806497754426e-05 0.0014758097087221905 0 -5.9716425334723404e-05 0.0015310057008968516 0 -6.0027120841004574e-05 0.0013940452499612383 0 -3.6982943622121582e-05 0.0014626044942173833 0 0.00013729505358615933 0.0013638702929795346 0 -6.0027120841004574e-05 0.0013940452499612383 0 2.1988413177270911e-05 0.0014491243895038493 0 -6.0027120841004574e-05 0.0013940452499612383 0 2.1988413177270911e-05 0.0014491243895038493 0 -3.6982943622121582e-05 0.0014626044942173833 0 2.1988413177270911e-05 0.0014491243895038493 0 -3.6982943622121582e-05 0.0014626044942173833 0 -3.9126651429462042e-06 0.0014711528820897182 0 -3.9126651429462042e-06 0.0014711528820897182 0 -1.9164756477089305e-05 0.0014728697819232637 0 0.00010854547329419278 0.001488959037390923 0 -3.6982943622121582e-05 0.0014626044942173833 0 -3.9126651429462042e-06 0.0014711528820897182 0 -2.4277163357291969e-05 0.0014716926538203359 0 -3.9126651429462042e-06 0.0014711528820897182 0 -2.0282042395160475e-05 0.0014732523538863709 0 -1.9164756477089305e-05 0.0014728697819232637 0 -3.9126651429462042e-06 0.0014711528820897182 0 -2.4277163357291969e-05 0.0014716926538203359 0 -2.0282042395160475e-05 0.0014732523538863709 0 -3.6982943622121582e-05 0.0014626044942173833 0 -2.0059806497754426e-05 0.0014758097087221905 0 -2.4277163357291969e-05 0.0014716926538203359 0 -2.4277163357291969e-05 0.0014716926538203359 0 -9.3376542603148134e-06 0.0014722419078418334 0 -2.046965841814148e-05 0.001472513790202936 0 -2.4277163357291969e-05 0.0014716926538203359 0 -2.0282042395160475e-05 0.0014732523538863709 0 -2.046965841814148e-05 0.001472513790202936 0 -2.0059806497754426e-05 0.0014758097087221905 0 -2.4277163357291969e-05 0.0014716926538203359 0 -9.3376542603148134e-06 0.0014722419078418334 0 -2.0059806497754426e-05 0.0014758097087221905 0 -9.3376542603148134e-06 0.0014722419078418334 0 1.6981569684086839e-05 0.0014753465267358095 0 -0.00071716778640704994 -0.00021701937222741839 0 -0.00031402068738765616 0.0037492506089583091 0 -2.3655950309722085e-05 0.0014715904430374991 0 -2.6482924538109351e-05 0.00146818870272352 0 -4.3959437097977557e-06 0.0014763391751063074 0 -9.3376542603148134e-06 0.0014722419078418334 0 -2.3655950309722085e-05 0.0014715904430374991 0 -4.3959437097977557e-06 0.0014763391751063074 0 -9.3376542603148134e-06 0.0014722419078418334 0 -2.046965841814148e-05 0.001472513790202936 0 -2.3655950309722085e-05 0.0014715904430374991 0 -2.0282042395160475e-05 0.0014732523538863709 0 -2.046965841814148e-05 0.001472513790202936 0 -2.3655950309722085e-05 0.0014715904430374991 0 -0.00037195434849106139 0.00026655695700803043 0 -0.00071716778640704994 -0.00021701937222741839 0 -0.00097856288233535006 -0.0025595407540141414 0 -0.00082334857201846624 -0.0025406186225911008 0 -0.00085008069354422381 -0.0026129947224375798 0 -0.00071716778640704994 -0.00021701937222741839 0 -0.00034994194397681879 -0.00061034763203294824 0 -2.6864968380615915e-05 0.0014811517202928074 0 -1.9164756477089305e-05 0.0014728697819232637 0 1.0242040972930987e-05 0.0014433608725227176 0 -2.0282042395160475e-05 0.0014732523538863709 0 -2.3655950309722085e-05 0.0014715904430374991 0 -1.9164756477089305e-05 0.0014728697819232637 0 -2.3655950309722085e-05 0.0014715904430374991 0 -2.6864968380615915e-05 0.0014811517202928074 0 -1.9164756477089305e-05 0.0014728697819232637 0 -0.00085008069354422381 -0.0026129947224375798 0 -0.00076705274780695346 -0.0025917712463521475 0 -0.00073442112518085653 -0.0026456666339858695 0 -0.00082334857201846624 -0.0025406186225911008 0 -0.00085008069354422381 -0.0026129947224375798 0 -0.00076705274780695346 -0.0025917712463521475 0 -0.00082334857201846624 -0.0025406186225911008 0 -0.00076705274780695346 -0.0025917712463521475 0 -0.00073805361404995196 -0.0025672156566073478 0 -0.00076705274780695346 -0.0025917712463521475 0 -0.00073805361404995196 -0.0025672156566073478 0 -0.00071500181583804181 -0.0025807882478627803 0 -0.00041605053173222526 -0.0018555320137779194 0 -0.00057956659021820873 -0.0017271830956652938 0 -0.0006215000183457162 -0.0018533603155974259 0 -0.00073805361404995196 -0.0025672156566073478 0 -0.0006559121453656719 -0.0026262982473587932 0 -0.00068464772724308078 -0.002552091064609787 0 -0.00045053422467335045 -0.0028736042972089698 0 -0.00066842440786028681 -0.0026714583381722353 0 -0.00054054973166193219 -0.0025824543911246978 0 -0.0006559121453656719 -0.0026262982473587932 0 -0.00062500655404627663 -0.0025426524564727488 0 -0.00068464772724308078 -0.002552091064609787 0 -0.00067431010432364121 -0.0025134863159969206 0 -0.00066498954875329524 -0.0024694479660226174 0 -0.00073805361404995196 -0.0025672156566073478 0 -0.0006559121453656719 -0.0026262982473587932 0 -0.00066858938548686056 -0.0026652044926588842 0 -0.00067121433924981157 -0.0025240375716627599 0 -0.00066498954875329524 -0.0024694479660226174 0 -0.0006559121453656719 -0.0026262982473587932 0 -0.00066842440786028681 -0.0026714583381722353 0 -0.00054054973166193219 -0.0025824543911246978 0 -0.0006559121453656719 -0.0026262982473587932 0 -0.00054054973166193219 -0.0025824543911246978 0 -0.00062500655404627663 -0.0025426524564727488 0 -0.00042531242684113851 -0.0023760122946633578 0 -0.00066498954875329524 -0.0024694479660226174 0 -0.00076705274780695346 -0.0025917712463521475 0 -0.00071500181583804181 -0.0025807882478627803 0 -0.00073442112518085653 -0.0026456666339858695 0 -0.00066498954875329524 -0.0024694479660226174 0 -0.00062285027582026787 -0.00095271425608512827 0 -0.00040035561879871699 -0.0014066600065279792 0 -0.00062285027582026787 -0.00095271425608512827 0 -0.00022557216869428798 -0.00062791698939613778 0 -7.0067228739466067e-05 0.00041402897936190948 0 -0.00033983835543010101 -0.00090524425902362377 0 -0.00025917594170934467 -0.0010443346460967614 0 -0.00060852411877176786 -0.00088000052094269635 0 -0.00033983835543010101 -0.00090524425902362377 0 -0.00058560187552560822 -0.00080845388970412298 0 -0.00060852411877176786 -0.00088000052094269635 0 -0.00043729146661279069 -0.0019213651546677072 0 -0.00041605053173222526 -0.0018555320137779194 0 -0.0006215000183457162 -0.0018533603155974259 0 -7.6082011264233914e-06 0.0017575163910178151 0 -7.0067228739466067e-05 0.00041402897936190948 0 1.0242040972930987e-05 0.0014433608725227176 0 5.671799741449953e-05 0.0013854245400844072 0 4.9790061298123013e-05 0.0013670905232193574 0 2.1988413177270911e-05 0.0014491243895038493 0 -3.9126651429462042e-06 0.0014711528820897182 0 0.00010854547329419278 0.001488959037390923 0 -1.9164756477089305e-05 0.0014728697819232637 0 1.0242040972930987e-05 0.0014433608725227176 0 4.9790061298123013e-05 0.0013670905232193574 0 -0.00034994194397681879 -0.00061034763203294824 0 -0.00062285027582026787 -0.00095271425608512827 0 -0.00062285027582026787 -0.00095271425608512827 0 -7.0067228739466067e-05 0.00041402897936190948 0 -0.00021309987940527325 0.0048290436363621798 0 -0.00011212779704296481 0.004442921509464042 0 -0.00011224464264171564 0.0050625229223722141 0 -0.00021309987940527325 0.0048290436363621798 0 -0.0002242379832048662 0.0045019716998817337 0 -0.00011212779704296481 0.004442921509464042 0 -0.00021309987940527325 0.0048290436363621798 0 -0.0002242379832048662 0.0045019716998817337 0 -0.0002231018210234528 0.0048284994135604879 0 -0.0002242379832048662 0.0045019716998817337 0 -0.00025610283073251091 0.0048640949331899674 0 -0.0002231018210234528 0.0048284994135604879 0 -2.0577899405522627e-07 0.0036416025219943591 0 -8.5742654303638824e-05 0.0036639975001140287 0 -9.8788021422426899e-06 0.003747287160664501 0 -0.0002242379832048662 0.0045019716998817337 0 -8.5742654303638824e-05 0.0036639975001140287 0 -0.00025610283073251091 0.0048640949331899674 0 -3.2949446665704294e-05 0.003819170553780598 0 -9.5461165947254391e-05 0.0042923152077811522 0 -5.2542969302869632e-07 0.0028892543510965775 0 -8.5742654303638824e-05 0.0036639975001140287 0 0.00017930209089864308 0.0034443417773345935 0 -2.0577899405522627e-07 0.0036416025219943591 0 -5.2542969302869632e-07 0.0028892543510965775 0 -8.5742654303638824e-05 0.0036639975001140287 0 -8.5742654303638824e-05 0.0036639975001140287 0 6.0202394105693118e-05 0.0039788663285568963 0 0.00017930209089864308 0.0034443417773345935 0 -0.0002242379832048662 0.0045019716998817337 0 -8.5742654303638824e-05 0.0036639975001140287 0 -0.00011212779704296481 0.004442921509464042 0 -8.5742654303638824e-05 0.0036639975001140287 0 6.0202394105693118e-05 0.0039788663285568963 0 -0.00011212779704296481 0.004442921509464042 0 6.0202394105693118e-05 0.0039788663285568963 0 -0.00011212779704296481 0.004442921509464042 0 0.00022110585658884614 0.004501865520832293 0 0.00017930209089864308 0.0034443417773345935 0 0.00091168156673548592 0.0038121822077809785 0 0.00022110585658884614 0.004501865520832293 0 6.0202394105693118e-05 0.0039788663285568963 0 0.00017930209089864308 0.0034443417773345935 0 0.00022110585658884614 0.004501865520832293 0 -5.2542969302869632e-07 0.0028892543510965775 0 0.00017930209089864308 0.0034443417773345935 0 2.351541547922916e-06 0.0021374310349838669 0 2.5306902352335247e-07 0.002136163175521484 0 0.00043948041966965868 0.0027258089540323572 0 -5.9716425334723404e-05 0.0015310057008968516 0 4.4705015760892554e-07 0.002134832057766301 0 9.0151340947041065e-05 0.0015465859880262312 0 0.00017930209089864308 0.0034443417773345935 0 2.351541547922916e-06 0.0021374310349838669 0 0.00091168156673548592 0.0038121822077809785 0 0.00043948041966965868 0.0027258089540323572 0 0.00057331603116859042 0.0031228038817806506 0 -2.0059806497754426e-05 0.0014758097087221905 0 9.0151340947041065e-05 0.0015465859880262312 0 1.6981569684086839e-05 0.0014753465267358095 0 0.00091168156673548592 0.0038121822077809785 0 0.0010340550159548701 0.0048659648596942025 0 0.00022110585658884614 0.004501865520832293 0 -9.3376542603148134e-06 0.0014722419078418334 0 1.6981569684086839e-05 0.0014753465267358095 0 -4.3959437097977557e-06 0.0014763391751063074 0 0.00057331603116859042 0.0031228038817806506 0 -0.00031402068738765616 0.0037492506089583091 0 0.0010340550159548701 0.0048659648596942025 0 0.00062221379694736686 0.0052754945986288717 0 0.001009473989840041 0.0055787627305969485 0 0.00062221379694736686 0.0052754945986288717 0 0.0002309380755923412 0.0052930871566555411 0 0.00028946192495196715 0.0058363156961149191 0 0.0010340550159548701 0.0048659648596942025 0 0.00062221379694736686 0.0052754945986288717 0 0.00022110585658884614 0.004501865520832293 0 0.00062221379694736686 0.0052754945986288717 0 0.00022110585658884614 0.004501865520832293 0 0.0002309380755923412 0.0052930871566555411 0 -0.00011212779704296481 0.004442921509464042 0 0.00022110585658884614 0.004501865520832293 0 -0.00011224464264171564 0.0050625229223722141 0 0.00022110585658884614 0.004501865520832293 0 0.0002309380755923412 0.0052930871566555411 0 -0.00011224464264171564 0.0050625229223722141 0 0.0002309380755923412 0.0052930871566555411 0 -4.9672402939958582e-05 0.0054758369162661883 0 -0.00011224464264171564 0.0050625229223722141 0 0.0002309380755923412 0.0052930871566555411 0 -4.9672402939958582e-05 0.0054758369162661883 0 4.9947967626077791e-06 0.0057742279187320651 0 -4.9672402939958582e-05 0.0054758369162661883 0 4.9947967626077791e-06 0.0057742279187320651 0 -0.00012250277039576658 0.0057097550570828354 0 -4.9672402939958582e-05 0.0054758369162661883 0 -0.00011224464264171564 0.0050625229223722141 0 -0.00016311183378487617 0.0054749982935306104 0 -4.9672402939958582e-05 0.0054758369162661883 0 -0.00016311183378487617 0.0054749982935306104 0 -0.00012250277039576658 0.0057097550570828354 0 -0.00021309987940527325 0.0048290436363621798 0 -0.00011224464264171564 0.0050625229223722141 0 -0.00020246721955527013 0.0052296246131465192 0 -0.00011224464264171564 0.0050625229223722141 0 -0.00020246721955527013 0.0052296246131465192 0 -0.00016311183378487617 0.0054749982935306104 0 -0.00039776521803056562 0.0063925338696918261 0 -0.00052183736894053994 0.0063193547868411323 0 -0.00040577989441422491 0.0062977256309207615 0 -6.9921095803647279e-05 0.0060631503861262913 0 4.9947967626077791e-06 0.0057742279187320651 0 0.00028946192495196715 0.0058363156961149191 0 -6.9921095803647279e-05 0.0060631503861262913 0 4.9947967626077791e-06 0.0057742279187320651 0 -0.00016362885018304216 0.0059712490541707925 0 4.9947967626077791e-06 0.0057742279187320651 0 -0.00016362885018304216 0.0059712490541707925 0 -0.00012250277039576658 0.0057097550570828354 0 -0.00023443475208389489 0.0061930179321650815 0 -0.00013571963449127348 0.0064505553614030309 0 0.0002309380755923412 0.0052930871566555411 0 4.9947967626077791e-06 0.0057742279187320651 0 0.00028946192495196715 0.0058363156961149191 0 -0.0006123138521979091 0.0064444549479380263 0 -0.00052183736894053994 0.0063193547868411323 0 -0.00068710076576842974 0.0062405313669478451 0 -0.00039776521803056562 0.0063925338696918261 0 -0.0006123138521979091 0.0064444549479380263 0 -0.00052183736894053994 0.0063193547868411323 0 -0.0006123138521979091 0.0064444549479380263 0 -0.00083597908688460025 0.0062933295649948602 0 -0.00068710076576842974 0.0062405313669478451 0 -0.0006123138521979091 0.0064444549479380263 0 -0.0008115369715601191 0.0064709942290737503 0 -0.00083597908688460025 0.0062933295649948602 0 0.00062221379694736686 0.0052754945986288717 0 0.00028946192495196715 0.0058363156961149191 0 0.001009473989840041 0.0055787627305969485 0 -0.00013571963449127348 0.0064505553614030309 0 -0.00031402068738765616 0.0037492506089583091 0 -0.00031402068738765616 0.0037492506089583091 0 -0.0012050645081963245 0.0037259376294936433 0 -0.0013689822627379951 0.0012212263845961908 0 -0.0013835295767301362 0.0011248980804793164 0 -0.0014385311845901802 0.0011570687382182314 0 -0.00083597908688460025 0.0062933295649948602 0 -0.00088846188656142497 0.0060802732625382123 0 -0.00068710076576842974 0.0062405313669478451 0 -0.0013835295767301362 0.0011248980804793164 0 -0.0014028705855027421 0.0010352865745394809 0 -0.0014497148984492197 0.001089718318697608 0 -0.0012050645081963245 0.0037259376294936433 0 -0.0011341670593242798 0.0035602815843289322 0 -0.00072485705203515177 0.0060370395715223166 0 -0.00068710076576842974 0.0062405313669478451 0 -0.00055062674037203454 0.0061705104610151303 0 -0.00088846188656142497 0.0060802732625382123 0 -0.00072485705203515177 0.0060370395715223166 0 -0.00068710076576842974 0.0062405313669478451 0 -0.00052183736894053994 0.0063193547868411323 0 -0.00068710076576842974 0.0062405313669478451 0 -0.00055062674037203454 0.0061705104610151303 0 -0.00055062674037203454 0.0061705104610151303 0 -0.00042162805816625475 0.0060839933602837813 0 -0.00057669882329499571 0.0059830178623854801 0 -0.00072485705203515177 0.0060370395715223166 0 -0.00055062674037203454 0.0061705104610151303 0 -0.00057669882329499571 0.0059830178623854801 0 -0.00055062674037203454 0.0061705104610151303 0 -0.00042162805816625475 0.0060839933602837813 0 -0.00040577989441422491 0.0062977256309207615 0 -0.00052183736894053994 0.0063193547868411323 0 -0.00055062674037203454 0.0061705104610151303 0 -0.00040577989441422491 0.0062977256309207615 0 -0.0012955417548884897 -0.0007308460030154663 0 -0.001082604997373178 -0.0005003526643319225 0 -0.00044584700332339297 -0.0023915873962560329 0 -0.00064613215327767007 -0.0024208165913126036 0 -0.00063526578707691177 -0.0020787736106601755 0 -0.00064613215327767007 -0.0024208165913126036 0 -0.00084617765635443753 -0.0023806280841215935 0 -0.00063526578707691177 -0.0020787736106601755 0 -0.00044584700332339297 -0.0023915873962560329 0 -0.00064613215327767007 -0.0024208165913126036 0 -0.00054054973166193219 -0.0025824543911246978 0 -0.00064613215327767007 -0.0024208165913126036 0 -0.00054054973166193219 -0.0025824543911246978 0 -0.00062500655404627663 -0.0025426524564727488 0 -0.00064613215327767007 -0.0024208165913126036 0 -0.00066439932106378751 -0.0024961627289722551 0 -0.00062500655404627663 -0.0025426524564727488 0 -0.00064613215327767007 -0.0024208165913126036 0 -0.00066439932106378751 -0.0024961627289722551 0 -0.00073936937342964227 -0.0024962501265724606 0 -0.00066439932106378751 -0.0024961627289722551 0 -0.00062500655404627663 -0.0025426524564727488 0 -0.00068464772724308078 -0.002552091064609787 0 -0.00066439932106378751 -0.0024961627289722551 0 -0.00068464772724308078 -0.002552091064609787 0 -0.00073936937342964227 -0.0024962501265724606 0 -0.00073805361404995196 -0.0025672156566073478 0 -0.00068464772724308078 -0.002552091064609787 0 -0.00073936937342964227 -0.0024962501265724606 0 -0.00082334857201846624 -0.0025406186225911008 0 -0.00073805361404995196 -0.0025672156566073478 0 -0.00073936937342964227 -0.0024962501265724606 0 -0.00082334857201846624 -0.0025406186225911008 0 -0.00084617765635443753 -0.0023806280841215935 0 -0.00073936937342964227 -0.0024962501265724606 0 -0.00064613215327767007 -0.0024208165913126036 0 -0.00084617765635443753 -0.0023806280841215935 0 -0.00073936937342964227 -0.0024962501265724606 0 -0.00097856288233535006 -0.0025595407540141414 0 -0.00082334857201846624 -0.0025406186225911008 0 -0.00084617765635443753 -0.0023806280841215935 0 -0.00071716778640704994 -0.00021701937222741839 0 -0.0012955417548884897 -0.0007308460030154663 0 -0.0014528001961097701 0.0012288805655088564 0 -0.0015287214812078965 0.0011284202964182205 0 -0.0014385311845901802 0.0011570687382182314 0 -0.0014528001961097701 0.0012288805655088564 0 -0.0013689822627379951 0.0012212263845961908 0 -0.0014385311845901802 0.0011570687382182314 0 -0.0013835295767301362 0.0011248980804793164 0 -0.0014385311845901802 0.0011570687382182314 0 -0.0014497148984492197 0.001089718318697608 0 -0.0015287214812078965 0.0011284202964182205 0 -0.0014385311845901802 0.0011570687382182314 0 -0.0014497148984492197 0.001089718318697608 0 -0.0014028705855027421 0.0010352865745394809 0 -0.0014497148984492197 0.001089718318697608 0 -0.0015025775760387509 0.0010126387518200549 0 -0.0015287214812078965 0.0011284202964182205 0 -0.0014497148984492197 0.001089718318697608 0 -0.0015025775760387509 0.0010126387518200549 0 -0.0014028705855027421 0.0010352865745394809 0 -0.0015025775760387509 0.0010126387518200549 0 -0.0014676278736691687 0.00097351826035824629 0 -0.0015287214812078965 0.0011284202964182205 0 -0.0015025775760387509 0.0010126387518200549 0 -0.0015858148357846848 0.0010256908980859831 0 -0.0015025775760387509 0.0010126387518200549 0 -0.0015858148357846848 0.0010256908980859831 0 -0.0015637812671696351 0.00095070597195713526 0 -0.0016114857571587215 0.00091822418782315919 0 -0.0015858148357846848 0.0010256908980859831 0 -0.0015637812671696351 0.00095070597195713526 0 -0.0016114857571587215 0.00091822418782315919 0 -0.0015637812671696351 0.00095070597195713526 0 -0.0015914445486195519 0.00088140676139822729 0 -0.0015637812671696351 0.00095070597195713526 0 -0.0015914445486195519 0.00088140676139822729 0 -0.0015251125997771714 0.00092403841725435343 0 -0.0015025775760387509 0.0010126387518200549 0 -0.0015637812671696351 0.00095070597195713526 0 -0.0015251125997771714 0.00092403841725435343 0 -0.0015914445486195519 0.00088140676139822729 0 -0.0015558191521316564 0.00087540158763828823 0 -0.0015251125997771714 0.00092403841725435343 0 -0.0015945887655682545 0.00082723904885254149 0 -0.0015914445486195519 0.00088140676139822729 0 -0.0016282934068802216 0.00083111300929888205 0 -0.0015914445486195519 0.00088140676139822729 0 -0.0015558191521316564 0.00087540158763828823 0 -0.0016282934068802216 0.00083111300929888205 0 -0.0015558191521316564 0.00087540158763828823 0 -0.0015435250860878576 0.00083379499577038228 0 -0.0016282934068802216 0.00083111300929888205 0 -0.0015558191521316564 0.00087540158763828823 0 -0.0015435250860878576 0.00083379499577038228 0 -0.001503055845595312 0.00088252230111357315 0 -0.0016867130227496423 0.00085293527650627554 0 -0.0016297574306133884 0.00082854836501871114 0 -0.0017886179344639257 0.00084143040462043189 0 -0.0016282934068802216 0.00083111300929888205 0 -0.0017427681507838973 0.00092387003495701735 0 -0.0016282934068802216 0.00083111300929888205 0 -0.0016555740997768692 0.00091868387342298292 0 -0.0017427681507838973 0.00092387003495701735 0 -0.001503055845595312 0.00088252230111357315 0 -0.001443884793740769 0.00089475189379279645 0 -0.0014919894206184348 0.00084375609358030136 0 -0.001443884793740769 0.00089475189379279645 0 -0.0014561854754738645 0.00084810749805797579 0 -0.0014919894206184348 0.00084375609358030136 0 -0.0015435250860878576 0.00083379499577038228 0 -0.001503055845595312 0.00088252230111357315 0 -0.0014919894206184348 0.00084375609358030136 0 -0.0016867130227496423 0.00085293527650627554 0 -0.0016429915228879453 0.00076463201521878566 0 -0.0015558191521316564 0.00087540158763828823 0 -0.001503055845595312 0.00088252230111357315 0 -0.0015251125997771714 0.00092403841725435343 0 -0.001503055845595312 0.00088252230111357315 0 -0.001471926940687569 0.00092526761318207631 0 -0.001443884793740769 0.00089475189379279645 0 -0.001471926940687569 0.00092526761318207631 0 -0.0014676278736691687 0.00097351826035824629 0 -0.0014239582677225034 0.00095875429573078277 0 -0.001471926940687569 0.00092526761318207631 0 -0.0014239582677225034 0.00095875429573078277 0 -0.001443884793740769 0.00089475189379279645 0 -0.001471926940687569 0.00092526761318207631 0 -0.0015251125997771714 0.00092403841725435343 0 -0.0014676278736691687 0.00097351826035824629 0 -0.001503055845595312 0.00088252230111357315 0 -0.001471926940687569 0.00092526761318207631 0 -0.0015251125997771714 0.00092403841725435343 0 -0.0015025775760387509 0.0010126387518200549 0 -0.0015251125997771714 0.00092403841725435343 0 -0.0014676278736691687 0.00097351826035824629 0 -0.0014028705855027421 0.0010352865745394809 0 -0.0014676278736691687 0.00097351826035824629 0 -0.0014239582677225034 0.00095875429573078277 0 -0.0011341670593242798 0.0035602815843289322 0 -0.0012102102436776833 0.0033504717913168517 0 -0.00088846188656142497 0.0060802732625382123 0 -0.00072485705203515177 0.0060370395715223166 0 -0.00097123066349146295 0.0058279863881539346 0 -0.00072485705203515177 0.0060370395715223166 0 -0.00070894737659183988 0.0058569450589102149 0 -0.00057669882329499571 0.0059830178623854801 0 -0.00072485705203515177 0.0060370395715223166 0 -0.00070894737659183988 0.0058569450589102149 0 -0.00097123066349146295 0.0058279863881539346 0 -0.00070894737659183988 0.0058569450589102149 0 -0.00097123066349146295 0.0058279863881539346 0 -0.00071715368671512692 0.0056154948883895325 0 -0.00070894737659183988 0.0058569450589102149 0 -0.00057879402868289351 0.0057923960145483278 0 -0.00071715368671512692 0.0056154948883895325 0 -0.00042162805816625475 0.0060839933602837813 0 -0.00046113740585611789 0.0059150402259376495 0 -0.00057669882329499571 0.0059830178623854801 0 -0.00042162805816625475 0.0060839933602837813 0 -0.00046113740585611789 0.0059150402259376495 0 -0.00031558063431862371 0.0059649152198376215 0 -0.00046113740585611789 0.0059150402259376495 0 -0.00057669882329499571 0.0059830178623854801 0 -0.00057879402868289351 0.0057923960145483278 0 -0.00070894737659183988 0.0058569450589102149 0 -0.00057669882329499571 0.0059830178623854801 0 -0.00057879402868289351 0.0057923960145483278 0 -0.00057879402868289351 0.0057923960145483278 0 -0.00040337591728610767 0.005757329279900969 0 -0.00058785629654289212 0.0056364197136168871 0 -0.00046113740585611789 0.0059150402259376495 0 -0.00040337591728610767 0.005757329279900969 0 -0.00031558063431862371 0.0059649152198376215 0 -0.00046113740585611789 0.0059150402259376495 0 -0.00057879402868289351 0.0057923960145483278 0 -0.00040337591728610767 0.005757329279900969 0 -0.00040337591728610767 0.005757329279900969 0 -0.00058785629654289212 0.0056364197136168871 0 -0.00050529299594921379 0.0055730244974617699 0 -0.00040337591728610767 0.005757329279900969 0 -0.00050529299594921379 0.0055730244974617699 0 -0.00036457617128905523 0.0056075568867938056 0 -0.00057879402868289351 0.0057923960145483278 0 -0.00058785629654289212 0.0056364197136168871 0 -0.00071715368671512692 0.0056154948883895325 0 -0.00058785629654289212 0.0056364197136168871 0 -0.00063607051839398602 0.0054985283801596398 0 -0.00071715368671512692 0.0056154948883895325 0 -0.00063607051839398602 0.0054985283801596398 0 -0.00050529299594921379 0.0055730244974617699 0 -0.00051158189075402229 0.0054406895790141832 0 -0.00058785629654289212 0.0056364197136168871 0 -0.00063607051839398602 0.0054985283801596398 0 -0.00050529299594921379 0.0055730244974617699 0 -0.00050529299594921379 0.0055730244974617699 0 -0.00041707862784124512 0.0054651707233514795 0 -0.00036457617128905523 0.0056075568867938056 0 -0.00050529299594921379 0.0055730244974617699 0 -0.00041707862784124512 0.0054651707233514795 0 -0.00051158189075402229 0.0054406895790141832 0 -0.00097123066349146295 0.0058279863881539346 0 -0.0011106549719910859 0.0053434053277947747 0 -0.00071715368671512692 0.0056154948883895325 0 -0.0012102102436776833 0.0033504717913168517 0 -0.0012058695614418722 0.0032785347967286653 0 -0.0005124088582683364 0.0053172885153923771 0 -0.00070476301694835284 0.0055743036754897363 0 -0.0011106549719910859 0.0053434053277947747 0 -0.00071715368671512692 0.0056154948883895325 0 -0.00075846639987342578 0.0049434152546553528 0 -0.00043468557996925364 0.0050095428215213124 0 -0.00071715368671512692 0.0056154948883895325 0 -0.00075846639987342578 0.0049434152546553528 0 -0.0012058695614418722 0.0032785347967286653 0 -0.0018559081152362013 0.0019981456798058629 0 -0.0011106549719910859 0.0053434053277947747 0 -0.00075846639987342578 0.0049434152546553528 0 -0.001173479671526713 0.0046254201647554297 0 -0.0018559081152362013 0.0019981456798058629 0 -0.0014224032734553331 0.0027950631543606549 0 -0.00075846639987342578 0.0049434152546553528 0 -0.001173479671526713 0.0046254201647554297 0 -0.00063230984736233379 0.0043984910675323357 0 -0.00075846639987342578 0.0049434152546553528 0 -0.00049267509887733778 0.0046371281268651832 0 -0.00063230984736233379 0.0043984910675323357 0 -0.00043468557996925364 0.0050095428215213124 0 -0.00075846639987342578 0.0049434152546553528 0 -0.00049267509887733778 0.0046371281268651832 0 -0.00049267509887733778 0.0046371281268651832 0 -0.00063230984736233379 0.0043984910675323357 0 -0.0003438262694419414 0.0044282549294166551 0 -0.002250247367698347 0.0011567460089757927 0 -0.002261166209163867 0.0012269159183627095 0 -0.0021611793461278248 0.0011514005700250722 0 -0.002250247367698347 0.0011567460089757927 0 -0.002261166209163867 0.0012269159183627095 0 -0.0022912214053729609 0.0012258325554017101 0 -0.002261166209163867 0.0012269159183627095 0 -0.0021611793461278248 0.0011514005700250722 0 -0.002085994614555792 0.001148836181344103 0 -0.0021140781878543954 0.0010919348376466518 0 -0.002250247367698347 0.0011567460089757927 0 -0.0021611793461278248 0.0011514005700250722 0 -0.0018559081152362013 0.0019981456798058629 0 -0.0021303242958703975 0.00075233530431418531 0 -0.0020848994511744197 0.00093265567669151934 0 -0.002085994614555792 0.001148836181344103 0 -0.0020040221485032894 0.0010587116780257121 0 -0.0021140781878543954 0.0010919348376466518 0 -0.0021611793461278248 0.0011514005700250722 0 -0.002085994614555792 0.001148836181344103 0 -0.0004315420121289557 0.0053621304637484759 0 -0.00051158189075402229 0.0054406895790141832 0 -0.0005635769201677213 0.0052982852482153118 0 -0.00041707862784124512 0.0054651707233514795 0 -0.0004315420121289557 0.0053621304637484759 0 -0.00051158189075402229 0.0054406895790141832 0 -0.0005124088582683364 0.0053172885153923771 0 -0.00073188763314201123 0.00448282143580066 0 -0.00063607051839398602 0.0054985283801596398 0 -0.00051158189075402229 0.0054406895790141832 0 -0.0005635769201677213 0.0052982852482153118 0 -0.00043468557996925364 0.0050095428215213124 0 -0.00049267509887733778 0.0046371281268651832 0 -0.00019078777442480441 0.0043977474857369234 0 -0.00049267509887733778 0.0046371281268651832 0 -0.0003438262694419414 0.0044282549294166551 0 -0.00019078777442480441 0.0043977474857369234 0 -0.00063230984736233379 0.0043984910675323357 0 -0.0003438262694419414 0.0044282549294166551 0 -0.00010622170651989365 0.0041692855366151681 0 -0.0014224032734553331 0.0027950631543606549 0 -0.0011472586045461809 0.0033419185554725648 0 -0.002250247367698347 0.0011567460089757927 0 -0.0022912214053729609 0.0012258325554017101 0 -0.0023367172545055341 0.0012451747695583952 0 -0.002261166209163867 0.0012269159183627095 0 -0.0022912214053729609 0.0012258325554017101 0 -0.0023027399470950884 0.00125783431731288 0 -0.0022912214053729609 0.0012258325554017101 0 -0.0023367172545055341 0.0012451747695583952 0 -0.0023027399470950884 0.00125783431731288 0 -0.0011472586045461809 0.0033419185554725648 0 -0.00073188763314201123 0.00448282143580066 0 -0.0003438262694419414 0.0044282549294166551 0 -0.00010622170651989365 0.0041692855366151681 0 -0.00019827239102411699 0.0043959718828527217 0 -0.00041166692125243332 0.0044257641093039118 0 -0.00073188763314201123 0.00448282143580066 0 -0.0014641979214750629 0.0040111100857094977 0 -0.0012933045510041112 0.0038429158383229784 0 -0.0011279291808342471 0.0039479242104821692 0 -0.0004315420121289557 0.0053621304637484759 0 -0.0005635769201677213 0.0052982852482153118 0 -0.00032906130402153951 0.0052478818837966906 0 -0.0012933045510041112 0.0038429158383229784 0 -0.0013699213730075067 0.0037648837159285778 0 -0.0011279291808342471 0.0039479242104821692 0 -0.00073188763314201123 0.00448282143580066 0 -0.0011717050609912161 0.0047726854934058332 0 -0.002441724158342182 0.0029723557537187722 0 -0.0011717050609912161 0.0047726854934058332 0 -0.001418702815199135 0.0038989427656737729 0 -0.0014641979214750629 0.0040111100857094977 0 -0.0012933045510041112 0.0038429158383229784 0 -0.0011472586045461809 0.0033419185554725648 0 -0.0014382215214691911 0.0037640741734717119 0 -0.0014238593788513576 0.0038924598176297079 0 -0.0012933045510041112 0.0038429158383229784 0 -0.0013699213730075067 0.0037648837159285778 0 -0.0011472586045461809 0.0033419185554725648 0 -0.002441724158342182 0.0029723557537187722 0 -0.002441724158342182 0.0029723557537187722 0 -0.0026941357794091759 0.0021491043569488244 0 -0.0023367456734528606 0.0012726527465440796 0 -0.0023027399470950884 0.00125783431731288 0 -0.0022900280891915759 0.0012701405481120626 0 -0.0023367172545055341 0.0012451747695583952 0 -0.0023367456734528606 0.0012726527465440796 0 -0.0023027399470950884 0.00125783431731288 0 -0.0031953832326313096 0.0030765536278691791 0 -0.0031260017700606652 0.0033474109080308375 0 -0.0028927450144776113 0.0032994675229515115 0 -0.0031260017700606652 0.0033474109080308375 0 -0.0028927450144776113 0.0032994675229515115 0 -0.0029004848526349154 0.0035630164919588049 0 -0.0031953832326313096 0.0030765536278691791 0 -0.0031260017700606652 0.0033474109080308375 0 -0.0033548135446043051 0.0034432227517317156 0 -0.002441724158342182 0.0029723557537187722 0 -0.0028945657231499405 0.0038190587918457124 0 -0.002261166209163867 0.0012269159183627095 0 -0.0023075804545251684 0.0012684388169904603 0 -0.0023668060791835416 0.0013118934388873435 0 -0.002261166209163867 0.0012269159183627095 0 -0.002085994614555792 0.001148836181344103 0 -0.0020278418356979274 0.0011475178804747539 0 -0.0023075804545251684 0.0012684388169904603 0 -0.0023483027042810016 0.0012744086786272292 0 -0.0023668060791835416 0.0013118934388873435 0 -0.0022681673658664393 0.0012220654038439464 0 -0.002208729784173984 0.0012229392163927934 0 -0.0023027399470950884 0.00125783431731288 0 -0.0022889463781270106 0.0012602606391774547 0 -0.0022900280891915759 0.0012701405481120626 0 -0.002261166209163867 0.0012269159183627095 0 -0.0023075804545251684 0.0012684388169904603 0 -0.0022889463781270106 0.0012602606391774547 0 -0.002261166209163867 0.0012269159183627095 0 -0.0023027399470950884 0.00125783431731288 0 -0.0022889463781270106 0.0012602606391774547 0 -0.0023075804545251684 0.0012684388169904603 0 -0.0022889463781270106 0.0012602606391774547 0 -0.0022900280891915759 0.0012701405481120626 0 -0.0026941357794091759 0.0021491043569488244 0 -0.0024470258011088106 0.0023976864128687704 0 -0.0023075804545251684 0.0012684388169904603 0 -0.0022900280891915759 0.0012701405481120626 0 -0.0023251730924067977 0.0012591464315453314 0 -0.0022900280891915759 0.0012701405481120626 0 -0.0023251730924067977 0.0012591464315453314 0 -0.0023363400647694898 0.0012223858794686137 0 -0.0023075804545251684 0.0012684388169904603 0 -0.0023483027042810016 0.0012744086786272292 0 -0.0023251730924067977 0.0012591464315453314 0 -0.0023483027042810016 0.0012744086786272292 0 -0.0023686746414810743 0.0012594737016003385 0 -0.0023843587599919648 0.0012774986250138857 0 -0.0023483027042810016 0.0012744086786272292 0 -0.0023251730924067977 0.0012591464315453314 0 -0.0023686746414810743 0.0012594737016003385 0 -0.0023686746414810743 0.0012594737016003385 0 -0.0023993233929173194 0.0012358376890904996 0 -0.0023363400647694898 0.0012223858794686137 0 -0.0023251730924067977 0.0012591464315453314 0 -0.0023686746414810743 0.0012594737016003385 0 -0.0023363400647694898 0.0012223858794686137 0 -0.0023686746414810743 0.0012594737016003385 0 -0.0023993233929173194 0.0012358376890904996 0 -0.0024155267192114832 0.0012558060099513199 0 -0.0023993233929173194 0.0012358376890904996 0 -0.0024155267192114832 0.0012558060099513199 0 -0.0024506277676926377 0.0012335969276064138 0 -0.0024155267192114832 0.0012558060099513199 0 -0.0024720651395518808 0.0012540495163005439 0 -0.0024506277676926377 0.0012335969276064138 0 -0.0024155267192114832 0.0012558060099513199 0 -0.0024309395831292845 0.0012806217900191285 0 -0.0023843587599919648 0.0012774986250138857 0 -0.0024155267192114832 0.0012558060099513199 0 -0.0024309395831292845 0.0012806217900191285 0 -0.0024720651395518808 0.0012540495163005439 0 -0.0023686746414810743 0.0012594737016003385 0 -0.0024155267192114832 0.0012558060099513199 0 -0.0023843587599919648 0.0012774986250138857 0 -0.0020278418356979274 0.0011475178804747539 0 -0.001893004418284787 0.0010709247572253705 0 -0.0019427246351412645 0.0010735442785813265 0 -0.0023483027042810016 0.0012744086786272292 0 -0.0023843587599919648 0.0012774986250138857 0 -0.0023668060791835416 0.0013118934388873435 0 -0.0024309395831292845 0.0012806217900191285 0 -0.0023843587599919648 0.0012774986250138857 0 -0.0023668060791835416 0.0013118934388873435 0 -0.0024309395831292845 0.0012806217900191285 0 -0.0023668060791835416 0.0013118934388873435 0 -0.0025123560838504742 0.0012901812263240236 0 -0.0020278418356979274 0.0011475178804747539 0 -0.001893004418284787 0.0010709247572253705 0 -0.0018663134808535214 0.0010702801008351743 0 -0.002208729784173984 0.0012229392163927934 0 -0.0021890575942806779 0.0011844925729174029 0 -0.001893004418284787 0.0010709247572253705 0 -0.0019427246351412645 0.0010735442785813265 0 -0.0018821264500528732 0.0010404584006814298 0 -0.0024309395831292845 0.0012806217900191285 0 -0.0025123560838504742 0.0012901812263240236 0 -0.0024720651395518808 0.0012540495163005439 0 -0.0025123560838504742 0.0012901812263240236 0 -0.0024720651395518808 0.0012540495163005439 0 -0.0025322366016240624 0.0012400179692246189 0 -0.0024720651395518808 0.0012540495163005439 0 -0.0024506277676926377 0.0012335969276064138 0 -0.0024964215992911844 0.0012256478691729245 0 -0.0024720651395518808 0.0012540495163005439 0 -0.0025322366016240624 0.0012400179692246189 0 -0.0024964215992911844 0.0012256478691729245 0 -0.0021890575942806779 0.0011844925729174029 0 -0.0021553055989333146 0.0011173623794737432 0 -0.0025123560838504742 0.0012901812263240236 0 -0.0025322366016240624 0.0012400179692246189 0 -0.0026034584627342055 0.0012288079772599435 0 -0.001893004418284787 0.0010709247572253705 0 -0.0018158463325232178 0.001016622513907785 0 -0.001708684800418758 0.0010424176206846997 0 -0.001893004418284787 0.0010709247572253705 0 -0.0018663134808535214 0.0010702801008351743 0 -0.001734434332450147 0.00086202505067440227 0 -0.0018663134808535214 0.0010702801008351743 0 -0.0016885377642269273 0.0010640177596631594 0 -0.001734434332450147 0.00086202505067440227 0 -0.0018756525800500466 0.0010548577980101065 0 -0.0017251071897047467 0.00095818795278396251 0 -0.0018158463325232178 0.001016622513907785 0 -0.001708684800418758 0.0010424176206846997 0 -0.0017427681507838973 0.00092387003495701735 0 -0.001708684800418758 0.0010424176206846997 0 -0.0016555740997768692 0.00091868387342298292 0 -0.0017427681507838973 0.00092387003495701735 0 -0.0018158463325232178 0.001016622513907785 0 -0.0017427681507838973 0.00092387003495701735 0 -0.0018453518747534763 0.00095468005625682381 0 -0.0017886179344639257 0.00084143040462043189 0 -0.0017427681507838973 0.00092387003495701735 0 -0.0018453518747534763 0.00095468005625682381 0 -0.0017886179344639257 0.00084143040462043189 0 -0.0018453518747534763 0.00095468005625682381 0 -0.0019267812365767591 0.00088076834318949774 0 -0.0018453518747534763 0.00095468005625682381 0 -0.0019267812365767591 0.00088076834318949774 0 -0.0019270659119869815 0.0010188061580666677 0 -0.0018559081152362013 0.0019981456798058629 0 -0.0016429915228879453 0.00076463201521878566 0 -0.0019267812365767591 0.00088076834318949774 0 -0.0019887617820607277 0.00097397908015395122 0 -0.0019270659119869815 0.0010188061580666677 0 -0.0020848994511744197 0.00093265567669151934 0 -0.0019267812365767591 0.00088076834318949774 0 -0.0019887617820607277 0.00097397908015395122 0 -0.0019887617820607277 0.00097397908015395122 0 -0.0020040221485032894 0.0010587116780257121 0 -0.0019270659119869815 0.0010188061580666677 0 -0.0020848994511744197 0.00093265567669151934 0 -0.0019887617820607277 0.00097397908015395122 0 -0.0020040221485032894 0.0010587116780257121 0 -0.0020278418356979274 0.0011475178804747539 0 -0.0020040221485032894 0.0010587116780257121 0 -0.0019427246351412645 0.0010735442785813265 0 -0.002085994614555792 0.001148836181344103 0 -0.0020278418356979274 0.0011475178804747539 0 -0.0020040221485032894 0.0010587116780257121 0 -0.0020040221485032894 0.0010587116780257121 0 -0.0019427246351412645 0.0010735442785813265 0 -0.0019270659119869815 0.0010188061580666677 0 -0.0019427246351412645 0.0010735442785813265 0 -0.0018821264500528732 0.0010404584006814298 0 -0.0019270659119869815 0.0010188061580666677 0 -0.001893004418284787 0.0010709247572253705 0 -0.0018158463325232178 0.001016622513907785 0 -0.0018821264500528732 0.0010404584006814298 0 -0.0018158463325232178 0.001016622513907785 0 -0.0018453518747534763 0.00095468005625682381 0 -0.0018821264500528732 0.0010404584006814298 0 -0.0018453518747534763 0.00095468005625682381 0 -0.0018821264500528732 0.0010404584006814298 0 -0.0019270659119869815 0.0010188061580666677 0 -0.0021203364401656808 0.0079827705266576187 0 -0.0021431735873617113 0.0077642803680696522 0 -0.002395751887768255 0.0079089811814233683 0 -0.0021203364401656808 0.0079827705266576187 0 -0.002395751887768255 0.0079089811814233683 0 -0.0023533505247758379 0.0082234370093625143 0 -0.0021203364401656808 0.0079827705266576187 0 -0.0019947036170134 0.0078851956119802974 0 -0.0021431735873617113 0.0077642803680696522 0 -0.0018984676145721157 0.0079963755443300203 0 -0.0018385326170136669 0.0078583540210524702 0 -0.0019947036170134 0.0078851956119802974 0 -0.0021203364401656808 0.0079827705266576187 0 -0.0018984676145721157 0.0079963755443300203 0 -0.0019947036170134 0.0078851956119802974 0 -0.0018984676145721157 0.0079963755443300203 0 -0.0019330291238817364 0.0080878016287418333 0 -0.0017213811674400856 0.0079186687404226349 0 -0.0018984676145721157 0.0079963755443300203 0 -0.0018385326170136669 0.0078583540210524702 0 -0.0017213811674400856 0.0079186687404226349 0 -0.0018385326170136669 0.0078583540210524702 0 -0.0019947036170134 0.0078851956119802974 0 -0.0019140420116675098 0.0077520630566721496 0 -0.0019947036170134 0.0078851956119802974 0 -0.0019140420116675098 0.0077520630566721496 0 -0.0021431735873617113 0.0077642803680696522 0 -0.0019140420116675098 0.0077520630566721496 0 -0.0021431735873617113 0.0077642803680696522 0 -0.0019244541378136747 0.0074887969311859693 0 -0.0019140420116675098 0.0077520630566721496 0 -0.0016972698904737891 0.0076966556103909706 0 -0.0019244541378136747 0.0074887969311859693 0 -0.00040887747375113645 0.0061754816752048686 0 -0.00038339114153451335 0.0062565059788181002 0 -0.00032733316487943635 0.0062439795225493295 0 -0.0018385326170136669 0.0078583540210524702 0 -0.0019140420116675098 0.0077520630566721496 0 -0.0016972698904737891 0.0076966556103909706 0 -0.00096062217262359798 0.0070503195131309008 0 -0.0011916603612867258 0.0067853678012722808 0 -0.0021431735873617113 0.0077642803680696522 0 -0.0021628978228530448 0.0075252996663907048 0 -0.0019244541378136747 0.0074887969311859693 0 -0.0021431735873617113 0.0077642803680696522 0 -0.0024089729606344423 0.0075367632301247961 0 -0.0021628978228530448 0.0075252996663907048 0 -0.0024089729606344423 0.0075367632301247961 0 -0.0026622152752344063 0.0078091456691858933 0 -0.002395751887768255 0.0079089811814233683 0 -0.0018237417757234146 0.0082841262271846818 0 -0.0018080652688714492 0.0095922328745643524 0 -0.0011250204778749595 0.0090443069436245676 0 -0.0015114419243353655 0.0094693311464475443 0 -0.001363325458618956 0.0088343994100734576 0 -0.0021431735873617113 0.0077642803680696522 0 -0.0024089729606344423 0.0075367632301247961 0 -0.002395751887768255 0.0079089811814233683 0 -0.0018080652688714492 0.0095922328745643524 0 -0.00072246596992822415 0.010018612321261723 0 -0.00054793759511041784 0.011019279121556657 0 -0.00032184572450860081 0.011302674013672562 0 -0.00017807960330968564 0.010635786799081068 0 -0.00054793759511041784 0.011019279121556657 0 -0.00032184572450860081 0.011302674013672562 0 -0.00066762570152066342 0.011319288158429818 0 -0.0018080652688714492 0.0095922328745643524 0 -0.0021035902490612783 0.01125222867808005 0 -0.0030262671438271325 0.010016791599784776 0 -0.0029934785809621629 0.0098062714280688964 0 -0.0029387461474058947 0.0097912553722478667 0 -0.0030262671438271325 0.010016791599784776 0 -0.0029387461474058947 0.0097912553722478667 0 -0.0028241347249490308 0.0097920864696378115 0 -0.0026622152752344063 0.0078091456691858933 0 -0.002724559723511261 0.0080635551649295648 0 -0.002395751887768255 0.0079089811814233683 0 -0.0018080652688714492 0.0095922328745643524 0 -0.0027934772786577401 0.008845220064172165 0 -0.002724559723511261 0.0080635551649295648 0 -0.002395751887768255 0.0079089811814233683 0 -0.0023533505247758379 0.0082234370093625143 0 -0.002724559723511261 0.0080635551649295648 0 -0.0023533505247758379 0.0082234370093625143 0 -0.0027846509561620086 0.0083260602654403968 0 -0.0030090406102187988 0.0089653663228041261 0 -0.0029445863078134439 0.0091350798831916578 0 -0.0029934785809621629 0.0098062714280688964 0 -0.0029387461474058947 0.0097912553722478667 0 -0.0028816987016574772 0.0096603521469673138 0 -0.0027934772786577401 0.008845220064172165 0 -0.0029445863078134439 0.0091350798831916578 0 -0.0029934785809621629 0.0098062714280688964 0 -0.002962271851058951 0.009524635027562376 0 -0.0028816987016574772 0.0096603521469673138 0 -0.0034565628722701995 0.0094525989044245383 0 -0.0030044294296524897 0.0094027290182249253 0 -0.0032169434995178059 0.0092546854482054523 0 -0.0029445863078134439 0.0091350798831916578 0 -0.0029706922705248725 0.0093034479945212599 0 -0.0030044294296524897 0.0094027290182249253 0 -0.0032169434995178059 0.0092546854482054523 0 -0.0029381787659257747 0.0091774170775333792 0 -0.0032169434995178059 0.0092546854482054523 0 -0.0029381787659257747 0.0091774170775333792 0 -0.0031609239756416403 0.0090915998106684635 0 -0.0032169434995178059 0.0092546854482054523 0 -0.0033071682730619533 0.0091560703088545015 0 -0.0031609239756416403 0.0090915998106684635 0 -0.0034565628722701995 0.0094525989044245383 0 -0.0034237462952237739 0.0092333428983169749 0 -0.0036171498529813284 0.0092770271912372988 0 -0.0034565628722701995 0.0094525989044245383 0 -0.0032169434995178059 0.0092546854482054523 0 -0.0034237462952237739 0.0092333428983169749 0 -0.0032169434995178059 0.0092546854482054523 0 -0.0033071682730619533 0.0091560703088545015 0 -0.0034237462952237739 0.0092333428983169749 0 -0.0033071682730619533 0.0091560703088545015 0 -0.003420316806752591 0.0091143270402895202 0 -0.0034237462952237739 0.0092333428983169749 0 -0.003420316806752591 0.0091143270402895202 0 -0.0035293896833504621 0.0091725346051577412 0 -0.0035224170754016245 0.0090704220100324834 0 -0.003420316806752591 0.0091143270402895202 0 -0.0034237462952237739 0.0092333428983169749 0 -0.0035293896833504621 0.0091725346051577412 0 -0.0034237462952237739 0.0092333428983169749 0 -0.0035293896833504621 0.0091725346051577412 0 -0.0036171498529813284 0.0092770271912372988 0 -0.0035293896833504621 0.0091725346051577412 0 -0.0036816137935378299 0.0091678361472547817 0 -0.0036171498529813284 0.0092770271912372988 0 -0.0035293896833504621 0.0091725346051577412 0 -0.0036816137935378299 0.0091678361472547817 0 -0.0035224170754016245 0.0090704220100324834 0 -0.0037387649648121619 0.0091386940150968692 0 -0.0036171498529813284 0.0092770271912372988 0 -0.003833437261359689 0.0094845146307070451 0 -0.0036816137935378299 0.0091678361472547817 0 -0.0037387649648121619 0.0091386940150968692 0 -0.0036171498529813284 0.0092770271912372988 0 -0.0034565628722701995 0.0094525989044245383 0 -0.0036171498529813284 0.0092770271912372988 0 -0.003833437261359689 0.0094845146307070451 0 -0.0030090406102187988 0.0089653663228041261 0 -0.0024150734850214893 0.0074798634830255829 0 -0.0021203364401656808 0.0079827705266576187 0 -0.0023533505247758379 0.0082234370093625143 0 -0.0019352022442608334 0.0081113114694431991 0 -0.0021203364401656808 0.0079827705266576187 0 -0.0018984676145721157 0.0079963755443300203 0 -0.0019352022442608334 0.0081113114694431991 0 -0.0022928684073118782 0.007833069126344348 0 -0.0024150734850214893 0.0074798634830255829 0 -0.0026101633835117245 0.0042537740848393674 0 -0.0026516819510825906 0.0044953542374635185 0 -0.0027281317289970975 0.0043677503957766832 0 -0.0032696435130491431 0.0066200496104511413 0 -0.0024150734850214893 0.0074798634830255829 0 -0.0026101633835117245 0.0042537740848393674 0 -0.0027281317289970975 0.0043677503957766832 0 -0.0026817638652254371 0.0042484971926444468 0 -0.0026101633835117245 0.0042537740848393674 0 -0.0026817638652254371 0.0042484971926444468 0 -0.0026502839672007277 0.0042177828041521058 0 -0.0027281317289970975 0.0043677503957766832 0 -0.0026817638652254371 0.0042484971926444468 0 -0.0027382947088316835 0.0042261397294799117 0 -0.0027281317289970975 0.0043677503957766832 0 -0.0028157031454391652 0.0042590032987259432 0 -0.0029158682842197487 0.0043590764034173628 0 -0.0028157031454391652 0.0042590032987259432 0 -0.0029158682842197487 0.0043590764034173628 0 -0.0028538365691469811 0.0041444050347657401 0 -0.0027281317289970975 0.0043677503957766832 0 -0.0027382947088316835 0.0042261397294799117 0 -0.0028157031454391652 0.0042590032987259432 0 -0.0028488084809821161 0.0041793472304538512 0 -0.0028995795560654548 0.0041319791966516039 0 -0.0028538365691469811 0.0041444050347657401 0 -0.0028726149302989029 0.0041150491460132657 0 -0.0028665573249510622 0.0042137256307851322 0 -0.0028488084809821161 0.0041793472304538512 0 -0.0028868110130331253 0.0042052924653762647 0 -0.0028995795560654548 0.0041319791966516039 0 -0.0028488084809821161 0.0041793472304538512 0 -0.0028868110130331253 0.0042052924653762647 0 -0.0028478916856414303 0.0042637986098923537 0 -0.0028726149302989029 0.0041150491460132657 0 -0.0022595384315709827 0.0053343217344279121 0 -0.0028868110130331253 0.0042052924653762647 0 -0.0028478916856414303 0.0042637986098923537 0 -0.0028775679236148315 0.0042696043568625029 0 -0.0024150734850214893 0.0074798634830255829 0 -0.0022595384315709827 0.0053343217344279121 0 -0.0027281317289970975 0.0043677503957766832 0 -0.0029158682842197487 0.0043590764034173628 0 -0.0029410063444387006 0.004555411293490799 0 -0.0026516819510825906 0.0044953542374635185 0 -0.0027281317289970975 0.0043677503957766832 0 -0.0029410063444387006 0.004555411293490799 0 -0.0030579554656818657 0.0040861123126069579 0 -0.0029595873073017735 0.0041904298513429847 0 -0.0029731097683204691 0.0040820542321779252 0 -0.0028945657231499405 0.0038190587918457124 0 -0.0025271799328826419 0.0039366678991165074 0 -0.002544579926904102 0.0040142397128547979 0 -0.0023489610924743057 0.0035474941300342711 0 -0.0019895364124606087 0.0038639121754686025 0 -0.0028995795560654548 0.0041319791966516039 0 -0.0029595873073017735 0.0041904298513429847 0 -0.0029731097683204691 0.0040820542321779252 0 -0.0028868110130331253 0.0042052924653762647 0 -0.0028995795560654548 0.0041319791966516039 0 -0.0029595873073017735 0.0041904298513429847 0 -0.0028868110130331253 0.0042052924653762647 0 -0.0029595873073017735 0.0041904298513429847 0 -0.0028775679236148315 0.0042696043568625029 0 -0.0025271799328826419 0.0039366678991165074 0 -0.001920241945739598 0.0047916748416267875 0 -0.0019895364124606087 0.0038639121754686025 0 -0.0021741204536929654 0.0042862728313703734 0 -0.0016331393869545754 0.0041843897596116628 0 -0.002544579926904102 0.0040142397128547979 0 -0.0019895364124606087 0.0038639121754686025 0 -0.0021741204536929654 0.0042862728313703734 0 -0.0011717050609912161 0.0047726854934058332 0 -0.00060673578417581712 0.0055131513010725419 0 -0.0013922039619849765 0.0054036354246051951 0 -0.0010525996531675957 0.0054865654942898379 0 -0.0011640080646208547 0.0055752979299448493 0 -0.0013922039619849765 0.0054036354246051951 0 -0.0010525996531675957 0.0054865654942898379 0 -0.00097814003190048416 0.0053280581059659401 0 -0.0011717050609912161 0.0047726854934058332 0 -0.001920241945739598 0.0047916748416267875 0 -0.00020716113591443076 0.0054113265536637478 0 -0.0001831493037878299 0.0053516579987627402 0 -4.5949921430220844e-05 0.005458873273569571 0 -0.0010525996531675957 0.0054865654942898379 0 -0.0011640080646208547 0.0055752979299448493 0 -0.00093222040877948996 0.0057452329140997953 0 -0.00060673578417581712 0.0055131513010725419 0 -0.00053830645471016167 0.0058610099642874159 0 -0.00020716113591443076 0.0054113265536637478 0 -0.0001831493037878299 0.0053516579987627402 0 -0.00031208872238706089 0.0053847697829372161 0 -0.00032906130402153951 0.0052478818837966906 0 -0.0001831493037878299 0.0053516579987627402 0 -0.00031208872238706089 0.0053847697829372161 0 -0.00020716113591443076 0.0054113265536637478 0 -0.00031208872238706089 0.0053847697829372161 0 -0.00028376501375790709 0.0055023037016271818 0 -0.00041707862784124512 0.0054651707233514795 0 -0.00031208872238706089 0.0053847697829372161 0 -0.00028376501375790709 0.0055023037016271818 0 -0.00041707862784124512 0.0054651707233514795 0 -0.0004315420121289557 0.0053621304637484759 0 -0.00031208872238706089 0.0053847697829372161 0 -0.0004315420121289557 0.0053621304637484759 0 -0.00032906130402153951 0.0052478818837966906 0 -0.00031208872238706089 0.0053847697829372161 0 -0.0019330291238817364 0.0080878016287418333 0 -0.0017213811674400856 0.0079186687404226349 0 -0.0014968519030201753 0.007973001872006549 0 -0.0017213811674400856 0.0079186687404226349 0 -0.0014968519030201753 0.007973001872006549 0 -0.0014821342337628168 0.0078804956441730876 0 -0.0017213811674400856 0.0079186687404226349 0 -0.0014821342337628168 0.0078804956441730876 0 -0.0016972698904737891 0.0076966556103909706 0 -0.0011521507874209854 0.0061565352809987046 0 -0.00096062217262359798 0.0070503195131309008 0 -0.0018385326170136669 0.0078583540210524702 0 -0.0017213811674400856 0.0079186687404226349 0 -0.0016972698904737891 0.0076966556103909706 0 -0.0016566053168901879 0.0051821724133536643 0 -0.0016857276332084179 0.0053967216088307447 0 -0.001878859393790597 0.0052248595568563328 0 -0.0022595384315709827 0.0053343217344279121 0 -0.0011521507874209854 0.0061565352809987046 0 -0.0010525996531675957 0.0054865654942898379 0 -0.00088949201626037193 0.0054066123514809128 0 -0.00097814003190048416 0.0053280581059659401 0 -0.0022595384315709827 0.0053343217344279121 0 -0.001920241945739598 0.0047916748416267875 0 -0.0011521507874209854 0.0061565352809987046 0 -0.001920241945739598 0.0047916748416267875 0 -0.0011521507874209854 0.0061565352809987046 0 -0.00053830645471016167 0.0058610099642874159 0 -0.0010525996531675957 0.0054865654942898379 0 -0.00088949201626037193 0.0054066123514809128 0 -0.00093222040877948996 0.0057452329140997953 0 -0.00049249545279635295 0.0061059799226982764 0 -0.00050324241742478234 0.0062210289828617676 0 -0.00040887747375113645 0.0061754816752048686 0 -0.00050324241742478234 0.0062210289828617676 0 -0.00040887747375113645 0.0061754816752048686 0 -0.00044144511878328377 0.0062623780427180729 0 -0.00040887747375113645 0.0061754816752048686 0 -0.00038339114153451335 0.0062565059788181002 0 -0.00044144511878328377 0.0062623780427180729 0 -0.00038339114153451335 0.0062565059788181002 0 -0.00044144511878328377 0.0062623780427180729 0 -0.00037559784741050323 0.0063143081470618126 0 -0.00044144511878328377 0.0062623780427180729 0 -0.00037559784741050323 0.0063143081470618126 0 -0.00042760681979301637 0.0063200297024406547 0 -0.00020716113591443076 0.0054113265536637478 0 -4.5949921430220844e-05 0.005458873273569571 0 -6.3511844866229449e-05 0.0055779792273982099 0 -0.00053830645471016167 0.0058610099642874159 0 -0.00037759096601349041 0.0062558949347592072 0 -0.00050031713569944627 0.0062160226686691442 0 -0.00044144511878328377 0.0062623780427180729 0 -0.00050930224805108282 0.006284811944957544 0 -0.00053830645471016167 0.0058610099642874159 0 -0.00019515143013365058 0.0059641379399356905 0 -0.00044144511878328377 0.0062623780427180729 0 -0.00050930224805108282 0.006284811944957544 0 -0.00042760681979301637 0.0063200297024406547 0 -0.00019515143013365058 0.0059641379399356905 0 -0.00037745594664428478 0.0064026741446177931 0 -0.00019515143013365058 0.0059641379399356905 0 -9.8920968379149094e-05 0.0060441727795262105 0 -0.00017086730385543127 0.006463783060311549 0 -0.00024316412410587017 0.006294301179831467 0 -0.00033870055538369573 0.0062676146682577967 0 -2.6084866645902401e-05 0.0055847452027456262 0 -4.4161052559008503e-05 0.0057719379946465478 0 -0.00012916730231279824 0.0056609934227509588 0 -0.00017086730385543127 0.006463783060311549 0 -0.0001392204013912158 0.0063051757442855027 0 -0.00024316412410587017 0.006294301179831467 0 -0.00050930224805108282 0.006284811944957544 0 -0.00040903170128339238 0.0063888295090208953 0 -0.00042760681979301637 0.0063200297024406547 0 -0.00040903170128339238 0.0063888295090208953 0 -0.00039505309580565462 0.0063460081032348948 0 -0.00042760681979301637 0.0063200297024406547 0 -0.00040903170128339238 0.0063888295090208953 0 -0.00036840852556822043 0.0063614696261223708 0 -0.00033241127079936889 0.0063959522021740283 0 -0.00040903170128339238 0.0063888295090208953 0 -0.00036840852556822043 0.0063614696261223708 0 -0.00039505309580565462 0.0063460081032348948 0 -0.00037559784741050323 0.0063143081470618126 0 -0.00039505309580565462 0.0063460081032348948 0 -0.00042760681979301637 0.0063200297024406547 0 -0.00036840852556822043 0.0063614696261223708 0 -0.00037559784741050323 0.0063143081470618126 0 -0.00039505309580565462 0.0063460081032348948 0 -0.00041707862784124512 0.0054651707233514795 0 -0.00036457617128905523 0.0056075568867938056 0 -0.00028376501375790709 0.0055023037016271818 0 -0.00036457617128905523 0.0056075568867938056 0 -0.00028376501375790709 0.0055023037016271818 0 -0.00025021244758766993 0.0056221082827495588 0 -0.0001942737071484049 0.005323441897015042 0 -0.00019515143013365058 0.0059641379399356905 0 -0.00020716113591443076 0.0054113265536637478 0 -2.6084866645902401e-05 0.0055847452027456262 0 -0.00018062932019980964 0.0055552208649112767 0 -0.00028376501375790709 0.0055023037016271818 0 -0.00025021244758766993 0.0056221082827495588 0 -0.00018062932019980964 0.0055552208649112767 0 -0.00025021244758766993 0.0056221082827495588 0 -0.00018062932019980964 0.0055552208649112767 0 -0.00012916730231279824 0.0056609934227509588 0 -0.00020716113591443076 0.0054113265536637478 0 -0.00028376501375790709 0.0055023037016271818 0 -0.00018062932019980964 0.0055552208649112767 0 -2.6084866645902401e-05 0.0055847452027456262 0 -0.00018062932019980964 0.0055552208649112767 0 -0.00012916730231279824 0.0056609934227509588 0 -4.4161052559008503e-05 0.0057719379946465478 0 -0.00012916730231279824 0.0056609934227509588 0 -0.00021054490824520478 0.0057402941226834562 0 -4.4161052559008503e-05 0.0057719379946465478 0 -0.00021054490824520478 0.0057402941226834562 0 -0.00017886523677291917 0.0058720960312530716 0 -0.00025021244758766993 0.0056221082827495588 0 -0.00012916730231279824 0.0056609934227509588 0 -0.00021054490824520478 0.0057402941226834562 0 -0.00040337591728610767 0.005757329279900969 0 -0.00036457617128905523 0.0056075568867938056 0 -0.00031255770288339421 0.0057217069506395645 0 -0.00025021244758766993 0.0056221082827495588 0 -0.00021054490824520478 0.0057402941226834562 0 -0.00031255770288339421 0.0057217069506395645 0 -0.00036457617128905523 0.0056075568867938056 0 -0.00025021244758766993 0.0056221082827495588 0 -0.00031255770288339421 0.0057217069506395645 0 -0.00021054490824520478 0.0057402941226834562 0 -0.00031255770288339421 0.0057217069506395645 0 -0.00027438017942982832 0.0058419607779021509 0 -0.00040337591728610767 0.005757329279900969 0 -0.00031255770288339421 0.0057217069506395645 0 -0.00027438017942982832 0.0058419607779021509 0 -0.00040337591728610767 0.005757329279900969 0 -0.00027438017942982832 0.0058419607779021509 0 -0.00031558063431862371 0.0059649152198376215 0 -0.00027438017942982832 0.0058419607779021509 0 -0.00020313590921319509 0.0059598285092249317 0 -0.00031558063431862371 0.0059649152198376215 0 -4.4161052559008503e-05 0.0057719379946465478 0 -0.00017886523677291917 0.0058720960312530716 0 -0.00011318047343736838 0.0060384618137334567 0 -0.00021054490824520478 0.0057402941226834562 0 -0.00027438017942982832 0.0058419607779021509 0 -0.00017886523677291917 0.0058720960312530716 0 -0.00027438017942982832 0.0058419607779021509 0 -0.00020313590921319509 0.0059598285092249317 0 -0.00017886523677291917 0.0058720960312530716 0 -0.00020313590921319509 0.0059598285092249317 0 -0.00017886523677291917 0.0058720960312530716 0 -0.00011318047343736838 0.0060384618137334567 0 -0.00019877660006003834 0.006019194490773175 0 -0.00011318047343736838 0.0060384618137334567 0 -0.000147396308344501 0.005997905153548329 0 -0.00019877660006003834 0.006019194490773175 0 -0.000147396308344501 0.005997905153548329 0 -0.00022348214974909881 0.0061203548960622181 0 -0.00020313590921319509 0.0059598285092249317 0 -0.00019877660006003834 0.006019194490773175 0 -0.00011318047343736838 0.0060384618137334567 0 -0.00019877660006003834 0.006019194490773175 0 -0.00031558063431862371 0.0059649152198376215 0 -0.00022348214974909881 0.0061203548960622181 0 -0.00020313590921319509 0.0059598285092249317 0 -0.00019877660006003834 0.006019194490773175 0 -0.00031558063431862371 0.0059649152198376215 0 -0.00033870055538369573 0.0062676146682577967 0 -0.00034593383134198173 0.0063250069928961058 0 -0.00030263848015688109 0.0064757506906759866 0 -0.00033870055538369573 0.0062676146682577967 0 -0.00034593383134198173 0.0063250069928961058 0 -0.00030342259722611835 0.0062629393442671282 0 -0.00024316412410587017 0.006294301179831467 0 -0.00033870055538369573 0.0062676146682577967 0 -0.00030342259722611835 0.0062629393442671282 0 -0.00034593383134198173 0.0063250069928961058 0 -0.00030342259722611835 0.0062629393442671282 0 -0.00024430622366397923 0.0061969328436623705 0 -9.8920968379149094e-05 0.0060441727795262105 0 -0.00010537463534066442 0.0060353072219756334 0 -0.00011318047343736838 0.0060384618137334567 0 -0.00024430622366397923 0.0061969328436623705 0 -0.000147396308344501 0.005997905153548329 0 -0.00024316412410587017 0.006294301179831467 0 -0.00030342259722611835 0.0062629393442671282 0 -0.00024430622366397923 0.0061969328436623705 0 -0.0001392204013912158 0.0063051757442855027 0 -0.00011318047343736838 0.0060384618137334567 0 -0.00024430622366397923 0.0061969328436623705 0 -0.00034593383134198173 0.0063250069928961058 0 -0.00024430622366397923 0.0061969328436623705 0 -0.000147396308344501 0.005997905153548329 0 -0.0001392204013912158 0.0063051757442855027 0 -0.00024316412410587017 0.006294301179831467 0 -0.00024430622366397923 0.0061969328436623705 0 -0.00039289893436784664 0.0064929261637714439 0 -0.00036025068311197421 0.0064813589133228917 0 -0.0003751911137543488 0.0065039999492018195 0 -0.00033109461145628999 0.006308641387191301 0 -0.00026744458585290285 0.0062486187597599226 0 -0.00034593383134198173 0.0063250069928961058 0 -0.00036025068311197421 0.0064813589133228917 0 -0.00030263848015688109 0.0064757506906759866 0 -0.00034593383134198173 0.0063250069928961058 0 -0.00039289893436784664 0.0064929261637714439 0 -0.00036025068311197421 0.0064813589133228917 0 -0.00033517258938348262 0.006536952260336161 0 -0.00030263848015688109 0.0064757506906759866 0 -0.00030661349550102949 0.0066303161711003698 0 -0.00036025068311197421 0.0064813589133228917 0 -0.00033517258938348262 0.006536952260336161 0 -0.00030263848015688109 0.0064757506906759866 0 -0.00024242208931932343 0.0065009837250594345 0 -0.00014511121485812203 0.0065862436044302562 0 -0.00030661349550102949 0.0066303161711003698 0 -0.00030263848015688109 0.0064757506906759866 0 -0.00024242208931932343 0.0065009837250594345 0 -0.00030661349550102949 0.0066303161711003698 0 -0.00024242208931932343 0.0065009837250594345 0 -0.00023160415204509258 0.0064276698048194572 0 -0.00018025824184332158 0.0064643143478787819 0 -0.00024242208931932343 0.0065009837250594345 0 -0.00023160415204509258 0.0064276698048194572 0 -0.00028529382218641752 0.0064208964798748418 0 -0.00030263848015688109 0.0064757506906759866 0 -0.00024242208931932343 0.0065009837250594345 0 -0.00028529382218641752 0.0064208964798748418 0 -0.00023160415204509258 0.0064276698048194572 0 -0.00028529382218641752 0.0064208964798748418 0 -0.00026673135298218735 0.0063752442349172102 0 -0.00023160415204509258 0.0064276698048194572 0 -0.00022180543747957022 0.0063924986728761662 0 -0.00026673135298218735 0.0063752442349172102 0 -0.00023160415204509258 0.0064276698048194572 0 -0.00019432005356342217 0.0064142510793755601 0 -0.00018025824184332158 0.0064643143478787819 0 -0.00023160415204509258 0.0064276698048194572 0 -0.00022180543747957022 0.0063924986728761662 0 -0.00019432005356342217 0.0064142510793755601 0 -0.00022180543747957022 0.0063924986728761662 0 -0.00019432005356342217 0.0064142510793755601 0 -0.00018284801600535361 0.0063815548434509933 0 -0.00030263848015688109 0.0064757506906759866 0 -0.00028529382218641752 0.0064208964798748418 0 -0.00033241127079936889 0.0063959522021740283 0 -0.00040903170128339238 0.0063888295090208953 0 -0.00030263848015688109 0.0064757506906759866 0 -0.00033241127079936889 0.0063959522021740283 0 -0.00037745594664428478 0.0064026741446177931 0 -0.00031363686608608236 0.0064328563326596817 0 -0.00028529382218641752 0.0064208964798748418 0 -0.00033241127079936889 0.0063959522021740283 0 -0.00029920126843340471 0.0063707371942163258 0 -0.00036840852556822043 0.0063614696261223708 0 -0.00033241127079936889 0.0063959522021740283 0 -0.00033306663262026225 0.0063464255164511528 0 -0.00036840852556822043 0.0063614696261223708 0 -0.00037559784741050323 0.0063143081470618126 0 -0.00033306663262026225 0.0063464255164511528 0 -0.00037559784741050323 0.0063143081470618126 0 -0.00033306663262026225 0.0063464255164511528 0 -0.00032546465362295581 0.0062980867994891949 0 -0.00033306663262026225 0.0063464255164511528 0 -0.000301196364392086 0.006340526406772397 0 -0.00032546465362295581 0.0062980867994891949 0 -0.000301196364392086 0.006340526406772397 0 -0.00028105491859117967 0.0063240590195399521 0 -0.00032546465362295581 0.0062980867994891949 0 -0.00033241127079936889 0.0063959522021740283 0 -0.00033306663262026225 0.0063464255164511528 0 -0.00029920126843340471 0.0063707371942163258 0 -0.000301196364392086 0.006340526406772397 0 -0.00029920126843340471 0.0063707371942163258 0 -0.00027556546621078333 0.0063459437599166493 0 -0.00033306663262026225 0.0063464255164511528 0 -0.000301196364392086 0.006340526406772397 0 -0.00029920126843340471 0.0063707371942163258 0 -0.00028529382218641752 0.0064208964798748418 0 -0.00029920126843340471 0.0063707371942163258 0 -0.00026673135298218735 0.0063752442349172102 0 -0.00026673135298218735 0.0063752442349172102 0 -0.00022925638564294195 0.0063573939618305226 0 -0.00025202518188767052 0.0063435915034936226 0 -0.00026673135298218735 0.0063752442349172102 0 -0.00027556546621078333 0.0063459437599166493 0 -0.00025202518188767052 0.0063435915034936226 0 -0.00029920126843340471 0.0063707371942163258 0 -0.00026673135298218735 0.0063752442349172102 0 -0.00027556546621078333 0.0063459437599166493 0 -0.00022925638564294195 0.0063573939618305226 0 -0.00024585605641764857 0.006308834816433807 0 -0.00018284801600535361 0.0063815548434509933 0 -0.00022180543747957022 0.0063924986728761662 0 -0.00022925638564294195 0.0063573939618305226 0 -0.00018284801600535361 0.0063815548434509933 0 -0.00022180543747957022 0.0063924986728761662 0 -0.00026673135298218735 0.0063752442349172102 0 -0.00022925638564294195 0.0063573939618305226 0 -0.00022925638564294195 0.0063573939618305226 0 -0.00024585605641764857 0.006308834816433807 0 -0.00025202518188767052 0.0063435915034936226 0 -0.00024630050231982226 0.0063124616856900049 0 -0.00028105491859117967 0.0063240590195399521 0 -0.00032546465362295581 0.0062980867994891949 0 -0.000301196364392086 0.006340526406772397 0 -0.00027556546621078333 0.0063459437599166493 0 -0.00028105491859117967 0.0063240590195399521 0 -0.00027556546621078333 0.0063459437599166493 0 -0.00025784717531311744 0.0063244477748584226 0 -0.00028105491859117967 0.0063240590195399521 0 -0.00027556546621078333 0.0063459437599166493 0 -0.00025202518188767052 0.0063435915034936226 0 -0.00025784717531311744 0.0063244477748584226 0 -0.00024630050231982226 0.0063124616856900049 0 -0.00025784717531311744 0.0063244477748584226 0 -0.00028105491859117967 0.0063240590195399521 0 -0.00024585605641764857 0.006308834816433807 0 -0.00025202518188767052 0.0063435915034936226 0 -0.00025784717531311744 0.0063244477748584226 0 -0.0011293535331209305 0.0073203780032150877 0 -0.00075989812541788187 0.0069088580368007468 0 -0.0011293535331209305 0.0073203780032150877 0 -0.0011916603612867258 0.0067853678012722808 0 -0.0024089729606344423 0.0075367632301247961 0 -0.0021620975425250565 0.0072740189499215938 0 -0.0021628978228530448 0.0075252996663907048 0 -0.0021620975425250565 0.0072740189499215938 0 -0.0021628978228530448 0.0075252996663907048 0 -0.0019244541378136747 0.0074887969311859693 0 -0.00038339114153451335 0.0062565059788181002 0 -0.00032733316487943635 0.0062439795225493295 0 -0.00032546465362295581 0.0062980867994891949 0 -0.00038339114153451335 0.0062565059788181002 0 -0.00037559784741050323 0.0063143081470618126 0 -0.00032546465362295581 0.0062980867994891949 0 -0.00024630050231982226 0.0063124616856900049 0 -0.00032733316487943635 0.0062439795225493295 0 -0.00032546465362295581 0.0062980867994891949 0 -0.00054793759511041784 0.011019279121556657 0 -0.00017807960330968564 0.010635786799081068 0 -0.00066235852050367905 0.010765962369687855 0 -0.00017807960330968564 0.010635786799081068 0 -0.00053067336441262188 0.010371304539893714 0 -0.00066235852050367905 0.010765962369687855 0 -0.0018237417757234146 0.0082841262271846818 0 -0.0011293535331209305 0.0073203780032150877 0 -0.0011250204778749595 0.0090443069436245676 0 -0.00074939023115229051 0.0086226055191927064 0 -0.001363325458618956 0.0088343994100734576 0 -0.00024585605641764857 0.006308834816433807 0 -0.00018284801600535361 0.0063815548434509933 0 -0.00010670960100533197 0.0063849710544630241 0 -0.00074939023115229051 0.0086226055191927064 0 -0.001363325458618956 0.0088343994100734576 0 -0.0012203879079768836 0.0082105395143547977 0 -0.0011293535331209305 0.0073203780032150877 0 -0.00049835055951164399 0.0084343640933069453 0 -0.00072246596992822415 0.010018612321261723 0 -0.00049835055951164399 0.0084343640933069453 0 -0.00053067336441262188 0.010371304539893714 0 -0.00048618511680405529 0.0099576030852034456 0 -5.7351412794536638e-05 0.010015246755999607 0 -0.00017807960330968564 0.010635786799081068 0 -0.00053067336441262188 0.010371304539893714 0 -5.7351412794536638e-05 0.010015246755999607 0 -0.00049835055951164399 0.0084343640933069453 0 -0.0001285011528634629 0.0080674984668088322 0 -0.00010670960100533197 0.0063849710544630241 0 -9.9831048893588451e-05 0.0064679665388054572 0 0.00011109298641969705 0.006506724092973668 0 -0.00048618511680405529 0.0099576030852034456 0 -5.7351412794536638e-05 0.010015246755999607 0 -0.0004748971919069407 0.0096429936969516915 0 -0.00048618511680405529 0.0099576030852034456 0 -0.0004748971919069407 0.0096429936969516915 0 -0.00054033438532266858 0.0096524436560115941 0 -0.00019432005356342217 0.0064142510793755601 0 -0.00015186040371049591 0.0064085784810272283 0 -0.00018025824184332158 0.0064643143478787819 0 -0.00018284801600535361 0.0063815548434509933 0 -0.00015186040371049591 0.0064085784810272283 0 -0.00010670960100533197 0.0063849710544630241 0 -0.00019432005356342217 0.0064142510793755601 0 -0.00018284801600535361 0.0063815548434509933 0 -0.00015186040371049591 0.0064085784810272283 0 -0.00015186040371049591 0.0064085784810272283 0 -0.00010670960100533197 0.0063849710544630241 0 -9.9831048893588451e-05 0.0064679665388054572 0 -0.00015186040371049591 0.0064085784810272283 0 -9.9831048893588451e-05 0.0064679665388054572 0 -0.00018025824184332158 0.0064643143478787819 0 -9.9831048893588451e-05 0.0064679665388054572 0 -0.00018025824184332158 0.0064643143478787819 0 -0.00014511121485812203 0.0065862436044302562 0 -0.00024242208931932343 0.0065009837250594345 0 -0.00018025824184332158 0.0064643143478787819 0 -0.00014511121485812203 0.0065862436044302562 0 -9.9831048893588451e-05 0.0064679665388054572 0 -0.00014511121485812203 0.0065862436044302562 0 0.00011109298641969705 0.006506724092973668 0 -0.00014511121485812203 0.0065862436044302562 0 0.00011109298641969705 0.006506724092973668 0 -1.1121989795137218e-05 0.0067604309831106784 0 -1.1121989795137218e-05 0.0067604309831106784 0 -0.00020592957569211717 0.0068602912924459365 0 -6.2840033659777021e-05 0.0073790525309770615 0 -8.4449972003715123e-05 0.0074568721980200195 0 0.00011834564837809799 0.0073011398153121024 0 -1.1121989795137218e-05 0.0067604309831106784 0 -6.2840033659777021e-05 0.0073790525309770615 0 0.00023636705998208681 0.0069925597785620089 0 -0.00020592957569211717 0.0068602912924459365 0 -0.00024298998317404423 0.0069491202351643156 0 -6.2840033659777021e-05 0.0073790525309770615 0 -0.00014511121485812203 0.0065862436044302562 0 -1.1121989795137218e-05 0.0067604309831106784 0 -0.00020592957569211717 0.0068602912924459365 0 -0.00014511121485812203 0.0065862436044302562 0 -0.00020592957569211717 0.0068602912924459365 0 -0.00030661349550102949 0.0066303161711003698 0 -0.00030661349550102949 0.0066303161711003698 0 -0.00035550234858010602 0.0065542668626156573 0 -0.000348149886549874 0.0066188587693881756 0 -0.00033517258938348262 0.006536952260336161 0 -0.00030661349550102949 0.0066303161711003698 0 -0.00035550234858010602 0.0065542668626156573 0 -0.00030661349550102949 0.0066303161711003698 0 -0.00030986995818729188 0.0067585133698190702 0 -0.000348149886549874 0.0066188587693881756 0 -0.00020592957569211717 0.0068602912924459365 0 -0.00030661349550102949 0.0066303161711003698 0 -0.00030986995818729188 0.0067585133698190702 0 -0.00020592957569211717 0.0068602912924459365 0 -0.00030986995818729188 0.0067585133698190702 0 -0.00024298998317404423 0.0069491202351643156 0 -0.00024298998317404423 0.0069491202351643156 0 -0.0002762171545294521 0.0068528754338942205 0 -0.00021948416303573301 0.0070574016691387596 0 -0.00030986995818729188 0.0067585133698190702 0 -0.00024298998317404423 0.0069491202351643156 0 -0.0002762171545294521 0.0068528754338942205 0 -0.00030986995818729188 0.0067585133698190702 0 -0.00031300766153760347 0.0066697053591632319 0 -0.000348149886549874 0.0066188587693881756 0 -0.00030986995818729188 0.0067585133698190702 0 -0.0002762171545294521 0.0068528754338942205 0 -0.00031300766153760347 0.0066697053591632319 0 -0.00031300766153760347 0.0066697053591632319 0 -0.00026124482782465246 0.0068003404912880816 0 -0.00028881805265552104 0.0064732817340901879 0 -0.00026124482782465246 0.0068003404912880816 0 -0.00028881805265552104 0.0064732817340901879 0 -0.00023884517314579423 0.0066297355638839719 0 -0.0002762171545294521 0.0068528754338942205 0 -0.00031300766153760347 0.0066697053591632319 0 -0.00026124482782465246 0.0068003404912880816 0 -0.00026124482782465246 0.0068003404912880816 0 -0.00021948416303573301 0.0070574016691387596 0 -0.00019359608421122383 0.0070074979316997604 0 -0.0002762171545294521 0.0068528754338942205 0 -0.00026124482782465246 0.0068003404912880816 0 -0.00021948416303573301 0.0070574016691387596 0 -0.00021948416303573301 0.0070574016691387596 0 -0.00015403491683248626 0.0073369934539718549 0 -6.2840033659777021e-05 0.0073790525309770615 0 -0.00021948416303573301 0.0070574016691387596 0 -0.00015403491683248626 0.0073369934539718549 0 -0.00019359608421122383 0.0070074979316997604 0 -0.00015403491683248626 0.0073369934539718549 0 -6.2840033659777021e-05 0.0073790525309770615 0 -0.00012883950920508698 0.0076721275877851278 0 -0.00024298998317404423 0.0069491202351643156 0 -0.00021948416303573301 0.0070574016691387596 0 -6.2840033659777021e-05 0.0073790525309770615 0 -0.00039947795220867424 0.0063072894376811359 0 -0.00028875973851141237 0.0062676431372527472 0 -0.00040577989441422491 0.0062977256309207615 0 -0.00032749009417594135 0.0064145357816989173 0 -0.00029618338711204196 0.0063698862819311867 0 -0.00042162805816625475 0.0060839933602837813 0 -0.00040577989441422491 0.0062977256309207615 0 -0.00022348214974909881 0.0061203548960622181 0 -0.00042162805816625475 0.0060839933602837813 0 -0.00031558063431862371 0.0059649152198376215 0 -0.00022348214974909881 0.0061203548960622181 0 -0.00026744458585290285 0.0062486187597599226 0 -0.00028875973851141237 0.0062676431372527472 0 -0.00039289893436784664 0.0064929261637714439 0 -0.00032749009417594135 0.0064145357816989173 0 -0.00035571768344952015 0.0064696414884454819 0 -0.00032749009417594135 0.0064145357816989173 0 -0.00035571768344952015 0.0064696414884454819 0 -0.00029618338711204196 0.0063698862819311867 0 -0.0003577935341473672 0.0065322174763500435 0 -0.00033896700619188015 0.0064950795573110289 0 -0.00029618338711204196 0.0063698862819311867 0 -0.00035571768344952015 0.0064696414884454819 0 -0.0003577935341473672 0.0065322174763500435 0 -0.00029618338711204196 0.0063698862819311867 0 -0.00039289893436784664 0.0064929261637714439 0 -0.00035571768344952015 0.0064696414884454819 0 -0.0003751911137543488 0.0065039999492018195 0 -0.00035571768344952015 0.0064696414884454819 0 -0.0003751911137543488 0.0065039999492018195 0 -0.0003577935341473672 0.0065322174763500435 0 -0.00036025068311197421 0.0064813589133228917 0 -0.00033517258938348262 0.006536952260336161 0 -0.00035550234858010602 0.0065542668626156573 0 -0.00036025068311197421 0.0064813589133228917 0 -0.0003751911137543488 0.0065039999492018195 0 -0.00035550234858010602 0.0065542668626156573 0 -0.0003751911137543488 0.0065039999492018195 0 -0.00035550234858010602 0.0065542668626156573 0 -0.0003577935341473672 0.0065322174763500435 0 -0.0003577935341473672 0.0065322174763500435 0 -0.000348149886549874 0.0066188587693881756 0 -0.00033896700619188015 0.0064950795573110289 0 -0.00035550234858010602 0.0065542668626156573 0 -0.0003577935341473672 0.0065322174763500435 0 -0.000348149886549874 0.0066188587693881756 0 -0.00031300766153760347 0.0066697053591632319 0 -0.000348149886549874 0.0066188587693881756 0 -0.00033896700619188015 0.0064950795573110289 0 -0.00031300766153760347 0.0066697053591632319 0 -0.00033896700619188015 0.0064950795573110289 0 -0.00028881805265552104 0.0064732817340901879 0 -0.00033896700619188015 0.0064950795573110289 0 -0.00028881805265552104 0.0064732817340901879 0 -0.00030343814894563009 0.0062742343553012911 0 -0.00028881805265552104 0.0064732817340901879 0 -0.00030343814894563009 0.0062742343553012911 0 -0.00026203798687161498 0.0061791720018049816 0 -0.00030343814894563009 0.0062742343553012911 0 -0.00024818733283070096 0.005978723743048712 0 -0.00026203798687161498 0.0061791720018049816 0 -0.00033896700619188015 0.0064950795573110289 0 -0.00030343814894563009 0.0062742343553012911 0 -0.00029618338711204196 0.0063698862819311867 0 -0.00030343814894563009 0.0062742343553012911 0 -0.00024437478931821664 0.0060559495931843252 0 -0.00024818733283070096 0.005978723743048712 0 -0.00029618338711204196 0.0063698862819311867 0 -0.00024437478931821664 0.0060559495931843252 0 -0.00016362885018304216 0.0059712490541707925 0 -0.00030343814894563009 0.0062742343553012911 0 -0.00029618338711204196 0.0063698862819311867 0 -0.00024437478931821664 0.0060559495931843252 0 -0.00024437478931821664 0.0060559495931843252 0 -0.00016362885018304216 0.0059712490541707925 0 -0.00020037402265899836 0.0058041725684725171 0 -0.00016362885018304216 0.0059712490541707925 0 -0.00012250277039576658 0.0057097550570828354 0 -0.00020037402265899836 0.0058041725684725171 0 -0.00023443475208389489 0.0061930179321650815 0 -0.00031146064608480057 0.0063649711609912556 0 -0.00039776521803056562 0.0063925338696918261 0 -0.00040577989441422491 0.0062977256309207615 0 -0.00029618338711204196 0.0063698862819311867 0 -6.9921095803647279e-05 0.0060631503861262913 0 -0.00029618338711204196 0.0063698862819311867 0 -0.00016362885018304216 0.0059712490541707925 0 -0.00020246721955527013 0.0052296246131465192 0 -0.00016311183378487617 0.0054749982935306104 0 -0.00020795609694707637 0.0056257030401073342 0 -0.00020246721955527013 0.0052296246131465192 0 -0.00020795609694707637 0.0056257030401073342 0 -0.0001785799848211248 0.0054092316769976147 0 -0.00016311183378487617 0.0054749982935306104 0 -0.00020037402265899836 0.0058041725684725171 0 -0.00020795609694707637 0.0056257030401073342 0 -0.00016311183378487617 0.0054749982935306104 0 -0.00012250277039576658 0.0057097550570828354 0 -0.00020037402265899836 0.0058041725684725171 0 -0.00020037402265899836 0.0058041725684725171 0 -0.00024818733283070096 0.005978723743048712 0 -0.00020795609694707637 0.0056257030401073342 0 -0.00024818733283070096 0.005978723743048712 0 -0.00020795609694707637 0.0056257030401073342 0 -0.00021336509066810201 0.0058994904108298279 0 -0.00024437478931821664 0.0060559495931843252 0 -0.00020037402265899836 0.0058041725684725171 0 -0.00024818733283070096 0.005978723743048712 0 -0.00020795609694707637 0.0056257030401073342 0 -0.00016273435090483833 0.0055995303025481273 0 -0.00021336509066810201 0.0058994904108298279 0 -0.00020795609694707637 0.0056257030401073342 0 -0.0001785799848211248 0.0054092316769976147 0 -0.00016273435090483833 0.0055995303025481273 0 -0.00021336509066810201 0.0058994904108298279 0 -0.00022492652402644677 0.0062353304612985504 0 -0.00013586270854358827 0.0058466939472622496 0 -0.00016273435090483833 0.0055995303025481273 0 -0.00021336509066810201 0.0058994904108298279 0 -0.00013586270854358827 0.0058466939472622496 0 -0.00021336509066810201 0.0058994904108298279 0 -0.00026203798687161498 0.0061791720018049816 0 -0.00022492652402644677 0.0062353304612985504 0 -0.00024818733283070096 0.005978723743048712 0 -0.00021336509066810201 0.0058994904108298279 0 -0.00026203798687161498 0.0061791720018049816 0 -0.00028881805265552104 0.0064732817340901879 0 -0.00026203798687161498 0.0061791720018049816 0 -0.00022492652402644677 0.0062353304612985504 0 -0.00028881805265552104 0.0064732817340901879 0 -0.00022492652402644677 0.0062353304612985504 0 -0.00023884517314579423 0.0066297355638839719 0 -0.00022492652402644677 0.0062353304612985504 0 -0.00013586270854358827 0.0058466939472622496 0 -0.0001762780390841031 0.0063281029674911622 0 -0.0001016299588141552 0.0058657676149208486 0 -0.00013586270854358827 0.0058466939472622496 0 -0.0001762780390841031 0.0063281029674911622 0 -0.0001016299588141552 0.0058657676149208486 0 -5.1567065273612263e-05 0.0055706683821742453 0 -0.00013586270854358827 0.0058466939472622496 0 -0.0001016299588141552 0.0058657676149208486 0 -5.1567065273612263e-05 0.0055706683821742453 0 -8.7507437583467437e-08 0.0051488809702482869 0 -0.0001016299588141552 0.0058657676149208486 0 -8.7507437583467437e-08 0.0051488809702482869 0 -2.3468018394754244e-07 0.0059526800827242963 0 -8.7507437583467437e-08 0.0051488809702482869 0 -2.1774385438492208e-05 0.0053650002569780716 0 -4.7594501610345388e-05 0.0053391621829441639 0 -1.4970070139614164e-07 0.0051470718116240636 0 -7.1576987925441737e-05 0.0048455476672457885 0 -5.1567065273612263e-05 0.0055706683821742453 0 -8.7507437583467437e-08 0.0051488809702482869 0 -2.1774385438492208e-05 0.0053650002569780716 0 -5.1567065273612263e-05 0.0055706683821742453 0 -2.1774385438492208e-05 0.0053650002569780716 0 -8.4560650208126778e-05 0.0054767018744542057 0 -0.00016273435090483833 0.0055995303025481273 0 -8.4560650208126778e-05 0.0054767018744542057 0 -0.00013586270854358827 0.0058466939472622496 0 -5.1567065273612263e-05 0.0055706683821742453 0 -8.4560650208126778e-05 0.0054767018744542057 0 -0.00013586270854358827 0.0058466939472622496 0 -0.00016273435090483833 0.0055995303025481273 0 -8.4560650208126778e-05 0.0054767018744542057 0 -0.0001402374760457352 0.0053903124215970806 0 -0.0001785799848211248 0.0054092316769976147 0 -0.0001402374760457352 0.0053903124215970806 0 -0.00016745693818066994 0.0052216085575705886 0 -0.0001785799848211248 0.0054092316769976147 0 -0.00016273435090483833 0.0055995303025481273 0 -0.0001402374760457352 0.0053903124215970806 0 -0.00010051526124933477 0.0052890040764472738 0 -0.00013565611309728496 0.0051646023998444222 0 -0.00016745693818066994 0.0052216085575705886 0 -0.0001402374760457352 0.0053903124215970806 0 -0.00010051526124933477 0.0052890040764472738 0 -0.00016745693818066994 0.0052216085575705886 0 -8.4560650208126778e-05 0.0054767018744542057 0 -0.0001402374760457352 0.0053903124215970806 0 -0.00010051526124933477 0.0052890040764472738 0 -2.1774385438492208e-05 0.0053650002569780716 0 -4.7594501610345388e-05 0.0053391621829441639 0 -8.4586528403333763e-05 0.0052583698346379618 0 1.5665211854585356e-10 0.005147093771903026 0 5.740361202165245e-08 0.0043942186417229761 0 3.0220395740622228e-06 0.0044310765396422978 0 -2.1774385438492208e-05 0.0053650002569780716 0 -8.4560650208126778e-05 0.0054767018744542057 0 -0.00010051526124933477 0.0052890040764472738 0 -2.1774385438492208e-05 0.0053650002569780716 0 -0.00010051526124933477 0.0052890040764472738 0 -8.4586528403333763e-05 0.0052583698346379618 0 -4.7594501610345388e-05 0.0053391621829441639 0 -8.4586528403333763e-05 0.0052583698346379618 0 -0.00013946454330110829 0.0051267654024585493 0 -8.4586528403333763e-05 0.0052583698346379618 0 -0.00013565611309728496 0.0051646023998444222 0 -0.00013946454330110829 0.0051267654024585493 0 -0.00010051526124933477 0.0052890040764472738 0 -8.4586528403333763e-05 0.0052583698346379618 0 -0.00013565611309728496 0.0051646023998444222 0 5.740361202165245e-08 0.0043942186417229761 0 3.0220395740622228e-06 0.0044310765396422978 0 -9.8788021422426899e-06 0.003747287160664501 0 -4.7594501610345388e-05 0.0053391621829441639 0 -0.00013946454330110829 0.0051267654024585493 0 -0.00025610283073251091 0.0048640949331899674 0 -7.1576987925441737e-05 0.0048455476672457885 0 -9.5461165947254391e-05 0.0042923152077811522 0 -2.0577899405522627e-07 0.0036416025219943591 0 5.740361202165245e-08 0.0043942186417229761 0 -9.8788021422426899e-06 0.003747287160664501 0 -0.00017475442851038543 0.0050266594966137555 0 -0.00013946454330110829 0.0051267654024585493 0 -0.00025610283073251091 0.0048640949331899674 0 -0.00013565611309728496 0.0051646023998444222 0 -0.00017475442851038543 0.0050266594966137555 0 -0.00013946454330110829 0.0051267654024585493 0 -0.00017475442851038543 0.0050266594966137555 0 -0.00025610283073251091 0.0048640949331899674 0 -0.0002231018210234528 0.0048284994135604879 0 -0.00021309987940527325 0.0048290436363621798 0 -0.00020069232834401903 0.0050135202810496918 0 -0.0002231018210234528 0.0048284994135604879 0 -0.00017475442851038543 0.0050266594966137555 0 -0.00020069232834401903 0.0050135202810496918 0 -0.0002231018210234528 0.0048284994135604879 0 -0.00013565611309728496 0.0051646023998444222 0 -0.00017475442851038543 0.0050266594966137555 0 -0.00016745693818066994 0.0052216085575705886 0 -0.00017475442851038543 0.0050266594966137555 0 -0.00020069232834401903 0.0050135202810496918 0 -0.00016745693818066994 0.0052216085575705886 0 -0.00020246721955527013 0.0052296246131465192 0 -0.0001785799848211248 0.0054092316769976147 0 -0.00016745693818066994 0.0052216085575705886 0 -0.00020246721955527013 0.0052296246131465192 0 -0.00020069232834401903 0.0050135202810496918 0 -0.00016745693818066994 0.0052216085575705886 0 -0.00021309987940527325 0.0048290436363621798 0 -0.00020246721955527013 0.0052296246131465192 0 -0.00020069232834401903 0.0050135202810496918 0 -0.000135909358187405 0.0074504665746066541 0 -0.00019359608421122383 0.0070074979316997604 0 -0.00014234342625598604 0.00681544707678702 0 -0.000135909358187405 0.0074504665746066541 0 -0.00014234342625598604 0.00681544707678702 0 -8.8459814642989027e-05 0.0072590194191320808 0 -0.000135909358187405 0.0074504665746066541 0 -8.8459814642989027e-05 0.0072590194191320808 0 -8.3746230051694485e-05 0.0080466293508127118 0 -0.00015403491683248626 0.0073369934539718549 0 -0.000135909358187405 0.0074504665746066541 0 -0.00012883950920508698 0.0076721275877851278 0 -0.00015403491683248626 0.0073369934539718549 0 -0.000135909358187405 0.0074504665746066541 0 -0.00019359608421122383 0.0070074979316997604 0 -0.00026124482782465246 0.0068003404912880816 0 -0.00019359608421122383 0.0070074979316997604 0 -0.00023884517314579423 0.0066297355638839719 0 -0.00019359608421122383 0.0070074979316997604 0 -0.00023884517314579423 0.0066297355638839719 0 -0.00019321216864784803 0.0066967993465715811 0 -0.00022492652402644677 0.0062353304612985504 0 -0.00023884517314579423 0.0066297355638839719 0 -0.0001762780390841031 0.0063281029674911622 0 -0.00023884517314579423 0.0066297355638839719 0 -0.0001762780390841031 0.0063281029674911622 0 -0.00019321216864784803 0.0066967993465715811 0 -0.0001762780390841031 0.0063281029674911622 0 -0.00019321216864784803 0.0066967993465715811 0 -0.00014234342625598604 0.00681544707678702 0 -0.00019359608421122383 0.0070074979316997604 0 -0.00019321216864784803 0.0066967993465715811 0 -0.00014234342625598604 0.00681544707678702 0 -0.00014234342625598604 0.00681544707678702 0 -0.00010709394006623606 0.0063070749575659061 0 -1.6506948060660101e-07 0.0067585481213412388 0 -0.0001762780390841031 0.0063281029674911622 0 -0.00014234342625598604 0.00681544707678702 0 -0.00010709394006623606 0.0063070749575659061 0 -0.0001016299588141552 0.0058657676149208486 0 -0.0001762780390841031 0.0063281029674911622 0 -0.00010709394006623606 0.0063070749575659061 0 -0.0001016299588141552 0.0058657676149208486 0 -0.00010709394006623606 0.0063070749575659061 0 -2.3468018394754244e-07 0.0059526800827242963 0 -0.00010709394006623606 0.0063070749575659061 0 -2.3468018394754244e-07 0.0059526800827242963 0 -1.6506948060660101e-07 0.0067585481213412388 0 -0.00014234342625598604 0.00681544707678702 0 -1.6506948060660101e-07 0.0067585481213412388 0 -8.8459814642989027e-05 0.0072590194191320808 0 -1.6506948060660101e-07 0.0067585481213412388 0 -8.8459814642989027e-05 0.0072590194191320808 0 -1.2532443048117868e-07 0.00756400646895711 0 -1.2532443048117868e-07 0.00756400646895711 0 -1.7513869182166575e-07 0.0083693929351451712 0 -8.3746230051694485e-05 0.0080466293508127118 0 -1.7513869182166575e-07 0.0083693929351451712 0 -8.3746230051694485e-05 0.0080466293508127118 0 -9.2736426200256729e-05 0.0085676208607292827 0 -8.8459814642989027e-05 0.0072590194191320808 0 -1.2532443048117868e-07 0.00756400646895711 0 -8.3746230051694485e-05 0.0080466293508127118 0 -0.000135909358187405 0.0074504665746066541 0 -8.3746230051694485e-05 0.0080466293508127118 0 -0.00011021779343183421 0.0080036852033203119 0 -8.3746230051694485e-05 0.0080466293508127118 0 -0.00011021779343183421 0.0080036852033203119 0 -8.952165174744994e-05 0.0085770018627483787 0 -0.00011021779343183421 0.0080036852033203119 0 -8.952165174744994e-05 0.0085770018627483787 0 -0.00012184101522120299 0.0080971291236230213 0 -0.000135909358187405 0.0074504665746066541 0 -0.00011021779343183421 0.0080036852033203119 0 -0.00012883950920508698 0.0076721275877851278 0 -8.3746230051694485e-05 0.0080466293508127118 0 -8.952165174744994e-05 0.0085770018627483787 0 -9.2736426200256729e-05 0.0085676208607292827 0 -8.952165174744994e-05 0.0085770018627483787 0 -6.043208116976698e-05 0.0087029944492139702 0 -9.2736426200256729e-05 0.0085676208607292827 0 0.000202655042271861 0.0092488824384165391 0 -8.952165174744994e-05 0.0085770018627483787 0 0.00013623424038715657 0.0088959715013855918 0 0.000202655042271861 0.0092488824384165391 0 -8.952165174744994e-05 0.0085770018627483787 0 0.00020802670972264577 0.0098238779354602734 0 -8.0638934471623979e-05 0.0086837253450522175 0 9.2504685412008434e-05 0.0092450311651930024 0 -6.043208116976698e-05 0.0087029944492139702 0 -9.2736426200256729e-05 0.0085676208607292827 0 -3.2893479052477061e-05 0.009090614301970959 0 -1.7513869182166575e-07 0.0083693929351451712 0 -9.2736426200256729e-05 0.0085676208607292827 0 -8.1387611677838704e-08 0.0091748095186477609 0 -9.2736426200256729e-05 0.0085676208607292827 0 -8.1387611677838704e-08 0.0091748095186477609 0 -3.2893479052477061e-05 0.009090614301970959 0 -8.1387611677838704e-08 0.0091748095186477609 0 -2.201461776908533e-07 0.0099806213956673516 0 -3.2893479052477061e-05 0.009090614301970959 0 -2.201461776908533e-07 0.0099806213956673516 0 0.00011978510356349166 0.0093876987331057149 0 -3.2893479052477061e-05 0.009090614301970959 0 -2.201461776908533e-07 0.0099806213956673516 0 0.00011978510356349166 0.0093876987331057149 0 4.164060195858936e-05 0.01058102099337983 0 0.00033509439824229838 0.010222264846446999 0 0.00038008860722568835 0.010213876899067262 0 0.00047482861724806001 0.010041969080069183 0 9.2504685412008434e-05 0.0092450311651930024 0 0.00018126215312235734 0.0098355164242808074 0 -6.043208116976698e-05 0.0087029944492139702 0 0.00011978510356349166 0.0093876987331057149 0 -3.2893479052477061e-05 0.009090614301970959 0 5.2640599573673887e-07 0.010787563838099489 0 2.5879136196157685e-05 0.011697702965667743 0 -3.0336516719453942e-07 0.011628020458369288 0 6.2787654195973813e-08 0.010786382004395934 0 0.00018616369512824166 0.010976108496536017 0 1.5055987243124568e-06 0.010784745625881218 0 4.164060195858936e-05 0.01058102099337983 0 0.00044337604076997924 0.010248416479346883 0 -2.201461776908533e-07 0.0099806213956673516 0 1.5055987243124568e-06 0.010784745625881218 0 4.164060195858936e-05 0.01058102099337983 0 0.00018126215312235734 0.0098355164242808074 0 8.7698337972701921e-05 0.010450038296355329 0 0.00033509439824229838 0.010222264846446999 0 4.164060195858936e-05 0.01058102099337983 0 0.00038008860722568835 0.010213876899067262 0 0.00038008860722568835 0.010213876899067262 0 0.00044337604076997924 0.010248416479346883 0 0.00044536284813761156 0.010271366419063219 0 4.164060195858936e-05 0.01058102099337983 0 0.00038008860722568835 0.010213876899067262 0 0.00044337604076997924 0.010248416479346883 0 0.00038008860722568835 0.010213876899067262 0 0.00044536284813761156 0.010271366419063219 0 0.00055917555408981437 0.010203403109316483 0 0.00038008860722568835 0.010213876899067262 0 0.00055917555408981437 0.010203403109316483 0 0.00047482861724806001 0.010041969080069183 0 0.00055917555408981437 0.010203403109316483 0 0.00061020602066220217 0.010057239231824907 0 0.00047482861724806001 0.010041969080069183 0 0.00055917555408981437 0.010203403109316483 0 0.00061020602066220217 0.010057239231824907 0 0.00071372707519261195 0.010386435951499207 0 0.00061020602066220217 0.010057239231824907 0 0.00071372707519261195 0.010386435951499207 0 0.00072388284413353046 0.010146752692554004 0 0.00044536284813761156 0.010271366419063219 0 0.00055917555408981437 0.010203403109316483 0 0.00049990979009999843 0.010476730163963726 0 0.00055917555408981437 0.010203403109316483 0 0.00049990979009999843 0.010476730163963726 0 0.00071372707519261195 0.010386435951499207 0 0.00049990979009999843 0.010476730163963726 0 0.00050449359830517218 0.010737825466419564 0 0.00071372707519261195 0.010386435951499207 0 0.00049990979009999843 0.010476730163963726 0 0.00050449359830517218 0.010737825466419564 0 0.00035236316388879621 0.010798602104570315 0 0.00020802670972264577 0.0098238779354602734 0 0.00047482861724806001 0.010041969080069183 0 0.00042562234822500239 0.0097119532149985699 0 0.00020802670972264577 0.0098238779354602734 0 0.00033509439824229838 0.010222264846446999 0 0.00047482861724806001 0.010041969080069183 0 0.00061020602066220217 0.010057239231824907 0 0.00047482861724806001 0.010041969080069183 0 0.00042562234822500239 0.0097119532149985699 0 0.00061020602066220217 0.010057239231824907 0 0.00050914261728000833 0.009771566260358527 0 0.00042562234822500239 0.0097119532149985699 0 0.00061020602066220217 0.010057239231824907 0 0.00050914261728000833 0.009771566260358527 0 0.00072388284413353046 0.010146752692554004 0 0.00050914261728000833 0.009771566260358527 0 0.00042562234822500239 0.0097119532149985699 0 0.00035057587188725374 0.0093386298986409839 0 0.000202655042271861 0.0092488824384165391 0 0.00042562234822500239 0.0097119532149985699 0 0.00035057587188725374 0.0093386298986409839 0 0.000202655042271861 0.0092488824384165391 0 0.00020802670972264577 0.0098238779354602734 0 0.00042562234822500239 0.0097119532149985699 0 0.00050914261728000833 0.009771566260358527 0 0.00035057587188725374 0.0093386298986409839 0 0.00037497671777129835 0.0095030932534368798 0 0.00035057587188725374 0.0093386298986409839 0 0.00029266968159358649 0.0092994728920149997 0 0.00031742842460757238 0.0089496325189874389 0 0.00035057587188725374 0.0093386298986409839 0 0.00029266968159358649 0.0092994728920149997 0 0.00037497671777129835 0.0095030932534368798 0 0.00050914261728000833 0.009771566260358527 0 0.00055939172014123398 0.0098375064200948211 0 0.00037497671777129835 0.0095030932534368798 0 0.00050914261728000833 0.009771566260358527 0 0.00055939172014123398 0.0098375064200948211 0 0.00072388284413353046 0.010146752692554004 0 0.00055939172014123398 0.0098375064200948211 0 0.00068918267805949277 0.0099773208940859576 0 0.00072388284413353046 0.010146752692554004 0 0.00055939172014123398 0.0098375064200948211 0 0.00044852289466143692 0.0095458596821134962 0 0.00037497671777129835 0.0095030932534368798 0 0.00055939172014123398 0.0098375064200948211 0 0.00068918267805949277 0.0099773208940859576 0 0.00044852289466143692 0.0095458596821134962 0 0.00068918267805949277 0.0099773208940859576 0 0.00044852289466143692 0.0095458596821134962 0 0.0008218190380468595 0.0094052761490739621 0 0.00044852289466143692 0.0095458596821134962 0 0.00057874144486752012 0.0094972119621377412 0 0.00052217683945061781 0.0093788863584703969 0 0.00069683275456138363 0.0098337894646678414 0 0.000736461749758785 0.010576373889374536 0 0.00044852289466143692 0.0095458596821134962 0 0.00032701094338630801 0.0094357731063114732 0 0.00052217683945061781 0.0093788863584703969 0 0.00044852289466143692 0.0095458596821134962 0 0.00032701094338630801 0.0094357731063114732 0 0.00037497671777129835 0.0095030932534368798 0 -0.00061030878933357132 0.009804784585932997 0 6.6265319571964841e-05 0.010010689850903068 0 0.0003331008822926309 0.009362028569369317 0 0.00032701094338630801 0.0094357731063114732 0 0.00029266968159358649 0.0092994728920149997 0 0.0003331008822926309 0.009362028569369317 0 -0.0001053311431883227 0.0096073922695128853 0 0.00026212902154218692 0.0094043714072838732 0 0.00029266968159358649 0.0092994728920149997 0 0.00031742842460757238 0.0089496325189874389 0 0.0003331008822926309 0.009362028569369317 0 0.00032701094338630801 0.0094357731063114732 0 0.00029266968159358649 0.0092994728920149997 0 0.00037497671777129835 0.0095030932534368798 0 0.00058004684273479956 0.010968592831324798 0 0.00050449359830517218 0.010737825466419564 0 0.00031147830063410085 0.011129847627404427 0 0.00058004684273479956 0.010968592831324798 0 0.00050449359830517218 0.010737825466419564 0 0.00071372707519261195 0.010386435951499207 0 0.00058004684273479956 0.010968592831324798 0 0.0010005083901044368 0.010455090443583547 0 0.00071372707519261195 0.010386435951499207 0 0.0010005083901044368 0.010455090443583547 0 0.00071372707519261195 0.010386435951499207 0 0.00072388284413353046 0.010146752692554004 0 0.00068918267805949277 0.0099773208940859576 0 0.0010005083901044368 0.010455090443583547 0 0.00072388284413353046 0.010146752692554004 0 0.0016777327417729175 0.01164970928004555 0 0.00090170094403828034 0.011492634574333889 0 0.00065622502603456955 0.012169742009185082 0 0.0010742553795160109 0.010484153720980436 0 0.000736461749758785 0.010576373889374536 0 0.00068918267805949277 0.0099773208940859576 0 0.0010005083901044368 0.010455090443583547 0 0.0008218190380468595 0.0094052761490739621 0 0.0010005083901044368 0.010455090443583547 0 0.00090170094403828034 0.011492634574333889 0 0.00065685944985298731 0.011344252232647466 0 0.0010005083901044368 0.010455090443583547 0 0.0016777327417729175 0.01164970928004555 0 0.00090170094403828034 0.011492634574333889 0 0.00058004684273479956 0.010968592831324798 0 0.0010005083901044368 0.010455090443583547 0 0.00065685944985298731 0.011344252232647466 0 0.00090170094403828034 0.011492634574333889 0 0.00064682849251845322 0.011743261589212203 0 0.00065622502603456955 0.012169742009185082 0 0.00090170094403828034 0.011492634574333889 0 0.00065685944985298731 0.011344252232647466 0 0.00064682849251845322 0.011743261589212203 0 0.00051463737800221425 0.011838773323468194 0 0.00046794041750699102 0.011593321686949569 0 0.00029502332066191038 0.011921695767380681 0 0.00065685944985298731 0.011344252232647466 0 0.00064682849251845322 0.011743261589212203 0 0.00046794041750699102 0.011593321686949569 0 0.00051463737800221425 0.011838773323468194 0 0.00045974020902211026 0.01204212554411103 0 0.00029502332066191038 0.011921695767380681 0 0.00064682849251845322 0.011743261589212203 0 0.00051463737800221425 0.011838773323468194 0 0.00046794041750699102 0.011593321686949569 0 0.00064682849251845322 0.011743261589212203 0 0.00051463737800221425 0.011838773323468194 0 0.0005866964633510634 0.011983792102601422 0 0.00058004684273479956 0.010968592831324798 0 0.00065685944985298731 0.011344252232647466 0 0.00046794041750699102 0.011593321686949569 0 0.00058004684273479956 0.010968592831324798 0 0.00046794041750699102 0.011593321686949569 0 0.00029826344505495773 0.011493471447107642 0 0.00027244251865311863 0.013091400306130666 0 0.00025267356807190259 0.01334660702136811 0 3.543831818121956e-05 0.013319714062852119 0 0.00045974020902211026 0.01204212554411103 0 0.00065622502603456955 0.012169742009185082 0 0.00027277160134648541 0.012285129725996911 0 0.00045974020902211026 0.01204212554411103 0 0.0005866964633510634 0.011983792102601422 0 0.00065622502603456955 0.012169742009185082 0 0.00051463737800221425 0.011838773323468194 0 0.00045974020902211026 0.01204212554411103 0 0.0005866964633510634 0.011983792102601422 0 0.00064682849251845322 0.011743261589212203 0 0.0005866964633510634 0.011983792102601422 0 0.00065622502603456955 0.012169742009185082 0 0.00041229168736900727 0.012401028869703229 0 -2.0964103462907391e-05 0.01282004789126168 0 0.000736461749758785 0.010576373889374536 0 0.00041229168736900727 0.012401028869703229 0 0.00053544684896505556 0.011443712281772052 0 -0.00011005501740822111 0.011721380659747552 0 0.00067594622421032063 0.011741340544708437 0 -2.0964103462907391e-05 0.01282004789126168 0 -5.0312613874075428e-05 0.010994176935834489 0 -0.00011005501740822111 0.011721380659747552 0 -0.0001454003551035612 0.012167368961731534 0 0.00067594622421032063 0.011741340544708437 0 0.000736461749758785 0.010576373889374536 0 -5.0312613874075428e-05 0.010994176935834489 0 -0.0001782422207139137 0.012385621359332287 0 -0.00042027839407226815 0.012323912944635987 0 -5.7636196688827438e-05 0.012128135704794705 0 0.00015385204172724948 0.013385836362616331 0 -0.00013918708804522918 0.01354172763518896 0 0.00013500258011195807 0.013637289125822568 0 -0.0001782422207139137 0.012385621359332287 0 -0.00042027839407226815 0.012323912944635987 0 -0.00043921905651531188 0.012586583809352573 0 -2.0964103462907391e-05 0.01282004789126168 0 -0.00014014199285792921 0.013532244439045155 0 -0.0001976466918127604 0.010726540912682849 0 -0.00038513978624684731 0.010256068458163462 0 -0.00078788082278202906 0.010478033082335962 0 -0.0001976466918127604 0.010726540912682849 0 6.6265319571964841e-05 0.010010689850903068 0 0.00069689054743625922 0.010225593612416527 0 -0.0001976466918127604 0.010726540912682849 0 6.6265319571964841e-05 0.010010689850903068 0 -0.00038513978624684731 0.010256068458163462 0 -0.00061030878933357132 0.009804784585932997 0 -0.00038513978624684731 0.010256068458163462 0 -0.00078788082278202906 0.010478033082335962 0 -0.00061030878933357132 0.009804784585932997 0 6.6265319571964841e-05 0.010010689850903068 0 -0.00038513978624684731 0.010256068458163462 0 -0.00061030878933357132 0.009804784585932997 0 -0.0014987741533430783 0.010264380165932041 0 -0.00078788082278202906 0.010478033082335962 0 -0.0001053311431883227 0.0096073922695128853 0 -5.0312613874075428e-05 0.010994176935834489 0 -0.0014987741533430783 0.010264380165932041 0 -0.00078788082278202906 0.010478033082335962 0 -0.00099568634538941712 0.011348292736146709 0 -0.0001782422207139137 0.012385621359332287 0 -5.7636196688827438e-05 0.012128135704794705 0 6.9855456626992472e-05 0.012407235887263472 0 -0.0001782422207139137 0.012385621359332287 0 6.9855456626992472e-05 0.012407235887263472 0 -0.00012000162532064262 0.012631996654240562 0 -5.0312613874075428e-05 0.010994176935834489 0 -0.00053799579363897094 0.011813926410413143 0 -0.0001976466918127604 0.010726540912682849 0 -0.00099568634538941712 0.011348292736146709 0 -0.00024035013694848851 0.011776601915277192 0 -0.0001976466918127604 0.010726540912682849 0 0.00033062137478777684 0.01126251628342516 0 -0.00024035013694848851 0.011776601915277192 0 -0.0001976466918127604 0.010726540912682849 0 -0.00078788082278202906 0.010478033082335962 0 -0.00099568634538941712 0.011348292736146709 0 0.00033062137478777684 0.01126251628342516 0 0.00031903139785836702 0.011963458168083783 0 -0.00024035013694848851 0.011776601915277192 0 0.00045131526697131608 0.0092520564208059264 0 0.00062333417232452934 0.0097802089805833336 0 0.00033062137478777684 0.01126251628342516 0 0.00069689054743625922 0.010225593612416527 0 0.0010839142687593551 0.011600084647244498 0 0.00033062137478777684 0.01126251628342516 0 0.0010839142687593551 0.011600084647244498 0 0.00031903139785836702 0.011963458168083783 0 0.00023754950104719406 0.0082145042850208082 0 6.005247655117149e-05 0.0081627151262770106 0 0.0002502667854630785 0.0085834005597491183 0 6.104146386942345e-05 0.0081206949507013626 0 0.0002292391901315813 0.0085001324565241523 0 -0.0001976466918127604 0.010726540912682849 0 0.00033062137478777684 0.01126251628342516 0 0.00069689054743625922 0.010225593612416527 0 6.6265319571964841e-05 0.010010689850903068 0 0.00069689054743625922 0.010225593612416527 0 0.0003331008822926309 0.009362028569369317 0 -4.034156079976238e-05 0.0079410541142266779 0 -0.00015948843869589385 0.0079343286833762922 0 -1.9504018988538391e-05 0.0083002736908019022 0 0.00023754950104719406 0.0082145042850208082 0 6.005247655117149e-05 0.0081627151262770106 0 7.5965218955777183e-05 0.0081728759618128494 0 6.005247655117149e-05 0.0081627151262770106 0 7.5965218955777183e-05 0.0081728759618128494 0 9.4904719763858254e-05 0.0081872175933214025 0 6.104146386942345e-05 0.0081206949507013626 0 -0.00025862056516369117 0.0078876864782530445 0 6.005247655117149e-05 0.0081627151262770106 0 9.4904719763858254e-05 0.0081872175933214025 0 0.00014047232735553782 0.0081858280929046241 0 -1.1121989795137218e-05 0.0067604309831106784 0 0.00040543084246036262 0.0067307310413824567 0 0.00023636705998208681 0.0069925597785620089 0 -0.00025862056516369117 0.0078876864782530445 0 0.00011834564837809799 0.0073011398153121024 0 -0.00014434053471379125 0.0078658696771314006 0 -0.00015948843869589385 0.0079343286833762922 0 -0.00014751312418880781 0.0077466456592158372 0 -0.00014580336606525264 0.0078448322233747557 0 -0.00014434053471379125 0.0078658696771314006 0 -0.00015948843869589385 0.0079343286833762922 0 -4.034156079976238e-05 0.0079410541142266779 0 -0.00014580336606525264 0.0078448322233747557 0 -0.00015948843869589385 0.0079343286833762922 0 -0.00015948843869589385 0.0079343286833762922 0 -0.00014751312418880781 0.0077466456592158372 0 -0.00012184101522120299 0.0080971291236230213 0 -0.00015948843869589385 0.0079343286833762922 0 -0.00012184101522120299 0.0080971291236230213 0 -1.9504018988538391e-05 0.0083002736908019022 0 -6.2840033659777021e-05 0.0073790525309770615 0 -0.00014751312418880781 0.0077466456592158372 0 -0.00012883950920508698 0.0076721275877851278 0 -6.2840033659777021e-05 0.0073790525309770615 0 -0.00014434053471379125 0.0078658696771314006 0 -0.00014751312418880781 0.0077466456592158372 0 -0.00011021779343183421 0.0080036852033203119 0 -0.00012883950920508698 0.0076721275877851278 0 -0.00012184101522120299 0.0080971291236230213 0 -0.00014751312418880781 0.0077466456592158372 0 -0.00012883950920508698 0.0076721275877851278 0 -0.00012184101522120299 0.0080971291236230213 0 -8.952165174744994e-05 0.0085770018627483787 0 -1.0290138614164868e-05 0.0085034457469885458 0 0.00013623424038715657 0.0088959715013855918 0 -8.952165174744994e-05 0.0085770018627483787 0 -0.00012184101522120299 0.0080971291236230213 0 -1.0290138614164868e-05 0.0085034457469885458 0 0.000202655042271861 0.0092488824384165391 0 0.00035057587188725374 0.0093386298986409839 0 0.00013623424038715657 0.0088959715013855918 0 0.00035057587188725374 0.0093386298986409839 0 0.00013623424038715657 0.0088959715013855918 0 0.00031742842460757238 0.0089496325189874389 0 0.00013623424038715657 0.0088959715013855918 0 0.00031742842460757238 0.0089496325189874389 0 0.00012127490175759391 0.0086498071890778582 0 -1.0290138614164868e-05 0.0085034457469885458 0 0.00013623424038715657 0.0088959715013855918 0 0.00012127490175759391 0.0086498071890778582 0 0.00069689054743625922 0.010225593612416527 0 0.00031742842460757238 0.0089496325189874389 0 0.0003331008822926309 0.009362028569369317 0 0.00012127490175759391 0.0086498071890778582 0 0.0002502667854630785 0.0085834005597491183 0 -1.9504018988538391e-05 0.0083002736908019022 0 0.00023754950104719406 0.0082145042850208082 0 0.00031742842460757238 0.0089496325189874389 0 0.0002502667854630785 0.0085834005597491183 0 0.00045131526697131608 0.0092520564208059264 0 0.00033065673786356655 0.0089377877431503702 0 0.00031742842460757238 0.0089496325189874389 0 0.00012127490175759391 0.0086498071890778582 0 0.0002502667854630785 0.0085834005597491183 0 -0.00012184101522120299 0.0080971291236230213 0 -1.0290138614164868e-05 0.0085034457469885458 0 -1.9504018988538391e-05 0.0083002736908019022 0 -4.034156079976238e-05 0.0079410541142266779 0 0.0002502667854630785 0.0085834005597491183 0 -1.9504018988538391e-05 0.0083002736908019022 0 -1.0290138614164868e-05 0.0085034457469885458 0 0.00012127490175759391 0.0086498071890778582 0 -1.9504018988538391e-05 0.0083002736908019022 0 7.7879943515856642e-08 0.01500036819512883 0 -8.4407460678458021e-06 0.014975751336965595 0 -2.4971776294871431e-06 0.014976381842346153 0 7.7879943515856642e-08 0.01500036819512883 0 -4.8854816591211068e-06 0.014981844955663046 0 -5.3467553254886438e-06 0.014987693197501284 0 7.7879943515856642e-08 0.01500036819512883 0 -4.8854816591211068e-06 0.014981844955663046 0 -2.4966186830633797e-06 0.01497929750637564 0 -4.8854816591211068e-06 0.014981844955663046 0 -2.4966186830633797e-06 0.01497929750637564 0 -2.7220218668656773e-06 0.014968377556242717 0 -2.4966186830633797e-06 0.01497929750637564 0 -2.4971776294871431e-06 0.014976381842346153 0 2.1696135816436544e-06 0.01496675381425837 0 7.7879943515856642e-08 0.01500036819512883 0 -2.4966186830633797e-06 0.01497929750637564 0 -2.4971776294871431e-06 0.014976381842346153 0 7.7879943515856642e-08 0.01500036819512883 0 -1.7775325091961607e-07 0.014999260097616523 0 -8.4407460678458021e-06 0.014975751336965595 0 -1.7775325091961607e-07 0.014999260097616523 0 -8.4407460678458021e-06 0.014975751336965595 0 2.8016301904018767e-07 0.01415596111361178 0 -8.4407460678458021e-06 0.014975751336965595 0 3.0764839105247958e-06 0.01495813859593461 0 -2.4971776294871431e-06 0.014976381842346153 0 -0.00016507098545181213 0.015131969212751506 0 0.00022949086872526677 0.013737525235542131 0 -8.4407460678458021e-06 0.014975751336965595 0 3.6221684753298576e-05 0.014266660824313368 0 2.8016301904018767e-07 0.01415596111361178 0 0.00022949086872526677 0.013737525235542131 0 3.3711625386416488e-07 0.01415465082346983 0 3.0764839105247958e-06 0.01495813859593461 0 -2.4971776294871431e-06 0.014976381842346153 0 2.1696135816436544e-06 0.01496675381425837 0 0.00057477710404611109 0.012209047780285091 0 0.00052746144615668723 0.01201948591263755 0 0.0004562136576059974 0.012155838820304205 0 0.00052746144615668723 0.01201948591263755 0 0.00040436462247849528 0.012080948567443637 0 0.00039328273578618405 0.011925397327144932 0 0.00022949086872526677 0.013737525235542131 0 0.00026317689377799199 0.013475478973746876 0 0.00052746144615668723 0.01201948591263755 0 0.0004562136576059974 0.012155838820304205 0 0.00040436462247849528 0.012080948567443637 0 0.00022949086872526677 0.013737525235542131 0 0.00015118323754453525 0.012661619452327475 0 -1.7919632641629805e-06 0.014034050186961014 0 5.7054037927598722e-08 0.014154196468404446 0 -4.9267731683301748e-08 0.013312951428539031 0 0.00057477710404611109 0.012209047780285091 0 0.0004562136576059974 0.012155838820304205 0 0.0003615647690460774 0.012230298044412677 0 -1.7919632641629805e-06 0.014034050186961014 0 -4.9267731683301748e-08 0.013312951428539031 0 1.3470734882109895e-06 0.013264372696527979 0 0.0003615647690460774 0.012230298044412677 0 0.00034260659830395485 0.012179151765403151 0 0.00030235024694658124 0.012194529974821058 0 0.0004562136576059974 0.012155838820304205 0 0.0003615647690460774 0.012230298044412677 0 0.0003833210747563316 0.012161646987921085 0 0.0004562136576059974 0.012155838820304205 0 0.0003833210747563316 0.012161646987921085 0 0.00040436462247849528 0.012080948567443637 0 0.0003615647690460774 0.012230298044412677 0 0.0003833210747563316 0.012161646987921085 0 0.00034260659830395485 0.012179151765403151 0 0.0003833210747563316 0.012161646987921085 0 0.00034260659830395485 0.012179151765403151 0 0.00031919469465778211 0.012121620717972853 0 0.00034260659830395485 0.012179151765403151 0 0.00031919469465778211 0.012121620717972853 0 0.00030235024694658124 0.012194529974821058 0 0.0003833210747563316 0.012161646987921085 0 0.00031919469465778211 0.012121620717972853 0 0.00040436462247849528 0.012080948567443637 0 0.00040436462247849528 0.012080948567443637 0 0.00033319111957821863 0.012028834568393119 0 0.00039328273578618405 0.011925397327144932 0 0.00031919469465778211 0.012121620717972853 0 0.00033319111957821863 0.012028834568393119 0 0.00027591372013641315 0.012061873836726217 0 0.00031919469465778211 0.012121620717972853 0 0.00040436462247849528 0.012080948567443637 0 0.00033319111957821863 0.012028834568393119 0 0.00033319111957821863 0.012028834568393119 0 0.00039328273578618405 0.011925397327144932 0 0.00026665885672508684 0.01191160481007838 0 0.00039328273578618405 0.011925397327144932 0 0.00024901278001002072 0.011824959226832929 0 0.00026665885672508684 0.01191160481007838 0 0.00026317689377799199 0.013475478973746876 0 0.00024083508202685146 0.013347511544658488 0 0.00052746144615668723 0.01201948591263755 0 0.00039328273578618405 0.011925397327144932 0 0.00045302205478637875 0.011826487877482037 0 -2.4966186830633797e-06 0.01497929750637564 0 2.1696135816436544e-06 0.01496675381425837 0 -2.7220218668656773e-06 0.014968377556242717 0 0.00024083508202685146 0.013347511544658488 0 -0.00013651399539289899 0.013663840141992827 0 -4.8854816591211068e-06 0.014981844955663046 0 -2.7220218668656773e-06 0.014968377556242717 0 -5.127986981289742e-06 0.014973464479269919 0 -2.7220218668656773e-06 0.014968377556242717 0 -5.127986981289742e-06 0.014973464479269919 0 -4.7970560130902384e-06 0.014966037992374059 0 0.00045302205478637875 0.011826487877482037 0 0.0003235890930785324 0.011740277284624352 0 0.00038606095112838181 0.011654331167312466 0 0.00039328273578618405 0.011925397327144932 0 0.00045302205478637875 0.011826487877482037 0 0.0003235890930785324 0.011740277284624352 0 0.00039328273578618405 0.011925397327144932 0 0.0003235890930785324 0.011740277284624352 0 0.00024901278001002072 0.011824959226832929 0 0.0003235890930785324 0.011740277284624352 0 0.00024901278001002072 0.011824959226832929 0 0.00016026341966193715 0.011758594688941063 0 0.0003235890930785324 0.011740277284624352 0 0.00016026341966193715 0.011758594688941063 0 0.00023357739222656997 0.011663799896365307 0 0.00024901278001002072 0.011824959226832929 0 0.00016026341966193715 0.011758594688941063 0 0.00015711748359466989 0.011850705524666539 0 0.00016026341966193715 0.011758594688941063 0 6.879872585035e-05 0.011746390849269716 0 8.4467896511064255e-05 0.011685111692482032 0 6.879872585035e-05 0.011746390849269716 0 4.9944145898252777e-05 0.011812822137138881 0 8.2351090024365934e-06 0.011723843210160746 0 6.879872585035e-05 0.011746390849269716 0 8.2351090024365934e-06 0.011723843210160746 0 8.4467896511064255e-05 0.011685111692482032 0 0.00016026341966193715 0.011758594688941063 0 4.9944145898252777e-05 0.011812822137138881 0 0.00015711748359466989 0.011850705524666539 0 0.00016026341966193715 0.011758594688941063 0 6.879872585035e-05 0.011746390849269716 0 4.9944145898252777e-05 0.011812822137138881 0 4.9944145898252777e-05 0.011812822137138881 0 8.3195499440027603e-05 0.011874792921706748 0 0.00015711748359466989 0.011850705524666539 0 4.9944145898252777e-05 0.011812822137138881 0 1.8084502862631471e-05 0.01187889487289521 0 8.3195499440027603e-05 0.011874792921706748 0 1.8084502862631471e-05 0.01187889487289521 0 8.3195499440027603e-05 0.011874792921706748 0 5.8832743630647974e-05 0.011936942275796222 0 8.3195499440027603e-05 0.011874792921706748 0 0.00012986102378051843 0.011911023138845676 0 0.00015711748359466989 0.011850705524666539 0 8.3195499440027603e-05 0.011874792921706748 0 0.00012986102378051843 0.011911023138845676 0 5.8832743630647974e-05 0.011936942275796222 0 0.00012986102378051843 0.011911023138845676 0 0.00015711748359466989 0.011850705524666539 0 0.00020620684794332155 0.011944998264774253 0 0.00024901278001002072 0.011824959226832929 0 0.00015711748359466989 0.011850705524666539 0 0.00026665885672508684 0.01191160481007838 0 0.00015711748359466989 0.011850705524666539 0 0.00026665885672508684 0.01191160481007838 0 0.00020620684794332155 0.011944998264774253 0 0.00033319111957821863 0.012028834568393119 0 0.00020620684794332155 0.011944998264774253 0 0.00022009447768881808 0.012014562971038723 0 0.00033319111957821863 0.012028834568393119 0 0.00026665885672508684 0.01191160481007838 0 0.00020620684794332155 0.011944998264774253 0 0.00012986102378051843 0.011911023138845676 0 0.00020620684794332155 0.011944998264774253 0 0.0001395540565714721 0.011971880918580058 0 0.00020620684794332155 0.011944998264774253 0 0.00022009447768881808 0.012014562971038723 0 0.0001395540565714721 0.011971880918580058 0 0.00022009447768881808 0.012014562971038723 0 0.0001395540565714721 0.011971880918580058 0 0.00015500101700047415 0.012034158837217883 0 0.0001395540565714721 0.011971880918580058 0 0.00015500101700047415 0.012034158837217883 0 8.4998340052258028e-05 0.01199545288389531 0 0.00022009447768881808 0.012014562971038723 0 0.00015500101700047415 0.012034158837217883 0 0.00022907879956801788 0.012084910428344848 0 0.00015500101700047415 0.012034158837217883 0 0.00022907879956801788 0.012084910428344848 0 0.00015726175465778481 0.01212380073763524 0 0.00015500101700047415 0.012034158837217883 0 0.00015726175465778481 0.01212380073763524 0 8.5606688340561992e-05 0.012059983134619335 0 0.00033319111957821863 0.012028834568393119 0 0.00022009447768881808 0.012014562971038723 0 0.00027591372013641315 0.012061873836726217 0 0.00031919469465778211 0.012121620717972853 0 0.00027591372013641315 0.012061873836726217 0 0.00022907879956801788 0.012084910428344848 0 0.00022009447768881808 0.012014562971038723 0 0.00027591372013641315 0.012061873836726217 0 0.00022907879956801788 0.012084910428344848 0 0.00015118323754453525 0.012661619452327475 0 -4.1770770281057087e-05 0.012546006887599668 0 0.00031919469465778211 0.012121620717972853 0 0.00022907879956801788 0.012084910428344848 0 0.00023529642241369391 0.012166060394504732 0 0.0003615647690460774 0.012230298044412677 0 0.00022209256870050199 0.012273757893553047 0 6.4401066291800438e-07 0.01246462772879026 0 0.00031919469465778211 0.012121620717972853 0 0.00030235024694658124 0.012194529974821058 0 0.00023529642241369391 0.012166060394504732 0 -4.9267731683301748e-08 0.013312951428539031 0 1.3470734882109895e-06 0.013264372696527979 0 4.7492531378652599e-08 0.012465740866647295 0 0.00030235024694658124 0.012194529974821058 0 0.00023529642241369391 0.012166060394504732 0 0.00022209256870050199 0.012273757893553047 0 0.00022907879956801788 0.012084910428344848 0 0.00023529642241369391 0.012166060394504732 0 0.00015726175465778481 0.01212380073763524 0 0.00015726175465778481 0.01212380073763524 0 0.00011571695445804305 0.012189161144997884 0 8.6348713807699805e-05 0.0121320123092796 0 0.00015726175465778481 0.01212380073763524 0 0.00011571695445804305 0.012189161144997884 0 0.00016867388972281432 0.012203362487668172 0 0.00011571695445804305 0.012189161144997884 0 0.00016867388972281432 0.012203362487668172 0 0.0001024542345411849 0.012265116136336849 0 0.00023529642241369391 0.012166060394504732 0 0.00015726175465778481 0.01212380073763524 0 0.00016867388972281432 0.012203362487668172 0 0.00023529642241369391 0.012166060394504732 0 0.00016867388972281432 0.012203362487668172 0 0.00022209256870050199 0.012273757893553047 0 0.00022209256870050199 0.012273757893553047 0 4.9109355770005504e-05 0.012344718497911394 0 0.0001024542345411849 0.012265116136336849 0 0.00016867388972281432 0.012203362487668172 0 0.00022209256870050199 0.012273757893553047 0 0.0001024542345411849 0.012265116136336849 0 0.0003615647690460774 0.012230298044412677 0 0.00030235024694658124 0.012194529974821058 0 0.00022209256870050199 0.012273757893553047 0 -2.8826612660237982e-07 0.012382030235315061 0 -2.0797311599152396e-05 0.012057083122578641 0 -4.2857502304208359e-05 0.011940687142704867 0 -2.8826612660237982e-07 0.012382030235315061 0 2.0778298978750076e-05 0.012221494906839631 0 -2.0797311599152396e-05 0.012057083122578641 0 -2.8826612660237982e-07 0.012382030235315061 0 4.9109355770005504e-05 0.012344718497911394 0 2.0778298978750076e-05 0.012221494906839631 0 -2.8826612660237982e-07 0.012382030235315061 0 6.4401066291800438e-07 0.01246462772879026 0 4.9109355770005504e-05 0.012344718497911394 0 0.00022209256870050199 0.012273757893553047 0 6.4401066291800438e-07 0.01246462772879026 0 4.9109355770005504e-05 0.012344718497911394 0 4.9109355770005504e-05 0.012344718497911394 0 5.4798742855365613e-05 0.012259158782546709 0 0.0001024542345411849 0.012265116136336849 0 5.4798742855365613e-05 0.012259158782546709 0 0.0001024542345411849 0.012265116136336849 0 6.2289272501972741e-05 0.012198316768467847 0 4.9109355770005504e-05 0.012344718497911394 0 5.4798742855365613e-05 0.012259158782546709 0 2.0778298978750076e-05 0.012221494906839631 0 5.4798742855365613e-05 0.012259158782546709 0 2.0778298978750076e-05 0.012221494906839631 0 6.2289272501972741e-05 0.012198316768467847 0 6.2289272501972741e-05 0.012198316768467847 0 8.6348713807699805e-05 0.0121320123092796 0 2.9502622565643565e-05 0.012092402262507223 0 2.0778298978750076e-05 0.012221494906839631 0 6.2289272501972741e-05 0.012198316768467847 0 2.9502622565643565e-05 0.012092402262507223 0 0.00011571695445804305 0.012189161144997884 0 0.0001024542345411849 0.012265116136336849 0 6.2289272501972741e-05 0.012198316768467847 0 0.00011571695445804305 0.012189161144997884 0 6.2289272501972741e-05 0.012198316768467847 0 8.6348713807699805e-05 0.0121320123092796 0 0.00015726175465778481 0.01212380073763524 0 8.6348713807699805e-05 0.0121320123092796 0 8.5606688340561992e-05 0.012059983134619335 0 8.6348713807699805e-05 0.0121320123092796 0 2.9502622565643565e-05 0.012092402262507223 0 8.5606688340561992e-05 0.012059983134619335 0 2.9502622565643565e-05 0.012092402262507223 0 -2.0797311599152396e-05 0.012057083122578641 0 2.6764320098478424e-05 0.01200227689089116 0 2.0778298978750076e-05 0.012221494906839631 0 2.9502622565643565e-05 0.012092402262507223 0 -2.0797311599152396e-05 0.012057083122578641 0 -2.0797311599152396e-05 0.012057083122578641 0 2.6764320098478424e-05 0.01200227689089116 0 -2.4017156898949217e-05 0.011936874066136778 0 2.6764320098478424e-05 0.01200227689089116 0 5.8832743630647974e-05 0.011936942275796222 0 -2.4017156898949217e-05 0.011936874066136778 0 2.9502622565643565e-05 0.012092402262507223 0 2.6764320098478424e-05 0.01200227689089116 0 8.5606688340561992e-05 0.012059983134619335 0 2.6764320098478424e-05 0.01200227689089116 0 8.5606688340561992e-05 0.012059983134619335 0 8.4998340052258028e-05 0.01199545288389531 0 0.00015500101700047415 0.012034158837217883 0 8.5606688340561992e-05 0.012059983134619335 0 8.4998340052258028e-05 0.01199545288389531 0 0.00012986102378051843 0.011911023138845676 0 0.0001395540565714721 0.011971880918580058 0 5.8832743630647974e-05 0.011936942275796222 0 2.6764320098478424e-05 0.01200227689089116 0 8.4998340052258028e-05 0.01199545288389531 0 5.8832743630647974e-05 0.011936942275796222 0 0.0001395540565714721 0.011971880918580058 0 8.4998340052258028e-05 0.01199545288389531 0 5.8832743630647974e-05 0.011936942275796222 0 1.8084502862631471e-05 0.01187889487289521 0 5.8832743630647974e-05 0.011936942275796222 0 -2.4017156898949217e-05 0.011936874066136778 0 -3.4023286474221775e-05 0.01187184804425942 0 -3.8905625228809739e-05 0.011832465882475093 0 -4.9506138222805987e-05 0.011857660069126428 0 1.8084502862631471e-05 0.01187889487289521 0 -3.4023286474221775e-05 0.01187184804425942 0 -2.4017156898949217e-05 0.011936874066136778 0 -3.4023286474221775e-05 0.01187184804425942 0 -3.8905625228809739e-05 0.011832465882475093 0 -2.4017156898949217e-05 0.011936874066136778 0 -3.8905625228809739e-05 0.011832465882475093 0 -2.4017156898949217e-05 0.011936874066136778 0 -4.2857502304208359e-05 0.011940687142704867 0 -2.8826612660237982e-07 0.012382030235315061 0 -4.2857502304208359e-05 0.011940687142704867 0 -3.0336516719453942e-07 0.011628020458369288 0 -3.8905625228809739e-05 0.011832465882475093 0 -4.2857502304208359e-05 0.011940687142704867 0 -3.0336516719453942e-07 0.011628020458369288 0 -2.0797311599152396e-05 0.012057083122578641 0 -2.4017156898949217e-05 0.011936874066136778 0 -4.2857502304208359e-05 0.011940687142704867 0 2.5879136196157685e-05 0.011697702965667743 0 -3.8905625228809739e-05 0.011832465882475093 0 -3.0336516719453942e-07 0.011628020458369288 0 2.5879136196157685e-05 0.011697702965667743 0 -3.8905625228809739e-05 0.011832465882475093 0 -4.9506138222805987e-05 0.011857660069126428 0 0.00018616369512824166 0.010976108496536017 0 9.3823029923905123e-05 0.011095601954990734 0 0.00044337604076997924 0.010248416479346883 0 0.00044536284813761156 0.010271366419063219 0 0.00018538271498454585 0.010313080491299286 0 0.00044536284813761156 0.010271366419063219 0 0.00018538271498454585 0.010313080491299286 0 0.00019704435716787666 0.010632251014751367 0 4.9944145898252777e-05 0.011812822137138881 0 1.8084502862631471e-05 0.01187889487289521 0 -4.9506138222805987e-05 0.011857660069126428 0 1.8084502862631471e-05 0.01187889487289521 0 -3.4023286474221775e-05 0.01187184804425942 0 -4.9506138222805987e-05 0.011857660069126428 0 4.9944145898252777e-05 0.011812822137138881 0 -4.9506138222805987e-05 0.011857660069126428 0 8.2351090024365934e-06 0.011723843210160746 0 9.3823029923905123e-05 0.011095601954990734 0 -0.00026146225464284171 0.01117186580458816 0 -0.00059853987221981291 0.011122217026333359 0 0.00019704435716787666 0.010632251014751367 0 -0.00016279394376711307 0.011145862277306516 0 -0.00026146225464284171 0.01117186580458816 0 0.00014286823153656332 0.010672288605654045 0 0.00018538271498454585 0.010313080491299286 0 -0.0001885691674149798 0.010763961359964734 0 0.00019704435716787666 0.010632251014751367 0 0.00049990979009999843 0.010476730163963726 0 0.00019704435716787666 0.010632251014751367 0 0.00035236316388879621 0.010798602104570315 0 0.00019704435716787666 0.010632251014751367 0 0.00035236316388879621 0.010798602104570315 0 0.00014764712564996053 0.011052937061760821 0 0.00044536284813761156 0.010271366419063219 0 0.00049990979009999843 0.010476730163963726 0 0.00019704435716787666 0.010632251014751367 0 0.00019704435716787666 0.010632251014751367 0 0.00014764712564996053 0.011052937061760821 0 -0.00016279394376711307 0.011145862277306516 0 7.6213240663881362e-07 0.011469018067326855 0 -0.00011043028393045521 0.011751745869199531 0 0.00010064065114759381 0.011612463611160556 0 7.6213240663881362e-07 0.011469018067326855 0 0.00031147830063410085 0.011129847627404427 0 0.00010064065114759381 0.011612463611160556 0 0.00058004684273479956 0.010968592831324798 0 0.00031147830063410085 0.011129847627404427 0 0.00029826344505495773 0.011493471447107642 0 0.00031147830063410085 0.011129847627404427 0 0.00010064065114759381 0.011612463611160556 0 0.00029826344505495773 0.011493471447107642 0 0.00031147830063410085 0.011129847627404427 0 0.00035236316388879621 0.010798602104570315 0 0.00014764712564996053 0.011052937061760821 0 0.00050449359830517218 0.010737825466419564 0 0.00031147830063410085 0.011129847627404427 0 0.00035236316388879621 0.010798602104570315 0 7.6213240663881362e-07 0.011469018067326855 0 0.00031147830063410085 0.011129847627404427 0 0.00014764712564996053 0.011052937061760821 0 7.6213240663881362e-07 0.011469018067326855 0 0.00014764712564996053 0.011052937061760821 0 -0.00016279394376711307 0.011145862277306516 0 7.6213240663881362e-07 0.011469018067326855 0 -0.00016279394376711307 0.011145862277306516 0 -0.00021786676413483664 0.011650639747071777 0 -0.00059853987221981291 0.011122217026333359 0 -0.00016279394376711307 0.011145862277306516 0 -0.0011454047125623965 0.011352001198188215 0 -0.00016279394376711307 0.011145862277306516 0 -0.00040896272155798683 0.011849980061375004 0 -0.00060508990581911411 0.011859223036625732 0 -0.00033328610532596271 0.011224657089158711 0 -0.00040996936150143593 0.011854549777125844 0 -0.00016279394376711307 0.011145862277306516 0 -0.00021786676413483664 0.011650639747071777 0 -0.00040896272155798683 0.011849980061375004 0 -0.00021786676413483664 0.011650639747071777 0 -0.00029984416564476289 0.011972184216524453 0 -0.00040896272155798683 0.011849980061375004 0 -0.00029984416564476289 0.011972184216524453 0 -0.00043498209902864628 0.012172425726055694 0 -0.00040896272155798683 0.011849980061375004 0 7.6213240663881362e-07 0.011469018067326855 0 -0.00021786676413483664 0.011650639747071777 0 -0.00011043028393045521 0.011751745869199531 0 -0.00021786676413483664 0.011650639747071777 0 -0.00011043028393045521 0.011751745869199531 0 -0.00029984416564476289 0.011972184216524453 0 -0.00011043028393045521 0.011751745869199531 0 -0.00012714323470506807 0.012044523395466803 0 0.00010064065114759381 0.011612463611160556 0 -0.00011043028393045521 0.011751745869199531 0 -0.00012714323470506807 0.012044523395466803 0 -0.00029984416564476289 0.011972184216524453 0 -0.00012714323470506807 0.012044523395466803 0 -0.00029984416564476289 0.011972184216524453 0 -0.0003732100430102043 0.012351135194639649 0 -0.00029984416564476289 0.011972184216524453 0 -0.0003732100430102043 0.012351135194639649 0 -0.00043498209902864628 0.012172425726055694 0 -0.00012714323470506807 0.012044523395466803 0 -0.0003732100430102043 0.012351135194639649 0 -0.00024055956246779833 0.012452017527598124 0 -0.0003732100430102043 0.012351135194639649 0 -0.00024055956246779833 0.012452017527598124 0 -0.00039255790985963401 0.012603057531136278 0 -0.00012714323470506807 0.012044523395466803 0 -0.00024055956246779833 0.012452017527598124 0 8.2847298255433553e-06 0.012309209544614966 0 -0.00012714323470506807 0.012044523395466803 0 9.6679256297024023e-05 0.011885948233335775 0 8.2847298255433553e-06 0.012309209544614966 0 9.6679256297024023e-05 0.011885948233335775 0 0.00029502332066191038 0.011921695767380681 0 8.2847298255433553e-06 0.012309209544614966 0 -0.00012714323470506807 0.012044523395466803 0 9.6679256297024023e-05 0.011885948233335775 0 0.00010064065114759381 0.011612463611160556 0 9.6679256297024023e-05 0.011885948233335775 0 0.00010064065114759381 0.011612463611160556 0 0.00029826344505495773 0.011493471447107642 0 9.6679256297024023e-05 0.011885948233335775 0 0.00029826344505495773 0.011493471447107642 0 0.00029502332066191038 0.011921695767380681 0 0.00046794041750699102 0.011593321686949569 0 0.00029826344505495773 0.011493471447107642 0 0.00029502332066191038 0.011921695767380681 0 0.00045974020902211026 0.01204212554411103 0 0.00029502332066191038 0.011921695767380681 0 0.00027277160134648541 0.012285129725996911 0 0.00041229168736900727 0.012401028869703229 0 -0.00010574377089767234 0.013139162557229177 0 0.00065622502603456955 0.012169742009185082 0 0.00027277160134648541 0.012285129725996911 0 1.1003435043008458e-05 0.012899596437226404 0 0.00027244251865311863 0.013091400306130666 0 3.543831818121956e-05 0.013319714062852119 0 -0.00017944505113053953 0.013296675744799079 0 0.00029502332066191038 0.011921695767380681 0 0.00027277160134648541 0.012285129725996911 0 8.2847298255433553e-06 0.012309209544614966 0 0.00027277160134648541 0.012285129725996911 0 8.2847298255433553e-06 0.012309209544614966 0 1.1003435043008458e-05 0.012899596437226404 0 0.00025267356807190259 0.01334660702136811 0 3.543831818121956e-05 0.013319714062852119 0 -0.00013918708804522918 0.01354172763518896 0 -2.0964103462907391e-05 0.01282004789126168 0 -8.5669419035090097e-05 0.013632711452901212 0 3.543831818121956e-05 0.013319714062852119 0 -0.00017944505113053953 0.013296675744799079 0 -0.00015800648399382609 0.01342024493535454 0 3.543831818121956e-05 0.013319714062852119 0 -0.00015800648399382609 0.01342024493535454 0 -0.00013918708804522918 0.01354172763518896 0 -0.00013918708804522918 0.01354172763518896 0 -0.00019239711637558096 0.013531255681611214 0 -0.00018088629927344725 0.013594523132360896 0 -0.00015800648399382609 0.01342024493535454 0 -0.00013918708804522918 0.01354172763518896 0 -0.00019239711637558096 0.013531255681611214 0 -0.00010574377089767234 0.013139162557229177 0 -0.00056101010937370825 0.013460529906121382 0 -0.00017944505113053953 0.013296675744799079 0 -0.00034292718844716811 0.01345592176617454 0 -0.00056938374211793158 0.013508378388848255 0 1.1003435043008458e-05 0.012899596437226404 0 -0.00025003159600042475 0.012993825216289804 0 -0.00056938374211793158 0.013508378388848255 0 -0.000255152212931083 0.013504627949103606 0 -0.00054815807873625794 0.013548752073603159 0 -0.00018088629927344725 0.013594523132360896 0 -0.00034292718844716811 0.01345592176617454 0 -0.000255152212931083 0.013504627949103606 0 -0.00054815807873625794 0.013548752073603159 0 -0.00015800648399382609 0.01342024493535454 0 -0.00034292718844716811 0.01345592176617454 0 -0.000255152212931083 0.013504627949103606 0 -0.000255152212931083 0.013504627949103606 0 -0.00019239711637558096 0.013531255681611214 0 -0.00018088629927344725 0.013594523132360896 0 -0.00015800648399382609 0.01342024493535454 0 -0.000255152212931083 0.013504627949103606 0 -0.00019239711637558096 0.013531255681611214 0 -0.00017944505113053953 0.013296675744799079 0 -0.00015800648399382609 0.01342024493535454 0 -0.00034292718844716811 0.01345592176617454 0 -0.00037215920486728308 0.012944516233703081 0 -0.00018458537454642092 0.012688049251330685 0 -0.00034651623232423868 0.012725700594903784 0 -0.00025003159600042475 0.012993825216289804 0 -0.00037215920486728308 0.012944516233703081 0 -0.00043891632644646743 0.013166270434441485 0 -0.00025003159600042475 0.012993825216289804 0 -0.00037215920486728308 0.012944516233703081 0 -0.00018458537454642092 0.012688049251330685 0 1.1003435043008458e-05 0.012899596437226404 0 -0.00025003159600042475 0.012993825216289804 0 -0.00018458537454642092 0.012688049251330685 0 8.2847298255433553e-06 0.012309209544614966 0 1.1003435043008458e-05 0.012899596437226404 0 -0.00018458537454642092 0.012688049251330685 0 -0.00024055956246779833 0.012452017527598124 0 8.2847298255433553e-06 0.012309209544614966 0 -0.00018458537454642092 0.012688049251330685 0 -0.00024055956246779833 0.012452017527598124 0 -0.00018458537454642092 0.012688049251330685 0 -0.00034651623232423868 0.012725700594903784 0 -0.00024055956246779833 0.012452017527598124 0 -0.00034651623232423868 0.012725700594903784 0 -0.00039255790985963401 0.012603057531136278 0 -0.00039255790985963401 0.012603057531136278 0 -0.00047934399510185245 0.012894450464744658 0 -0.00051512203329755256 0.012691837520134938 0 -0.00047934399510185245 0.012894450464744658 0 -0.00061725139083462516 0.013020771430733146 0 -0.00051512203329755256 0.012691837520134938 0 -0.00037215920486728308 0.012944516233703081 0 -0.00034651623232423868 0.012725700594903784 0 -0.00047934399510185245 0.012894450464744658 0 -0.00034651623232423868 0.012725700594903784 0 -0.00039255790985963401 0.012603057531136278 0 -0.00047934399510185245 0.012894450464744658 0 -0.00061725139083462516 0.013020771430733146 0 -0.00073689524211688622 0.013288047469216937 0 -0.00071333058332105864 0.01299678707992037 0 -0.00061725139083462516 0.013020771430733146 0 -0.00071333058332105864 0.01299678707992037 0 -0.00051512203329755256 0.012691837520134938 0 -0.00058979515313117229 0.013163287991238993 0 -0.00063492719415092307 0.013349610083969734 0 -0.00073689524211688622 0.013288047469216937 0 -0.00061725139083462516 0.013020771430733146 0 -0.00058979515313117229 0.013163287991238993 0 -0.00073689524211688622 0.013288047469216937 0 -0.00047934399510185245 0.012894450464744658 0 -0.00061725139083462516 0.013020771430733146 0 -0.00058979515313117229 0.013163287991238993 0 -0.00037215920486728308 0.012944516233703081 0 -0.00047934399510185245 0.012894450464744658 0 -0.00047841416057250823 0.013090587129734524 0 -0.00047934399510185245 0.012894450464744658 0 -0.00058979515313117229 0.013163287991238993 0 -0.00047841416057250823 0.013090587129734524 0 -0.00058979515313117229 0.013163287991238993 0 -0.00047841416057250823 0.013090587129734524 0 -0.0005245570380367847 0.013281817162426884 0 -0.00037215920486728308 0.012944516233703081 0 -0.00047841416057250823 0.013090587129734524 0 -0.00043891632644646743 0.013166270434441485 0 -0.00025003159600042475 0.012993825216289804 0 -0.00043891632644646743 0.013166270434441485 0 -0.00056938374211793158 0.013508378388848255 0 -0.00043891632644646743 0.013166270434441485 0 -0.0005245570380367847 0.013281817162426884 0 -0.00056938374211793158 0.013508378388848255 0 -0.00047841416057250823 0.013090587129734524 0 -0.00043891632644646743 0.013166270434441485 0 -0.0005245570380367847 0.013281817162426884 0 -0.00058979515313117229 0.013163287991238993 0 -0.0005245570380367847 0.013281817162426884 0 -0.00063492719415092307 0.013349610083969734 0 -0.00063492719415092307 0.013349610083969734 0 -0.00060380762848757138 0.01341765578386744 0 -0.00067199932023516483 0.013527238055029808 0 -0.0005245570380367847 0.013281817162426884 0 -0.00060380762848757138 0.01341765578386744 0 -0.00056938374211793158 0.013508378388848255 0 -0.0005245570380367847 0.013281817162426884 0 -0.00063492719415092307 0.013349610083969734 0 -0.00060380762848757138 0.01341765578386744 0 -0.00056938374211793158 0.013508378388848255 0 -0.00067199932023516483 0.013527238055029808 0 -0.00054815807873625794 0.013548752073603159 0 -0.00060380762848757138 0.01341765578386744 0 -0.00056938374211793158 0.013508378388848255 0 -0.00067199932023516483 0.013527238055029808 0 -0.00034292718844716811 0.01345592176617454 0 -0.00056938374211793158 0.013508378388848255 0 -0.00054815807873625794 0.013548752073603159 0 -0.0005175254746556129 0.013741871616358724 0 -0.00085074493130097943 0.013703897261030653 0 -0.00067199932023516483 0.013527238055029808 0 -0.00054815807873625794 0.013548752073603159 0 -0.00086412608766714806 0.013713044721900583 0 -0.00063492719415092307 0.013349610083969734 0 -0.00067199932023516483 0.013527238055029808 0 -0.00076269692976192152 0.013488020269177487 0 -0.00067199932023516483 0.013527238055029808 0 -0.00086412608766714806 0.013713044721900583 0 -0.00076269692976192152 0.013488020269177487 0 -0.00063492719415092307 0.013349610083969734 0 -0.00076269692976192152 0.013488020269177487 0 -0.00073689524211688622 0.013288047469216937 0 -0.00086412608766714806 0.013713044721900583 0 -0.00084568091749691386 0.01350665594091293 0 -0.00092638887750183172 0.013624521292761163 0 -0.00086412608766714806 0.013713044721900583 0 -0.00076269692976192152 0.013488020269177487 0 -0.00084568091749691386 0.01350665594091293 0 -0.00084568091749691386 0.01350665594091293 0 -0.0008534178280921776 0.013309699316013269 0 -0.00092638887750183172 0.013624521292761163 0 -0.00076269692976192152 0.013488020269177487 0 -0.00084568091749691386 0.01350665594091293 0 -0.00073689524211688622 0.013288047469216937 0 -0.00084568091749691386 0.01350665594091293 0 -0.00073689524211688622 0.013288047469216937 0 -0.0008534178280921776 0.013309699316013269 0 -0.00071333058332105864 0.01299678707992037 0 -0.0008534178280921776 0.013309699316013269 0 -0.00080307950761170023 0.012973854428495453 0 -0.00073689524211688622 0.013288047469216937 0 -0.00071333058332105864 0.01299678707992037 0 -0.0008534178280921776 0.013309699316013269 0 -0.0008534178280921776 0.013309699316013269 0 -0.00094449550067616194 0.013340013550097361 0 -0.00080307950761170023 0.012973854428495453 0 -0.0008534178280921776 0.013309699316013269 0 -0.00094449550067616194 0.013340013550097361 0 -0.00092638887750183172 0.013624521292761163 0 -0.00094449550067616194 0.013340013550097361 0 -0.00093839779455717276 0.012936181673495018 0 -0.00080307950761170023 0.012973854428495453 0 -0.00093839779455717276 0.012936181673495018 0 -0.00073055488095253088 0.012495987271195271 0 -0.00080307950761170023 0.012973854428495453 0 -0.00073055488095253088 0.012495987271195271 0 -0.00080307950761170023 0.012973854428495453 0 -0.00064602385638063298 0.012661695565609529 0 -0.00071333058332105864 0.01299678707992037 0 -0.00080307950761170023 0.012973854428495453 0 -0.00064602385638063298 0.012661695565609529 0 -0.00071333058332105864 0.01299678707992037 0 -0.00064602385638063298 0.012661695565609529 0 -0.00051512203329755256 0.012691837520134938 0 -0.00064602385638063298 0.012661695565609529 0 -0.00051512203329755256 0.012691837520134938 0 -0.00051276956077720261 0.012437526505642197 0 -0.0003732100430102043 0.012351135194639649 0 -0.00039255790985963401 0.012603057531136278 0 -0.00051512203329755256 0.012691837520134938 0 -0.0003732100430102043 0.012351135194639649 0 -0.00051512203329755256 0.012691837520134938 0 -0.00051276956077720261 0.012437526505642197 0 -0.0003732100430102043 0.012351135194639649 0 -0.00051276956077720261 0.012437526505642197 0 -0.00043498209902864628 0.012172425726055694 0 -0.00051276956077720261 0.012437526505642197 0 -0.00043498209902864628 0.012172425726055694 0 -0.00057176302802087228 0.012251900419671478 0 -0.00064602385638063298 0.012661695565609529 0 -0.00051276956077720261 0.012437526505642197 0 -0.00057176302802087228 0.012251900419671478 0 -0.00073055488095253088 0.012495987271195271 0 -0.00064602385638063298 0.012661695565609529 0 -0.00057176302802087228 0.012251900419671478 0 -0.00073055488095253088 0.012495987271195271 0 -0.00057176302802087228 0.012251900419671478 0 -0.00060508990581911411 0.011859223036625732 0 -0.00043498209902864628 0.012172425726055694 0 -0.00057176302802087228 0.012251900419671478 0 -0.00040896272155798683 0.011849980061375004 0 -0.00057176302802087228 0.012251900419671478 0 -0.00040896272155798683 0.011849980061375004 0 -0.00060508990581911411 0.011859223036625732 0 -0.00026146225464284171 0.01117186580458816 0 -0.00040996936150143593 0.011854549777125844 0 0.00016026341966193715 0.011758594688941063 0 8.4467896511064255e-05 0.011685111692482032 0 0.00023357739222656997 0.011663799896365307 0 -0.00040996936150143593 0.011854549777125844 0 5.6392369518394647e-05 0.012146022321069806 0 -0.00012707779284501289 0.012627097975567256 0 -0.0003217600685758235 0.012676689401413119 0 -0.00031061775897527018 0.01271621221529555 0 -0.00040996936150143593 0.011854549777125844 0 -0.00059286995568963517 0.012514133718041748 0 -0.00073055488095253088 0.012495987271195271 0 -0.00060508990581911411 0.011859223036625732 0 -0.00088008013388494338 0.012359641821012436 0 -0.00093839779455717276 0.012936181673495018 0 -0.00073055488095253088 0.012495987271195271 0 -0.00088008013388494338 0.012359641821012436 0 -0.00093839779455717276 0.012936181673495018 0 -0.00088008013388494338 0.012359641821012436 0 -0.00145636112096403 0.012740294788142082 0 -0.0003217600685758235 0.012676689401413119 0 -0.00031061775897527018 0.01271621221529555 0 -0.00050468484633453667 0.012796157682237389 0 0.0003235890930785324 0.011740277284624352 0 0.00023357739222656997 0.011663799896365307 0 0.00038606095112838181 0.011654331167312466 0 5.6392369518394647e-05 0.012146022321069806 0 -0.00013651399539289899 0.013663840141992827 0 -0.00059286995568963517 0.012514133718041748 0 -0.00070383630123577515 0.013704720646187692 0 -0.0003217600685758235 0.012676689401413119 0 -0.00050468484633453667 0.012796157682237389 0 -0.00052726765983947233 0.012715873008843109 0 -0.00070383630123577515 0.013704720646187692 0 -0.00013651399539289899 0.013663840141992827 0 -3.5914596412349265e-05 0.014959783223396623 0 -3.3763646114538732e-05 0.014966468405860044 0 -8.3688640937651076e-06 0.014981083973258745 0 -5.127986981289742e-06 0.014973464479269919 0 -4.7970560130902384e-06 0.014966037992374059 0 -8.3688640937651076e-06 0.014981083973258745 0 -0.00013651399539289899 0.013663840141992827 0 2.6908174593196093e-06 0.015202847460637787 0 -0.0009761112842515458 0.014199688527797832 0 -0.00073374943434997592 0.014049333788534157 0 -0.0004022490110709634 0.014433403309251674 0 -3.5914596412349265e-05 0.014959783223396623 0 -9.9529655077812835e-06 0.014976205397946991 0 -8.3688640937651076e-06 0.014981083973258745 0 -0.00070383630123577515 0.013704720646187692 0 -0.00016308494453665451 0.014819052355151094 0 -0.00053830687536187891 0.014258185346366614 0 -0.00073374943434997592 0.014049333788534157 0 -0.0004022490110709634 0.014433403309251674 0 -0.00073374943434997592 0.014049333788534157 0 -0.0011207108912742929 0.013585633858042555 0 -0.00090382558049529726 0.013807244949979708 0 -0.00070383630123577515 0.013704720646187692 0 -0.001099456803235261 0.013458067323106523 0 -0.0009761112842515458 0.014199688527797832 0 -0.00073374943434997592 0.014049333788534157 0 -0.0011207108912742929 0.013585633858042555 0 -0.00093839779455717276 0.012936181673495018 0 -0.00145636112096403 0.012740294788142082 0 -0.0011207108912742929 0.013585633858042555 0 -0.00094449550067616194 0.013340013550097361 0 -0.00093839779455717276 0.012936181673495018 0 -0.0011207108912742929 0.013585633858042555 0 -0.00090382558049529726 0.013807244949979708 0 -0.00092638887750183172 0.013624521292761163 0 -0.00086037032149673446 0.013866275137117891 0 -0.00094449550067616194 0.013340013550097361 0 -0.0011207108912742929 0.013585633858042555 0 -0.00092638887750183172 0.013624521292761163 0 -0.0011207108912742929 0.013585633858042555 0 -0.00090382558049529726 0.013807244949979708 0 -0.00092638887750183172 0.013624521292761163 0 -0.00086412608766714806 0.013713044721900583 0 -0.00086037032149673446 0.013866275137117891 0 -0.00092142096946562588 0.013829037008918599 0 -0.00086037032149673446 0.013866275137117891 0 -0.0006435916033685268 0.013903893240741327 0 -0.00092142096946562588 0.013829037008918599 0 -0.00086412608766714806 0.013713044721900583 0 -0.00092638887750183172 0.013624521292761163 0 -0.00086037032149673446 0.013866275137117891 0 -0.00086037032149673446 0.013866275137117891 0 -0.00044720356415545783 0.014304932730161108 0 -0.0006435916033685268 0.013903893240741327 0 -0.00086037032149673446 0.013866275137117891 0 -0.00065948889570395324 0.014092822117918435 0 -0.00044720356415545783 0.014304932730161108 0 -0.00090382558049529726 0.013807244949979708 0 -0.00086037032149673446 0.013866275137117891 0 -0.00065948889570395324 0.014092822117918435 0 -0.00073374943434997592 0.014049333788534157 0 -0.00090382558049529726 0.013807244949979708 0 -0.00065948889570395324 0.014092822117918435 0 -0.00053830687536187891 0.014258185346366614 0 -0.00073374943434997592 0.014049333788534157 0 -0.00065948889570395324 0.014092822117918435 0 -0.00065948889570395324 0.014092822117918435 0 -0.00026702322883252088 0.014558273030206138 0 -0.00044720356415545783 0.014304932730161108 0 -0.00053830687536187891 0.014258185346366614 0 -0.00065948889570395324 0.014092822117918435 0 -0.00026702322883252088 0.014558273030206138 0 -0.00044720356415545783 0.014304932730161108 0 -8.3964979787159077e-05 0.014739882835631426 0 -0.0006435916033685268 0.013903893240741327 0 -0.00012542354756158504 0.014637308324402298 0 -0.00030528781205545473 0.014349755011414996 0 -0.00026702322883252088 0.014558273030206138 0 -0.00044720356415545783 0.014304932730161108 0 -8.3964979787159077e-05 0.014739882835631426 0 -0.00026702322883252088 0.014558273030206138 0 -2.98367430506399e-07 0.014998724489257495 0 -8.3668258407850181e-06 0.014990075439423631 0 -0.00026702322883252088 0.014558273030206138 0 -8.3964979787159077e-05 0.014739882835631426 0 -2.98367430506399e-07 0.014998724489257495 0 7.7879943515856642e-08 0.01500036819512883 0 -2.98367430506399e-07 0.014998724489257495 0 -8.3668258407850181e-06 0.014990075439423631 0 7.7879943515856642e-08 0.01500036819512883 0 -8.3668258407850181e-06 0.014990075439423631 0 -6.67377361178994e-06 0.014987465804119981 0 -1.4933958412113225e-06 0.014894734931445462 0 -0.00016308494453665451 0.014819052355151094 0 -0.00026702322883252088 0.014558273030206138 0 -8.3668258407850181e-06 0.014990075439423631 0 -0.0004022490110709634 0.014433403309251674 0 -8.3668258407850181e-06 0.014990075439423631 0 -6.67377361178994e-06 0.014987465804119981 0 -9.9529655077812835e-06 0.014976205397946991 0 -0.00053830687536187891 0.014258185346366614 0 -0.00026702322883252088 0.014558273030206138 0 -0.0004022490110709634 0.014433403309251674 0 -6.67377361178994e-06 0.014987465804119981 0 -9.9529655077812835e-06 0.014976205397946991 0 -8.3688640937651076e-06 0.014981083973258745 0 -6.67377361178994e-06 0.014987465804119981 0 -8.3688640937651076e-06 0.014981083973258745 0 -5.3467553254886438e-06 0.014987693197501284 0 -4.8854816591211068e-06 0.014981844955663046 0 -5.127986981289742e-06 0.014973464479269919 0 -8.3688640937651076e-06 0.014981083973258745 0 -4.8854816591211068e-06 0.014981844955663046 0 -8.3688640937651076e-06 0.014981083973258745 0 -5.3467553254886438e-06 0.014987693197501284 0 7.7879943515856642e-08 0.01500036819512883 0 -6.67377361178994e-06 0.014987465804119981 0 -5.3467553254886438e-06 0.014987693197501284 0 4.9787113213060538e-05 0.01489253833345784 0 -7.4881270794397689e-09 0.014999645151794371 0 8.779141114606797e-05 0.014755020546947677 0 7.830997705637206e-05 0.01490093879358248 0 9.0658422121521424e-05 0.014880240834424466 0 1.2314308465492645e-07 0.01499979094517759 0 7.830997705637206e-05 0.01490093879358248 0 -9.4159121429767956e-09 0.014999914312625106 0 1.2314308465492645e-07 0.01499979094517759 0 6.578998697732279e-05 0.014901297339425886 0 0.00013265208722020421 0.014828291431130776 0 7.830997705637206e-05 0.01490093879358248 0 0.00013794230373459553 0.014799836915021215 0 9.0658422121521424e-05 0.014880240834424466 0 4.9787113213060538e-05 0.01489253833345784 0 8.779141114606797e-05 0.014755020546947677 0 0.00010317370924141666 0.014836517640851537 0 6.578998697732279e-05 0.014901297339425886 0 2.1706739276069223e-08 0.014999949410611805 0 -8.3964979787159077e-05 0.014739882835631426 0 -2.98367430506399e-07 0.014998724489257495 0 -7.4881270794397689e-09 0.014999645151794371 0 -7.4881270794397689e-09 0.014999645151794371 0 2.1423683263437113e-05 0.014800854725116512 0 8.779141114606797e-05 0.014755020546947677 0 -8.3964979787159077e-05 0.014739882835631426 0 -7.4881270794397689e-09 0.014999645151794371 0 2.1423683263437113e-05 0.014800854725116512 0 2.1423683263437113e-05 0.014800854725116512 0 8.779141114606797e-05 0.014755020546947677 0 7.1178674452100548e-05 0.014712493785388855 0 -8.3964979787159077e-05 0.014739882835631426 0 2.1423683263437113e-05 0.014800854725116512 0 7.1178674452100548e-05 0.014712493785388855 0 8.779141114606797e-05 0.014755020546947677 0 7.3911292014712816e-05 0.014646392807819552 0 7.0868489042156339e-05 0.014573679020805483 0 8.779141114606797e-05 0.014755020546947677 0 7.1178674452100548e-05 0.014712493785388855 0 7.3911292014712816e-05 0.014646392807819552 0 -0.00030528781205545473 0.014349755011414996 0 -0.00041375835466096679 0.014251806579888785 0 7.1178674452100548e-05 0.014712493785388855 0 5.4890039596282644e-05 0.014650679865690594 0 7.3911292014712816e-05 0.014646392807819552 0 5.4890039596282644e-05 0.014650679865690594 0 7.3911292014712816e-05 0.014646392807819552 0 2.797481821111923e-05 0.014575739723375227 0 7.3911292014712816e-05 0.014646392807819552 0 3.532948468830578e-05 0.01453606104161196 0 2.797481821111923e-05 0.014575739723375227 0 7.3911292014712816e-05 0.014646392807819552 0 7.0868489042156339e-05 0.014573679020805483 0 3.532948468830578e-05 0.01453606104161196 0 4.290007294536611e-05 0.014462626678773892 0 7.0868489042156339e-05 0.014573679020805483 0 3.532948468830578e-05 0.01453606104161196 0 4.290007294536611e-05 0.014462626678773892 0 7.0868489042156339e-05 0.014573679020805483 0 0.00010462737887432526 0.01442834118485402 0 8.779141114606797e-05 0.014755020546947677 0 0.00010317370924141666 0.014836517640851537 0 0.00013839460872754107 0.014853081481694992 0 8.779141114606797e-05 0.014755020546947677 0 7.0868489042156339e-05 0.014573679020805483 0 0.00010462737887432526 0.01442834118485402 0 9.1764902748755507e-05 0.014732419672676864 0 0.00011185881902502942 0.014640726832693992 0 0.00010317370924141666 0.014836517640851537 0 0.00013758723747152573 0.014852919003544031 0 0.00013839460872754107 0.014853081481694992 0 4.9787113213060538e-05 0.01489253833345784 0 0.00010317370924141666 0.014836517640851537 0 0.00013758723747152573 0.014852919003544031 0 7.830997705637206e-05 0.01490093879358248 0 0.00013662116973749936 0.014807933549634495 0 0.00013794230373459553 0.014799836915021215 0 0.00011185881902502942 0.014640726832693992 0 7.9189842443071429e-05 0.0144843945930996 0 0.00013839460872754107 0.014853081481694992 0 8.9663686404784193e-05 0.014678686273745349 0 0.0001117790979641767 0.014736008202302206 0 0.00013265208722020421 0.014828291431130776 0 0.00010755129802580269 0.014753736064293928 0 0.00010462737887432526 0.01442834118485402 0 4.9720720474862792e-05 0.014383905208957186 0 4.2068183902089213e-05 0.014297402200147641 0 0.00013758723747152573 0.014852919003544031 0 0.00013839460872754107 0.014853081481694992 0 0.0001117790979641767 0.014736008202302206 0 4.290007294536611e-05 0.014462626678773892 0 0.00010462737887432526 0.01442834118485402 0 4.9720720474862792e-05 0.014383905208957186 0 4.9720720474862792e-05 0.014383905208957186 0 2.8252402566399696e-05 0.014353869416414649 0 4.2068183902089213e-05 0.014297402200147641 0 2.9932139731274014e-05 0.014395987691844725 0 2.8252402566399696e-05 0.014353869416414649 0 6.9998734086633757e-06 0.014363700573089859 0 2.9932139731274014e-05 0.014395987691844725 0 6.9998734086633757e-06 0.014363700573089859 0 1.0805426781835511e-05 0.014425330988369746 0 4.290007294536611e-05 0.014462626678773892 0 2.9932139731274014e-05 0.014395987691844725 0 4.9720720474862792e-05 0.014383905208957186 0 2.9932139731274014e-05 0.014395987691844725 0 4.9720720474862792e-05 0.014383905208957186 0 2.8252402566399696e-05 0.014353869416414649 0 2.8252402566399696e-05 0.014353869416414649 0 6.9998734086633757e-06 0.014363700573089859 0 1.821946820801221e-05 0.014313351458919389 0 -2.5683551673369592e-05 0.014331701388110386 0 -2.5523563044134794e-06 0.014280879055431687 0 1.821946820801221e-05 0.014313351458919389 0 6.9998734086633757e-06 0.014363700573089859 0 -2.5683551673369592e-05 0.014331701388110386 0 1.821946820801221e-05 0.014313351458919389 0 6.9998734086633757e-06 0.014363700573089859 0 -2.0124363722933024e-05 0.01439491549361312 0 -2.5683551673369592e-05 0.014331701388110386 0 6.9998734086633757e-06 0.014363700573089859 0 -2.0124363722933024e-05 0.01439491549361312 0 1.0805426781835511e-05 0.014425330988369746 0 -2.0124363722933024e-05 0.01439491549361312 0 -4.8403707692538411e-05 0.01437133489321147 0 -2.5683551673369592e-05 0.014331701388110386 0 -2.0124363722933024e-05 0.01439491549361312 0 -5.1054764174064518e-05 0.014427092587069118 0 -4.8403707692538411e-05 0.01437133489321147 0 -2.0124363722933024e-05 0.01439491549361312 0 -6.8763245566392035e-06 0.014463169769838894 0 -5.1054764174064518e-05 0.014427092587069118 0 1.0805426781835511e-05 0.014425330988369746 0 1.9392025629662113e-05 0.014471282679761072 0 -6.8763245566392035e-06 0.014463169769838894 0 -2.0124363722933024e-05 0.01439491549361312 0 1.0805426781835511e-05 0.014425330988369746 0 -6.8763245566392035e-06 0.014463169769838894 0 4.290007294536611e-05 0.014462626678773892 0 1.0805426781835511e-05 0.014425330988369746 0 1.9392025629662113e-05 0.014471282679761072 0 4.290007294536611e-05 0.014462626678773892 0 2.9932139731274014e-05 0.014395987691844725 0 1.0805426781835511e-05 0.014425330988369746 0 1.9392025629662113e-05 0.014471282679761072 0 3.532948468830578e-05 0.01453606104161196 0 -6.8763245566392035e-06 0.014463169769838894 0 4.290007294536611e-05 0.014462626678773892 0 1.9392025629662113e-05 0.014471282679761072 0 3.532948468830578e-05 0.01453606104161196 0 3.532948468830578e-05 0.01453606104161196 0 -6.8763245566392035e-06 0.014463169769838894 0 -8.0362322908321864e-06 0.014508225196356203 0 -8.0362322908321864e-06 0.014508225196356203 0 2.797481821111923e-05 0.014575739723375227 0 -2.711066709571984e-05 0.014539482915265191 0 3.532948468830578e-05 0.01453606104161196 0 -8.0362322908321864e-06 0.014508225196356203 0 2.797481821111923e-05 0.014575739723375227 0 -0.00041375835466096679 0.014251806579888785 0 -0.00027543851480074205 0.014326132293334166 0 5.4890039596282644e-05 0.014650679865690594 0 2.797481821111923e-05 0.014575739723375227 0 -2.711066709571984e-05 0.014539482915265191 0 -0.00041988998602482251 0.013918469194763966 0 -0.00086412608766714806 0.013713044721900583 0 -0.0005634665137846962 0.014124057303987324 0 -0.00086412608766714806 0.013713044721900583 0 -0.00092142096946562588 0.013829037008918599 0 -0.0005634665137846962 0.014124057303987324 0 -0.00027543851480074205 0.014326132293334166 0 -0.00011458253619401545 0.014358292614215123 0 -0.0005634665137846962 0.014124057303987324 0 -0.00011548942733658169 0.014351461752269987 0 -0.00024149023354555783 0.014136102326792587 0 -0.00041988998602482251 0.013918469194763966 0 -0.0005634665137846962 0.014124057303987324 0 -0.00024149023354555783 0.014136102326792587 0 -8.0362322908321864e-06 0.014508225196356203 0 -2.711066709571984e-05 0.014539482915265191 0 -5.1054764174064518e-05 0.014427092587069118 0 -2.711066709571984e-05 0.014539482915265191 0 -5.1054764174064518e-05 0.014427092587069118 0 -0.00011548942733658169 0.014351461752269987 0 -6.8763245566392035e-06 0.014463169769838894 0 -8.0362322908321864e-06 0.014508225196356203 0 -5.1054764174064518e-05 0.014427092587069118 0 -5.1054764174064518e-05 0.014427092587069118 0 -7.592311968338256e-05 0.014373145003590939 0 -0.00011548942733658169 0.014351461752269987 0 -5.1054764174064518e-05 0.014427092587069118 0 -7.592311968338256e-05 0.014373145003590939 0 -4.8403707692538411e-05 0.01437133489321147 0 -7.592311968338256e-05 0.014373145003590939 0 -0.00011548942733658169 0.014351461752269987 0 -6.4020223207286503e-05 0.014347368571910504 0 -0.00041988998602482251 0.013918469194763966 0 -0.00024149023354555783 0.014136102326792587 0 -5.7820806055785546e-05 0.014169831811484611 0 -0.0005175254746556129 0.013741871616358724 0 -8.1009288090618862e-05 0.013912556558376291 0 -0.00011548942733658169 0.014351461752269987 0 -0.00010617930418541183 0.014228565267975606 0 -0.00024149023354555783 0.014136102326792587 0 -0.00011548942733658169 0.014351461752269987 0 -0.00010617930418541183 0.014228565267975606 0 -5.2878853881643002e-05 0.014252522870805901 0 -0.00010617930418541183 0.014228565267975606 0 -0.00024149023354555783 0.014136102326792587 0 -5.7820806055785546e-05 0.014169831811484611 0 -0.00011548942733658169 0.014351461752269987 0 -5.2878853881643002e-05 0.014252522870805901 0 -4.8193819111878569e-05 0.014306919294786944 0 -5.2878853881643002e-05 0.014252522870805901 0 -4.8193819111878569e-05 0.014306919294786944 0 2.1895946705145623e-08 0.014262623264375917 0 -5.7820806055785546e-05 0.014169831811484611 0 -5.2878853881643002e-05 0.014252522870805901 0 2.1895946705145623e-08 0.014262623264375917 0 -0.00013918708804522918 0.01354172763518896 0 -0.00018088629927344725 0.013594523132360896 0 0.00013500258011195807 0.013637289125822568 0 -8.1009288090618862e-05 0.013912556558376291 0 -0.00014014199285792921 0.013532244439045155 0 -0.00010617930418541183 0.014228565267975606 0 -5.7820806055785546e-05 0.014169831811484611 0 -5.2878853881643002e-05 0.014252522870805901 0 -0.00011548942733658169 0.014351461752269987 0 -4.8193819111878569e-05 0.014306919294786944 0 -6.4020223207286503e-05 0.014347368571910504 0 -4.8193819111878569e-05 0.014306919294786944 0 -6.4020223207286503e-05 0.014347368571910504 0 -7.4578118634069043e-05 0.014324767051076239 0 -6.4020223207286503e-05 0.014347368571910504 0 -7.4578118634069043e-05 0.014324767051076239 0 -0.00012240332207762974 0.014210747038867242 0 -6.4020223207286503e-05 0.014347368571910504 0 -5.9194714215138145e-05 0.014325015831541475 0 -0.00012240332207762974 0.014210747038867242 0 -7.592311968338256e-05 0.014373145003590939 0 -6.4020223207286503e-05 0.014347368571910504 0 -5.9194714215138145e-05 0.014325015831541475 0 -7.592311968338256e-05 0.014373145003590939 0 -4.8403707692538411e-05 0.01437133489321147 0 -5.9194714215138145e-05 0.014325015831541475 0 -4.8403707692538411e-05 0.01437133489321147 0 -5.9194714215138145e-05 0.014325015831541475 0 -2.5683551673369592e-05 0.014331701388110386 0 -2.5683551673369592e-05 0.014331701388110386 0 -5.9429305084503738e-05 0.014278328389402283 0 -2.5523563044134794e-06 0.014280879055431687 0 -5.9194714215138145e-05 0.014325015831541475 0 -2.5683551673369592e-05 0.014331701388110386 0 -5.9429305084503738e-05 0.014278328389402283 0 -5.9429305084503738e-05 0.014278328389402283 0 -7.7314062673820451e-05 0.014255038089588046 0 -0.00012240332207762974 0.014210747038867242 0 -5.9194714215138145e-05 0.014325015831541475 0 -5.9429305084503738e-05 0.014278328389402283 0 -0.00012240332207762974 0.014210747038867242 0 -5.9429305084503738e-05 0.014278328389402283 0 -7.7314062673820451e-05 0.014255038089588046 0 -2.5523563044134794e-06 0.014280879055431687 0 -2.5523563044134794e-06 0.014280879055431687 0 3.7833410914222301e-05 0.014238793224227882 0 4.5644364764148003e-05 0.014281953428474098 0 -7.7314062673820451e-05 0.014255038089588046 0 -2.5523563044134794e-06 0.014280879055431687 0 3.7833410914222301e-05 0.014238793224227882 0 -7.7314062673820451e-05 0.014255038089588046 0 3.7833410914222301e-05 0.014238793224227882 0 -7.387952706245278e-05 0.014223885177611587 0 4.3397743754121426e-05 0.014073776323389712 0 -7.387952706245278e-05 0.014223885177611587 0 -0.00010562377470325397 0.014023207152487794 0 3.7833410914222301e-05 0.014238793224227882 0 4.3397743754121426e-05 0.014073776323389712 0 -7.387952706245278e-05 0.014223885177611587 0 2.5221084975570859e-05 0.013791207853334375 0 0.00015830155643271752 0.013898509222307603 0 0.0001614813258116795 0.013572641902498361 0 4.3397743754121426e-05 0.014073776323389712 0 2.5221084975570859e-05 0.013791207853334375 0 -0.00010562377470325397 0.014023207152487794 0 4.3397743754121426e-05 0.014073776323389712 0 2.5221084975570859e-05 0.013791207853334375 0 0.00015830155643271752 0.013898509222307603 0 4.3397743754121426e-05 0.014073776323389712 0 0.00015830155643271752 0.013898509222307603 0 0.00011968469169091819 0.014136197012359913 0 0.00015830155643271752 0.013898509222307603 0 0.00022059428925461018 0.014000705847777409 0 0.00029394232055261949 0.013733403143190843 0 0.00015830155643271752 0.013898509222307603 0 0.00011968469169091819 0.014136197012359913 0 0.00022059428925461018 0.014000705847777409 0 3.7833410914222301e-05 0.014238793224227882 0 4.3397743754121426e-05 0.014073776323389712 0 0.00011968469169091819 0.014136197012359913 0 3.7833410914222301e-05 0.014238793224227882 0 0.00011968469169091819 0.014136197012359913 0 9.8373511633644713e-05 0.014279676405553783 0 0.00011968469169091819 0.014136197012359913 0 9.8373511633644713e-05 0.014279676405553783 0 0.00019223057784617769 0.014220972796083886 0 0.00022059428925461018 0.014000705847777409 0 0.00027988679856014186 0.014051612720141283 0 0.00019223057784617769 0.014220972796083886 0 0.00011968469169091819 0.014136197012359913 0 0.00022059428925461018 0.014000705847777409 0 0.00019223057784617769 0.014220972796083886 0 0.00022059428925461018 0.014000705847777409 0 0.00027988679856014186 0.014051612720141283 0 0.00029394232055261949 0.013733403143190843 0 0.00027988679856014186 0.014051612720141283 0 0.00019223057784617769 0.014220972796083886 0 0.00021047686176082944 0.014338342178609773 0 0.00027988679856014186 0.014051612720141283 0 0.00021047686176082944 0.014338342178609773 0 0.00023039162965271087 0.014254182405534921 0 0.00019223057784617769 0.014220972796083886 0 0.00017685976511277405 0.014431275168009697 0 0.00021047686176082944 0.014338342178609773 0 9.8373511633644713e-05 0.014279676405553783 0 0.00019223057784617769 0.014220972796083886 0 0.00017685976511277405 0.014431275168009697 0 9.8373511633644713e-05 0.014279676405553783 0 0.0001429856270689638 0.014561587654568444 0 8.9663686404784193e-05 0.014678686273745349 0 8.7056555003493753e-05 0.014309545568679421 0 7.9189842443071429e-05 0.0144843945930996 0 9.8373511633644713e-05 0.014279676405553783 0 0.00017685976511277405 0.014431275168009697 0 0.0001429856270689638 0.014561587654568444 0 9.8373511633644713e-05 0.014279676405553783 0 4.5644364764148003e-05 0.014281953428474098 0 4.2068183902089213e-05 0.014297402200147641 0 3.7833410914222301e-05 0.014238793224227882 0 9.8373511633644713e-05 0.014279676405553783 0 4.5644364764148003e-05 0.014281953428474098 0 -2.5523563044134794e-06 0.014280879055431687 0 4.5644364764148003e-05 0.014281953428474098 0 1.821946820801221e-05 0.014313351458919389 0 4.5644364764148003e-05 0.014281953428474098 0 1.821946820801221e-05 0.014313351458919389 0 4.2068183902089213e-05 0.014297402200147641 0 2.8252402566399696e-05 0.014353869416414649 0 1.821946820801221e-05 0.014313351458919389 0 4.2068183902089213e-05 0.014297402200147641 0 8.9663686404784193e-05 0.014678686273745349 0 0.00012791122534999854 0.01468453776769336 0 0.0001117790979641767 0.014736008202302206 0 0.0001429856270689638 0.014561587654568444 0 8.9663686404784193e-05 0.014678686273745349 0 0.00012791122534999854 0.01468453776769336 0 0.00013662116973749936 0.014807933549634495 0 0.0001117790979641767 0.014736008202302206 0 0.0001420402908664339 0.014741242814179135 0 0.00015396380025768059 0.014707381117305853 0 0.00014985131843008403 0.014666782201784044 0 0.0001420402908664339 0.014741242814179135 0 0.0001429856270689638 0.014561587654568444 0 0.00014985131843008403 0.014666782201784044 0 0.00012791122534999854 0.01468453776769336 0 0.00014985131843008403 0.014666782201784044 0 0.00012791122534999854 0.01468453776769336 0 0.0001420402908664339 0.014741242814179135 0 0.00012791122534999854 0.01468453776769336 0 0.0001117790979641767 0.014736008202302206 0 0.0001420402908664339 0.014741242814179135 0 0.00013662116973749936 0.014807933549634495 0 0.0001420402908664339 0.014741242814179135 0 0.00013794230373459553 0.014799836915021215 0 0.00013794230373459553 0.014799836915021215 0 0.00016088905497588192 0.01469700487060885 0 0.00013379625001830214 0.014790325898595859 0 0.00015396380025768059 0.014707381117305853 0 0.0001420402908664339 0.014741242814179135 0 0.00013794230373459553 0.014799836915021215 0 0.00015396380025768059 0.014707381117305853 0 0.00013794230373459553 0.014799836915021215 0 0.00016088905497588192 0.01469700487060885 0 0.00016088905497588192 0.01469700487060885 0 0.00016540599114285619 0.014664634481419477 0 0.00013379625001830214 0.014790325898595859 0 0.00016088905497588192 0.01469700487060885 0 0.00018244585512630423 0.014551491480734409 0 0.00016540599114285619 0.014664634481419477 0 0.00016088905497588192 0.01469700487060885 0 0.00016701741705935376 0.014607578629311165 0 0.00018244585512630423 0.014551491480734409 0 0.00015396380025768059 0.014707381117305853 0 0.00014985131843008403 0.014666782201784044 0 0.00016701741705935376 0.014607578629311165 0 0.00015396380025768059 0.014707381117305853 0 0.00016088905497588192 0.01469700487060885 0 0.00016701741705935376 0.014607578629311165 0 0.0001429856270689638 0.014561587654568444 0 0.00014985131843008403 0.014666782201784044 0 0.00016701741705935376 0.014607578629311165 0 0.00017685976511277405 0.014431275168009697 0 0.00016701741705935376 0.014607578629311165 0 0.00018244585512630423 0.014551491480734409 0 0.00017685976511277405 0.014431275168009697 0 0.0001429856270689638 0.014561587654568444 0 0.00016701741705935376 0.014607578629311165 0 0.00017685976511277405 0.014431275168009697 0 0.00018244585512630423 0.014551491480734409 0 0.00021047686176082944 0.014338342178609773 0 0.00018244585512630423 0.014551491480734409 0 0.00021047686176082944 0.014338342178609773 0 0.00018946473510166118 0.014502378224885383 0 0.00021047686176082944 0.014338342178609773 0 0.00023039162965271087 0.014254182405534921 0 0.00018946473510166118 0.014502378224885383 0 0.00019108111017180038 0.01440723880901768 0 0.00015733741647229886 0.014654582722983488 0 0.00016542803621053318 0.014524811722897834 0 0.00023039162965271087 0.014254182405534921 0 0.00019108111017180038 0.01440723880901768 0 0.00018946473510166118 0.014502378224885383 0 0.00019108111017180038 0.01440723880901768 0 0.00018946473510166118 0.014502378224885383 0 0.00015733741647229886 0.014654582722983488 0 0.00018946473510166118 0.014502378224885383 0 0.00016540599114285619 0.014664634481419477 0 0.00015733741647229886 0.014654582722983488 0 0.00018244585512630423 0.014551491480734409 0 0.00018946473510166118 0.014502378224885383 0 0.00016540599114285619 0.014664634481419477 0 0.00016540599114285619 0.014664634481419477 0 0.00012883783839342321 0.014785965971401095 0 0.00015733741647229886 0.014654582722983488 0 0.00012883783839342321 0.014785965971401095 0 0.00015733741647229886 0.014654582722983488 0 9.7464770242027197e-05 0.014838516383943658 0 0.00015733741647229886 0.014654582722983488 0 0.00013760604521610099 0.014691431419188215 0 9.7464770242027197e-05 0.014838516383943658 0 0.00015733741647229886 0.014654582722983488 0 0.00013760604521610099 0.014691431419188215 0 0.00016542803621053318 0.014524811722897834 0 0.00013760604521610099 0.014691431419188215 0 6.1293474378731598e-07 0.014999051877223904 0 9.7464770242027197e-05 0.014838516383943658 0 6.1293474378731598e-07 0.014999051877223904 0 9.7464770242027197e-05 0.014838516383943658 0 -2.8074367641880785e-08 0.014999895624279272 0 0.00012883783839342321 0.014785965971401095 0 9.7464770242027197e-05 0.014838516383943658 0 -2.8074367641880785e-08 0.014999895624279272 0 -2.8074367641880785e-08 0.014999895624279272 0 7.6535249231335316e-05 0.014894927963639006 0 1.2314308465492645e-07 0.01499979094517759 0 0.00012883783839342321 0.014785965971401095 0 -2.8074367641880785e-08 0.014999895624279272 0 7.6535249231335316e-05 0.014894927963639006 0 0.00012883783839342321 0.014785965971401095 0 7.6535249231335316e-05 0.014894927963639006 0 0.00013379625001830214 0.014790325898595859 0 0.00016540599114285619 0.014664634481419477 0 0.00012883783839342321 0.014785965971401095 0 0.00013379625001830214 0.014790325898595859 0 7.6535249231335316e-05 0.014894927963639006 0 0.00013379625001830214 0.014790325898595859 0 9.0658422121521424e-05 0.014880240834424466 0 0.00013794230373459553 0.014799836915021215 0 0.00013379625001830214 0.014790325898595859 0 9.0658422121521424e-05 0.014880240834424466 0 7.6535249231335316e-05 0.014894927963639006 0 9.0658422121521424e-05 0.014880240834424466 0 1.2314308465492645e-07 0.01499979094517759 0 0.000742936008830592 0.013595215219255783 0 0.0006272023450892935 0.014010793074780002 0 0.0011362923382564549 0.013304032125543848 0 -0.0015235672698543465 0.010792406118994492 0 -0.0020229638329144982 0.010911442282515381 0 -0.0015538069975919342 0.010272655687350744 0 -0.0020229638329144982 0.010911442282515381 0 -0.0015538069975919342 0.010272655687350744 0 -0.0016204632315137836 0.01006996571925357 0 -0.00066993769563129899 0.012544796214412809 0 -0.00058700610387259862 0.011161750222569026 0 -0.0015235672698543465 0.010792406118994492 0 -0.0012416354268403183 0.010509129144736363 0 -0.0015538069975919342 0.010272655687350744 0 0.000742936008830592 0.013595215219255783 0 0.00026223624184112791 0.013793686241184251 0 0.0004605115746893047 0.013301597137795515 0 0.00026223624184112791 0.013793686241184251 0 0.0006272023450892935 0.014010793074780002 0 0.00030646501148825882 0.014031721004885511 0 0.000742936008830592 0.013595215219255783 0 0.00026223624184112791 0.013793686241184251 0 0.0006272023450892935 0.014010793074780002 0 0.0006272023450892935 0.014010793074780002 0 0.00030646501148825882 0.014031721004885511 0 0.00027422367097058972 0.014254394164351328 0 -0.00066993769563129899 0.012544796214412809 0 -0.0010440538776204 0.012945598026675862 0 -0.0020229638329144982 0.010911442282515381 0 -0.0017468544066796443 0.011402052028655392 0 -0.0024168529296961162 0.011759338065901685 0 -0.0015235672698543465 0.010792406118994492 0 -0.001096658591454234 0.011086404425845409 0 -0.0017468544066796443 0.011402052028655392 0 -0.0015235672698543465 0.010792406118994492 0 -0.0020229638329144982 0.010911442282515381 0 -0.0017468544066796443 0.011402052028655392 0 -0.0011565759662988714 0.010649122644386205 0 -0.00066235852050367905 0.010765962369687855 0 -0.00092337764647217534 0.011077984646645783 0 -0.00053067336441262188 0.010371304539893714 0 -0.0011565759662988714 0.010649122644386205 0 -0.00066235852050367905 0.010765962369687855 0 -0.00053067336441262188 0.010371304539893714 0 -0.00048618511680405529 0.0099576030852034456 0 -0.00084475772516540376 0.010120778438799922 0 -0.00053067336441262188 0.010371304539893714 0 -0.0011565759662988714 0.010649122644386205 0 -0.00084475772516540376 0.010120778438799922 0 -0.0011417620220761432 0.010896786193361662 0 -0.0008138331477684686 0.010228596466618599 0 -0.0015235672698543465 0.010792406118994492 0 -0.001096658591454234 0.011086404425845409 0 -0.0012416354268403183 0.010509129144736363 0 -0.001096658591454234 0.011086404425845409 0 -0.00078640083670974839 0.010349210317306864 0 -0.0012416354268403183 0.010509129144736363 0 -0.00078640083670974839 0.010349210317306864 0 -0.0012416354268403183 0.010509129144736363 0 -0.0012466492076370708 0.010060945189200143 0 -0.0012416354268403183 0.010509129144736363 0 -0.0012466492076370708 0.010060945189200143 0 -0.0015538069975919342 0.010272655687350744 0 -0.00078640083670974839 0.010349210317306864 0 -0.0012466492076370708 0.010060945189200143 0 -0.00098043919429441915 0.0097064875426340434 0 -0.0012466492076370708 0.010060945189200143 0 -0.0013921684334849123 0.0096180901073672897 0 -0.00098043919429441915 0.0097064875426340434 0 -0.0012466492076370708 0.010060945189200143 0 -0.0013921684334849123 0.0096180901073672897 0 -0.0016187921044259757 0.010069319183097544 0 -0.00048618511680405529 0.0099576030852034456 0 -0.00084475772516540376 0.010120778438799922 0 -0.00054033438532266858 0.0096524436560115941 0 -0.0008138331477684686 0.010228596466618599 0 -0.00056349441605683644 0.0097054667636383759 0 -0.00078640083670974839 0.010349210317306864 0 -0.00054033438532266858 0.0096524436560115941 0 -0.00098043919429441915 0.0097064875426340434 0 -0.0001285011528634629 0.0080674984668088322 0 -0.00025862056516369117 0.0078876864782530445 0 0.00011109298641969705 0.006506724092973668 0 -1.1121989795137218e-05 0.0067604309831106784 0 0.00040543084246036262 0.0067307310413824567 0 -0.0010032835382618032 0.0091502296960346407 0 -0.00054033438532266858 0.0096524436560115941 0 -0.00098043919429441915 0.0097064875426340434 0 -0.0004748971919069407 0.0096429936969516915 0 -0.0010032835382618032 0.0091502296960346407 0 -0.00054033438532266858 0.0096524436560115941 0 -0.0010032835382618032 0.0091502296960346407 0 -0.0013921684334849123 0.0096180901073672897 0 -0.00098043919429441915 0.0097064875426340434 0 -0.00025862056516369117 0.0078876864782530445 0 -0.00033318570618456249 0.0094075669931077827 0 9.4904719763858254e-05 0.0081872175933214025 0 0.00014047232735553782 0.0081858280929046241 0 0.00011356416340377921 0.0082583796622149753 0 0.0010839142687593551 0.011600084647244498 0 0.0014334855777647334 0.012913308269283682 0 0.00093115001411105916 0.012547301249187489 0 0.00062333417232452934 0.0097802089805833336 0 0.00022241534458554305 0.011237987323260173 0 7.5965218955777183e-05 0.0081728759618128494 0 0.00011356416340377921 0.0082583796622149753 0 7.368360589576503e-05 0.0083274970018532273 0 7.5965218955777183e-05 0.0081728759618128494 0 9.4904719763858254e-05 0.0081872175933214025 0 0.00011356416340377921 0.0082583796622149753 0 4.2693956498599244e-05 0.0097486899727205825 0 -0.00074897075242023425 0.010725106621473321 0 -0.00062237978036334398 0.011103427114373773 0 -0.00033318570618456249 0.0094075669931077827 0 -0.00058700610387259862 0.011161750222569026 0 -0.00033318570618456249 0.0094075669931077827 0 0.00022241534458554305 0.011237987323260173 0 0.0014334855777647334 0.012913308269283682 0 0.0007545337636420445 0.013033644623399197 0 0.00093115001411105916 0.012547301249187489 0 0.000742936008830592 0.013595215219255783 0 0.0010949420805699578 0.013179565899323351 0 0.0011362923382564549 0.013304032125543848 0 0.000742936008830592 0.013595215219255783 0 0.0014334855777647334 0.012913308269283682 0 0.0007545337636420445 0.013033644623399197 0 0.00063325047555445326 0.013692261045333474 0 0.00022241534458554305 0.011237987323260173 0 -0.001064610499775578 0.010345401737827624 0 -0.00058700610387259862 0.011161750222569026 0 -0.0012466492076370708 0.010060945189200143 0 -0.0015538069975919342 0.010272655687350744 0 -0.0016187921044259757 0.010069319183097544 0 0.00022241534458554305 0.011237987323260173 0 -0.00058700610387259862 0.011161750222569026 0 0.00026223624184112791 0.013793686241184251 0 0.0004605115746893047 0.013301597137795515 0 0.00014495515673107752 0.01299950454305022 0 0.0004605115746893047 0.013301597137795515 0 0.0004645349421247362 0.012962336876883408 0 0.00014495515673107752 0.01299950454305022 0 0.000742936008830592 0.013595215219255783 0 0.0004605115746893047 0.013301597137795515 0 0.0007545337636420445 0.013033644623399197 0 0.0004605115746893047 0.013301597137795515 0 0.0007545337636420445 0.013033644623399197 0 0.0004645349421247362 0.012962336876883408 0 0.0007545337636420445 0.013033644623399197 0 0.00063592914421260771 0.012758546589672204 0 0.00093115001411105916 0.012547301249187489 0 0.0007545337636420445 0.013033644623399197 0 0.00063592914421260771 0.012758546589672204 0 0.0004645349421247362 0.012962336876883408 0 0.00063592914421260771 0.012758546589672204 0 0.00031797881551600906 0.012710261197902676 0 0.00059136566816808136 0.012347256969167815 0 0.00063592914421260771 0.012758546589672204 0 0.0004645349421247362 0.012962336876883408 0 0.00031797881551600906 0.012710261197902676 0 0.0004645349421247362 0.012962336876883408 0 0.00031797881551600906 0.012710261197902676 0 0.00014495515673107752 0.01299950454305022 0 0.00031797881551600906 0.012710261197902676 0 0.00020925968097900552 0.012432157706175499 0 -6.3310602686824372e-05 0.012684790983191635 0 0.00020925968097900552 0.012432157706175499 0 0.00059136566816808136 0.012347256969167815 0 0.00031903139785836702 0.011963458168083783 0 0.0010839142687593551 0.011600084647244498 0 0.00093115001411105916 0.012547301249187489 0 0.00059136566816808136 0.012347256969167815 0 0.00020925968097900552 0.012432157706175499 0 0.00031903139785836702 0.011963458168083783 0 -1.8673525219714883e-05 0.012265455920813193 0 0.00031797881551600906 0.012710261197902676 0 0.00020925968097900552 0.012432157706175499 0 0.00059136566816808136 0.012347256969167815 0 0.00063592914421260771 0.012758546589672204 0 0.00093115001411105916 0.012547301249187489 0 0.00059136566816808136 0.012347256969167815 0 0.0010839142687593551 0.011600084647244498 0 0.00059136566816808136 0.012347256969167815 0 0.00031903139785836702 0.011963458168083783 0 0.00031903139785836702 0.011963458168083783 0 -0.00024035013694848851 0.011776601915277192 0 -1.8673525219714883e-05 0.012265455920813193 0 -0.00099568634538941712 0.011348292736146709 0 -0.00024035013694848851 0.011776601915277192 0 -0.00049716650304683547 0.012433135718672706 0 -0.00024035013694848851 0.011776601915277192 0 -1.8673525219714883e-05 0.012265455920813193 0 -0.00031884063425397034 0.012462999573934345 0 -1.8673525219714883e-05 0.012265455920813193 0 -0.00031884063425397034 0.012462999573934345 0 -6.3310602686824372e-05 0.012684790983191635 0 0.00020925968097900552 0.012432157706175499 0 -1.8673525219714883e-05 0.012265455920813193 0 -6.3310602686824372e-05 0.012684790983191635 0 -0.00024035013694848851 0.011776601915277192 0 -0.00031884063425397034 0.012462999573934345 0 -0.00049716650304683547 0.012433135718672706 0 -0.00031884063425397034 0.012462999573934345 0 -0.00050061223166676379 0.012442698577676591 0 -6.3310602686824372e-05 0.012684790983191635 0 -0.00013999300252193414 0.012823135348196743 0 -1.3292773156755843e-05 0.012877545596563908 0 -1.3292773156755843e-05 0.012877545596563908 0 -4.2969715708975749e-05 0.013179299832684319 0 6.9855456626992472e-05 0.012407235887263472 0 0.00019690058530059842 0.01268162172494767 0 -0.00012000162532064262 0.012631996654240562 0 -0.00053799579363897094 0.011813926410413143 0 -1.3292773156755843e-05 0.012877545596563908 0 0.00015818175401882388 0.013755591334958751 0 8.0798356853809761e-05 0.013816148770796221 0 2.4617980103153728e-05 0.013731426114465102 0 0.00015818175401882388 0.013755591334958751 0 8.0798356853809761e-05 0.013816148770796221 0 0.00015069805043377055 0.013828466152196652 0 8.0798356853809761e-05 0.013816148770796221 0 -2.5725356116591597e-05 0.013861740786884085 0 6.7859472272489997e-05 0.013924919367803464 0 8.0798356853809761e-05 0.013816148770796221 0 0.00015069805043377055 0.013828466152196652 0 6.7859472272489997e-05 0.013924919367803464 0 0.00026223624184112791 0.013793686241184251 0 -0.00050061223166676379 0.012442698577676591 0 0.00014495515673107752 0.01299950454305022 0 0.00020140784171545376 0.013841071266637375 0 -1.3292773156755843e-05 0.012877545596563908 0 0.00026223624184112791 0.013793686241184251 0 0.00015818175401882388 0.013755591334958751 0 0.00015069805043377055 0.013828466152196652 0 -0.00050061223166676379 0.012442698577676591 0 0.00014495515673107752 0.01299950454305022 0 -6.3310602686824372e-05 0.012684790983191635 0 0.00031797881551600906 0.012710261197902676 0 0.00014495515673107752 0.01299950454305022 0 -6.3310602686824372e-05 0.012684790983191635 0 -0.0001540668890255201 0.01370682516519774 0 2.4617980103153728e-05 0.013731426114465102 0 -2.5725356116591597e-05 0.013861740786884085 0 -0.00014014199285792921 0.013532244439045155 0 -4.2969715708975749e-05 0.013179299832684319 0 -0.0001782422207139137 0.012385621359332287 0 -0.00043921905651531188 0.012586583809352573 0 -0.00012000162532064262 0.012631996654240562 0 8.0798356853809761e-05 0.013816148770796221 0 2.4617980103153728e-05 0.013731426114465102 0 -2.5725356116591597e-05 0.013861740786884085 0 -0.0001540668890255201 0.01370682516519774 0 -2.5725356116591597e-05 0.013861740786884085 0 -0.00016666921226093036 0.013915898146028864 0 -0.00014014199285792921 0.013532244439045155 0 -0.00011508705073740467 0.014211194131557215 0 -4.8193819111878569e-05 0.014306919294786944 0 2.1895946705145623e-08 0.014262623264375917 0 -7.4578118634069043e-05 0.014324767051076239 0 -0.00011508705073740467 0.014211194131557215 0 -0.00012162592380588869 0.01415911127739263 0 -0.00016666921226093036 0.013915898146028864 0 -3.3150314263331964e-05 0.014091757504586383 0 -0.00012240332207762974 0.014210747038867242 0 -2.5725356116591597e-05 0.013861740786884085 0 -3.3150314263331964e-05 0.014091757504586383 0 6.7859472272489997e-05 0.013924919367803464 0 -2.5725356116591597e-05 0.013861740786884085 0 -0.00016666921226093036 0.013915898146028864 0 -3.3150314263331964e-05 0.014091757504586383 0 -3.3150314263331964e-05 0.014091757504586383 0 -8.8187467382159126e-05 0.014207037899282973 0 -1.1146025198931656e-05 0.014185158222038259 0 -3.3150314263331964e-05 0.014091757504586383 0 4.4074277538684768e-05 0.014079741150080408 0 -1.1146025198931656e-05 0.014185158222038259 0 -3.3150314263331964e-05 0.014091757504586383 0 -0.00012240332207762974 0.014210747038867242 0 -8.8187467382159126e-05 0.014207037899282973 0 -7.7314062673820451e-05 0.014255038089588046 0 -0.00012240332207762974 0.014210747038867242 0 -8.8187467382159126e-05 0.014207037899282973 0 0.00026223624184112791 0.013793686241184251 0 0.000162694550920467 0.013904029863545409 0 0.00030646501148825882 0.014031721004885511 0 0.00026223624184112791 0.013793686241184251 0 0.00015069805043377055 0.013828466152196652 0 0.000162694550920467 0.013904029863545409 0 0.00015069805043377055 0.013828466152196652 0 0.000162694550920467 0.013904029863545409 0 6.7859472272489997e-05 0.013924919367803464 0 0.000162694550920467 0.013904029863545409 0 6.7859472272489997e-05 0.013924919367803464 0 4.4074277538684768e-05 0.014079741150080408 0 -3.3150314263331964e-05 0.014091757504586383 0 6.7859472272489997e-05 0.013924919367803464 0 4.4074277538684768e-05 0.014079741150080408 0 0.000162694550920467 0.013904029863545409 0 4.4074277538684768e-05 0.014079741150080408 0 0.00015310521572613417 0.01407501506980904 0 4.4074277538684768e-05 0.014079741150080408 0 9.8421686575075532e-05 0.014179889085761135 0 -1.1146025198931656e-05 0.014185158222038259 0 4.4074277538684768e-05 0.014079741150080408 0 0.00015310521572613417 0.01407501506980904 0 9.8421686575075532e-05 0.014179889085761135 0 0.00015310521572613417 0.01407501506980904 0 0.00020527195113464861 0.014137832405419047 0 9.8421686575075532e-05 0.014179889085761135 0 0.00030646501148825882 0.014031721004885511 0 0.00020527195113464861 0.014137832405419047 0 0.00027422367097058972 0.014254394164351328 0 0.000162694550920467 0.013904029863545409 0 0.00015310521572613417 0.01407501506980904 0 0.00030646501148825882 0.014031721004885511 0 0.00015310521572613417 0.01407501506980904 0 0.00030646501148825882 0.014031721004885511 0 0.00020527195113464861 0.014137832405419047 0 0.00020527195113464861 0.014137832405419047 0 9.8421686575075532e-05 0.014179889085761135 0 0.00027422367097058972 0.014254394164351328 0 9.8421686575075532e-05 0.014179889085761135 0 6.7852207583171491e-05 0.014267662692892636 0 0.00027422367097058972 0.014254394164351328 0 6.7852207583171491e-05 0.014267662692892636 0 -1.1146025198931656e-05 0.014185158222038259 0 -5.2021731744018469e-05 0.014264654660560453 0 9.8421686575075532e-05 0.014179889085761135 0 6.7852207583171491e-05 0.014267662692892636 0 -1.1146025198931656e-05 0.014185158222038259 0 6.7852207583171491e-05 0.014267662692892636 0 0.00012749171239057278 0.014379065042778626 0 -1.4934044397506975e-05 0.014357015122269324 0 6.7852207583171491e-05 0.014267662692892636 0 -5.2021731744018469e-05 0.014264654660560453 0 -1.4934044397506975e-05 0.014357015122269324 0 -0.0014145531077619661 0.013655963280928076 0 -0.0010440538776204 0.012945598026675862 0 6.7852207583171491e-05 0.014267662692892636 0 0.00012749171239057278 0.014379065042778626 0 0.00027422367097058972 0.014254394164351328 0 -7.7314062673820451e-05 0.014255038089588046 0 -8.8187467382159126e-05 0.014207037899282973 0 -0.00010970531835034308 0.014247549723699612 0 -8.8187467382159126e-05 0.014207037899282973 0 -1.1146025198931656e-05 0.014185158222038259 0 -0.00010970531835034308 0.014247549723699612 0 -1.1146025198931656e-05 0.014185158222038259 0 -5.2021731744018469e-05 0.014264654660560453 0 -0.00010970531835034308 0.014247549723699612 0 -5.2021731744018469e-05 0.014264654660560453 0 -0.00020346409682868002 0.01425815587712599 0 -1.4934044397506975e-05 0.014357015122269324 0 -5.2021731744018469e-05 0.014264654660560453 0 -0.00010970531835034308 0.014247549723699612 0 -0.00020346409682868002 0.01425815587712599 0 -7.7314062673820451e-05 0.014255038089588046 0 -0.00010970531835034308 0.014247549723699612 0 -7.387952706245278e-05 0.014223885177611587 0 -0.00010970531835034308 0.014247549723699612 0 -7.387952706245278e-05 0.014223885177611587 0 -0.00020346409682868002 0.01425815587712599 0 -7.387952706245278e-05 0.014223885177611587 0 -0.00010562377470325397 0.014023207152487794 0 -0.00020346409682868002 0.01425815587712599 0 -0.00010562377470325397 0.014023207152487794 0 -0.00020346409682868002 0.01425815587712599 0 -0.00047639373127620157 0.013951405868428503 0 -0.00027173518986997028 0.014294420425625716 0 -0.00026680208276087038 0.014368629564260832 0 -0.00020346409682868002 0.01425815587712599 0 -0.00047639373127620157 0.013951405868428503 0 -0.0007925953435035496 0.014388852828492246 0 -0.00047639373127620157 0.013951405868428503 0 -0.00085723275847645719 0.013736047272432678 0 -0.00053862216212064991 0.013518336442657318 0 -0.00047639373127620157 0.013951405868428503 0 -0.00020216174995089613 0.013676240235328329 0 -0.00053862216212064991 0.013518336442657318 0 -0.00010562377470325397 0.014023207152487794 0 -0.00047639373127620157 0.013951405868428503 0 -0.00020216174995089613 0.013676240235328329 0 2.5221084975570859e-05 0.013791207853334375 0 -0.00010562377470325397 0.014023207152487794 0 -0.00020216174995089613 0.013676240235328329 0 -0.0015246718294912069 0.014057138671938566 0 -0.0014368714064244201 0.01448228984266459 0 -0.0020550089367762743 0.014014222899334934 0 -0.0013359798282749811 0.014283726478877844 0 -0.0015246718294912069 0.014057138671938566 0 -0.0014368714064244201 0.01448228984266459 0 -0.0013359798282749811 0.014283726478877844 0 -0.0015246718294912069 0.014057138671938566 0 -0.0012126134129201752 0.013905342373682227 0 -0.0015156884984837843 0.014071882926021347 0 -0.0014145531077619661 0.013655963280928076 0 -0.0014145531077619661 0.013655963280928076 0 -0.00026680208276087038 0.014368629564260832 0 -0.0013359798282749811 0.014283726478877844 0 -0.0014222756528590843 0.014458101494419125 0 -0.0007925953435035496 0.014388852828492246 0 -0.00047639373127620157 0.013951405868428503 0 -0.0007925953435035496 0.014388852828492246 0 -0.00092713550539896394 0.014050626410460348 0 -0.0013359798282749811 0.014283726478877844 0 -0.00092713550539896394 0.014050626410460348 0 -0.0012126134129201752 0.013905342373682227 0 -0.0013359798282749811 0.014283726478877844 0 -0.0007925953435035496 0.014388852828492246 0 -0.00092713550539896394 0.014050626410460348 0 -0.00092713550539896394 0.014050626410460348 0 -0.0012126134129201752 0.013905342373682227 0 -0.00085723275847645719 0.013736047272432678 0 -0.00047639373127620157 0.013951405868428503 0 -0.00092713550539896394 0.014050626410460348 0 -0.00085723275847645719 0.013736047272432678 0 -0.00085723275847645719 0.013736047272432678 0 -0.00088607915843796209 0.013392248123586619 0 -0.00053862216212064991 0.013518336442657318 0 -0.0012126134129201752 0.013905342373682227 0 -0.00085723275847645719 0.013736047272432678 0 -0.0011564737543729878 0.013548735648864224 0 -0.00085723275847645719 0.013736047272432678 0 -0.0011564737543729878 0.013548735648864224 0 -0.00088607915843796209 0.013392248123586619 0 -0.0012126134129201752 0.013905342373682227 0 -0.0011564737543729878 0.013548735648864224 0 -0.0015919047659213317 0.013623730160101911 0 -0.0015246718294912069 0.014057138671938566 0 -0.0012126134129201752 0.013905342373682227 0 -0.0015919047659213317 0.013623730160101911 0 -0.0015246718294912069 0.014057138671938566 0 -0.0015919047659213317 0.013623730160101911 0 -0.0020550089367762743 0.014014222899334934 0 -0.0015919047659213317 0.013623730160101911 0 -0.0021813193931954473 0.013524392656404878 0 -0.0020550089367762743 0.014014222899334934 0 -0.0021813193931954473 0.013524392656404878 0 -0.0020550089367762743 0.014014222899334934 0 -0.0026602816973663617 0.013710918272963698 0 -0.0020550089367762743 0.014014222899334934 0 -0.0026602816973663617 0.013710918272963698 0 -0.0028221991073887299 0.014132843583280846 0 -0.0026602816973663617 0.013710918272963698 0 -0.0032339669631921116 0.013915193889765186 0 -0.0030687874142582366 0.013508482901690474 0 -0.0026602816973663617 0.013710918272963698 0 -0.0028221991073887299 0.014132843583280846 0 -0.0032339669631921116 0.013915193889765186 0 -0.0020358477045358337 0.012740761725486823 0 -0.0023504233838955568 0.013347059788086106 0 -0.0028221991073887299 0.014132843583280846 0 -0.0025970486096843076 0.014509764117395615 0 -0.0022564390384321124 0.014510761070841104 0 -0.0028221991073887299 0.014132843583280846 0 -0.0025970486096843076 0.014509764117395615 0 -0.0030641973205931907 0.014494460498318876 0 -0.0020358477045358337 0.012740761725486823 0 -0.0023450397298035112 0.013202848956774187 0 -0.0014145531077619661 0.013655963280928076 0 -0.0023504233838955568 0.013347059788086106 0 -0.0020550089367762743 0.014014222899334934 0 -0.0028221991073887299 0.014132843583280846 0 -0.0022564390384321124 0.014510761070841104 0 -0.0014368714064244201 0.01448228984266459 0 -0.0020550089367762743 0.014014222899334934 0 -0.0022564390384321124 0.014510761070841104 0 -0.0028046237859966658 0.012587263174743631 0 -0.0020853569777021306 0.012558870939263668 0 -0.0024168529296961162 0.011759338065901685 0 -0.0020853569777021306 0.012558870939263668 0 -0.001978600731281499 0.012041137843077917 0 -0.0024168529296961162 0.011759338065901685 0 -0.0017828749183407809 0.012549929187950363 0 -0.0020853569777021306 0.012558870939263668 0 -0.001978600731281499 0.012041137843077917 0 -0.0020358477045358337 0.012740761725486823 0 -0.0014015260379575743 0.01140594588156154 0 -0.0017828749183407809 0.012549929187950363 0 -0.001978600731281499 0.012041137843077917 0 -0.0014361905019870641 0.011816959189320339 0 -0.001788377830709997 0.011843699559389619 0 -0.0014757157710995753 0.011220773518404219 0 -0.0014158247592825168 0.011827555574948086 0 -0.001978600731281499 0.012041137843077917 0 -0.0017468544066796443 0.011402052028655392 0 -0.0014361905019870641 0.011816959189320339 0 -0.001096658591454234 0.011086404425845409 0 -0.0017468544066796443 0.011402052028655392 0 -0.0014361905019870641 0.011816959189320339 0 -0.001978600731281499 0.012041137843077917 0 -0.0017468544066796443 0.011402052028655392 0 -0.0024168529296961162 0.011759338065901685 0 -0.00092337764647217534 0.011077984646645783 0 -0.0011091305315794556 0.011477160210773859 0 -0.00066762570152066342 0.011319288158429818 0 -0.00054793759511041784 0.011019279121556657 0 -0.00092337764647217534 0.011077984646645783 0 -0.00066762570152066342 0.011319288158429818 0 -0.00054793759511041784 0.011019279121556657 0 -0.00066235852050367905 0.010765962369687855 0 -0.00092337764647217534 0.011077984646645783 0 -0.0011565759662988714 0.010649122644386205 0 -0.0014757157710995753 0.011220773518404219 0 -0.00092337764647217534 0.011077984646645783 0 -0.0011417620220761432 0.010896786193361662 0 -0.0014015260379575743 0.01140594588156154 0 -0.0014757157710995753 0.011220773518404219 0 -0.00092337764647217534 0.011077984646645783 0 -0.0011091305315794556 0.011477160210773859 0 -0.0011091305315794556 0.011477160210773859 0 -0.00079670807199046462 0.011798452285864208 0 -0.0014158247592825168 0.011827555574948086 0 -0.0014757157710995753 0.011220773518404219 0 -0.0011091305315794556 0.011477160210773859 0 -0.0014158247592825168 0.011827555574948086 0 -0.00067248161785020812 0.011235617093930259 0 -0.0019248149663390586 0.011901572837722601 0 -0.00066762570152066342 0.011319288158429818 0 -0.00073341507555759117 0.01174822197086167 0 -0.00080325552606492459 0.011750272451792002 0 -0.00032184572450860081 0.011302674013672562 0 -0.00066762570152066342 0.011319288158429818 0 -0.00073341507555759117 0.01174822197086167 0 -0.0011091305315794556 0.011477160210773859 0 -0.00066762570152066342 0.011319288158429818 0 -0.00079670807199046462 0.011798452285864208 0 -0.0027967452303151439 0.0097990776381422229 0 -0.0027250813187866831 0.0097288925397216227 0 -0.0028816987016574772 0.0096603521469673138 0 -0.0029387461474058947 0.0097912553722478667 0 -0.0027967452303151439 0.0097990776381422229 0 -0.0028816987016574772 0.0096603521469673138 0 -0.0028273978085534839 0.010614577137436779 0 -0.0021035902490612783 0.01125222867808005 0 -0.0037642174849771589 0.014348606950412606 0 -0.0036679711594654009 0.014231732124714546 0 -0.003571901942467719 0.013426547570419032 0 -0.0021035902490612783 0.01125222867808005 0 -0.0027479877831593862 0.012278939312810206 0 -0.0021688149265188883 0.011437809759139776 0 -0.0024814229274788338 0.011447193856977431 0 -0.0026181492193395823 0.011933428348229991 0 -0.0021035902490612783 0.01125222867808005 0 -0.0019248149663390586 0.011901572837722601 0 -0.0019248149663390586 0.011901572837722601 0 -0.0027479877831593862 0.012278939312810206 0 -0.0037709839530697207 0.014342089323016881 0 -0.0036679711594654009 0.014231732124714546 0 -0.0033998901306695221 0.014267076211067762 0 -0.0038083254806745271 0.014473239246510641 0 -0.0037709839530697207 0.014342089323016881 0 -0.0033998901306695221 0.014267076211067762 0 -0.0027479877831593862 0.012278939312810206 0 -0.0034275671649898745 0.013200188881810626 0 -0.002962271851058951 0.009524635027562376 0 -0.0028816987016574772 0.0096603521469673138 0 -0.0027742457334464202 0.0094646317294014119 0 -0.0027250813187866831 0.0097288925397216227 0 -0.0028816987016574772 0.0096603521469673138 0 -0.0027742457334464202 0.0094646317294014119 0 -0.0038083254806745271 0.014473239246510641 0 -0.0030641973205931907 0.014494460498318876 0 -0.0033998901306695221 0.014267076211067762 0 -0.0028221991073887299 0.014132843583280846 0 -0.0030641973205931907 0.014494460498318876 0 -0.0033998901306695221 0.014267076211067762 0 -0.0028221991073887299 0.014132843583280846 0 -0.0033998901306695221 0.014267076211067762 0 -0.0032339669631921116 0.013915193889765186 0 -0.0019248149663390586 0.011901572837722601 0 -0.0023450397298035112 0.013202848956774187 0 -0.0036679711594654009 0.014231732124714546 0 -0.0033998901306695221 0.014267076211067762 0 -0.0032339669631921116 0.013915193889765186 0 -0.0036679711594654009 0.014231732124714546 0 -0.0032339669631921116 0.013915193889765186 0 -0.003571901942467719 0.013426547570419032 0 -0.0032339669631921116 0.013915193889765186 0 -0.0030687874142582366 0.013508482901690474 0 -0.003571901942467719 0.013426547570419032 0 -0.0027250813187866831 0.0097288925397216227 0 -0.0027742457334464202 0.0094646317294014119 0 -0.0025889529324032638 0.0091344636349740254 0 -0.0027742457334464202 0.0094646317294014119 0 -0.0029381787659257747 0.0091774170775333792 0 -0.0025889529324032638 0.0091344636349740254 0 -0.0027479877831593862 0.012278939312810206 0 -0.0031441697454173121 0.011235183551104746 0 -0.0029445863078134439 0.0091350798831916578 0 -0.0028659679466318099 0.0093453097368060793 0 -0.0030131339245290738 0.0095099283787576372 0 -0.0027742457334464202 0.0094646317294014119 0 -0.0029381787659257747 0.0091774170775333792 0 -0.0029381787659257747 0.0091774170775333792 0 -0.002801943948534192 0.0088993548476004863 0 -0.0025889529324032638 0.0091344636349740254 0 -0.002801943948534192 0.0088993548476004863 0 -0.0025889529324032638 0.0091344636349740254 0 -0.0025391850464496005 0.0085298540515091354 0 -0.003571901942467719 0.013426547570419032 0 -0.0034230101510240689 0.012397940357981403 0 -0.0028033299897095598 0.012976901415131343 0 -0.0031441697454173121 0.011235183551104746 0 -0.0029886561458322813 0.010476096018684 0 -0.0030687874142582366 0.013508482901690474 0 -0.003571901942467719 0.013426547570419032 0 -0.0028033299897095598 0.012976901415131343 0 -0.002801943948534192 0.0088993548476004863 0 -0.0025391850464496005 0.0085298540515091354 0 -0.0027617642230070567 0.0086044885337942887 0 -0.002801943948534192 0.0088993548476004863 0 -0.0027617642230070567 0.0086044885337942887 0 -0.0029868462917470029 0.0087279677536138307 0 -0.0027617642230070567 0.0086044885337942887 0 -0.0029868462917470029 0.0087279677536138307 0 -0.0029095626180458724 0.0085196489098514506 0 -0.0025391850464496005 0.0085298540515091354 0 -0.0027617642230070567 0.0086044885337942887 0 -0.0026321399880744408 0.008292310917556377 0 -0.0027617642230070567 0.0086044885337942887 0 -0.0026321399880744408 0.008292310917556377 0 -0.0029095626180458724 0.0085196489098514506 0 -0.0029886561458322813 0.010476096018684 0 -0.0030001011773576522 0.0097693659405672702 0 -0.0025391850464496005 0.0085298540515091354 0 -0.0026321399880744408 0.008292310917556377 0 -0.0027985087040451064 0.008420377345455806 0 -0.0026321399880744408 0.008292310917556377 0 -0.0027985087040451064 0.008420377345455806 0 -0.0027643447702812968 0.0085617662575668135 0 -0.0026321399880744408 0.008292310917556377 0 -0.0027643447702812968 0.0085617662575668135 0 -0.0024659883425498979 0.0079813653795294797 0 -0.0020201085226626203 0.010621553571773192 0 -0.0023433594294242771 0.01208735697677975 0 -0.001443881523507728 0.011529982389334146 0 -0.0020201085226626203 0.010621553571773192 0 -0.0032658910389104681 0.011120949452674625 0 -0.0023433594294242771 0.01208735697677975 0 -0.0034230101510240689 0.012397940357981403 0 -0.0032658910389104681 0.011120949452674625 0 -0.0023433594294242771 0.01208735697677975 0 -0.0023433594294242771 0.01208735697677975 0 -0.001986705738615281 0.013072423475178417 0 -0.0015775292397295605 0.012464748118838066 0 -0.0023433594294242771 0.01208735697677975 0 -0.0028033299897095598 0.012976901415131343 0 -0.001986705738615281 0.013072423475178417 0 -0.0034230101510240689 0.012397940357981403 0 -0.0023433594294242771 0.01208735697677975 0 -0.0028033299897095598 0.012976901415131343 0 -0.0021813193931954473 0.013524392656404878 0 -0.0026602816973663617 0.013710918272963698 0 -0.0028033299897095598 0.012976901415131343 0 -0.0026602816973663617 0.013710918272963698 0 -0.0030687874142582366 0.013508482901690474 0 -0.0028033299897095598 0.012976901415131343 0 -0.0021813193931954473 0.013524392656404878 0 -0.0028033299897095598 0.012976901415131343 0 -0.001986705738615281 0.013072423475178417 0 -0.0015919047659213317 0.013623730160101911 0 -0.0021813193931954473 0.013524392656404878 0 -0.001986705738615281 0.013072423475178417 0 -0.0015919047659213317 0.013623730160101911 0 -0.001986705738615281 0.013072423475178417 0 -0.0012692039298791489 0.013104648152266753 0 -0.0011564737543729878 0.013548735648864224 0 -0.0015919047659213317 0.013623730160101911 0 -0.0012692039298791489 0.013104648152266753 0 -0.0012692039298791489 0.013104648152266753 0 -0.00088607915843796209 0.013392248123586619 0 -0.00065403188251736476 0.013088670860907895 0 -0.0011564737543729878 0.013548735648864224 0 -0.0012692039298791489 0.013104648152266753 0 -0.00088607915843796209 0.013392248123586619 0 -0.0012692039298791489 0.013104648152266753 0 -0.00065403188251736476 0.013088670860907895 0 -0.00089568964575307273 0.012408763359301874 0 -0.0012692039298791489 0.013104648152266753 0 -0.0015775292397295605 0.012464748118838066 0 -0.00089568964575307273 0.012408763359301874 0 -0.001986705738615281 0.013072423475178417 0 -0.0012692039298791489 0.013104648152266753 0 -0.0015775292397295605 0.012464748118838066 0 2.5221084975570859e-05 0.013791207853334375 0 -0.00020216174995089613 0.013676240235328329 0 -2.2379046986942783e-05 0.013438227646780619 0 -0.00020216174995089613 0.013676240235328329 0 -2.2379046986942783e-05 0.013438227646780619 0 -0.00029995307446043754 0.013266322670497077 0 -2.2379046986942783e-05 0.013438227646780619 0 -0.00029995307446043754 0.013266322670497077 0 -8.3418633445400361e-05 0.013062079475351594 0 -0.00020216174995089613 0.013676240235328329 0 -0.00029995307446043754 0.013266322670497077 0 -0.00053862216212064991 0.013518336442657318 0 -0.00088607915843796209 0.013392248123586619 0 -0.00053862216212064991 0.013518336442657318 0 -0.00065403188251736476 0.013088670860907895 0 -0.00029995307446043754 0.013266322670497077 0 -0.00053862216212064991 0.013518336442657318 0 -0.00065403188251736476 0.013088670860907895 0 -0.00065403188251736476 0.013088670860907895 0 -0.00034603357185828635 0.012780142971485291 0 -0.00089568964575307273 0.012408763359301874 0 -0.00029995307446043754 0.013266322670497077 0 -0.00034603357185828635 0.012780142971485291 0 -8.3418633445400361e-05 0.013062079475351594 0 -0.00029995307446043754 0.013266322670497077 0 -0.00065403188251736476 0.013088670860907895 0 -0.00034603357185828635 0.012780142971485291 0 -8.3418633445400361e-05 0.013062079475351594 0 4.7808118834557199e-05 0.012563079309536183 0 0.00015215154219627532 0.013150019514432775 0 -0.00034603357185828635 0.012780142971485291 0 -8.3418633445400361e-05 0.013062079475351594 0 4.7808118834557199e-05 0.012563079309536183 0 -2.2379046986942783e-05 0.013438227646780619 0 -8.3418633445400361e-05 0.013062079475351594 0 0.00015215154219627532 0.013150019514432775 0 4.7808118834557199e-05 0.012563079309536183 0 -0.0003399526213139497 0.012236733856518698 0 0.00023860060876970993 0.011753201889592687 0 4.7808118834557199e-05 0.012563079309536183 0 0.00023860060876970993 0.011753201889592687 0 0.00029865199710648596 0.012372326627731078 0 -0.00034603357185828635 0.012780142971485291 0 -0.0003399526213139497 0.012236733856518698 0 -0.00089568964575307273 0.012408763359301874 0 -0.00034603357185828635 0.012780142971485291 0 4.7808118834557199e-05 0.012563079309536183 0 -0.0003399526213139497 0.012236733856518698 0 -0.0003399526213139497 0.012236733856518698 0 0.00023860060876970993 0.011753201889592687 0 -0.00063730844327005267 0.011428842677741731 0 -0.0015775292397295605 0.012464748118838066 0 -0.00089568964575307273 0.012408763359301874 0 -0.001443881523507728 0.011529982389334146 0 -0.0023433594294242771 0.01208735697677975 0 -0.0015775292397295605 0.012464748118838066 0 -0.001443881523507728 0.011529982389334146 0 -0.0003399526213139497 0.012236733856518698 0 -0.00089568964575307273 0.012408763359301874 0 -0.00063730844327005267 0.011428842677741731 0 -0.00089568964575307273 0.012408763359301874 0 -0.00063730844327005267 0.011428842677741731 0 -0.001443881523507728 0.011529982389334146 0 -0.00063730844327005267 0.011428842677741731 0 -0.001443881523507728 0.011529982389334146 0 -0.0011147212121761752 0.010420260187171107 0 -0.0020201085226626203 0.010621553571773192 0 -0.001443881523507728 0.011529982389334146 0 -0.0011147212121761752 0.010420260187171107 0 -0.0020201085226626203 0.010621553571773192 0 -0.0011147212121761752 0.010420260187171107 0 -0.0015585583891056741 0.0092632245494588088 0 -0.00063730844327005267 0.011428842677741731 0 -0.0011147212121761752 0.010420260187171107 0 -0.00026287871957206488 0.010243037440158944 0 -0.0011147212121761752 0.010420260187171107 0 -0.00086306309758312166 0.0095786456515482132 0 -0.00026287871957206488 0.010243037440158944 0 -0.00086306309758312166 0.0095786456515482132 0 -0.00026287871957206488 0.010243037440158944 0 -0.00041788579127205992 0.009257383898681833 0 -0.00086306309758312166 0.0095786456515482132 0 -0.0015585583891056741 0.0092632245494588088 0 -0.00097128340867275794 0.0088028047820582316 0 -0.0011147212121761752 0.010420260187171107 0 -0.00086306309758312166 0.0095786456515482132 0 -0.0015585583891056741 0.0092632245494588088 0 0.00023860060876970993 0.011753201889592687 0 -0.00026287871957206488 0.010243037440158944 0 0.0011360200706655597 0.010193688885705321 0 0.00023860060876970993 0.011753201889592687 0 -0.00063730844327005267 0.011428842677741731 0 -0.00026287871957206488 0.010243037440158944 0 -0.00026287871957206488 0.010243037440158944 0 0.00036430859167026572 0.0092915950781766541 0 -0.00041788579127205992 0.009257383898681833 0 -0.0001810896468288249 0.012211018842804256 0 -0.00037288634325481537 0.01221556711163225 0 -2.0831020214710183e-05 0.012580792697926963 0 -0.00017463401757178936 0.010538992647145662 0 0.00062552891019244483 0.011384124158096059 0 -0.00026287871957206488 0.010243037440158944 0 0.00036430859167026572 0.0092915950781766541 0 0.0011360200706655597 0.010193688885705321 0 -0.00069311962989187994 0.011476745548350171 0 -0.00084169385960403153 0.011143188571593125 0 -0.00052181551227586617 0.011184190959327179 0 -0.00047495222731515515 0.011520613713889263 0 -0.00017463401757178936 0.010538992647145662 0 -0.00069311962989187994 0.011476745548350171 0 -0.00089750251212587404 0.01148390338092759 0 -0.00084169385960403153 0.011143188571593125 0 -0.00089750251212587404 0.01148390338092759 0 -0.0012618025467117818 0.011107252038306698 0 -0.00084169385960403153 0.011143188571593125 0 -0.00017463401757178936 0.010538992647145662 0 -0.00015468715446727199 0.0092630447445625139 0 0.00026624967445192707 0.0092280321729078588 0 -0.00041788579127205992 0.009257383898681833 0 -0.00034806650670357088 0.0086017584269311581 0 -0.00017463401757178936 0.010538992647145662 0 -0.00085043301971407406 0.0097974747048653957 0 -0.0010640947448982191 0.010825086451942018 0 -0.0012618025467117818 0.011107252038306698 0 -0.00084169385960403153 0.011143188571593125 0 -0.00084169385960403153 0.011143188571593125 0 -0.00052181551227586617 0.011184190959327179 0 -0.00064437393414007557 0.010757375930590103 0 -0.0010640947448982191 0.010825086451942018 0 -0.00084169385960403153 0.011143188571593125 0 -0.00064437393414007557 0.010757375930590103 0 -0.0015585583891056741 0.0092632245494588088 0 -0.00097128340867275794 0.0088028047820582316 0 -0.0013027942874884 0.0082951600558822947 0 -0.00041788579127205992 0.009257383898681833 0 -0.00034806650670357088 0.0086017584269311581 0 -0.00097128340867275794 0.0088028047820582316 0 -0.00034806650670357088 0.0086017584269311581 0 -0.00097128340867275794 0.0088028047820582316 0 -0.00082230360791990889 0.0084938722432962872 0 -0.00086306309758312166 0.0095786456515482132 0 -0.00041788579127205992 0.009257383898681833 0 -0.00097128340867275794 0.0088028047820582316 0 -0.00034806650670357088 0.0086017584269311581 0 -0.00082230360791990889 0.0084938722432962872 0 -0.00081683740556706816 0.0081342478193590206 0 -0.0010640947448982191 0.010825086451942018 0 -0.0012618025467117818 0.011107252038306698 0 -0.001622508819967672 0.010725268306209448 0 -0.00085043301971407406 0.0097974747048653957 0 -0.0011654256197798016 0.00961444787180811 0 -0.0013027942874884 0.0082951600558822947 0 -0.00082827159361835076 0.0075712216202236124 0 -0.0015022792147752408 0.0073523621060356875 0 -0.00097128340867275794 0.0088028047820582316 0 -0.00082230360791990889 0.0084938722432962872 0 -0.0010918006739714084 0.0082654644721711999 0 -0.000928935189940932 0.0087213426136544831 0 -0.00098585254174097495 0.0078226180695030595 0 -0.00082230360791990889 0.0084938722432962872 0 -0.0010918006739714084 0.0082654644721711999 0 -0.00081683740556706816 0.0081342478193590206 0 -0.00097128340867275794 0.0088028047820582316 0 -0.0013027942874884 0.0082951600558822947 0 -0.00082827159361835076 0.0075712216202236124 0 -0.0013027942874884 0.0082951600558822947 0 -0.0015022792147752408 0.0073523621060356875 0 -0.001946137827960286 0.008365963237608038 0 -0.0015022792147752408 0.0073523621060356875 0 -0.001946137827960286 0.008365963237608038 0 -0.002413081651830629 0.0072655629094846661 0 -0.0015585583891056741 0.0092632245494588088 0 -0.0013027942874884 0.0082951600558822947 0 -0.001946137827960286 0.008365963237608038 0 -0.001946137827960286 0.008365963237608038 0 -0.0027037697279815023 0.0084079392150578636 0 -0.0027939573878796782 0.0092512247220877895 0 -0.001946137827960286 0.008365963237608038 0 -0.0027037697279815023 0.0084079392150578636 0 -0.002413081651830629 0.0072655629094846661 0 -0.0027037697279815023 0.0084079392150578636 0 -0.0034775902710228162 0.0079460129008092403 0 -0.002413081651830629 0.0072655629094846661 0 -0.0019892996367426399 0.0036870055025799895 0 -0.0017680109779264772 0.0048883484633391672 0 -0.002727282356744094 0.0043603967421257314 0 -0.0034775902710228162 0.0079460129008092403 0 -0.0029251251848739315 0.0087935404500379746 0 -0.0029252024210056709 0.0087856817274081754 0 -0.002711815759960328 0.0058098029575642451 0 -0.0023828959082552608 0.0068367937879733965 0 -0.0027037697279815023 0.0084079392150578636 0 -0.0034775902710228162 0.0079460129008092403 0 -0.0029251251848739315 0.0087935404500379746 0 -0.0027037697279815023 0.0084079392150578636 0 -0.0029251251848739315 0.0087935404500379746 0 -0.0027939573878796782 0.0092512247220877895 0 -0.0029251251848739315 0.0087935404500379746 0 -0.0027643447702812968 0.0085617662575668135 0 -0.0027939573878796782 0.0092512247220877895 0 -0.0029251251848739315 0.0087935404500379746 0 -0.0029252024210056709 0.0087856817274081754 0 -0.0027643447702812968 0.0085617662575668135 0 -0.0023828959082552608 0.0068367937879733965 0 -0.0024644734492407861 0.0079165860165215738 0 -0.0029252024210056709 0.0087856817274081754 0 -0.0027643447702812968 0.0085617662575668135 0 -0.0024659883425498979 0.0079813653795294797 0 -0.0027985087040451064 0.008420377345455806 0 -0.0027643447702812968 0.0085617662575668135 0 -0.0027939573878796782 0.0092512247220877895 0 -0.0020201085226626203 0.010621553571773192 0 -0.0032658910389104681 0.011120949452674625 0 -0.0027939573878796782 0.0092512247220877895 0 -0.0030001011773576522 0.0097693659405672702 0 -0.0028191862980630313 0.009257703365615334 0 -0.0020201085226626203 0.010621553571773192 0 -0.0015585583891056741 0.0092632245494588088 0 -0.0027939573878796782 0.0092512247220877895 0 -0.0015585583891056741 0.0092632245494588088 0 -0.001946137827960286 0.008365963237608038 0 -0.0027939573878796782 0.0092512247220877895 0 -1.1029831679294011e-08 0.014999932846016941 0 1.5107744158102743e-05 0.014977308700539364 0 1.0827602635963253e-05 0.015000519280931829 0 2.8541259471722347e-05 0.014997364665023098 0 1.5107744158102743e-05 0.014977308700539364 0 1.0827602635963253e-05 0.015000519280931829 0 8.5313257115342527e-05 0.014770768182710161 0 5.8518756936962861e-05 0.014874466491991966 0 2.8541259471722347e-05 0.014997364665023098 0 4.7090071329865657e-05 0.014902039495790859 0 1.5107744158102743e-05 0.014977308700539364 0 0.0001664417305819648 0.014541407129737846 0 5.3108301813533821e-05 0.0147741545960897 0 4.7090071329865657e-05 0.014902039495790859 0 4.7090071329865657e-05 0.014902039495790859 0 1.6848827037191036e-05 0.014959972203630203 0 1.5107744158102743e-05 0.014977308700539364 0 -1.1029831679294011e-08 0.014999932846016941 0 1.6848827037191036e-05 0.014959972203630203 0 5.2426805347694886e-08 0.014999964411082251 0 -1.1029831679294011e-08 0.014999932846016941 0 1.6848827037191036e-05 0.014959972203630203 0 1.5107744158102743e-05 0.014977308700539364 0 4.7090071329865657e-05 0.014902039495790859 0 1.6848827037191036e-05 0.014959972203630203 0 1.602257709320355e-05 0.015004313937682656 0 1.6848827037191036e-05 0.014959972203630203 0 1.602257709320355e-05 0.015004313937682656 0 5.2426805347694886e-08 0.014999964411082251 0 0.00013760604521610099 0.014691431419188215 0 6.1293474378731598e-07 0.014999051877223904 0 0.00025726088976578735 0.014376451038299102 0 -2.332913530120435e-08 0.015000005639566511 0 1.602257709320355e-05 0.015004313937682656 0 5.2426805347694886e-08 0.014999964411082251 0 1.7099491738311776e-08 0.014999824378874255 0 0.00011395067922306137 0.014682329335385018 0 0.00013760604521610099 0.014691431419188215 0 0.00025726088976578735 0.014376451038299102 0 0.00017712102744574251 0.014437268372997716 0 0.00016542803621053318 0.014524811722897834 0 0.00017712102744574251 0.014437268372997716 0 0.00017899709394196794 0.014343033234551689 0 0.00013760604521610099 0.014691431419188215 0 0.00016542803621053318 0.014524811722897834 0 0.00017712102744574251 0.014437268372997716 0 0.00017712102744574251 0.014437268372997716 0 0.00017134178661229869 0.01424998636464064 0 0.00017899709394196794 0.014343033234551689 0 0.00011305358383655944 0.014474084246357006 0 0.00011395067922306137 0.014682329335385018 0 0.00015085282855722051 0.014136606607282384 0 0.00025726088976578735 0.014376451038299102 0 0.00017134178661229869 0.01424998636464064 0 5.3108301813533821e-05 0.0147741545960897 0 4.7090071329865657e-05 0.014902039495790859 0 1.602257709320355e-05 0.015004313937682656 0 0.00025726088976578735 0.014376451038299102 0 0.00017712102744574251 0.014437268372997716 0 0.00017134178661229869 0.01424998636464064 0 0.00017134178661229869 0.01424998636464064 0 0.00020382471370680019 0.014120106123693767 0 0.00016909213727732528 0.014146836211093925 0 0.00020382471370680019 0.014120106123693767 0 0.00022487824968331002 0.014100170170766931 0 0.00016909213727732528 0.014146836211093925 0 0.00017134178661229869 0.01424998636464064 0 0.00021009795851065701 0.014197169995780161 0 0.00020382471370680019 0.014120106123693767 0 0.00019108111017180038 0.01440723880901768 0 0.00017899709394196794 0.014343033234551689 0 0.00021009795851065701 0.014197169995780161 0 0.00017134178661229869 0.01424998636464064 0 0.00017899709394196794 0.014343033234551689 0 0.00021009795851065701 0.014197169995780161 0 0.00019108111017180038 0.01440723880901768 0 0.00016542803621053318 0.014524811722897834 0 0.00017899709394196794 0.014343033234551689 0 0.00023039162965271087 0.014254182405534921 0 0.00019108111017180038 0.01440723880901768 0 0.00021009795851065701 0.014197169995780161 0 0.00023039162965271087 0.014254182405534921 0 0.00021009795851065701 0.014197169995780161 0 0.00027007108290808674 0.014090431293363055 0 0.00021009795851065701 0.014197169995780161 0 0.00027007108290808674 0.014090431293363055 0 0.00029159616852599278 0.013982456019351252 0 0.00021009795851065701 0.014197169995780161 0 0.00029159616852599278 0.013982456019351252 0 0.00020382471370680019 0.014120106123693767 0 0.00029159616852599278 0.013982456019351252 0 0.00020382471370680019 0.014120106123693767 0 0.00022487824968331002 0.014100170170766931 0 0.00029159616852599278 0.013982456019351252 0 0.00022487824968331002 0.014100170170766931 0 0.00032206725724436382 0.014038813716313492 0 0.00024990919008700135 0.014157443617236925 0 0.00033421631456609764 0.01422313700328102 0 0.00032206725724436382 0.014038813716313492 0 0.00024990919008700135 0.014157443617236925 0 0.00022487824968331002 0.014100170170766931 0 0.00032206725724436382 0.014038813716313492 0 0.00024990919008700135 0.014157443617236925 0 0.00022487824968331002 0.014100170170766931 0 0.00018579388434082574 0.014184721379659305 0 0.00022487824968331002 0.014100170170766931 0 0.00016909213727732528 0.014146836211093925 0 0.00018579388434082574 0.014184721379659305 0 0.00015085282855722051 0.014136606607282384 0 0.00016909213727732528 0.014146836211093925 0 0.00018579388434082574 0.014184721379659305 0 0.00015085282855722051 0.014136606607282384 0 0.00017134178661229869 0.01424998636464064 0 0.00016909213727732528 0.014146836211093925 0 0.0001664417305819648 0.014541407129737846 0 5.3108301813533821e-05 0.0147741545960897 0 0.00013035105769138399 0.014405306439561862 0 0.00015085282855722051 0.014136606607282384 0 0.00018579388434082574 0.014184721379659305 0 0.00013035105769138399 0.014405306439561862 0 0.00011305358383655944 0.014474084246357006 0 0.0001343010424516004 0.014425881336572025 0 0.00023715680468334839 0.014264182209411029 0 0.0003036497926305954 0.014365423867830587 0 0.00013035105769138399 0.014405306439561862 0 0.00018579388434082574 0.014184721379659305 0 0.00023715680468334839 0.014264182209411029 0 0.00013035105769138399 0.014405306439561862 0 0.00023715680468334839 0.014264182209411029 0 0.00033421631456609764 0.01422313700328102 0 0.0003036497926305954 0.014365423867830587 0 0.00024990919008700135 0.014157443617236925 0 0.00023715680468334839 0.014264182209411029 0 0.00033421631456609764 0.01422313700328102 0 0.00024990919008700135 0.014157443617236925 0 0.00018579388434082574 0.014184721379659305 0 0.00023715680468334839 0.014264182209411029 0 0.00046141912094743189 0.014117856950417659 0 0.00033421631456609764 0.01422313700328102 0 0.00046116827698731977 0.014301247827824444 0 0.00046141912094743189 0.014117856950417659 0 0.00046116827698731977 0.014301247827824444 0 0.00055758459140822271 0.014231143233748661 0 0.00033421631456609764 0.01422313700328102 0 0.00046116827698731977 0.014301247827824444 0 0.0003036497926305954 0.014365423867830587 0 0.00072636701536247616 0.014095658080074101 0 0.0006393015087415928 0.014085649765019005 0 0.00070253238440183411 0.014265207663232613 0 0.0006710921661390001 0.014279789157954954 0 0.00062313632628085199 0.013886668568134815 0 0.00055758459140822271 0.014231143233748661 0 0.0006393015087415928 0.014085649765019005 0 0.00067053630646733426 0.01442379510678098 0 0.00046116827698731977 0.014301247827824444 0 0.00055758459140822271 0.014231143233748661 0 0.00067053630646733426 0.01442379510678098 0 0.00046141912094743189 0.014117856950417659 0 0.00055758459140822271 0.014231143233748661 0 0.0006393015087415928 0.014085649765019005 0 0.00055737366747933179 0.012828616877635549 0 0.00045219765269192145 0.013404527438430474 0 0.00039920497261723399 0.013026767137604381 0 0.00072636701536247616 0.014095658080074101 0 0.0006393015087415928 0.014085649765019005 0 0.00048567023319326359 0.013763875940651996 0 0.00055737366747933179 0.012828616877635549 0 0.00048567023319326359 0.013763875940651996 0 0.00045219765269192145 0.013404527438430474 0 0.00061304935487768069 0.013556637225830608 0 0.00048715820788389593 0.013644689306419478 0 0.00046141912094743189 0.014117856950417659 0 0.00032206725724436382 0.014038813716313492 0 0.00048567023319326359 0.013763875940651996 0 0.00046141912094743189 0.014117856950417659 0 0.0006393015087415928 0.014085649765019005 0 0.00048567023319326359 0.013763875940651996 0 0.00046141912094743189 0.014117856950417659 0 0.00033421631456609764 0.01422313700328102 0 0.00032206725724436382 0.014038813716313492 0 0.00029159616852599278 0.013982456019351252 0 0.00032206725724436382 0.014038813716313492 0 0.00048567023319326359 0.013763875940651996 0 0.00048567023319326359 0.013763875940651996 0 0.00034076710830519843 0.013919511499567163 0 0.00039754409055609051 0.013723284458309889 0 0.00029159616852599278 0.013982456019351252 0 0.00048567023319326359 0.013763875940651996 0 0.00034076710830519843 0.013919511499567163 0 0.00027007108290808674 0.014090431293363055 0 0.00029159616852599278 0.013982456019351252 0 0.00034076710830519843 0.013919511499567163 0 0.00027988679856014186 0.014051612720141283 0 0.00034076710830519843 0.013919511499567163 0 0.00039754409055609051 0.013723284458309889 0 0.00027988679856014186 0.014051612720141283 0 0.00023039162965271087 0.014254182405534921 0 0.00027007108290808674 0.014090431293363055 0 0.00027988679856014186 0.014051612720141283 0 0.00027007108290808674 0.014090431293363055 0 0.00034076710830519843 0.013919511499567163 0 0.00027988679856014186 0.014051612720141283 0 0.00039754409055609051 0.013723284458309889 0 0.00029394232055261949 0.013733403143190843 0 0.00039754409055609051 0.013723284458309889 0 0.00037224141614541 0.013412091276905532 0 0.00029394232055261949 0.013733403143190843 0 0.00048567023319326359 0.013763875940651996 0 0.00039754409055609051 0.013723284458309889 0 0.00045219765269192145 0.013404527438430474 0 0.00039754409055609051 0.013723284458309889 0 0.00045219765269192145 0.013404527438430474 0 0.00037224141614541 0.013412091276905532 0 0.00045219765269192145 0.013404527438430474 0 0.00037224141614541 0.013412091276905532 0 0.00039920497261723399 0.013026767137604381 0 0.00037224141614541 0.013412091276905532 0 0.00026830919788287192 0.013404649594385219 0 0.00029394232055261949 0.013733403143190843 0 0.00037224141614541 0.013412091276905532 0 0.00030520373072002961 0.013135101019839952 0 0.00039920497261723399 0.013026767137604381 0 0.00037224141614541 0.013412091276905532 0 0.00030520373072002961 0.013135101019839952 0 0.00026830919788287192 0.013404649594385219 0 0.00026830919788287192 0.013404649594385219 0 0.00029394232055261949 0.013733403143190843 0 0.0001614813258116795 0.013572641902498361 0 0.00015830155643271752 0.013898509222307603 0 0.00029394232055261949 0.013733403143190843 0 0.0001614813258116795 0.013572641902498361 0 2.5221084975570859e-05 0.013791207853334375 0 -2.2379046986942783e-05 0.013438227646780619 0 0.0001614813258116795 0.013572641902498361 0 -2.2379046986942783e-05 0.013438227646780619 0 0.0001614813258116795 0.013572641902498361 0 0.00015215154219627532 0.013150019514432775 0 0.00030520373072002961 0.013135101019839952 0 0.00026830919788287192 0.013404649594385219 0 0.00015215154219627532 0.013150019514432775 0 0.00026830919788287192 0.013404649594385219 0 0.0001614813258116795 0.013572641902498361 0 0.00015215154219627532 0.013150019514432775 0 0.00030520373072002961 0.013135101019839952 0 0.00015215154219627532 0.013150019514432775 0 0.00026915112148049127 0.01279212524863587 0 4.7808118834557199e-05 0.012563079309536183 0 0.00015215154219627532 0.013150019514432775 0 0.00026915112148049127 0.01279212524863587 0 4.7808118834557199e-05 0.012563079309536183 0 0.00026915112148049127 0.01279212524863587 0 0.00029865199710648596 0.012372326627731078 0 0.00026915112148049127 0.01279212524863587 0 0.00037198088463993341 0.012635497956781202 0 0.00029865199710648596 0.012372326627731078 0 0.00055737366747933179 0.012828616877635549 0 0.00039920497261723399 0.013026767137604381 0 0.00037198088463993341 0.012635497956781202 0 0.00030520373072002961 0.013135101019839952 0 0.00026915112148049127 0.01279212524863587 0 0.00039920497261723399 0.013026767137604381 0 0.00026915112148049127 0.01279212524863587 0 0.00039920497261723399 0.013026767137604381 0 0.00037198088463993341 0.012635497956781202 0 0.00072636701536247616 0.014095658080074101 0 0.00084891298506100559 0.014213366441286865 0 0.00070253238440183411 0.014265207663232613 0 0.00061304935487768069 0.013556637225830608 0 0.00083943259084594171 0.012590721710428901 0 0.00055737366747933179 0.012828616877635549 0 0.00037198088463993341 0.012635497956781202 0 0.00039577389399437444 0.012351590746036138 0 0.00023860060876970993 0.011753201889592687 0 0.00029865199710648596 0.012372326627731078 0 0.00039577389399437444 0.012351590746036138 0 0.00037198088463993341 0.012635497956781202 0 0.00029865199710648596 0.012372326627731078 0 0.00039577389399437444 0.012351590746036138 0 0.00048064556109369535 0.01156407338280601 0 0.00083943259084594171 0.012590721710428901 0 0.00023860060876970993 0.011753201889592687 0 0.0021860583426144748 0.011284165367923369 0 0.0011360200706655597 0.010193688885705321 0 0.00032464065791964466 0.012932624473188575 0 0.00032014595449388251 0.012514962898259666 0 -2.0831020214710183e-05 0.012580792697926963 0 0.00083943259084594171 0.012590721710428901 0 0.00062552891019244483 0.011384124158096059 0 0.00083943259084594171 0.012590721710428901 0 0.00062313632628085199 0.013886668568134815 0 0.00032464065791964466 0.012932624473188575 0 0.00032014595449388251 0.012514962898259666 0 0.00073474179952057769 0.012832543459615606 0 0.00032014595449388251 0.012514962898259666 0 0.00062032783079347671 0.012194657946232295 0 0.00073474179952057769 0.012832543459615606 0 0.00032014595449388251 0.012514962898259666 0 0.00022369870835984394 0.012205696346502133 0 0.00062032783079347671 0.012194657946232295 0 0.00032014595449388251 0.012514962898259666 0 8.6360510458270617e-05 0.012378473398977701 0 0.00022369870835984394 0.012205696346502133 0 0.00032014595449388251 0.012514962898259666 0 -2.0831020214710183e-05 0.012580792697926963 0 8.6360510458270617e-05 0.012378473398977701 0 -0.0001810896468288249 0.012211018842804256 0 -2.0831020214710183e-05 0.012580792697926963 0 8.6360510458270617e-05 0.012378473398977701 0 -0.00069311962989187994 0.011476745548350171 0 -0.00025690561093832877 0.011466365397065472 0 -0.00052181551227586617 0.011184190959327179 0 -0.0001810896468288249 0.012211018842804256 0 8.6360510458270617e-05 0.012378473398977701 0 0.00022369870835984394 0.012205696346502133 0 -0.00025690561093832877 0.011466365397065472 0 -0.00052181551227586617 0.011184190959327179 0 -0.00025678543930843847 0.011020141865917479 0 -0.00047495222731515515 0.011520613713889263 0 9.0132646243561279e-05 0.012135463569854326 0 -0.00052181551227586617 0.011184190959327179 0 -0.00025678543930843847 0.011020141865917479 0 -0.00064437393414007557 0.010757375930590103 0 -0.00025678543930843847 0.011020141865917479 0 7.2027268259451091e-05 0.010836002513152847 0 0.00017396705605147176 0.011413143821170342 0 -0.00025678543930843847 0.011020141865917479 0 7.2027268259451091e-05 0.010836002513152847 0 -0.0003348565304093805 0.010533276494457766 0 -0.00035976113695395236 0.01282404724622006 0 6.5684548097184111e-05 0.013356400874246076 0 9.0132646243561279e-05 0.012135463569854326 0 0.00020463220476310792 0.01342712285804794 0 -0.00025690561093832877 0.011466365397065472 0 -0.00025678543930843847 0.011020141865917479 0 0.00017396705605147176 0.011413143821170342 0 0.0001641362343495365 0.012775021787369268 0 5.8001202302827033e-05 0.012811711408426662 0 5.6161056762418198e-05 0.012801043901744582 0 9.0132646243561279e-05 0.012135463569854326 0 6.5684548097184111e-05 0.013356400874246076 0 0.00031730312982499549 0.014497945472224022 0 0.00025623711113755904 0.014514433411958917 0 0.00028425951542010978 0.014490473541060665 0 -0.00062016199584701535 0.01517753854189584 0 -0.00045145427261695348 0.015092536712985312 0 -0.00025038992399411679 0.015131098389372566 0 0.00015476889259697214 0.014462305806092365 0 0.00015499166582291345 0.014463301331648878 0 0.00016784952785900165 0.014502228785802148 0 6.5684548097184111e-05 0.013356400874246076 0 -0.00014860212317898086 0.015013300525281593 0 0.00020463220476310792 0.01342712285804794 0 0.00021188412715681868 0.014612119895514523 0 6.5684548097184111e-05 0.013356400874246076 0 0.00020463220476310792 0.01342712285804794 0 -0.00072072943684072855 0.014859665065537197 0 -0.00062016199584701535 0.01517753854189584 0 -0.00045145427261695348 0.015092536712985312 0 -0.00072072943684072855 0.014859665065537197 0 -0.00045145427261695348 0.015092536712985312 0 -0.00041099764715380219 0.014919723246682068 0 -0.00041099764715380219 0.014919723246682068 0 -0.00023511728160033278 0.014925456557905054 0 -0.00029487403250744236 0.014767155203797839 0 -0.00041099764715380219 0.014919723246682068 0 -0.00023511728160033278 0.014925456557905054 0 -0.00031167603985775527 0.015020957904659998 0 -0.00045145427261695348 0.015092536712985312 0 -0.00041099764715380219 0.014919723246682068 0 -0.00031167603985775527 0.015020957904659998 0 -0.00023511728160033278 0.014925456557905054 0 -0.00031167603985775527 0.015020957904659998 0 -0.00018223158108383663 0.015019662232519311 0 -0.00031167603985775527 0.015020957904659998 0 -0.00022417605675690628 0.015069742130097675 0 -0.00018223158108383663 0.015019662232519311 0 -0.00022417605675690628 0.015069742130097675 0 -0.0001734126425087504 0.015072191912584331 0 -0.00018223158108383663 0.015019662232519311 0 0.00015476889259697214 0.014462305806092365 0 0.00016844726745127018 0.014503863733223007 0 0.00016784952785900165 0.014502228785802148 0 -0.00031167603985775527 0.015020957904659998 0 -0.00022417605675690628 0.015069742130097675 0 -0.00028330468204772511 0.015074516467216657 0 -0.00022417605675690628 0.015069742130097675 0 -0.00028330468204772511 0.015074516467216657 0 -0.00025038992399411679 0.015131098389372566 0 -0.00022417605675690628 0.015069742130097675 0 -0.00025038992399411679 0.015131098389372566 0 -0.0001734126425087504 0.015072191912584331 0 -0.00045145427261695348 0.015092536712985312 0 -0.00028330468204772511 0.015074516467216657 0 -0.00025038992399411679 0.015131098389372566 0 -0.00045145427261695348 0.015092536712985312 0 -0.00031167603985775527 0.015020957904659998 0 -0.00028330468204772511 0.015074516467216657 0 0.00025623711113755904 0.014514433411958917 0 0.00026033923753583269 0.014491837327745323 0 0.00028425951542010978 0.014490473541060665 0 0.00025623711113755904 0.014514433411958917 0 0.00023354224302662386 0.014502142690400104 0 0.00021527079462282825 0.014506966430232427 0 0.00025623711113755904 0.014514433411958917 0 0.00024644678854972627 0.014501086643483287 0 0.00026033923753583269 0.014491837327745323 0 0.00025623711113755904 0.014514433411958917 0 0.00024644678854972627 0.014501086643483287 0 0.00023354224302662386 0.014502142690400104 0 0.00024644678854972627 0.014501086643483287 0 0.00024040940760313963 0.014491660960013659 0 0.00023354224302662386 0.014502142690400104 0 0.00024040940760313963 0.014491660960013659 0 0.00025194096391469337 0.014470536458709838 0 0.00026033923753583269 0.014491837327745323 0 0.00024040940760313963 0.014491660960013659 0 0.00025194096391469337 0.014470536458709838 0 0.00023261825991213625 0.014477063236127659 0 0.00024644678854972627 0.014501086643483287 0 0.00024040940760313963 0.014491660960013659 0 0.00026033923753583269 0.014491837327745323 0 0.00025194096391469337 0.014470536458709838 0 0.00026033923753583269 0.014491837327745323 0 0.00028233657181533407 0.014463023029264891 0 0.00025194096391469337 0.014470536458709838 0 0.00028233657181533407 0.014463023029264891 0 0.00026598970840043998 0.01444265560507429 0 0.00026033923753583269 0.014491837327745323 0 0.00028425951542010978 0.014490473541060665 0 0.00028233657181533407 0.014463023029264891 0 0.00031730312982499549 0.014497945472224022 0 0.00028425951542010978 0.014490473541060665 0 0.00028233657181533407 0.014463023029264891 0 0.00020463220476310792 0.01342712285804794 0 0.00062313632628085199 0.013886668568134815 0 0.00031730312982499549 0.014497945472224022 0 0.00028233657181533407 0.014463023029264891 0 0.00030614624316887699 0.014426960957858588 0 0.00028233657181533407 0.014463023029264891 0 0.00030614624316887699 0.014426960957858588 0 0.00026598970840043998 0.01444265560507429 0 0.00062313632628085199 0.013886668568134815 0 0.00031228225166093351 0.014443999529003387 0 0.00046116827698731977 0.014301247827824444 0 0.00067053630646733426 0.01442379510678098 0 0.00044439012858583785 0.014465428163936171 0 0.00046116827698731977 0.014301247827824444 0 0.0003036497926305954 0.014365423867830587 0 0.00044439012858583785 0.014465428163936171 0 0.00031228225166093351 0.014443999529003387 0 0.00027110959774414331 0.01446186223961351 0 0.00025194096391469337 0.014470536458709838 0 0.00026598970840043998 0.01444265560507429 0 0.00023627388720664122 0.01446476167920136 0 0.0003036497926305954 0.014365423867830587 0 0.00044439012858583785 0.014465428163936171 0 0.00023627388720664122 0.01446476167920136 0 0.00023627388720664122 0.01446476167920136 0 0.00013035105769138399 0.014405306439561862 0 0.00019148741206584263 0.0144739237012488 0 0.0003036497926305954 0.014365423867830587 0 0.00023627388720664122 0.01446476167920136 0 0.00013035105769138399 0.014405306439561862 0 0.00013035105769138399 0.014405306439561862 0 0.00013850946362286391 0.014446874553459223 0 0.00019148741206584263 0.0144739237012488 0 0.0001664417305819648 0.014541407129737846 0 0.00013035105769138399 0.014405306439561862 0 0.00013850946362286391 0.014446874553459223 0 0.00013850946362286391 0.014446874553459223 0 0.00017416488626346272 0.014497113834429847 0 0.00019148741206584263 0.0144739237012488 0 8.1010718635354849e-05 0.014715405869511075 0 1.9119087158464837e-05 0.014820309090416088 0 0.00013850946362286391 0.014446874553459223 0 0.00017416488626346272 0.014497113834429847 0 0.00016672232732135227 0.014540198912983303 0 0.00017416488626346272 0.014497113834429847 0 0.00019459764453787009 0.014498866943782657 0 0.00019148741206584263 0.0144739237012488 0 0.00019459764453787009 0.014498866943782657 0 0.00019148741206584263 0.0144739237012488 0 0.00021699465277945156 0.014494247521309175 0 0.00023627388720664122 0.01446476167920136 0 0.00019148741206584263 0.0144739237012488 0 0.00023261825991213625 0.014477063236127659 0 0.00025194096391469337 0.014470536458709838 0 0.00023627388720664122 0.01446476167920136 0 0.00023261825991213625 0.014477063236127659 0 0.00024040940760313963 0.014491660960013659 0 0.00023261825991213625 0.014477063236127659 0 0.00021699465277945156 0.014494247521309175 0 0.00019148741206584263 0.0144739237012488 0 0.00023261825991213625 0.014477063236127659 0 0.00021699465277945156 0.014494247521309175 0 0.00019459764453787009 0.014498866943782657 0 0.00021699465277945156 0.014494247521309175 0 0.00021527079462282825 0.014506966430232427 0 0.00024040940760313963 0.014491660960013659 0 0.00021699465277945156 0.014494247521309175 0 0.00023354224302662386 0.014502142690400104 0 0.00021699465277945156 0.014494247521309175 0 0.00023354224302662386 0.014502142690400104 0 0.00021527079462282825 0.014506966430232427 0 0.00016844726745127018 0.014503863733223007 0 0.00017245824050642837 0.014516518740960913 0 0.00017418501867403526 0.014525329745267069 0 0.00025623711113755904 0.014514433411958917 0 0.00021527079462282825 0.014506966430232427 0 0.00017418501867403526 0.014525329745267069 0 0.00016844726745127018 0.014503863733223007 0 0.00016784952785900165 0.014502228785802148 0 0.00017418501867403526 0.014525329745267069 0 0.00021188412715681868 0.014612119895514523 0 0.00017896521876326757 0.014501843384292853 0 0.00019459764453787009 0.014498866943782657 0 0.00021527079462282825 0.014506966430232427 0 0.00017418501867403526 0.014525329745267069 0 0.00017245824050642837 0.014516518740960913 0 0.00016672232732135227 0.014540198912983303 0 0.00017418501867403526 0.014525329745267069 0 5.1128261036881762e-05 0.014815106390498611 0 1.9119087158464837e-05 0.014820309090416088 0 -5.2850862219934018e-05 0.015035329673378782 0 -9.672787968519071e-05 0.01507226586139261 0 -9.0699993924843833e-06 0.01500727581239197 0 -5.2850862219934018e-05 0.015035329673378782 0 -7.544673125915434e-05 0.0150370195747113 0 -9.672787968519071e-05 0.01507226586139261 0 -7.544673125915434e-05 0.0150370195747113 0 -9.672787968519071e-05 0.01507226586139261 0 -0.00010109552125397693 0.015036412607329755 0 -7.544673125915434e-05 0.0150370195747113 0 -0.00010109552125397693 0.015036412607329755 0 -8.4465715691570703e-05 0.015013757226808557 0 -7.544673125915434e-05 0.0150370195747113 0 -6.0359617062899458e-05 0.015018638860268661 0 -8.4465715691570703e-05 0.015013757226808557 0 -6.0359617062899458e-05 0.015018638860268661 0 -5.2982836259869805e-05 0.014987849927450683 0 -4.1760368200141986e-05 0.015014860207045677 0 -5.2850862219934018e-05 0.015035329673378782 0 -7.544673125915434e-05 0.0150370195747113 0 -6.0359617062899458e-05 0.015018638860268661 0 -5.2850862219934018e-05 0.015035329673378782 0 -6.0359617062899458e-05 0.015018638860268661 0 -4.1760368200141986e-05 0.015014860207045677 0 -0.00014860212317898086 0.015013300525281593 0 5.1128261036881762e-05 0.014815106390498611 0 -0.00025038992399411679 0.015131098389372566 0 -9.672787968519071e-05 0.01507226586139261 0 -0.0001734126425087504 0.015072191912584331 0 -9.672787968519071e-05 0.01507226586139261 0 -0.00013186370031248269 0.015047600127706258 0 -0.0001734126425087504 0.015072191912584331 0 -0.00010109552125397693 0.015036412607329755 0 -0.00012103188453202032 0.015020074168376777 0 -8.4465715691570703e-05 0.015013757226808557 0 -9.672787968519071e-05 0.01507226586139261 0 -0.00013186370031248269 0.015047600127706258 0 -0.00010109552125397693 0.015036412607329755 0 -0.00013186370031248269 0.015047600127706258 0 -0.00010109552125397693 0.015036412607329755 0 -0.00012103188453202032 0.015020074168376777 0 -0.00013186370031248269 0.015047600127706258 0 -0.0001734126425087504 0.015072191912584331 0 -0.00018223158108383663 0.015019662232519311 0 -0.00013186370031248269 0.015047600127706258 0 -0.00018223158108383663 0.015019662232519311 0 -0.00012103188453202032 0.015020074168376777 0 -0.00023511728160033278 0.014925456557905054 0 -0.00018223158108383663 0.015019662232519311 0 -0.00011464262508622388 0.014964663205952874 0 -0.00018223158108383663 0.015019662232519311 0 -0.00011464262508622388 0.014964663205952874 0 -0.00012103188453202032 0.015020074168376777 0 -0.00011464262508622388 0.014964663205952874 0 -0.00012103188453202032 0.015020074168376777 0 -8.4465715691570703e-05 0.015013757226808557 0 -5.2982836259869805e-05 0.014987849927450683 0 -4.6458463304580642e-05 0.014924285704198941 0 -2.6386893738654256e-05 0.01496727478251123 0 -0.00011464262508622388 0.014964663205952874 0 -8.4465715691570703e-05 0.015013757226808557 0 -5.2982836259869805e-05 0.014987849927450683 0 -0.00011464262508622388 0.014964663205952874 0 -5.2982836259869805e-05 0.014987849927450683 0 -4.6458463304580642e-05 0.014924285704198941 0 -5.2982836259869805e-05 0.014987849927450683 0 -3.0762690566179714e-05 0.014999503022593671 0 -4.1760368200141986e-05 0.015014860207045677 0 -6.0359617062899458e-05 0.015018638860268661 0 -8.4465715691570703e-05 0.015013757226808557 0 -5.2982836259869805e-05 0.014987849927450683 0 -0.00023511728160033278 0.014925456557905054 0 -0.00011464262508622388 0.014964663205952874 0 -0.00014352594184553535 0.014845462623821009 0 -0.00011464262508622388 0.014964663205952874 0 -4.6458463304580642e-05 0.014924285704198941 0 -0.00014352594184553535 0.014845462623821009 0 -3.601234861813665e-06 0.014932256718445103 0 2.2510713267342305e-06 0.014961517814450556 0 5.8065698819126771e-06 0.014955368767471297 0 -4.6458463304580642e-05 0.014924285704198941 0 -3.601234861813665e-06 0.014932256718445103 0 -2.6386893738654256e-05 0.01496727478251123 0 -3.601234861813665e-06 0.014932256718445103 0 -8.534025575374309e-06 0.014971222597935024 0 -2.6386893738654256e-05 0.01496727478251123 0 -2.6386893738654256e-05 0.01496727478251123 0 -1.5303803284945284e-05 0.014987504950732936 0 -3.0762690566179714e-05 0.014999503022593671 0 -5.2982836259869805e-05 0.014987849927450683 0 -2.6386893738654256e-05 0.01496727478251123 0 -3.0762690566179714e-05 0.014999503022593671 0 -8.534025575374309e-06 0.014971222597935024 0 -2.6386893738654256e-05 0.01496727478251123 0 -1.5303803284945284e-05 0.014987504950732936 0 -8.534025575374309e-06 0.014971222597935024 0 -1.5303803284945284e-05 0.014987504950732936 0 -6.6802601375496701e-06 0.014985284118919598 0 -8.534025575374309e-06 0.014971222597935024 0 -6.6802601375496701e-06 0.014985284118919598 0 -1.3197490006130987e-06 0.014977647542367582 0 -6.6802601375496701e-06 0.014985284118919598 0 -1.3197490006130987e-06 0.014977647542367582 0 -2.7062042622818854e-06 0.014989064569340561 0 -8.534025575374309e-06 0.014971222597935024 0 2.2510713267342305e-06 0.014961517814450556 0 -1.3197490006130987e-06 0.014977647542367582 0 -3.601234861813665e-06 0.014932256718445103 0 -8.534025575374309e-06 0.014971222597935024 0 2.2510713267342305e-06 0.014961517814450556 0 2.2510713267342305e-06 0.014961517814450556 0 -1.3197490006130987e-06 0.014977647542367582 0 2.7318392253385512e-06 0.014981447378235794 0 -1.3197490006130987e-06 0.014977647542367582 0 -2.7062042622818854e-06 0.014989064569340561 0 2.7318392253385512e-06 0.014981447378235794 0 3.4632987955214217e-07 0.01499333535331657 0 -6.7928169808176957e-06 0.014995726555635611 0 -6.3498219981878924e-06 0.014996386919127636 0 -2.7062042622818854e-06 0.014989064569340561 0 3.4632987955214217e-07 0.01499333535331657 0 2.7318392253385512e-06 0.014981447378235794 0 7.6070815010162055e-06 0.014999184153583946 0 -6.7928169808176957e-06 0.014995726555635611 0 3.202560899195916e-06 0.014996590745348431 0 -6.6802601375496701e-06 0.014985284118919598 0 -2.7062042622818854e-06 0.014989064569340561 0 -8.6018744027375987e-06 0.014996161849164618 0 -2.7062042622818854e-06 0.014989064569340561 0 3.4632987955214217e-07 0.01499333535331657 0 -6.3498219981878924e-06 0.014996386919127636 0 -5.2850862219934018e-05 0.015035329673378782 0 -3.0345389987777554e-05 0.015017066250205161 0 -9.0699993924843833e-06 0.01500727581239197 0 -5.2850862219934018e-05 0.015035329673378782 0 -3.0345389987777554e-05 0.015017066250205161 0 -4.1760368200141986e-05 0.015014860207045677 0 -3.0345389987777554e-05 0.015017066250205161 0 -3.0762690566179714e-05 0.014999503022593671 0 -4.1760368200141986e-05 0.015014860207045677 0 -3.0345389987777554e-05 0.015017066250205161 0 -3.0762690566179714e-05 0.014999503022593671 0 -1.8119314178343179e-05 0.015001762493032166 0 -1.5303803284945284e-05 0.014987504950732936 0 -3.0762690566179714e-05 0.014999503022593671 0 -1.8119314178343179e-05 0.015001762493032166 0 -3.0345389987777554e-05 0.015017066250205161 0 -2.025393295946267e-05 0.015010600083660074 0 -1.8119314178343179e-05 0.015001762493032166 0 -3.0345389987777554e-05 0.015017066250205161 0 -2.025393295946267e-05 0.015010600083660074 0 -9.0699993924843833e-06 0.01500727581239197 0 -2.7062042622818854e-06 0.014989064569340561 0 -8.6018744027375987e-06 0.014996161849164618 0 -6.3498219981878924e-06 0.014996386919127636 0 -2.025393295946267e-05 0.015010600083660074 0 -9.0699993924843833e-06 0.01500727581239197 0 -1.8119314178343179e-05 0.015001762493032166 0 -9.0699993924843833e-06 0.01500727581239197 0 -1.8119314178343179e-05 0.015001762493032166 0 -8.6018744027375987e-06 0.014996161849164618 0 -1.5303803284945284e-05 0.014987504950732936 0 -1.8119314178343179e-05 0.015001762493032166 0 -8.6018744027375987e-06 0.014996161849164618 0 -1.5303803284945284e-05 0.014987504950732936 0 -6.6802601375496701e-06 0.014985284118919598 0 -8.6018744027375987e-06 0.014996161849164618 0 -9.0699993924843833e-06 0.01500727581239197 0 -8.6018744027375987e-06 0.014996161849164618 0 -6.3498219981878924e-06 0.014996386919127636 0 1.9119087158464837e-05 0.014820309090416088 0 1.5124460888504803e-05 0.014824425405255302 0 0.00017416488626346272 0.014497113834429847 0 0.00016672232732135227 0.014540198912983303 0 0.00017418501867403526 0.014525329745267069 0 0.00017416488626346272 0.014497113834429847 0 0.00019459764453787009 0.014498866943782657 0 0.00017418501867403526 0.014525329745267069 0 3.4632987955214217e-07 0.01499333535331657 0 -6.7928169808176957e-06 0.014995726555635611 0 3.202560899195916e-06 0.014996590745348431 0 3.202560899195916e-06 0.014996590745348431 0 7.243846411671664e-06 0.014989698233868934 0 6.6572601412158603e-06 0.014998934117932483 0 3.4632987955214217e-07 0.01499333535331657 0 3.202560899195916e-06 0.014996590745348431 0 7.243846411671664e-06 0.014989698233868934 0 3.4632987955214217e-07 0.01499333535331657 0 7.243846411671664e-06 0.014989698233868934 0 2.7318392253385512e-06 0.014981447378235794 0 2.2510713267342305e-06 0.014961517814450556 0 2.7318392253385512e-06 0.014981447378235794 0 5.8065698819126771e-06 0.014955368767471297 0 7.243846411671664e-06 0.014989698233868934 0 2.7318392253385512e-06 0.014981447378235794 0 5.8065698819126771e-06 0.014955368767471297 0 7.243846411671664e-06 0.014989698233868934 0 5.8065698819126771e-06 0.014955368767471297 0 6.9298073510136586e-06 0.014981077675008109 0 6.9298073510136586e-06 0.014981077675008109 0 1.7121293905541611e-09 0.015000001452112588 0 4.1726289703966126e-08 0.014999892083788335 0 7.243846411671664e-06 0.014989698233868934 0 1.7121293905541611e-09 0.015000001452112588 0 6.6572601412158603e-06 0.014998934117932483 0 7.243846411671664e-06 0.014989698233868934 0 6.9298073510136586e-06 0.014981077675008109 0 1.7121293905541611e-09 0.015000001452112588 0 1.7121293905541611e-09 0.015000001452112588 0 6.6572601412158603e-06 0.014998934117932483 0 1.4368461112583513e-08 0.015000018007640066 0 7.6070815010162055e-06 0.014999184153583946 0 3.202560899195916e-06 0.014996590745348431 0 6.6572601412158603e-06 0.014998934117932483 0 7.6070815010162055e-06 0.014999184153583946 0 6.6572601412158603e-06 0.014998934117932483 0 1.0827602635963253e-05 0.015000519280931829 0 8.5313257115342527e-05 0.014770768182710161 0 8.1010718635354849e-05 0.014715405869511075 0 2.8541259471722347e-05 0.014997364665023098 0 7.6070815010162055e-06 0.014999184153583946 0 1.0827602635963253e-05 0.015000519280931829 0 6.6572601412158603e-06 0.014998934117932483 0 1.0827602635963253e-05 0.015000519280931829 0 1.4368461112583513e-08 0.015000018007640066 0 -1.1029831679294011e-08 0.014999932846016941 0 1.0827602635963253e-05 0.015000519280931829 0 1.4368461112583513e-08 0.015000018007640066 0 2.3700180392858073e-09 0.01499997335149608 0 -1.1704984827112193e-06 0.014988140283179057 0 4.9628396918769919e-06 0.014984266406886678 0 2.3700180392858073e-09 0.01499997335149608 0 -1.1704984827112193e-06 0.014988140283179057 0 -1.8027348854988371e-06 0.014988367737691598 0 -2.7600199670022063e-05 0.01498704728576129 0 2.192043456057409e-05 0.014966809559843818 0 -7.4730037796166236e-07 0.014986988446217707 0 -1.1704984827112193e-06 0.014988140283179057 0 -4.7430518472337988e-06 0.01497301421868572 0 -7.4730037796166236e-07 0.014986988446217707 0 -1.1704984827112193e-06 0.014988140283179057 0 4.9628396918769919e-06 0.014984266406886678 0 -7.4730037796166236e-07 0.014986988446217707 0 -4.7430518472337988e-06 0.01497301421868572 0 1.9878434925167668e-06 0.014974749162118097 0 -1.1704984827112193e-06 0.014988140283179057 0 -4.7430518472337988e-06 0.01497301421868572 0 -1.8027348854988371e-06 0.014988367737691598 0 2.3700180392858073e-09 0.01499997335149608 0 -1.8027348854988371e-06 0.014988367737691598 0 -1.9351346868681504e-09 0.014999973996672213 0 -1.8027348854988371e-06 0.014988367737691598 0 -1.9351346868681504e-09 0.014999973996672213 0 -3.1572764665253292e-06 0.014986902820218712 0 -1.9351346868681504e-09 0.014999973996672213 0 -7.3984456856061897e-10 0.015000001086234876 0 -3.1572764665253292e-06 0.014986902820218712 0 -5.9617561038441985e-09 0.014999977101664275 0 -3.7099888716074463e-06 0.014959480962910108 0 6.9298073510136586e-06 0.014981077675008109 0 4.1726289703966126e-08 0.014999892083788335 0 -1.1388156990460728e-06 0.014928742905592617 0 5.8065698819126771e-06 0.014955368767471297 0 -1.1388156990460728e-06 0.014928742905592617 0 -1.9503662293071826e-06 0.014904175745651746 0 5.8065698819126771e-06 0.014955368767471297 0 6.9298073510136586e-06 0.014981077675008109 0 -1.1388156990460728e-06 0.014928742905592617 0 -1.1388156990460728e-06 0.014928742905592617 0 -3.3277937568154978e-06 0.014941805088775236 0 -1.9503662293071826e-06 0.014904175745651746 0 -3.7099888716074463e-06 0.014959480962910108 0 -7.848135781019869e-07 0.014946532546926912 0 -4.7430518472337988e-06 0.01497301421868572 0 -3.1572764665253292e-06 0.014986902820218712 0 -3.3277937568154978e-06 0.014941805088775236 0 -4.7430518472337988e-06 0.01497301421868572 0 -1.8027348854988371e-06 0.014988367737691598 0 -3.1572764665253292e-06 0.014986902820218712 0 -3.3277937568154978e-06 0.014941805088775236 0 3.1277629311975e-06 0.014843152071808039 0 2.9266568975754889e-05 0.014939317281042948 0 -3.3277937568154978e-06 0.014941805088775236 0 2.9266568975754889e-05 0.014939317281042948 0 3.0442279167575516e-06 0.01496209318643521 0 -3.3277937568154978e-06 0.014941805088775236 0 -1.9503662293071826e-06 0.014904175745651746 0 3.1277629311975e-06 0.014843152071808039 0 -3.601234861813665e-06 0.014932256718445103 0 -1.9503662293071826e-06 0.014904175745651746 0 3.1277629311975e-06 0.014843152071808039 0 -4.6458463304580642e-05 0.014924285704198941 0 -3.601234861813665e-06 0.014932256718445103 0 3.1277629311975e-06 0.014843152071808039 0 -3.601234861813665e-06 0.014932256718445103 0 5.8065698819126771e-06 0.014955368767471297 0 -1.9503662293071826e-06 0.014904175745651746 0 3.1277629311975e-06 0.014843152071808039 0 -0.00014352594184553535 0.014845462623821009 0 -0.00020190437684612685 0.014679114112021099 0 -4.6458463304580642e-05 0.014924285704198941 0 3.1277629311975e-06 0.014843152071808039 0 -0.00014352594184553535 0.014845462623821009 0 2.2982118629403953e-05 0.014936844331456421 0 -4.188617156854786e-05 0.01436613951185437 0 3.1277629311975e-06 0.014843152071808039 0 -0.00020234919925872819 0.014419009396873732 0 -0.00020190437684612685 0.014679114112021099 0 3.1277629311975e-06 0.014843152071808039 0 2.9266568975754889e-05 0.014939317281042948 0 9.5201566232521183e-05 0.014940402529286715 0 0.00020977798567415958 0.014499783528740972 0 -4.188617156854786e-05 0.01436613951185437 0 0.00012395053123881051 0.013593886348194516 0 0.00038844854405204241 0.013547270346576363 0 -7.8704626018821838e-07 0.01385959692457883 0 1.291012016838769e-05 0.014975648817264342 0 6.6877571029266839e-06 0.014991817820742619 0 9.5201566232521183e-05 0.014940402529286715 0 2.9266568975754889e-05 0.014939317281042948 0 1.291012016838769e-05 0.014975648817264342 0 9.5201566232521183e-05 0.014940402529286715 0 2.9266568975754889e-05 0.014939317281042948 0 3.0442279167575516e-06 0.01496209318643521 0 1.291012016838769e-05 0.014975648817264342 0 -4.7430518472337988e-06 0.01497301421868572 0 -3.3277937568154978e-06 0.014941805088775236 0 3.0442279167575516e-06 0.01496209318643521 0 -4.7430518472337988e-06 0.01497301421868572 0 3.0442279167575516e-06 0.01496209318643521 0 1.9878434925167668e-06 0.014974749162118097 0 1.9878434925167668e-06 0.014974749162118097 0 1.291012016838769e-05 0.014975648817264342 0 9.97163205387289e-06 0.01497914685742757 0 3.0442279167575516e-06 0.01496209318643521 0 1.9878434925167668e-06 0.014974749162118097 0 1.291012016838769e-05 0.014975648817264342 0 9.6689026557460897e-05 0.01482190991502672 0 0.00020977798567415958 0.014499783528740972 0 0.00020977798567415958 0.014499783528740972 0 0.00028116211710038815 0.01407795036196963 0 4.7294555183837845e-05 0.014928364572645687 0 0.00011090176043143683 0.014877496911953628 0 8.0901070133832325e-05 0.014959359785998281 0 0.00038844854405204241 0.013547270346576363 0 0.00031308299424786211 0.013376737097530112 0 0.00045481905342632247 0.013276494653799422 0 0.00038844854405204241 0.013547270346576363 0 0.00031308299424786211 0.013376737097530112 0 0.00024253243108036086 0.013456727540270571 0 -2.7600199670022063e-05 0.01498704728576129 0 0.00020977798567415958 0.014499783528740972 0 -7.4730037796166236e-07 0.014986988446217707 0 1.9878434925167668e-06 0.014974749162118097 0 9.97163205387289e-06 0.01497914685742757 0 0.00031308299424786211 0.013376737097530112 0 0.00030514618594956576 0.013266413049757475 0 0.00045481905342632247 0.013276494653799422 0 0.00012395053123881051 0.013593886348194516 0 0.00014242239363155954 0.013309463777296048 0 0.00024253243108036086 0.013456727540270571 0 0.00031308299424786211 0.013376737097530112 0 0.00014242239363155954 0.013309463777296048 0 0.00030514618594956576 0.013266413049757475 0 0.00012395053123881051 0.013593886348194516 0 0.00038844854405204241 0.013547270346576363 0 0.00024253243108036086 0.013456727540270571 0 0.00012395053123881051 0.013593886348194516 0 0.00014242239363155954 0.013309463777296048 0 -3.8836392059957469e-05 0.013428750078441342 0 0.00031308299424786211 0.013376737097530112 0 0.00014242239363155954 0.013309463777296048 0 0.00024253243108036086 0.013456727540270571 0 0.00014242239363155954 0.013309463777296048 0 -3.8836392059957469e-05 0.013428750078441342 0 1.9066876691894861e-05 0.013141347595419987 0 -3.8836392059957469e-05 0.013428750078441342 0 -0.00036079659712050569 0.013514423504891952 0 -0.00017356596077661165 0.013196112489331819 0 -0.00036079659712050569 0.013514423504891952 0 -0.00051328900133044118 0.013012626474247932 0 -0.00017356596077661165 0.013196112489331819 0 -0.0004241071718960683 0.013474049987804101 0 -0.00095022424451814472 0.012969385623207569 0 -0.00044877094230896515 0.013582519821292266 0 -0.00056414260470866813 0.014089250407963579 0 -0.0010937519474587408 0.013713503586083442 0 -0.00044877094230896515 0.013582519821292266 0 -0.00056414260470866813 0.014089250407963579 0 5.5788330515259891e-05 0.014197517784616465 0 0.00012395053123881051 0.013593886348194516 0 -3.8836392059957469e-05 0.013428750078441342 0 -7.8704626018821838e-07 0.01385959692457883 0 -0.0004241071718960683 0.013474049987804101 0 -4.188617156854786e-05 0.01436613951185437 0 -3.8836392059957469e-05 0.013428750078441342 0 -0.00036079659712050569 0.013514423504891952 0 -7.8704626018821838e-07 0.01385959692457883 0 -0.00056414260470866813 0.014089250407963579 0 5.5788330515259891e-05 0.014197517784616465 0 -0.00039728394994920541 0.01450671342796479 0 -0.00020234919925872819 0.014419009396873732 0 -0.00020190437684612685 0.014679114112021099 0 -0.00039728394994920541 0.01450671342796479 0 -4.188617156854786e-05 0.01436613951185437 0 -0.00036244050885748957 0.014489341093149298 0 -0.00020190437684612685 0.014679114112021099 0 -0.00029487403250744236 0.014767155203797839 0 -0.00039728394994920541 0.01450671342796479 0 -0.00014352594184553535 0.014845462623821009 0 -0.00020190437684612685 0.014679114112021099 0 -0.00029487403250744236 0.014767155203797839 0 -0.00023511728160033278 0.014925456557905054 0 -0.00014352594184553535 0.014845462623821009 0 -0.00029487403250744236 0.014767155203797839 0 -0.00072072943684072855 0.014859665065537197 0 -0.00041099764715380219 0.014919723246682068 0 -0.00052485614850998792 0.014710401399165246 0 -0.00041099764715380219 0.014919723246682068 0 -0.00029487403250744236 0.014767155203797839 0 -0.00052485614850998792 0.014710401399165246 0 -0.00029487403250744236 0.014767155203797839 0 -0.00052485614850998792 0.014710401399165246 0 -0.00039728394994920541 0.01450671342796479 0 -0.00056414260470866813 0.014089250407963579 0 -0.00039728394994920541 0.01450671342796479 0 -0.00091333504521950613 0.014397716356499857 0 -0.00052485614850998792 0.014710401399165246 0 -0.00039728394994920541 0.01450671342796479 0 -0.00091333504521950613 0.014397716356499857 0 7.2027268259451091e-05 0.010836002513152847 0 -3.5394612345459177e-05 0.010262011075843463 0 -0.0003348565304093805 0.010533276494457766 0 -0.00072072943684072855 0.014859665065537197 0 -0.00052485614850998792 0.014710401399165246 0 -0.00091333504521950613 0.014397716356499857 0 -0.00035976113695395236 0.01282404724622006 0 -0.00046954051996051638 0.01232574581551418 0 -0.0003348565304093805 0.010533276494457766 0 -0.00064437393414007557 0.010757375930590103 0 -0.00060532928443767452 0.010207437608036761 0 -0.00025678543930843847 0.011020141865917479 0 -0.0003348565304093805 0.010533276494457766 0 -0.00064437393414007557 0.010757375930590103 0 -3.5394612345459177e-05 0.010262011075843463 0 -0.0003348565304093805 0.010533276494457766 0 -0.00060532928443767452 0.010207437608036761 0 -3.5394612345459177e-05 0.010262011075843463 0 -0.00014620439782238702 0.0096927909398238817 0 -0.00060532928443767452 0.010207437608036761 0 -0.00014620439782238702 0.0096927909398238817 0 -0.00060532928443767452 0.010207437608036761 0 -0.00077560965526883813 0.0097995112969615841 0 -0.00056414260470866813 0.014089250407963579 0 -0.00091333504521950613 0.014397716356499857 0 -0.0010937519474587408 0.013713503586083442 0 -0.00046954051996051638 0.01232574581551418 0 -0.00062075291534309594 0.011705968847065424 0 -0.0010937519474587408 0.013713503586083442 0 -0.00093986108428248112 0.013296675186048764 0 -0.0012496077227907368 0.012963998069870551 0 -0.00044877094230896515 0.013582519821292266 0 -0.0010937519474587408 0.013713503586083442 0 -0.00093986108428248112 0.013296675186048764 0 -0.00062075291534309594 0.011705968847065424 0 -0.00073586227893376866 0.01102474600161326 0 -0.00044877094230896515 0.013582519821292266 0 -0.00093986108428248112 0.013296675186048764 0 -0.00098658425670933043 0.012918546534278038 0 -0.00014620439782238702 0.0096927909398238817 0 -0.00077560965526883813 0.0097995112969615841 0 -0.0007306215082452241 0.0094267630415219416 0 -0.00014620439782238702 0.0096927909398238817 0 -0.00025981957463541922 0.0091389700910501498 0 -0.0007306215082452241 0.0094267630415219416 0 -0.00025981957463541922 0.0091389700910501498 0 -0.00058007880103949302 0.0088666550438170118 0 -0.00086637495942115032 0.0090504724557029081 0 -0.00093986108428248112 0.013296675186048764 0 -0.0012496077227907368 0.012963998069870551 0 -0.00098658425670933043 0.012918546534278038 0 -0.00098658425670933043 0.012918546534278038 0 -0.00067774169530619894 0.012700899952134182 0 -0.00051328900133044118 0.013012626474247932 0 -0.00098658425670933043 0.012918546534278038 0 -0.00092833162941821255 0.012520547771700846 0 -0.00067774169530619894 0.012700899952134182 0 -0.0012496077227907368 0.012963998069870551 0 -0.00098658425670933043 0.012918546534278038 0 -0.00092833162941821255 0.012520547771700846 0 -0.00092833162941821255 0.012520547771700846 0 -0.0014088271465964356 0.012135856553122989 0 -0.00063564911737620518 0.011995116701849636 0 -0.0012496077227907368 0.012963998069870551 0 -0.00092833162941821255 0.012520547771700846 0 -0.0014088271465964356 0.012135856553122989 0 -0.00092833162941821255 0.012520547771700846 0 -0.00057911088962940668 0.012387972258491031 0 -0.00067774169530619894 0.012700899952134182 0 -0.00092833162941821255 0.012520547771700846 0 -0.00063564911737620518 0.011995116701849636 0 -0.00057911088962940668 0.012387972258491031 0 -0.00025981957463541922 0.0091389700910501498 0 -0.00058007880103949302 0.0088666550438170118 0 -0.00036761469300143162 0.0086079588683150299 0 -0.00073586227893376866 0.01102474600161326 0 -0.0010978963728333309 0.010514926357820569 0 -0.0013486373467778328 0.0088190587169249129 0 -0.0013414528798197255 0.0088668729827132593 0 -0.0013260504882059243 0.0088279705916978878 0 -0.0013836412984708204 0.012105058078647554 0 -0.0012012936803588769 0.011415226699092647 0 -0.0010589779759510058 0.011779727332156259 0 -0.0010978963728333309 0.010514926357820569 0 -0.0012700598958288979 0.0096277417321518344 0 -0.0013836412984708204 0.012105058078647554 0 -0.001547682827302716 0.011152798810804616 0 -0.0012012936803588769 0.011415226699092647 0 -0.0014013602750204965 0.011079844351725366 0 -0.001547682827302716 0.011152798810804616 0 -0.0012012936803588769 0.011415226699092647 0 -0.0012332011705472557 0.0099909992652785183 0 -0.0011319609896340767 0.010041460158536075 0 -0.0012167504474511225 0.010083180516449328 0 -0.00090304047136993768 0.010591066184689586 0 -0.0012700598958288979 0.0096277417321518344 0 -0.00090304047136993768 0.010591066184689586 0 -0.00045808288135880984 0.011686800006252107 0 -0.00018626189229895603 0.011880026079781218 0 -0.0001836966778029866 0.011909079172499715 0 -0.0001699201024090939 0.01190200750990167 0 -0.0014013602750204965 0.011079844351725366 0 -0.0012012936803588769 0.011415226699092647 0 -0.00081714201583841942 0.011377275651047859 0 -0.00018626189229895603 0.011880026079781218 0 -0.00022707833543276544 0.011885453651167664 0 -0.0001836966778029866 0.011909079172499715 0 -0.0012012936803588769 0.011415226699092647 0 -0.00081714201583841942 0.011377275651047859 0 -0.0010589779759510058 0.011779727332156259 0 -0.0013836412984708204 0.012105058078647554 0 -0.0010589779759510058 0.011779727332156259 0 -0.00063564911737620518 0.011995116701849636 0 -0.00081714201583841942 0.011377275651047859 0 -0.0010589779759510058 0.011779727332156259 0 -0.00063564911737620518 0.011995116701849636 0 -0.0010978963728333309 0.010514926357820569 0 -0.0008683341304337658 0.012296496025027484 0 -0.00081714201583841942 0.011377275651047859 0 -0.00063564911737620518 0.011995116701849636 0 -0.00022550059482661722 0.011679119178310099 0 -0.00063564911737620518 0.011995116701849636 0 -0.00033419583718212074 0.012142233344412981 0 -0.00028991788822904863 0.011904884895443491 0 -0.00016787866634851583 0.012030176706837594 0 -0.00033419583718212074 0.012142233344412981 0 -0.00011638906895874826 0.012211311580690873 0 -0.00016787866634851583 0.012030176706837594 0 -0.00033419583718212074 0.012142233344412981 0 -0.00028991788822904863 0.011904884895443491 0 -0.00016787866634851583 0.012030176706837594 0 -0.00028991788822904863 0.011904884895443491 0 -0.00013282293594363035 0.011830676508157969 0 -0.00063564911737620518 0.011995116701849636 0 -0.00028991788822904863 0.011904884895443491 0 -0.00022550059482661722 0.011679119178310099 0 -0.00028991788822904863 0.011904884895443491 0 -0.00021868968243496679 0.011777112272268506 0 -0.00022550059482661722 0.011679119178310099 0 -0.00028991788822904863 0.011904884895443491 0 -0.00021868968243496679 0.011777112272268506 0 -0.00013282293594363035 0.011830676508157969 0 -0.00021868968243496679 0.011777112272268506 0 -0.00022550059482661722 0.011679119178310099 0 -0.00013282293594363035 0.011830676508157969 0 -0.0001836966778029866 0.011909079172499715 0 -0.00016150469216821083 0.011903904016540744 0 -0.0001675702721766123 0.01190423697814021 0 -0.00045808288135880984 0.011686800006252107 0 -0.00015677349297049122 0.012053392586210012 0 -0.00016150469216821083 0.011903904016540744 0 -0.0001675702721766123 0.01190423697814021 0 -0.00016652791859821374 0.011902611676402943 0 -0.0001675702721766123 0.01190423697814021 0 -0.00016524238603302506 0.011905290321883352 0 -0.0001699201024090939 0.01190200750990167 0 -0.0001675702721766123 0.01190423697814021 0 -0.00016524238603302506 0.011905290321883352 0 -0.00016652791859821374 0.011902611676402943 0 -0.0001836966778029866 0.011909079172499715 0 -0.0001675702721766123 0.01190423697814021 0 -0.0001699201024090939 0.01190200750990167 0 -0.00017364550537648629 0.011950729793286546 0 -0.00019309870804685411 0.011887742371646068 0 -0.00016621795872213735 0.011912194584882419 0 -0.00019309870804685411 0.011887742371646068 0 -0.00016621795872213735 0.011912194584882419 0 -0.00016652791859821374 0.011902611676402943 0 -0.00016524238603302506 0.011905290321883352 0 -0.00016621795872213735 0.011912194584882419 0 -0.00016652791859821374 0.011902611676402943 0 6.2250660779819867e-05 0.012458859517514203 0 -7.4246912683554296e-05 0.01258277648281452 0 -3.990573303235156e-05 0.012482115760328583 0 -0.00016150469216821083 0.011903904016540744 0 -0.00019309870804685411 0.011887742371646068 0 -0.00016652791859821374 0.011902611676402943 0 -0.00015677349297049122 0.012053392586210012 0 -0.00011290542539186268 0.012205888728439553 0 -7.4246912683554296e-05 0.01258277648281452 0 -3.990573303235156e-05 0.012482115760328583 0 -8.9360166846091195e-05 0.012511795734406948 0 -7.4246912683554296e-05 0.01258277648281452 0 -8.9360166846091195e-05 0.012511795734406948 0 -0.0001268907316545427 0.012543358402931817 0 -0.00015677349297049122 0.012053392586210012 0 3.447845420212491e-05 0.012405743965551053 0 -3.990573303235156e-05 0.012482115760328583 0 -8.9360166846091195e-05 0.012511795734406948 0 -9.0500097301915281e-05 0.012386441542368584 0 -0.00022550059482661722 0.011679119178310099 0 -0.00013282293594363035 0.011830676508157969 0 0.00034053751465979018 0.011958885796770857 0 6.2250660779819867e-05 0.012458859517514203 0 -3.990573303235156e-05 0.012482115760328583 0 -9.0500097301915281e-05 0.012386441542368584 0 -0.00013282293594363035 0.011830676508157969 0 3.4439540831118585e-05 0.012062694441015433 0 0.00034053751465979018 0.011958885796770857 0 -0.00016787866634851583 0.012030176706837594 0 -0.00013282293594363035 0.011830676508157969 0 3.4439540831118585e-05 0.012062694441015433 0 -0.00016787866634851583 0.012030176706837594 0 3.4439540831118585e-05 0.012062694441015433 0 -0.00011638906895874826 0.012211311580690873 0 3.447845420212491e-05 0.012405743965551053 0 8.0213280128571624e-05 0.012617740103282928 0 3.4439540831118585e-05 0.012062694441015433 0 0.00034053751465979018 0.011958885796770857 0 0.00021311870232436822 0.012297348788027558 0 0.00021311870232436822 0.012297348788027558 0 -0.00032051730656724119 0.01257570106924006 0 -0.00017356596077661165 0.013196112489331819 0 1.5757406802566363e-05 0.012933482417403653 0 1.9066876691894861e-05 0.013141347595419987 0 8.0165852424261781e-05 0.013011825417042796 0 3.4439540831118585e-05 0.012062694441015433 0 0.00021311870232436822 0.012297348788027558 0 -0.00011638906895874826 0.012211311580690873 0 0.00021311870232436822 0.012297348788027558 0 -0.00011638906895874826 0.012211311580690873 0 -0.00032051730656724119 0.01257570106924006 0 -0.00033419583718212074 0.012142233344412981 0 -0.00011638906895874826 0.012211311580690873 0 -0.00032051730656724119 0.01257570106924006 0 -0.00033419583718212074 0.012142233344412981 0 -0.00057911088962940668 0.012387972258491031 0 -0.00032051730656724119 0.01257570106924006 0 -0.00063564911737620518 0.011995116701849636 0 -0.00033419583718212074 0.012142233344412981 0 -0.00057911088962940668 0.012387972258491031 0 -0.00057911088962940668 0.012387972258491031 0 -0.00032051730656724119 0.01257570106924006 0 -0.00067774169530619894 0.012700899952134182 0 -0.00036079659712050569 0.013514423504891952 0 -0.00098658425670933043 0.012918546534278038 0 -0.00051328900133044118 0.013012626474247932 0 -0.00032051730656724119 0.01257570106924006 0 -0.00051328900133044118 0.013012626474247932 0 -0.00017356596077661165 0.013196112489331819 0 -0.00032051730656724119 0.01257570106924006 0 -0.00067774169530619894 0.012700899952134182 0 -0.00051328900133044118 0.013012626474247932 0 1.5757406802566363e-05 0.012933482417403653 0 -0.00017356596077661165 0.013196112489331819 0 1.9066876691894861e-05 0.013141347595419987 0 -3.8836392059957469e-05 0.013428750078441342 0 -0.00017356596077661165 0.013196112489331819 0 1.9066876691894861e-05 0.013141347595419987 0 8.0213280128571624e-05 0.012617740103282928 0 -0.00014466307760152772 0.013170670109529676 0 0.00026870506431975752 0.013133626230278696 0 0.00012777336655352608 0.013130198218871023 0 8.0165852424261781e-05 0.013011825417042796 0 1.9066876691894861e-05 0.013141347595419987 0 0.00012777336655352608 0.013130198218871023 0 8.0165852424261781e-05 0.013011825417042796 0 0.00014242239363155954 0.013309463777296048 0 1.9066876691894861e-05 0.013141347595419987 0 0.00012777336655352608 0.013130198218871023 0 0.00014242239363155954 0.013309463777296048 0 0.00026870506431975752 0.013133626230278696 0 0.00012777336655352608 0.013130198218871023 0 0.00014242239363155954 0.013309463777296048 0 0.00026870506431975752 0.013133626230278696 0 0.00030514618594956576 0.013266413049757475 0 0.00028116211710038815 0.01407795036196963 0 0.00021401991214967941 0.013949716622358825 0 0.00026870506431975752 0.013133626230278696 0 0.00030514618594956576 0.013266413049757475 0 0.00045481905342632247 0.013276494653799422 0 0.00026870506431975752 0.013133626230278696 0 0.00045481905342632247 0.013276494653799422 0 0.00053045732522777789 0.013015400372247916 0 0.00021401991214967941 0.013949716622358825 0 0.00016642541325142851 0.012762471206428943 0 0.00024389698942965112 0.013018938613773937 0 0.00016207005202556018 0.012967620482876027 0 8.0165852424261781e-05 0.013011825417042796 0 0.00026870506431975752 0.013133626230278696 0 0.00053045732522777789 0.013015400372247916 0 8.0165852424261781e-05 0.013011825417042796 0 0.00024389698942965112 0.013018938613773937 0 0.00016207005202556018 0.012967620482876027 0 0.0002165177934781996 0.012939292489552364 0 0.00016207005202556018 0.012967620482876027 0 0.0001644115253471152 0.012915278978090049 0 0.0002165177934781996 0.012939292489552364 0 0.00016207005202556018 0.012967620482876027 0 9.2723111634048278e-05 0.012944855189204093 0 0.0001644115253471152 0.012915278978090049 0 0.00016207005202556018 0.012967620482876027 0 8.0165852424261781e-05 0.013011825417042796 0 9.2723111634048278e-05 0.012944855189204093 0 1.5757406802566363e-05 0.012933482417403653 0 9.2723111634048278e-05 0.012944855189204093 0 0.00010739413735385136 0.012894528149309232 0 1.5757406802566363e-05 0.012933482417403653 0 8.0165852424261781e-05 0.013011825417042796 0 9.2723111634048278e-05 0.012944855189204093 0 -8.9360166846091195e-05 0.012511795734406948 0 -9.0500097301915281e-05 0.012386441542368584 0 -0.00014751148274290247 0.012534466080953913 0 4.9706649074351024e-05 0.012891083233158769 0 0.00010739413735385136 0.012894528149309232 0 8.8252310839037081e-05 0.012805132532084451 0 0.00010739413735385136 0.012894528149309232 0 8.8252310839037081e-05 0.012805132532084451 0 0.00018500504103378493 0.012852314457158271 0 3.447845420212491e-05 0.012405743965551053 0 -1.9736634002991605e-05 0.013053362903769745 0 4.9706649074351024e-05 0.012891083233158769 0 1.5757406802566363e-05 0.012933482417403653 0 0.00010739413735385136 0.012894528149309232 0 9.2723111634048278e-05 0.012944855189204093 0 0.00010739413735385136 0.012894528149309232 0 0.0001644115253471152 0.012915278978090049 0 -0.00021633204725668317 0.012708190489390678 0 -0.0001268907316545427 0.012543358402931817 0 -0.00014826534386415556 0.012534248659141914 0 -0.00013298084721830226 0.013663499813447581 0 -4.0940714097898798e-05 0.013619003347151064 0 -1.5643344190593655e-05 0.013720817013486502 0 -0.00021633204725668317 0.012708190489390678 0 -7.4246912683554296e-05 0.01258277648281452 0 -0.0001268907316545427 0.012543358402931817 0 -0.00025107561277527217 0.012773616869609049 0 -1.9736634002991605e-05 0.013053362903769745 0 -8.2423993469131823e-05 0.013532016911821064 0 -0.00013298084721830226 0.013663499813447581 0 -4.0940714097898798e-05 0.013619003347151064 0 -1.9736634002991605e-05 0.013053362903769745 0 6.1371034373007972e-05 0.013271839823853476 0 -8.9360166846091195e-05 0.012511795734406948 0 -0.0001268907316545427 0.012543358402931817 0 -0.00014751148274290247 0.012534466080953913 0 -6.8718043294062605e-05 0.013005090791773911 0 -1.9736634002991605e-05 0.013053362903769745 0 2.1618443801563057e-05 0.013629281736003447 0 -1.5643344190593655e-05 0.013720817013486502 0 0.00010197758374506416 0.013778092982202429 0 2.1618443801563057e-05 0.013629281736003447 0 -4.0940714097898798e-05 0.013619003347151064 0 -1.5643344190593655e-05 0.013720817013486502 0 6.1371034373007972e-05 0.013271839823853476 0 7.1427457113206315e-05 0.014181247372476323 0 0.00018500504103378493 0.012852314457158271 0 0.0002165177934781996 0.012939292489552364 0 0.00028033018683021218 0.012904516923305447 0 0.00010739413735385136 0.012894528149309232 0 0.00018500504103378493 0.012852314457158271 0 0.0001644115253471152 0.012915278978090049 0 0.00018500504103378493 0.012852314457158271 0 0.0001644115253471152 0.012915278978090049 0 0.0002165177934781996 0.012939292489552364 0 2.1618443801563057e-05 0.013629281736003447 0 0.00010197758374506416 0.013778092982202429 0 0.00015380804210786574 0.013614320692375885 0 7.1427457113206315e-05 0.014181247372476323 0 -7.8702129502061316e-06 0.014430165825344232 0 -1.0838767743080855e-06 0.014992173108176554 0 -1.3524462943567334e-06 0.01499114763374786 0 1.3822693476588076e-09 0.014999977121894466 0 -7.8702129502061316e-06 0.014430165825344232 0 1.9737057937865547e-07 0.015000167819937649 0 -1.0838767743080855e-06 0.014992173108176554 0 1.3822693476588076e-09 0.014999977121894466 0 -1.4415799422461048e-09 0.015000002537692418 0 7.1427457113206315e-05 0.014181247372476323 0 2.2165061278772074e-07 0.015000550450996089 0 2.2698185246102017e-08 0.014999994946927888 0 -1.5423147111540683e-05 0.014961659671231038 0 3.1234282933547512e-09 0.014999979441331914 0 -2.9922674943538689e-10 0.014999997887108695 0 2.9295910134892583e-06 0.0149885965170602 0 4.0155297421133309e-06 0.014980792521505486 0 3.1234282933547512e-09 0.014999979441331914 0 2.9295910134892583e-06 0.0149885965170602 0 0.00021401991214967941 0.013949716622358825 0 7.1427457113206315e-05 0.014181247372476323 0 4.6262705462447753e-06 0.014980060583912162 0 4.0155297421133309e-06 0.014980792521505486 0 2.9295910134892583e-06 0.0149885965170602 0 0.00024389698942965112 0.013018938613773937 0 0.0002165177934781996 0.012939292489552364 0 0.00028033018683021218 0.012904516923305447 0 0.00021401991214967941 0.013949716622358825 0 -1.5423147111540683e-05 0.014961659671231038 0 9.140251348150747e-06 0.015007345095498316 0 3.6131063869369832e-05 0.014983534112962821 0 4.9628396918769919e-06 0.014984266406886678 0 5.3821011135968685e-05 0.015011768249995592 0 9.140251348150747e-06 0.015007345095498316 0 3.6131063869369832e-05 0.014983534112962821 0 8.0901070133832325e-05 0.014959359785998281 0 5.3821011135968685e-05 0.015011768249995592 0 3.6131063869369832e-05 0.014983534112962821 0 4.7294555183837845e-05 0.014928364572645687 0 8.0901070133832325e-05 0.014959359785998281 0 3.6131063869369832e-05 0.014983534112962821 0 4.7294555183837845e-05 0.014928364572645687 0 3.6131063869369832e-05 0.014983534112962821 0 4.9628396918769919e-06 0.014984266406886678 0 2.3700180392858073e-09 0.01499997335149608 0 4.9628396918769919e-06 0.014984266406886678 0 1.0874563584274861e-06 0.014994844307067134 0 -5.9665308453604291e-09 0.015000003782546817 0 9.140251348150747e-06 0.015007345095498316 0 1.0874563584274861e-06 0.014994844307067134 0 2.3700180392858073e-09 0.01499997335149608 0 -5.9665308453604291e-09 0.015000003782546817 0 1.0874563584274861e-06 0.014994844307067134 0 9.140251348150747e-06 0.015007345095498316 0 4.9628396918769919e-06 0.014984266406886678 0 1.0874563584274861e-06 0.014994844307067134 0 -0.0021904791255670272 0.0043699330352967849 0 -0.002023867977660734 0.004835527580808679 0 -0.0023290048812889966 0.0056343041813703022 0 -0.0021904791255670272 0.0043699330352967849 0 -0.0024702198689200731 0.0038930549937328061 0 -0.0023290048812889966 0.0056343041813703022 0 -0.0021450377962237512 0.0042077140794572468 0 -0.0017129070933035945 0.0043385610792154349 0 -0.0019746333218487867 0.0041089312964963948 0 -0.0021450377962237512 0.0042077140794572468 0 -0.0017129070933035945 0.0043385610792154349 0 -0.0016629243157168106 0.0048627739679608121 0 -0.0021450377962237512 0.0042077140794572468 0 -0.0021904791255670272 0.0043699330352967849 0 -0.002023867977660734 0.004835527580808679 0 -0.0020790617373727819 0.0043572268756436492 0 -0.0016684840994396896 0.0048559509402766755 0 -0.0021450377962237512 0.0042077140794572468 0 -0.002023867977660734 0.004835527580808679 0 -0.0014725581086111308 0.0052635657550652798 0 -0.0012770624488686975 0.0046056584723030668 0 -0.0017129070933035945 0.0043385610792154349 0 -0.0016629243157168106 0.0048627739679608121 0 -0.0012770624488686975 0.0046056584723030668 0 -0.0017129070933035945 0.0043385610792154349 0 -0.0015535289937742025 0.0038609150531003877 0 -0.0021072565904436103 0.0098423665896343136 0 -0.0022353616118555688 0.0093442077440335902 0 -0.0018596749873597722 0.009538610053677548 0 -0.0017129070933035945 0.0043385610792154349 0 -0.0015535289937742025 0.0038609150531003877 0 -0.0018871148215182246 0.0039789793858305 0 -0.0017045571493725317 0.0072973346185652406 0 -0.0018865273727094794 0.006645724173869153 0 -0.0015535289937742025 0.0038609150531003877 0 -0.0018871148215182246 0.0039789793858305 0 -0.0018656928310213068 0.0036700456544943509 0 -0.0021450377962237512 0.0042077140794572468 0 -0.0021262701430745917 0.00393588356606768 0 -0.0024910242740104963 0.0036190059562264307 0 -0.0018871148215182246 0.0039789793858305 0 -0.0021178090514186688 0.0036978308124861092 0 -0.0018656928310213068 0.0036700456544943509 0 -0.0017129070933035945 0.0043385610792154349 0 -0.0019746333218487867 0.0041089312964963948 0 -0.0018871148215182246 0.0039789793858305 0 -0.0019746333218487867 0.0041089312964963948 0 -0.0018871148215182246 0.0039789793858305 0 -0.0021262701430745917 0.00393588356606768 0 -0.0021450377962237512 0.0042077140794572468 0 -0.0019746333218487867 0.0041089312964963948 0 -0.0021262701430745917 0.00393588356606768 0 -0.0018871148215182246 0.0039789793858305 0 -0.0021262701430745917 0.00393588356606768 0 -0.0021178090514186688 0.0036978308124861092 0 -0.0021904791255670272 0.0043699330352967849 0 -0.0024702198689200731 0.0038930549937328061 0 -0.0023941605700679332 0.0032117391413195606 0 -0.0021827567195662318 0.0042768150202928549 0 -0.0024495382324389572 0.0034453284093905671 0 -0.0021450377962237512 0.0042077140794572468 0 -0.0021904791255670272 0.0043699330352967849 0 -0.0024910242740104963 0.0036190059562264307 0 -0.0021262701430745917 0.00393588356606768 0 -0.0021178090514186688 0.0036978308124861092 0 -0.0024910242740104963 0.0036190059562264307 0 -0.0024702198689200731 0.0038930549937328061 0 -0.002430720852261938 0.0034910582332747129 0 -0.0023941605700679332 0.0032117391413195606 0 -0.0024335596805692807 0.0033113900415370355 0 -0.0024267499148351627 0.0032436362187088126 0 -0.002430720852261938 0.0034910582332747129 0 -0.0024335596805692807 0.0033113900415370355 0 -0.0024267499148351627 0.0032436362187088126 0 -0.002427958369505644 0.0031959011788139442 0 -0.0024267499148351627 0.0032436362187088126 0 -0.002430720852261938 0.0034910582332747129 0 -0.0023941605700679332 0.0032117391413195606 0 -0.0024335596805692807 0.0033113900415370355 0 -0.002430720852261938 0.0034910582332747129 0 -0.0024042458970077196 0.0033516590494261657 0 -0.0023554945924248475 0.0035363502345592502 0 -0.0024042458970077196 0.0033516590494261657 0 -0.0023545263550232361 0.0034100720382470927 0 -0.002430720852261938 0.0034910582332747129 0 -0.0023554945924248475 0.0035363502345592502 0 -0.0024042458970077196 0.0033516590494261657 0 -0.0024702198689200731 0.0038930549937328061 0 -0.0023554945924248475 0.0035363502345592502 0 -0.0022847200859188363 0.003425595806719584 0 -0.0024702198689200731 0.0038930549937328061 0 -0.002430720852261938 0.0034910582332747129 0 -0.0023554945924248475 0.0035363502345592502 0 -0.0025178761901612809 0.0039485327879221783 0 -0.0028023271420403212 0.0047849934632827641 0 -0.0024702198689200731 0.0038930549937328061 0 -0.0033953956558274755 0.0061212344479661266 0 -0.0023290048812889966 0.0056343041813703022 0 -0.0023554945924248475 0.0035363502345592502 0 -0.0022847200859188363 0.003425595806719584 0 -0.0023545263550232361 0.0034100720382470927 0 -0.0022847200859188363 0.003425595806719584 0 -0.0023137856878270714 0.0034495700181414518 0 -0.0023545263550232361 0.0034100720382470927 0 -0.0019892996367426399 0.0036870055025799895 0 -0.0022847200859188363 0.003425595806719584 0 -0.0023137856878270714 0.0034495700181414518 0 -0.0033953956558274755 0.0061212344479661266 0 -0.002413081651830629 0.0072655629094846661 0 -0.0023290048812889966 0.0056343041813703022 0 -0.002711815759960328 0.0058098029575642451 0 -0.0028023271420403212 0.0047849934632827641 0 -0.0034775902710228162 0.0079460129008092403 0 -0.0033953956558274755 0.0061212344479661266 0 -0.002413081651830629 0.0072655629094846661 0 -0.002413081651830629 0.0072655629094846661 0 -0.0023290048812889966 0.0056343041813703022 0 -0.0017262360435674018 0.0064051363668849882 0 -0.0023290048812889966 0.0056343041813703022 0 -0.0014725581086111308 0.0052635657550652798 0 -0.0017262360435674018 0.0064051363668849882 0 -0.002023867977660734 0.004835527580808679 0 -0.0023290048812889966 0.0056343041813703022 0 -0.0014725581086111308 0.0052635657550652798 0 -0.0012770624488686975 0.0046056584723030668 0 -0.0016629243157168106 0.0048627739679608121 0 -0.0010161496494955401 0.0055621920036905744 0 -0.0014725581086111308 0.0052635657550652798 0 -0.0017262360435674018 0.0064051363668849882 0 -0.00084801410613328566 0.0063354210486722667 0 -0.0016684840994396896 0.0048559509402766755 0 -0.0011911027042636258 0.0075031001573920321 0 -0.0015022792147752408 0.0073523621060356875 0 -0.0017262360435674018 0.0064051363668849882 0 -0.00084801410613328566 0.0063354210486722667 0 -0.0015022792147752408 0.0073523621060356875 0 -0.002413081651830629 0.0072655629094846661 0 -0.0017262360435674018 0.0064051363668849882 0 -0.0010918006739714084 0.0082654644721711999 0 -0.00081683740556706816 0.0081342478193590206 0 -0.0012375228139976492 0.0077146046036165854 0 -0.001622508819967672 0.010725268306209448 0 -0.001527839345399314 0.010313250354898164 0 -0.001981634091046347 0.010339899418918613 0 -0.00082827159361835076 0.0075712216202236124 0 -0.0015022792147752408 0.0073523621060356875 0 -0.00084801410613328566 0.0063354210486722667 0 -0.00098585254174097495 0.0078226180695030595 0 -0.0011911027042636258 0.0075031001573920321 0 -0.0011654256197798016 0.00961444787180811 0 -0.0011911027042636258 0.0075031001573920321 0 -0.001622508819967672 0.010725268306209448 0 -0.001527839345399314 0.010313250354898164 0 -0.0011324906006268929 0.010465384373190494 0 -0.001527839345399314 0.010313250354898164 0 -0.0011476858209834549 0.0099998619603720047 0 -0.0016195608205354331 0.0098722019841467404 0 -0.001527839345399314 0.010313250354898164 0 -0.001981634091046347 0.010339899418918613 0 -0.0016195608205354331 0.0098722019841467404 0 -0.0017045571493725317 0.0072973346185652406 0 -0.0011911027042636258 0.0075031001573920321 0 -0.0021072565904436103 0.0098423665896343136 0 -0.001981634091046347 0.010339899418918613 0 -0.0016195608205354331 0.0098722019841467404 0 -0.00064437393414007557 0.010757375930590103 0 -0.0011324906006268929 0.010465384373190494 0 -0.00060532928443767452 0.010207437608036761 0 -0.0010640947448982191 0.010825086451942018 0 -0.00064437393414007557 0.010757375930590103 0 -0.0011324906006268929 0.010465384373190494 0 -0.0010640947448982191 0.010825086451942018 0 -0.001622508819967672 0.010725268306209448 0 -0.0011324906006268929 0.010465384373190494 0 -0.0011324906006268929 0.010465384373190494 0 -0.00060532928443767452 0.010207437608036761 0 -0.0011476858209834549 0.0099998619603720047 0 -0.001527839345399314 0.010313250354898164 0 -0.0011324906006268929 0.010465384373190494 0 -0.0011476858209834549 0.0099998619603720047 0 -0.00060532928443767452 0.010207437608036761 0 -0.00077560965526883813 0.0097995112969615841 0 -0.0011476858209834549 0.0099998619603720047 0 -0.00077560965526883813 0.0097995112969615841 0 -0.0011476858209834549 0.0099998619603720047 0 -0.001173228644926965 0.0096229246121380604 0 -0.001173228644926965 0.0096229246121380604 0 -0.0007306215082452241 0.0094267630415219416 0 -0.0011624955791510406 0.0092702695244777974 0 -0.001173228644926965 0.0096229246121380604 0 -0.0015134074515834534 0.0094500165877511085 0 -0.0011624955791510406 0.0092702695244777974 0 -0.00077560965526883813 0.0097995112969615841 0 -0.001173228644926965 0.0096229246121380604 0 -0.0007306215082452241 0.0094267630415219416 0 -0.0021072565904436103 0.0098423665896343136 0 -0.0016195608205354331 0.0098722019841467404 0 -0.0018596749873597722 0.009538610053677548 0 -0.0011476858209834549 0.0099998619603720047 0 -0.001173228644926965 0.0096229246121380604 0 -0.0016195608205354331 0.0098722019841467404 0 -0.001173228644926965 0.0096229246121380604 0 -0.0016195608205354331 0.0098722019841467404 0 -0.0015134074515834534 0.0094500165877511085 0 -0.0016195608205354331 0.0098722019841467404 0 -0.0015134074515834534 0.0094500165877511085 0 -0.0018596749873597722 0.009538610053677548 0 -0.0015134074515834534 0.0094500165877511085 0 -0.0018251193918179065 0.0091823362599328575 0 -0.0014436210464930752 0.0091479336378322128 0 -0.0015134074515834534 0.0094500165877511085 0 -0.0014436210464930752 0.0091479336378322128 0 -0.0011624955791510406 0.0092702695244777974 0 -0.0015134074515834534 0.0094500165877511085 0 -0.0018596749873597722 0.009538610053677548 0 -0.0018251193918179065 0.0091823362599328575 0 -0.0022353616118555688 0.0093442077440335902 0 -0.0018596749873597722 0.009538610053677548 0 -0.0018251193918179065 0.0091823362599328575 0 -0.0018251193918179065 0.0091823362599328575 0 -0.0015886209292212698 0.0088690480792996927 0 -0.0019596051602665085 0.0087837434862417449 0 -0.0018251193918179065 0.0091823362599328575 0 -0.0019596051602665085 0.0087837434862417449 0 -0.0020959188221612488 0.0090367586183796485 0 -0.0018251193918179065 0.0091823362599328575 0 -0.0014436210464930752 0.0091479336378322128 0 -0.0015886209292212698 0.0088690480792996927 0 -0.0014436210464930752 0.0091479336378322128 0 -0.0015886209292212698 0.0088690480792996927 0 -0.0012184852436326545 0.0089648801549283182 0 -0.0015713898216511979 0.0088658782849563023 0 -0.0012621213314875264 0.0089480443464747365 0 -0.0012822858992853332 0.0087724952644510322 0 -0.0012913096113103615 0.0087942661182501686 0 -0.0012708072646888406 0.0087792589242659275 0 -0.0015394137553228823 0.0089013525416271801 0 -0.0013867300390004796 0.0087640535736371924 0 -0.0018527700120619394 0.0088435878477989612 0 -0.0015394137553228823 0.0089013525416271801 0 -0.0013867300390004796 0.0087640535736371924 0 -0.0012184852436326545 0.0089648801549283182 0 -0.0012636971120137412 0.0087468167786608798 0 -0.0012708072646888406 0.0087792589242659275 0 -0.0012543813324697917 0.0087350810449129054 0 -0.0013209599972850894 0.0083898481928631075 0 -0.0016333933266604328 0.0068462556887267144 0 -0.0013345227039762704 0.0088330520175443159 0 -0.001710157301341904 0.0082593786849758863 0 -0.0012822858992853332 0.0087724952644510322 0 -0.0012636971120137412 0.0087468167786608798 0 -0.0012708072646888406 0.0087792589242659275 0 -0.0015713898216511979 0.0088658782849563023 0 -0.001710157301341904 0.0082593786849758863 0 -0.00025981957463541922 0.0091389700910501498 0 -0.0007306215082452241 0.0094267630415219416 0 -0.00086637495942115032 0.0090504724557029081 0 -0.0007306215082452241 0.0094267630415219416 0 -0.00086637495942115032 0.0090504724557029081 0 -0.0011624955791510406 0.0092702695244777974 0 -0.00086637495942115032 0.0090504724557029081 0 -0.0011624955791510406 0.0092702695244777974 0 -0.0012184852436326545 0.0089648801549283182 0 -0.0014436210464930752 0.0091479336378322128 0 -0.0011624955791510406 0.0092702695244777974 0 -0.0012184852436326545 0.0089648801549283182 0 -0.00086637495942115032 0.0090504724557029081 0 -0.0012184852436326545 0.0089648801549283182 0 -0.00088309986035369696 0.0086832398417668512 0 -0.0012822858992853332 0.0087724952644510322 0 -0.0013109806293479325 0.0087954766197070634 0 -0.0012913096113103615 0.0087942661182501686 0 -0.0013345227039762704 0.0088330520175443159 0 -0.0010116329334659529 0.0085615144260531694 0 -0.0013867300390004796 0.0087640535736371924 0 -0.0012184852436326545 0.0089648801549283182 0 -0.00088309986035369696 0.0086832398417668512 0 -0.00058007880103949302 0.0088666550438170118 0 -0.00036761469300143162 0.0086079588683150299 0 -0.00088309986035369696 0.0086832398417668512 0 -0.00058007880103949302 0.0088666550438170118 0 -0.00086637495942115032 0.0090504724557029081 0 -0.00088309986035369696 0.0086832398417668512 0 -0.0010978963728333309 0.010514926357820569 0 -0.0010116329334659529 0.0085615144260531694 0 -0.0013486373467778328 0.0088190587169249129 0 -0.0013109806293479325 0.0087954766197070634 0 -0.0013260504882059243 0.0088279705916978878 0 -0.0013109806293479325 0.0087954766197070634 0 -0.0013260504882059243 0.0088279705916978878 0 -0.001299366199814851 0.0088251804812543248 0 -0.0013109806293479325 0.0087954766197070634 0 -0.0012913096113103615 0.0087942661182501686 0 -0.001299366199814851 0.0088251804812543248 0 -0.0015377109134700384 0.0075794521491174341 0 -0.0014766535527780675 0.0076703990532619995 0 -0.0013961333058392503 0.0076024382681329234 0 -0.0015830954710996021 0.0078059536276441953 0 -0.0015377109134700384 0.0075794521491174341 0 -0.0014766535527780675 0.0076703990532619995 0 -0.0013414528798197255 0.0088668729827132593 0 -0.0013260504882059243 0.0088279705916978878 0 -0.001299366199814851 0.0088251804812543248 0 -0.0017402912324213074 0.0077392558792007526 0 -0.001746664616746675 0.0077015303647817888 0 -0.0015377109134700384 0.0075794521491174341 0 -0.0012700598958288979 0.0096277417321518344 0 -0.0014253081898355918 0.0079764528323669828 0 -0.0013858199308518337 0.0075551472627793017 0 -0.0013961333058392503 0.0076024382681329234 0 -0.0013687372573050339 0.0075912219680311591 0 -0.0013858199308518337 0.0075551472627793017 0 -0.0013687372573050339 0.0075912219680311591 0 -0.0013905582600378739 0.0075677011592531918 0 -0.0012913096113103615 0.0087942661182501686 0 -0.001299366199814851 0.0088251804812543248 0 -0.0012708072646888406 0.0087792589242659275 0 -0.0014253081898355918 0.0079764528323669828 0 -0.0013209599972850894 0.0083898481928631075 0 -0.0015377109134700384 0.0075794521491174341 0 -0.0013858199308518337 0.0075551472627793017 0 -0.0013961333058392503 0.0076024382681329234 0 -0.0013223844808169377 0.0076358267604748169 0 -0.0014766535527780675 0.0076703990532619995 0 -0.0013961333058392503 0.0076024382681329234 0 -0.0013223844808169377 0.0076358267604748169 0 -0.0013961333058392503 0.0076024382681329234 0 -0.0013687372573050339 0.0075912219680311591 0 -0.0013976531953621709 0.0075386604491351882 0 -0.0013687372573050339 0.0075912219680311591 0 -0.0014203842181718144 0.0075676958031962501 0 -0.0020335900564911313 0.0053825631953306318 0 -0.0019773492524436092 0.0053739429770965786 0 -0.0025312890183458812 0.0031334276725473891 0 -0.0025066413791206168 0.0031321217857406694 0 -0.0025145669989140437 0.0031114654848509882 0 -0.0025312890183458812 0.0031334276725473891 0 -0.0025066413791206168 0.0031321217857406694 0 -0.0025028433550571792 0.0031478512907373727 0 -0.0019773492524436092 0.0053739429770965786 0 -0.0019532996224156077 0.0052146775387546711 0 -0.0013687372573050339 0.0075912219680311591 0 -0.0014203842181718144 0.0075676958031962501 0 -0.0013905582600378739 0.0075677011592531918 0 -0.0014203842181718144 0.0075676958031962501 0 -0.0013905582600378739 0.0075677011592531918 0 -0.0013930619131529553 0.0075566764329569637 0 -0.0018010027936752702 0.006897925216397492 0 -0.0017258828186923225 0.0068674666605404566 0 -0.0017427405935357464 0.0068955327014447194 0 -0.001710157301341904 0.0082593786849758863 0 -0.0020180001063399653 0.0058011392392548463 0 -0.0013858199308518337 0.0075551472627793017 0 -0.0013905582600378739 0.0075677011592531918 0 -0.0013930852360449757 0.0075590107063687002 0 -0.0013905582600378739 0.0075677011592531918 0 -0.0013930852360449757 0.0075590107063687002 0 -0.0013930619131529553 0.0075566764329569637 0 -0.001710157301341904 0.0082593786849758863 0 -0.0016333933266604328 0.0068462556887267144 0 -0.0019505204088558945 0.0033302346367684614 0 -0.001936404762400423 0.0033797655251884052 0 -0.0020302415547943432 0.0033593682846753555 0 -0.0017218703830865229 0.0068812520257984632 0 -0.0017258828186923225 0.0068674666605404566 0 -0.0017427405935357464 0.0068955327014447194 0 -0.0018718253755094065 0.0055389546320649911 0 -0.0020180001063399653 0.0058011392392548463 0 -0.0018718253755094065 0.0055389546320649911 0 -0.0016333933266604328 0.0068462556887267144 0 -0.0016333933266604328 0.0068462556887267144 0 -0.0019532996224156077 0.0052146775387546711 0 -0.001729834327192481 0.0060507377456161509 0 -0.0017781419106190346 0.006077635539953539 0 -0.0017210816428486109 0.0060846289098543255 0 -0.0018718253755094065 0.0055389546320649911 0 -0.0019532996224156077 0.0052146775387546711 0 -0.0019532996224156077 0.0052146775387546711 0 -0.0026518445907022085 0.0025719077594763577 0 -0.0019632008055547163 0.0032635573853313491 0 -0.0020302415547943432 0.0033593682846753555 0 -0.0024873710511193973 0.0031393052420151009 0 -0.0025066413791206168 0.0031321217857406694 0 -0.0025028433550571792 0.0031478512907373727 0 -0.0024873710511193973 0.0031393052420151009 0 -0.0018718253755094065 0.0055389546320649911 0 -0.0015954667207123132 0.0048990993032330581 0 -0.0019481769303127412 0.0033225113777761053 0 -0.0019632008055547163 0.0032635573853313491 0 -0.0020302415547943432 0.0033593682846753555 0 -0.0017556525365194338 0.0032986832475935166 0 -0.0020099558833019467 0.0035326814216497331 0 -0.0018656928310213068 0.0036700456544943509 0 -0.0020180001063399653 0.0058011392392548463 0 -0.0020297894304167666 0.0032291118669738415 0 -0.0017556525365194338 0.0032986832475935166 0 -0.0020099558833019467 0.0035326814216497331 0 -0.0022663011545688782 0.0034088044371193937 0 -0.001936404762400423 0.0033797655251884052 0 -0.0020302415547943432 0.0033593682846753555 0 -0.0022663011545688782 0.0034088044371193937 0 -0.0021178090514186688 0.0036978308124861092 0 -0.0020099558833019467 0.0035326814216497331 0 -0.0022663011545688782 0.0034088044371193937 0 -0.0021178090514186688 0.0036978308124861092 0 -0.0020099558833019467 0.0035326814216497331 0 -0.0018656928310213068 0.0036700456544943509 0 -0.0019596051602665085 0.0087837434862417449 0 -0.0023641804361406839 0.0088366501101608385 0 -0.0020959188221612488 0.0090367586183796485 0 -0.0022353616118555688 0.0093442077440335902 0 -0.0018251193918179065 0.0091823362599328575 0 -0.0020959188221612488 0.0090367586183796485 0 -0.0015535289937742025 0.0038609150531003877 0 -0.0017556525365194338 0.0032986832475935166 0 -0.0018656928310213068 0.0036700456544943509 0 -0.0018865273727094794 0.006645724173869153 0 -0.0020180001063399653 0.0058011392392548463 0 -0.0022353616118555688 0.0093442077440335902 0 -0.0023641804361406839 0.0088366501101608385 0 -0.0020959188221612488 0.0090367586183796485 0 -0.0024154656513524562 0.0031202699195096847 0 -0.0023941605700679332 0.0032117391413195606 0 -0.002392373551420534 0.0030268946370621435 0 -0.0024495382324389572 0.0034453284093905671 0 -0.0024929135875345217 0.0030961401413999745 0 -0.0024267499148351627 0.0032436362187088126 0 -0.0024154656513524562 0.0031202699195096847 0 -0.0023941605700679332 0.0032117391413195606 0 -0.0024267499148351627 0.0032436362187088126 0 -0.0024154656513524562 0.0031202699195096847 0 -0.002427958369505644 0.0031959011788139442 0 -0.0024910242740104963 0.0036190059562264307 0 -0.0022663011545688782 0.0034088044371193937 0 -0.0024873710511193973 0.0031393052420151009 0 -0.0021178090514186688 0.0036978308124861092 0 -0.0024910242740104963 0.0036190059562264307 0 -0.0022663011545688782 0.0034088044371193937 0 -0.0020302415547943432 0.0033593682846753555 0 -0.0022663011545688782 0.0034088044371193937 0 -0.0024873710511193973 0.0031393052420151009 0 -0.0024910242740104963 0.0036190059562264307 0 -0.0024873710511193973 0.0031393052420151009 0 -0.0026035559312291975 0.0031536549600884559 0 -0.0024873710511193973 0.0031393052420151009 0 -0.0026035559312291975 0.0031536549600884559 0 -0.0025267845415421373 0.0030775906255992363 0 -0.0026035559312291975 0.0031536549600884559 0 -0.0025267845415421373 0.0030775906255992363 0 -0.0024589404124538928 0.0029888862903399336 0 -0.0025267845415421373 0.0030775906255992363 0 -0.0025145669989140437 0.0031114654848509882 0 -0.0025343311456005185 0.0031012076983601314 0 -0.0025066413791206168 0.0031321217857406694 0 -0.0024873710511193973 0.0031393052420151009 0 -0.0025145669989140437 0.0031114654848509882 0 -0.0024873710511193973 0.0031393052420151009 0 -0.0025267845415421373 0.0030775906255992363 0 -0.0025145669989140437 0.0031114654848509882 0 -0.0025994797149399024 0.0031913701686936821 0 -0.0025312890183458812 0.0031334276725473891 0 -0.0025343311456005185 0.0031012076983601314 0 -0.0025312890183458812 0.0031334276725473891 0 -0.0025145669989140437 0.0031114654848509882 0 -0.0025343311456005185 0.0031012076983601314 0 -0.0025267845415421373 0.0030775906255992363 0 -0.0025343311456005185 0.0031012076983601314 0 -0.0024589404124538928 0.0029888862903399336 0 -0.0024547882191787453 0.003090805725071913 0 -0.0024589404124538928 0.0029888862903399336 0 -0.0023736703644320596 0.0029352771552700906 0 -0.0024547882191787453 0.003090805725071913 0 -0.0025343311456005185 0.0031012076983601314 0 -0.0024589404124538928 0.0029888862903399336 0 -0.0024589404124538928 0.0029888862903399336 0 -0.0023736703644320596 0.0029352771552700906 0 -0.0023940919411656338 0.0028969647233407976 0 -0.0024589404124538928 0.0029888862903399336 0 -0.0023940919411656338 0.0028969647233407976 0 -0.0024223887662605972 0.0029983918031234015 0 -0.002392373551420534 0.0030268946370621435 0 -0.0024589404124538928 0.0029888862903399336 0 -0.0024223887662605972 0.0029983918031234015 0 -0.0024929135875345217 0.0030961401413999745 0 -0.0024628735052358917 0.0030103618984593729 0 -0.0021384201430298482 0.0025949209467433215 0 -0.0022427807954486295 0.0026847805328743431 0 -0.0022533949365130708 0.002980123621895819 0 -0.0019695122135690861 0.003091590518264574 0 -0.002266948503370364 0.002702618740716472 0 -0.0022846766766200133 0.0020826798233882556 0 -0.002266948503370364 0.002702618740716472 0 -0.002485311774686012 0.0024061670867967294 0 -0.0022533949365130708 0.002980123621895819 0 -0.0023736703644320596 0.0029352771552700906 0 -0.002266948503370364 0.002702618740716472 0 -0.0023736703644320596 0.0029352771552700906 0 -0.0023940919411656338 0.0028969647233407976 0 -0.002266948503370364 0.002702618740716472 0 -0.0023940919411656338 0.0028969647233407976 0 -0.002266948503370364 0.002702618740716472 0 -0.0024153485872279723 0.0028850488495358977 0 -0.002266948503370364 0.002702618740716472 0 -0.0024515832290153824 0.0027560963588742415 0 -0.002485311774686012 0.0024061670867967294 0 -0.0024515832290153824 0.0027560963588742415 0 -0.0024153485872279723 0.0028850488495358977 0 -0.002505805254730477 0.0029404235599573975 0 -0.002266948503370364 0.002702618740716472 0 -0.0024515832290153824 0.0027560963588742415 0 -0.0024153485872279723 0.0028850488495358977 0 -0.0024153485872279723 0.0028850488495358977 0 -0.002505805254730477 0.0029404235599573975 0 -0.0024670979909354553 0.003045255397389565 0 -0.0024153485872279723 0.0028850488495358977 0 -0.0024342096519316624 0.0030230468876728113 0 -0.0024670979909354553 0.003045255397389565 0 -0.0024154656513524562 0.0031202699195096847 0 -0.002392373551420534 0.0030268946370621435 0 -0.0024223887662605972 0.0029983918031234015 0 -0.0023940919411656338 0.0028969647233407976 0 -0.0024153485872279723 0.0028850488495358977 0 -0.0024342096519316624 0.0030230468876728113 0 -0.0023940919411656338 0.0028969647233407976 0 -0.0024223887662605972 0.0029983918031234015 0 -0.0024342096519316624 0.0030230468876728113 0 -0.0024342096519316624 0.0030230468876728113 0 -0.0024485259561013678 0.0031754323032223779 0 -0.0024670979909354553 0.003045255397389565 0 -0.0024342096519316624 0.0030230468876728113 0 -0.0024328847042706268 0.0031123110112466807 0 -0.0024485259561013678 0.0031754323032223779 0 -0.0024223887662605972 0.0029983918031234015 0 -0.0024342096519316624 0.0030230468876728113 0 -0.0024328847042706268 0.0031123110112466807 0 -0.0024154656513524562 0.0031202699195096847 0 -0.0024223887662605972 0.0029983918031234015 0 -0.0024328847042706268 0.0031123110112466807 0 -0.0024328847042706268 0.0031123110112466807 0 -0.002427958369505644 0.0031959011788139442 0 -0.0024287407240694372 0.0032283723845100438 0 -0.0024154656513524562 0.0031202699195096847 0 -0.0024328847042706268 0.0031123110112466807 0 -0.002427958369505644 0.0031959011788139442 0 -0.0024287407240694372 0.0032283723845100438 0 -0.0024042458970077196 0.0033516590494261657 0 -0.0024485259561013678 0.0031754323032223779 0 -0.0024335596805692807 0.0033113900415370355 0 -0.002427958369505644 0.0031959011788139442 0 -0.0024287407240694372 0.0032283723845100438 0 -0.0024328847042706268 0.0031123110112466807 0 -0.0024287407240694372 0.0032283723845100438 0 -0.0024485259561013678 0.0031754323032223779 0 -0.0024335596805692807 0.0033113900415370355 0 -0.0024287407240694372 0.0032283723845100438 0 -0.0024042458970077196 0.0033516590494261657 0 -0.0024042458970077196 0.0033516590494261657 0 -0.0024378015283242796 0.0032886233152163245 0 -0.0024485259561013678 0.0031754323032223779 0 -0.0024042458970077196 0.0033516590494261657 0 -0.0024378015283242796 0.0032886233152163245 0 -0.0023545263550232361 0.0034100720382470927 0 -0.0024378015283242796 0.0032886233152163245 0 -0.0024485259561013678 0.0031754323032223779 0 -0.0024899621797064269 0.0031679667667633897 0 -0.0024905609149376293 0.0032687049893455598 0 -0.0024378015283242796 0.0032886233152163245 0 -0.0024899621797064269 0.0031679667667633897 0 -0.0024485259561013678 0.0031754323032223779 0 -0.0024670979909354553 0.003045255397389565 0 -0.0024899621797064269 0.0031679667667633897 0 -0.0024670979909354553 0.003045255397389565 0 -0.0025188223044425475 0.0030757375136443383 0 -0.0024899621797064269 0.0031679667667633897 0 -0.002505805254730477 0.0029404235599573975 0 -0.0024670979909354553 0.003045255397389565 0 -0.0025188223044425475 0.0030757375136443383 0 -0.002505805254730477 0.0029404235599573975 0 -0.0025188223044425475 0.0030757375136443383 0 -0.0025947832996759553 0.0030690438154794015 0 -0.002505805254730477 0.0029404235599573975 0 -0.0025947832996759553 0.0030690438154794015 0 -0.0026076183003176218 0.0029377538157644733 0 -0.0025188223044425475 0.0030757375136443383 0 -0.0025947832996759553 0.0030690438154794015 0 -0.0025498472842116768 0.0031795492589812265 0 -0.0025947832996759553 0.0030690438154794015 0 -0.0026182607956383892 0.0031979152039356353 0 -0.0026683838640938705 0.0031043885001051765 0 -0.0025947832996759553 0.0030690438154794015 0 -0.0025498472842116768 0.0031795492589812265 0 -0.0026182607956383892 0.0031979152039356353 0 -0.0025188223044425475 0.0030757375136443383 0 -0.0024899621797064269 0.0031679667667633897 0 -0.0025498472842116768 0.0031795492589812265 0 -0.0024905609149376293 0.0032687049893455598 0 -0.0024899621797064269 0.0031679667667633897 0 -0.0025498472842116768 0.0031795492589812265 0 -0.0024905609149376293 0.0032687049893455598 0 -0.0025498472842116768 0.0031795492589812265 0 -0.0025530897465210981 0.0033134564183617682 0 -0.0025498472842116768 0.0031795492589812265 0 -0.0025530897465210981 0.0033134564183617682 0 -0.0026182607956383892 0.0031979152039356353 0 -0.0025530897465210981 0.0033134564183617682 0 -0.0026182607956383892 0.0031979152039356353 0 -0.0026361115679981789 0.0033547912206678518 0 -0.0026182607956383892 0.0031979152039356353 0 -0.0026361115679981789 0.0033547912206678518 0 -0.0026822780266044558 0.0032075040341723029 0 -0.0026361115679981789 0.0033547912206678518 0 -0.0026822780266044558 0.0032075040341723029 0 -0.0026797492080533037 0.0034165544426877576 0 -0.0025530897465210981 0.0033134564183617682 0 -0.0025962698408022885 0.0034855556418802698 0 -0.0025286079480493695 0.0034505758627836076 0 -0.0025530897465210981 0.0033134564183617682 0 -0.0026361115679981789 0.0033547912206678518 0 -0.0025962698408022885 0.0034855556418802698 0 -0.0026361115679981789 0.0033547912206678518 0 -0.0025962698408022885 0.0034855556418802698 0 -0.0026428982124323953 0.003514019624574987 0 -0.0025286079480493695 0.0034505758627836076 0 -0.0024877359777921758 0.0035646273888255619 0 -0.0024434364127358947 0.003376423439537582 0 -0.0025962698408022885 0.0034855556418802698 0 -0.0025286079480493695 0.0034505758627836076 0 -0.0025905307106548203 0.0036381121360406807 0 -0.0025286079480493695 0.0034505758627836076 0 -0.0024877359777921758 0.0035646273888255619 0 -0.0025905307106548203 0.0036381121360406807 0 -0.0019892996367426399 0.0036870055025799895 0 -0.0024877359777921758 0.0035646273888255619 0 -0.0023137856878270714 0.0034495700181414518 0 -0.0024877359777921758 0.0035646273888255619 0 -0.0023137856878270714 0.0034495700181414518 0 -0.0024434364127358947 0.003376423439537582 0 -0.0023137856878270714 0.0034495700181414518 0 -0.0023545263550232361 0.0034100720382470927 0 -0.0024434364127358947 0.003376423439537582 0 -0.0024378015283242796 0.0032886233152163245 0 -0.0023545263550232361 0.0034100720382470927 0 -0.0024434364127358947 0.003376423439537582 0 -0.0024905609149376293 0.0032687049893455598 0 -0.0024378015283242796 0.0032886233152163245 0 -0.0024434364127358947 0.003376423439537582 0 -0.0025530897465210981 0.0033134564183617682 0 -0.0025286079480493695 0.0034505758627836076 0 -0.0024434364127358947 0.003376423439537582 0 -0.0024905609149376293 0.0032687049893455598 0 -0.0025530897465210981 0.0033134564183617682 0 -0.0024434364127358947 0.003376423439537582 0 -0.0027091459139473571 0.0029630754867858004 0 -0.0027252073131977242 0.0027697928688904649 0 -0.0027570572027918834 0.0028728924083905845 0 -0.0027145729299916685 0.0030079242528212161 0 -0.002669223420553435 0.0025431786082987513 0 -0.0027703705094361763 0.0027127581152994527 0 -0.0027570572027918834 0.0028728924083905845 0 -0.002669223420553435 0.0025431786082987513 0 -0.0027703705094361763 0.0027127581152994527 0 -0.0027864969525405142 0.0024488940634330917 0 -0.0027779710075422227 0.0025645539367897463 0 -0.0027703705094361763 0.0027127581152994527 0 -0.002669223420553435 0.0025431786082987513 0 -0.0027864969525405142 0.0024488940634330917 0 -0.0027703705094361763 0.0027127581152994527 0 -0.0027779710075422227 0.0025645539367897463 0 -0.0027465768837672115 0.0027141015353293395 0 -0.0027703705094361763 0.0027127581152994527 0 -0.0027846064897349078 0.0028482158454285248 0 -0.0027465768837672115 0.0027141015353293395 0 -0.0027703705094361763 0.0027127581152994527 0 -0.0027846064897349078 0.0028482158454285248 0 -0.0027570572027918834 0.0028728924083905845 0 -0.0027846064897349078 0.0028482158454285248 0 -0.0027570572027918834 0.0028728924083905845 0 -0.0028321515602467082 0.0030681955552398568 0 -0.0027343297614982518 0.0032248803843062971 0 -0.0027145729299916685 0.0030079242528212161 0 -0.0028321515602467082 0.0030681955552398568 0 -0.0027570572027918834 0.0028728924083905845 0 -0.0027145729299916685 0.0030079242528212161 0 -0.0028321515602467082 0.0030681955552398568 0 -0.0027343297614982518 0.0032248803843062971 0 -0.0026822780266044558 0.0032075040341723029 0 -0.0027145729299916685 0.0030079242528212161 0 -0.0027343297614982518 0.0032248803843062971 0 -0.0026822780266044558 0.0032075040341723029 0 -0.0026797492080533037 0.0034165544426877576 0 -0.0026822780266044558 0.0032075040341723029 0 -0.0026683838640938705 0.0031043885001051765 0 -0.0027145729299916685 0.0030079242528212161 0 -0.0026182607956383892 0.0031979152039356353 0 -0.0026822780266044558 0.0032075040341723029 0 -0.0026683838640938705 0.0031043885001051765 0 -0.0026683838640938705 0.0031043885001051765 0 -0.0027145729299916685 0.0030079242528212161 0 -0.0026704953316050448 0.0030231869502405757 0 -0.0027145729299916685 0.0030079242528212161 0 -0.0026704953316050448 0.0030231869502405757 0 -0.00275011676664671 0.0030042561923028554 0 -0.0026704953316050448 0.0030231869502405757 0 -0.0026913888388575753 0.0028659377283774957 0 -0.00275011676664671 0.0030042561923028554 0 -0.0025947832996759553 0.0030690438154794015 0 -0.0026704953316050448 0.0030231869502405757 0 -0.0026076183003176218 0.0029377538157644733 0 -0.0025947832996759553 0.0030690438154794015 0 -0.0026683838640938705 0.0031043885001051765 0 -0.0026704953316050448 0.0030231869502405757 0 -0.0026076183003176218 0.0029377538157644733 0 -0.0026913888388575753 0.0028659377283774957 0 -0.0025840355120206834 0.00277305754556538 0 -0.0026704953316050448 0.0030231869502405757 0 -0.0026076183003176218 0.0029377538157644733 0 -0.0026913888388575753 0.0028659377283774957 0 -0.0026913888388575753 0.0028659377283774957 0 -0.0028760708073983505 0.0028119274993248984 0 -0.0027646170108680977 0.002576283320666826 0 -0.0026913888388575753 0.0028659377283774957 0 -0.00275011676664671 0.0030042561923028554 0 -0.0028760708073983505 0.0028119274993248984 0 -0.002669223420553435 0.0025431786082987513 0 -0.0027202887999220253 0.0022382351163326114 0 -0.0027864969525405142 0.0024488940634330917 0 -0.0027252073131977242 0.0027697928688904649 0 -0.002800263567916923 0.0025243401989716065 0 -0.0028760708073983505 0.0028119274993248984 0 -0.0027646170108680977 0.002576283320666826 0 -0.0029849323144128747 0.0024920618455552663 0 -0.0027646170108680977 0.002576283320666826 0 -0.0026170782528024961 0.0025132951572334585 0 -0.0028087322941520603 0.0023139376542477301 0 -0.0027646170108680977 0.002576283320666826 0 -0.0029849323144128747 0.0024920618455552663 0 -0.0029005323247398526 0.0022929390627963457 0 -0.0027646170108680977 0.002576283320666826 0 -0.0028087322941520603 0.0023139376542477301 0 -0.0029005323247398526 0.0022929390627963457 0 -0.002505805254730477 0.0029404235599573975 0 -0.0026076183003176218 0.0029377538157644733 0 -0.0025840355120206834 0.00277305754556538 0 -0.0024515832290153824 0.0027560963588742415 0 -0.002505805254730477 0.0029404235599573975 0 -0.0025840355120206834 0.00277305754556538 0 -0.0026913888388575753 0.0028659377283774957 0 -0.0027646170108680977 0.002576283320666826 0 -0.0025840355120206834 0.00277305754556538 0 -0.0027646170108680977 0.002576283320666826 0 -0.0025840355120206834 0.00277305754556538 0 -0.0026170782528024961 0.0025132951572334585 0 -0.0024515832290153824 0.0027560963588742415 0 -0.0025840355120206834 0.00277305754556538 0 -0.0026170782528024961 0.0025132951572334585 0 -0.0024515832290153824 0.0027560963588742415 0 -0.0026170782528024961 0.0025132951572334585 0 -0.002485311774686012 0.0024061670867967294 0 -0.0026170782528024961 0.0025132951572334585 0 -0.0026202143871690967 0.0022677849154069075 0 -0.00272263168448827 0.0022649896920377095 0 -0.0026170782528024961 0.0025132951572334585 0 -0.0026202143871690967 0.0022677849154069075 0 -0.002485311774686012 0.0024061670867967294 0 -0.0024821681383254061 0.0021401509644901257 0 -0.0026202143871690967 0.0022677849154069075 0 -0.002485311774686012 0.0024061670867967294 0 -0.0028087322941520603 0.0023139376542477301 0 -0.002837168191662986 0.0021162423515004697 0 -0.0029158931758201975 0.0021052223058124031 0 -0.0028087322941520603 0.0023139376542477301 0 -0.0029158931758201975 0.0021052223058124031 0 -0.0029005323247398526 0.0022929390627963457 0 -0.0028087322941520603 0.0023139376542477301 0 -0.00272263168448827 0.0022649896920377095 0 -0.002837168191662986 0.0021162423515004697 0 -0.0026170782528024961 0.0025132951572334585 0 -0.0028087322941520603 0.0023139376542477301 0 -0.00272263168448827 0.0022649896920377095 0 -0.0027380605228428051 0.002096296484414009 0 -0.00272263168448827 0.0022649896920377095 0 -0.002837168191662986 0.0021162423515004697 0 -0.0027380605228428051 0.002096296484414009 0 -0.0026202143871690967 0.0022677849154069075 0 -0.00272263168448827 0.0022649896920377095 0 -0.0028655373743631416 0.0019484568314261923 0 -0.002837168191662986 0.0021162423515004697 0 -0.0029144464217617985 0.0019904095292228299 0 -0.002837168191662986 0.0021162423515004697 0 -0.0029144464217617985 0.0019904095292228299 0 -0.0029158931758201975 0.0021052223058124031 0 -0.002947391914169237 0.0018800276607246083 0 -0.0029144464217617985 0.0019904095292228299 0 -0.002954420051543275 0.0019257362258875879 0 -0.0029144464217617985 0.0019904095292228299 0 -0.0029158931758201975 0.0021052223058124031 0 -0.002954420051543275 0.0019257362258875879 0 -0.0029158931758201975 0.0021052223058124031 0 -0.0029005323247398526 0.0022929390627963457 0 -0.002953049731736334 0.0020102147149803572 0 -0.002954420051543275 0.0019257362258875879 0 -0.0029666698869846371 0.0018149116322563317 0 -0.002953049731736334 0.0020102147149803572 0 -0.0029158931758201975 0.0021052223058124031 0 -0.002954420051543275 0.0019257362258875879 0 -0.002953049731736334 0.0020102147149803572 0 -0.0029794995857322371 0.0018062671808722328 0 -0.002954420051543275 0.0019257362258875879 0 -0.0029666698869846371 0.0018149116322563317 0 -0.0029889688324556268 0.0016884658360277786 0 -0.0029666698869846371 0.0018149116322563317 0 -0.002940437513725731 0.0017233418131848677 0 -0.0029889688324556268 0.0016884658360277786 0 -0.0029569061648686296 0.0015094126081184156 0 -0.002940437513725731 0.0017233418131848677 0 -0.0029569061648686296 0.0015094126081184156 0 -0.0029200995672314729 0.0016410159359595813 0 -0.002940437513725731 0.0017233418131848677 0 -0.0029200995672314729 0.0016410159359595813 0 -0.002940437513725731 0.0017233418131848677 0 -0.0029236046196094039 0.0018579165721374861 0 -0.0029666698869846371 0.0018149116322563317 0 -0.002940437513725731 0.0017233418131848677 0 -0.002953049731736334 0.0020102147149803572 0 -0.002940437513725731 0.0017233418131848677 0 -0.0029236046196094039 0.0018579165721374861 0 -0.002953049731736334 0.0020102147149803572 0 -0.0029236046196094039 0.0018579165721374861 0 -0.0029210695796206393 0.00197887351602191 0 -0.002953049731736334 0.0020102147149803572 0 -0.0029200995672314729 0.0016410159359595813 0 -0.0029236046196094039 0.0018579165721374861 0 -0.0029529888034666822 0.001868634130440641 0 -0.0029236046196094039 0.0018579165721374861 0 -0.0029210695796206393 0.00197887351602191 0 -0.0029529888034666822 0.001868634130440641 0 -0.0029529888034666822 0.001868634130440641 0 -0.0029863929392289976 0.0019555804822505261 0 -0.0029595975854265623 0.0020083638854834743 0 -0.0029210695796206393 0.00197887351602191 0 -0.0029529888034666822 0.001868634130440641 0 -0.0029595975854265623 0.0020083638854834743 0 -0.0028952527543544731 0.002066018821762577 0 -0.0028326646434458096 0.0020463189931850751 0 -0.002953049731736334 0.0020102147149803572 0 -0.0029210695796206393 0.00197887351602191 0 -0.0028952527543544731 0.002066018821762577 0 -0.002953049731736334 0.0020102147149803572 0 -0.002800263567916923 0.0025243401989716065 0 -0.0028951835599780873 0.0022726937593432668 0 -0.0029849323144128747 0.0024920618455552663 0 -0.0029005323247398526 0.0022929390627963457 0 -0.002953049731736334 0.0020102147149803572 0 -0.0028951835599780873 0.0022726937593432668 0 -0.0029504646179743851 0.0020573880816045545 0 -0.0019969024126490239 -0.0029924125131126963 0 -0.0025025979471195669 -0.0038681911856676553 0 -0.0023436690927887208 -0.0041729681642587169 0 -0.0028086110791472199 -0.0038738328290401558 0 -0.002661215972710883 -0.0029059187841554315 0 -0.0019969024126490239 -0.0029924125131126963 0 -0.0028086110791472199 -0.0038738328290401558 0 -0.0019969024126490239 -0.0029924125131126963 0 -0.0025025979471195669 -0.0038681911856676553 0 -0.0019458485359888545 -0.0046027310480421246 0 -0.0019969024126490239 -0.0029924125131126963 0 -0.0023436690927887208 -0.0041729681642587169 0 -0.0020481545273475779 -0.0022421996074503342 0 -0.0020417047089589337 -0.0028019844310819366 0 -0.0027090957055708165 -0.0042367834997354041 0 -0.0025025979471195669 -0.0038681911856676553 0 -0.0023436690927887208 -0.0041729681642587169 0 -0.0024472042733163679 -0.0046266623333121584 0 -0.0027090957055708165 -0.0042367834997354041 0 -0.0023436690927887208 -0.0041729681642587169 0 -0.0023505096257638095 0.00064960907756660266 0 -0.0019969024126490239 -0.0029924125131126963 0 -0.0033048758641708088 0.00038816786813482913 0 -0.0032988636980725706 0.00028662747452743137 0 -0.0030651082835964102 -0.00050606090493667563 0 -0.0019969024126490239 -0.0029924125131126963 0 -0.0033048758641708088 0.00038816786813482913 0 -0.0028654212308361088 -0.002726831162835972 0 -0.0019969024126490239 -0.0029924125131126963 0 -0.0028654212308361088 -0.002726831162835972 0 -0.0022088964760254588 -0.0028165938157383684 0 -0.003387242815487431 0.0015505547782819792 0 -0.0031011348347797056 0.0012478031277495972 0 -0.002997533024653241 0.0016502661174972342 0 -0.0031011348347797056 0.0012478031277495972 0 -0.0029232716328827942 0.0012139896838876661 0 -0.002997533024653241 0.0016502661174972342 0 -0.0033048758641708088 0.00038816786813482913 0 -0.003387242815487431 0.0015505547782819792 0 -0.0031011348347797056 0.0012478031277495972 0 -0.0033048758641708088 0.00038816786813482913 0 -0.0031011348347797056 0.0012478031277495972 0 -0.0029232716328827942 0.0012139896838876661 0 -0.0031482430198992491 0.00075371872746598156 0 -0.0033048758641708088 0.00038816786813482913 0 -0.0029232716328827942 0.0012139896838876661 0 -0.0029569061648686296 0.0015094126081184156 0 -0.0029200995672314729 0.0016410159359595813 0 -0.0029232716328827942 0.0012139896838876661 0 -0.0029200995672314729 0.0016410159359595813 0 -0.0029232716328827942 0.0012139896838876661 0 -0.002997533024653241 0.0016502661174972342 0 -0.0029200995672314729 0.0016410159359595813 0 -0.002997533024653241 0.0016502661174972342 0 -0.0029529888034666822 0.001868634130440641 0 -0.002997533024653241 0.0016502661174972342 0 -0.0029529888034666822 0.001868634130440641 0 -0.0030424211732522125 0.0019288223810042348 0 -0.0029529888034666822 0.001868634130440641 0 -0.0030424211732522125 0.0019288223810042348 0 -0.0029863929392289976 0.0019555804822505261 0 -0.0030424211732522125 0.0019288223810042348 0 -0.0031403559751868953 0.0017734313760207952 0 -0.0031363026287274777 0.0018689778858732467 0 -0.002997533024653241 0.0016502661174972342 0 -0.0030424211732522125 0.0019288223810042348 0 -0.0031403559751868953 0.0017734313760207952 0 -0.003387242815487431 0.0015505547782819792 0 -0.002997533024653241 0.0016502661174972342 0 -0.0031403559751868953 0.0017734313760207952 0 -0.0030651082835964102 -0.00050606090493667563 0 -0.0025399023747795751 -0.00022582593092472769 0 -0.0028654212308361088 -0.002726831162835972 0 -0.0018338673999002146 -0.0023819557460546584 0 -0.0022088964760254588 -0.0028165938157383684 0 -0.003387242815487431 0.0015505547782819792 0 -0.0031403559751868953 0.0017734313760207952 0 -0.0031363026287274777 0.0018689778858732467 0 -0.0030424211732522125 0.0019288223810042348 0 -0.0031363026287274777 0.0018689778858732467 0 -0.0028953573009868039 0.0019588198556427109 0 -0.0028867809288974926 -0.0021441038869543807 0 -0.0018338673999002146 -0.0023819557460546584 0 -0.0027640976375397307 -0.0011226581885577596 0 -0.0028867809288974926 -0.0021441038869543807 0 -0.0018338673999002146 -0.0023819557460546584 0 -0.0022088964760254588 -0.0028165938157383684 0 -0.002661215972710883 -0.0029059187841554315 0 -0.0028867809288974926 -0.0021441038869543807 0 -0.0022088964760254588 -0.0028165938157383684 0 -0.002661215972710883 -0.0029059187841554315 0 -0.0019969024126490239 -0.0029924125131126963 0 -0.0022088964760254588 -0.0028165938157383684 0 -0.0018856140194808489 -0.00053197114367320734 0 -0.0025400445760640506 0.0014224703841451279 0 -0.003156296136413648 0.0010646003424043522 0 -0.0033946481782017837 0.00012910739894268493 0 -0.0018856140194808489 -0.00053197114367320734 0 -0.003156296136413648 0.0010646003424043522 0 -0.0033946481782017837 0.00012910739894268493 0 -0.0027640976375397307 -0.0011226581885577596 0 -0.0018856140194808489 -0.00053197114367320734 0 -0.0018338673999002146 -0.0023819557460546584 0 -0.0027640976375397307 -0.0011226581885577596 0 -0.0018856140194808489 -0.00053197114367320734 0 -0.0025399023747795751 -0.00022582593092472769 0 -0.0024120100561353429 0.0006892445948670831 0 -0.0028953573009868039 0.0019588198556427109 0 -0.0027894259986991333 0.0016580297861005567 0 -0.0025400445760640506 0.0014224703841451279 0 -0.0028953573009868039 0.0019588198556427109 0 -0.0029281488194105565 0.0018331290269795889 0 -0.0029871125067920984 0.0019453594335010719 0 -0.0028953573009868039 0.0019588198556427109 0 -0.0029281488194105565 0.0018331290269795889 0 -0.0027894259986991333 0.0016580297861005567 0 -0.0024120100561353429 0.0006892445948670831 0 -0.0025158207085585185 0.001346889726975263 0 -0.0029281488194105565 0.0018331290269795889 0 -0.0029871125067920984 0.0019453594335010719 0 -0.0029919329141782124 0.0019700979259202125 0 -0.0030424211732522125 0.0019288223810042348 0 -0.0028953573009868039 0.0019588198556427109 0 -0.0029871125067920984 0.0019453594335010719 0 -0.0030424211732522125 0.0019288223810042348 0 -0.0029871125067920984 0.0019453594335010719 0 -0.0029933408642816976 0.0019900085545337038 0 -0.0029863929392289976 0.0019555804822505261 0 -0.0029933408642816976 0.0019900085545337038 0 -0.0029595975854265623 0.0020083638854834743 0 -0.0030424211732522125 0.0019288223810042348 0 -0.0029863929392289976 0.0019555804822505261 0 -0.0029933408642816976 0.0019900085545337038 0 -0.0029871125067920984 0.0019453594335010719 0 -0.0029933408642816976 0.0019900085545337038 0 -0.0029919329141782124 0.0019700979259202125 0 -0.0029933408642816976 0.0019900085545337038 0 -0.0029919329141782124 0.0019700979259202125 0 -0.0029752377527046555 0.0020573001671629291 0 -0.002969429794315236 0.0018909203257980202 0 -0.0029839036718512274 0.0020976074696054379 0 -0.0029927217526463262 0.0022799349084517842 0 -0.0029919329141782124 0.0019700979259202125 0 -0.002969429794315236 0.0018909203257980202 0 -0.0029839036718512274 0.0020976074696054379 0 -0.0027864320535914418 0.0018250555508072552 0 -0.0027502650099819215 0.0021899699044024105 0 -0.0029625965647393994 0.0017202300241465802 0 -0.002969429794315236 0.0018909203257980202 0 -0.0031652763875797169 0.0016970653993716182 0 -0.0031071128573290922 0.0018250484353458114 0 -0.0027502650099819215 0.0021899699044024105 0 -0.0025582627435301896 0.0019844978153348665 0 -0.0027677807716071216 0.0017622341764800388 0 -0.002668093729044114 0.0020189254947851885 0 -0.0029625965647393994 0.0017202300241465802 0 -0.0028308512760520429 0.0017628849241302471 0 -0.002969429794315236 0.0018909203257980202 0 -0.0027864320535914418 0.0018250555508072552 0 -0.00277489320385029 0.0017860346716175703 0 -0.0029625965647393994 0.0017202300241465802 0 -0.0028308512760520429 0.0017628849241302471 0 -0.0027677807716071216 0.0017622341764800388 0 -0.0029281488194105565 0.0018331290269795889 0 -0.0029919329141782124 0.0019700979259202125 0 -0.002969429794315236 0.0018909203257980202 0 -0.0029281488194105565 0.0018331290269795889 0 -0.0028308512760520429 0.0017628849241302471 0 -0.002969429794315236 0.0018909203257980202 0 -0.0029281488194105565 0.0018331290269795889 0 -0.0028308512760520429 0.0017628849241302471 0 -0.0027894259986991333 0.0016580297861005567 0 -0.0027894259986991333 0.0016580297861005567 0 -0.0027204250953161754 0.0016306938984881056 0 -0.0025400445760640506 0.0014224703841451279 0 -0.0028308512760520429 0.0017628849241302471 0 -0.0027894259986991333 0.0016580297861005567 0 -0.0027204250953161754 0.0016306938984881056 0 -0.0028308512760520429 0.0017628849241302471 0 -0.0027204250953161754 0.0016306938984881056 0 -0.0027677807716071216 0.0017622341764800388 0 -0.0027677807716071216 0.0017622341764800388 0 -0.0028223858472537838 0.0017715974334635528 0 -0.0028191218019118251 0.0019678557897818126 0 -0.0027204250953161754 0.0016306938984881056 0 -0.0027677807716071216 0.0017622341764800388 0 -0.0028223858472537838 0.0017715974334635528 0 -0.0027204250953161754 0.0016306938984881056 0 -0.0028223858472537838 0.0017715974334635528 0 -0.0027866713338719016 0.0016027402405788679 0 -0.0028223858472537838 0.0017715974334635528 0 -0.0027866713338719016 0.0016027402405788679 0 -0.003003440223700317 0.0019620962969357195 0 -0.0028364420851580362 0.0016425973595508435 0 -0.0029769321861184929 0.0021091624690359671 0 -0.0030988927451112867 0.0019235938564545892 0 -0.0027866713338719016 0.0016027402405788679 0 -0.0029996256960391739 0.0022893606672246881 0 -0.0030988927451112867 0.0019235938564545892 0 -0.0031952660782244876 0.0021847787240158608 0 -0.0029996256960391739 0.0022893606672246881 0 -0.003363361422290215 0.0018624896196161673 0 -0.0030988927451112867 0.0019235938564545892 0 -0.0031952660782244876 0.0021847787240158608 0 -0.0032282762728490506 0.0015769980496150328 0 -0.0030988927451112867 0.0019235938564545892 0 -0.0027866713338719016 0.0016027402405788679 0 -0.0032282762728490506 0.0015769980496150328 0 -0.0027866713338719016 0.0016027402405788679 0 -0.003156296136413648 0.0010646003424043522 0 -0.0027204250953161754 0.0016306938984881056 0 -0.0027866713338719016 0.0016027402405788679 0 -0.0025400445760640506 0.0014224703841451279 0 -0.0027866713338719016 0.0016027402405788679 0 -0.0025400445760640506 0.0014224703841451279 0 -0.003156296136413648 0.0010646003424043522 0 -0.0028571383758651718 0.0022182962039889254 0 -0.0029367663696013421 0.0021319149764063858 0 -0.002857676256882278 0.0023491499036119223 0 -0.0027202887999220253 0.0022382351163326114 0 -0.0027864969525405142 0.0024488940634330917 0 -0.0028571383758651718 0.0022182962039889254 0 -0.0027864969525405142 0.0024488940634330917 0 -0.0028571383758651718 0.0022182962039889254 0 -0.002857676256882278 0.0023491499036119223 0 -0.0028952527543544731 0.002066018821762577 0 -0.0028326646434458096 0.0020463189931850751 0 -0.0028571383758651718 0.0022182962039889254 0 -0.0027202887999220253 0.0022382351163326114 0 -0.0028326646434458096 0.0020463189931850751 0 -0.0028571383758651718 0.0022182962039889254 0 -0.0028952527543544731 0.002066018821762577 0 -0.0028571383758651718 0.0022182962039889254 0 -0.0029367663696013421 0.0021319149764063858 0 -0.0029210695796206393 0.00197887351602191 0 -0.0028952527543544731 0.002066018821762577 0 -0.0029367663696013421 0.0021319149764063858 0 -0.0029210695796206393 0.00197887351602191 0 -0.0029595975854265623 0.0020083638854834743 0 -0.0029367663696013421 0.0021319149764063858 0 -0.0029933408642816976 0.0019900085545337038 0 -0.0029595975854265623 0.0020083638854834743 0 -0.0029752377527046555 0.0020573001671629291 0 -0.0029595975854265623 0.0020083638854834743 0 -0.0029752377527046555 0.0020573001671629291 0 -0.0029367663696013421 0.0021319149764063858 0 -0.0029752377527046555 0.0020573001671629291 0 -0.0029367663696013421 0.0021319149764063858 0 -0.0029839036718512274 0.0020976074696054379 0 -0.0029919329141782124 0.0019700979259202125 0 -0.0029752377527046555 0.0020573001671629291 0 -0.0029839036718512274 0.0020976074696054379 0 -0.0029367663696013421 0.0021319149764063858 0 -0.0029181900196476019 0.0022903155112632247 0 -0.002857676256882278 0.0023491499036119223 0 -0.0029367663696013421 0.0021319149764063858 0 -0.0029181900196476019 0.0022903155112632247 0 -0.0029839036718512274 0.0020976074696054379 0 -0.0029181900196476019 0.0022903155112632247 0 -0.0029839036718512274 0.0020976074696054379 0 -0.0029927217526463262 0.0022799349084517842 0 -0.0029181900196476019 0.0022903155112632247 0 -0.0028342325285095021 0.0024520235173730639 0 -0.0028990488399504716 0.0024543504795348334 0 -0.0029181900196476019 0.0022903155112632247 0 -0.0029927217526463262 0.0022799349084517842 0 -0.0028990488399504716 0.0024543504795348334 0 -0.0027502650099819215 0.0021899699044024105 0 -0.0027022265629723223 0.0025743104790611109 0 -0.0028342325285095021 0.0024520235173730639 0 -0.0027251843621088076 0.0026322079427715099 0 -0.0028990488399504716 0.0024543504795348334 0 -0.0029181900196476019 0.0022903155112632247 0 -0.0028342325285095021 0.0024520235173730639 0 -0.002857676256882278 0.0023491499036119223 0 -0.0028342325285095021 0.0024520235173730639 0 -0.002857676256882278 0.0023491499036119223 0 -0.0027779710075422227 0.0025645539367897463 0 -0.0027864969525405142 0.0024488940634330917 0 -0.002857676256882278 0.0023491499036119223 0 -0.0027779710075422227 0.0025645539367897463 0 -0.0027779710075422227 0.0025645539367897463 0 -0.0027251843621088076 0.0026322079427715099 0 -0.0027465768837672115 0.0027141015353293395 0 -0.0028342325285095021 0.0024520235173730639 0 -0.0027779710075422227 0.0025645539367897463 0 -0.0027251843621088076 0.0026322079427715099 0 -0.0027251843621088076 0.0026322079427715099 0 -0.0027082246631833953 0.0025888280138413309 0 -0.0027465768837672115 0.0027141015353293395 0 -0.0027251843621088076 0.0026322079427715099 0 -0.0027082246631833953 0.0025888280138413309 0 -0.0026301888162199465 0.0025772084387515395 0 -0.0027082246631833953 0.0025888280138413309 0 -0.0026014488306467108 0.0024486075725575077 0 -0.0027292252890728421 0.0024394007352498289 0 -0.0027082246631833953 0.0025888280138413309 0 -0.0026014488306467108 0.0024486075725575077 0 -0.0026301888162199465 0.0025772084387515395 0 -0.0026014488306467108 0.0024486075725575077 0 -0.0026301888162199465 0.0025772084387515395 0 -0.0025402080502710616 0.0025759608149026349 0 -0.0026265725561319701 0.0024139625473217543 0 -0.0024217480350741854 0.0024985644292985693 0 -0.0026014488306467108 0.0024486075725575077 0 -0.0024165747173283793 0.0023428769884033672 0 -0.0024584734399931327 0.0023637345636548478 0 -0.0027251843621088076 0.0026322079427715099 0 -0.0026301888162199465 0.0025772084387515395 0 -0.002549006719724977 0.0026469864988345679 0 -0.0026301888162199465 0.0025772084387515395 0 -0.002549006719724977 0.0026469864988345679 0 -0.0025402080502710616 0.0025759608149026349 0 -0.0027209905864509698 0.0026103454827710042 0 -0.0027022265629723223 0.0025743104790611109 0 -0.0027502650099819215 0.0021899699044024105 0 -0.0024217480350741854 0.0024985644292985693 0 -0.002445392207967119 0.0026528026215760165 0 -0.002549006719724977 0.0026469864988345679 0 -0.0025402080502710616 0.0025759608149026349 0 -0.0024212703937179273 0.0021291056083986596 0 -0.0024237803391039753 0.0022987160895913167 0 -0.0025259655908242795 0.0021842674177079665 0 -0.0024212703937179273 0.0021291056083986596 0 -0.0024165747173283793 0.0023428769884033672 0 -0.0024237803391039753 0.0022987160895913167 0 -0.0024237803391039753 0.0022987160895913167 0 -0.0024276743545832559 0.0023568808743188287 0 -0.0024348959531761147 0.0023848314488766208 0 -0.0024237803391039753 0.0022987160895913167 0 -0.0024277278497305869 0.0023416863677033915 0 -0.0024276743545832559 0.0023568808743188287 0 -0.0024165747173283793 0.0023428769884033672 0 -0.0024277278497305869 0.0023416863677033915 0 -0.0024584734399931327 0.0023637345636548478 0 -0.0024165747173283793 0.0023428769884033672 0 -0.0024237803391039753 0.0022987160895913167 0 -0.0024277278497305869 0.0023416863677033915 0 -0.0024584734399931327 0.0023637345636548478 0 -0.0024276743545832559 0.0023568808743188287 0 -0.0024257744390563996 0.0023219422653959266 0 -0.0024584734399931327 0.0023637345636548478 0 -0.0024257744390563996 0.0023219422653959266 0 -0.0024854244495648645 0.0023091317955717537 0 -0.0024277278497305869 0.0023416863677033915 0 -0.0024584734399931327 0.0023637345636548478 0 -0.0024276743545832559 0.0023568808743188287 0 -0.002242454877758062 0.0024309157439761997 0 -0.0024176491178285985 0.0024087621822104807 0 -0.0024276743545832559 0.0023568808743188287 0 -0.0024257744390563996 0.0023219422653959266 0 -0.0024348959531761147 0.0023848314488766208 0 -0.00209810190280186 0.0026975852992512086 0 -0.0024348959531761147 0.0023848314488766208 0 -0.002418001695578337 0.0027823357362412879 0 -0.00209810190280186 0.0026975852992512086 0 -0.0017989390149608893 0.0030158275339882416 0 -0.0021862011960692095 0.0029992256060698422 0 -0.00209810190280186 0.0026975852992512086 0 -0.002418001695578337 0.0027823357362412879 0 -0.0021862011960692095 0.0029992256060698422 0 -0.002242454877758062 0.0024309157439761997 0 -0.0026021772932584143 0.0033097004146397579 0 -0.0024257744390563996 0.0023219422653959266 0 -0.0024854244495648645 0.0023091317955717537 0 -0.0024855538144075468 0.00224506512608266 0 -0.0028812670852233261 0.0030050290995231065 0 -0.0026021772932584143 0.0033097004146397579 0 -0.0024854244495648645 0.0023091317955717537 0 -0.0025777807586430859 0.0023050378478143077 0 -0.0024855538144075468 0.00224506512608266 0 -0.0031398597492335667 0.0037608466571194639 0 -0.0030763457359850974 0.003798606842145019 0 -0.0031117541364638649 0.0036573481672270481 0 -0.0031398597492335667 0.0037608466571194639 0 -0.0030763457359850974 0.003798606842145019 0 -0.0031081446331299688 0.0038410663081010327 0 -0.0026014488306467108 0.0024486075725575077 0 -0.0025777807586430859 0.0023050378478143077 0 -0.0027292252890728421 0.0024394007352498289 0 -0.0028812670852233261 0.0030050290995231065 0 -0.002913787767374075 0.0030489015281093173 0 -0.0024584734399931327 0.0023637345636548478 0 -0.0024854244495648645 0.0023091317955717537 0 -0.0025777807586430859 0.0023050378478143077 0 -0.0026014488306467108 0.0024486075725575077 0 -0.0024584734399931327 0.0023637345636548478 0 -0.0025777807586430859 0.0023050378478143077 0 -0.0030223706614294944 0.0022183753767059215 0 -0.0029769321861184929 0.0021091624690359671 0 -0.0029680630064959977 0.0021076442610669433 0 -0.0029697439766000039 0.0022485576990769265 0 -0.0029996256960391739 0.0022893606672246881 0 -0.0030806688490937245 0.0023363989061772968 0 -0.003003440223700317 0.0019620962969357195 0 -0.0029010306805528035 0.0021596148263869903 0 -0.0027514608722426954 0.0019300882527162543 0 -0.0029680630064959977 0.0021076442610669433 0 -0.0028544912136337663 0.0021479121408156201 0 -0.0027736982796966207 0.002234515728921515 0 -0.0028544912136337663 0.0021479121408156201 0 -0.0029697439766000039 0.0022485576990769265 0 -0.0029680630064959977 0.0021076442610669433 0 -0.0028544912136337663 0.0021479121408156201 0 -0.0029697439766000039 0.0022485576990769265 0 -0.0028972017649424127 0.0023928547146676847 0 -0.0030530346773983887 0.0022605372606323191 0 -0.0033778078550837699 0.0023439035283930906 0 -0.0029697439766000039 0.0022485576990769265 0 -0.0031952660782244876 0.0021847787240158608 0 -0.0029697439766000039 0.0022485576990769265 0 -0.0031952660782244876 0.0021847787240158608 0 -0.0029996256960391739 0.0022893606672246881 0 -0.003003440223700317 0.0019620962969357195 0 -0.0028191218019118251 0.0019678557897818126 0 -0.0029010306805528035 0.0021596148263869903 0 -0.0028223858472537838 0.0017715974334635528 0 -0.003003440223700317 0.0019620962969357195 0 -0.0028191218019118251 0.0019678557897818126 0 -0.0027677807716071216 0.0017622341764800388 0 -0.0028191218019118251 0.0019678557897818126 0 -0.002668093729044114 0.0020189254947851885 0 -0.0028191218019118251 0.0019678557897818126 0 -0.002731394256210298 0.0021739147351369312 0 -0.002668093729044114 0.0020189254947851885 0 -0.0028191218019118251 0.0019678557897818126 0 -0.0029010306805528035 0.0021596148263869903 0 -0.002731394256210298 0.0021739147351369312 0 -0.0029010306805528035 0.0021596148263869903 0 -0.002731394256210298 0.0021739147351369312 0 -0.0028770759804132287 0.0023829082881679712 0 -0.0030806688490937245 0.0023363989061772968 0 -0.0029010306805528035 0.0021596148263869903 0 -0.0028770759804132287 0.0023829082881679712 0 -0.002731394256210298 0.0021739147351369312 0 -0.0026531419734705957 0.0023702513489748862 0 -0.0028770759804132287 0.0023829082881679712 0 -0.002731394256210298 0.0021739147351369312 0 -0.0025259655908242795 0.0021842674177079665 0 -0.0026531419734705957 0.0023702513489748862 0 -0.002731394256210298 0.0021739147351369312 0 -0.002668093729044114 0.0020189254947851885 0 -0.0025259655908242795 0.0021842674177079665 0 -0.0025582627435301896 0.0019844978153348665 0 -0.002668093729044114 0.0020189254947851885 0 -0.0025259655908242795 0.0021842674177079665 0 -0.0025582627435301896 0.0019844978153348665 0 -0.0024212703937179273 0.0021291056083986596 0 -0.0025259655908242795 0.0021842674177079665 0 -0.0025259655908242795 0.0021842674177079665 0 -0.0024348959531761147 0.0023848314488766208 0 -0.0026531419734705957 0.0023702513489748862 0 -0.0024237803391039753 0.0022987160895913167 0 -0.0025259655908242795 0.0021842674177079665 0 -0.0024348959531761147 0.0023848314488766208 0 -0.0024348959531761147 0.0023848314488766208 0 -0.002595312547190681 0.0025765849580695931 0 -0.0026531419734705957 0.0023702513489748862 0 -0.0024348959531761147 0.0023848314488766208 0 -0.002418001695578337 0.0027823357362412879 0 -0.002595312547190681 0.0025765849580695931 0 -0.002418001695578337 0.0027823357362412879 0 -0.0027341181439914939 0.0028734624219385434 0 -0.002595312547190681 0.0025765849580695931 0 -0.0027341181439914939 0.0028734624219385434 0 -0.002595312547190681 0.0025765849580695931 0 -0.0028270073280114378 0.0026175533197414771 0 -0.002595312547190681 0.0025765849580695931 0 -0.0026531419734705957 0.0023702513489748862 0 -0.0028270073280114378 0.0026175533197414771 0 -0.0026531419734705957 0.0023702513489748862 0 -0.0028270073280114378 0.0026175533197414771 0 -0.0028770759804132287 0.0023829082881679712 0 -0.0028270073280114378 0.0026175533197414771 0 -0.0028770759804132287 0.0023829082881679712 0 -0.0031412775358503312 0.002709427656083421 0 -0.0027341181439914939 0.0028734624219385434 0 -0.0028270073280114378 0.0026175533197414771 0 -0.0029718604318204386 0.0028910051043215005 0 -0.0028270073280114378 0.0026175533197414771 0 -0.0031412775358503312 0.002709427656083421 0 -0.0029718604318204386 0.0028910051043215005 0 -0.0025870595428303124 0.001488684192593754 0 -0.0028982898311516975 0.001622188586628708 0 -0.0026979251041476518 0.0013663795188059854 0 -0.0027514608722426954 0.0019300882527162543 0 -0.0029680630064959977 0.0021076442610669433 0 -0.0028982898311516975 0.001622188586628708 0 -0.0030223706614294944 0.0022183753767059215 0 -0.0030348789626207695 0.0022200026769921854 0 -0.0030806688490937245 0.0023363989061772968 0 -0.0028770759804132287 0.0023829082881679712 0 -0.0031412775358503312 0.002709427656083421 0 -0.0026338973923885397 0.0011542204459968738 0 -0.0026796474985707583 0.0011778260088498302 0 -0.0026190104752736409 0.0011651851753355436 0 -0.002731530071576596 0.0013675401095149834 0 -0.0027512155220482492 0.0019905173467524209 0 -0.0026338973923885397 0.0011542204459968738 0 -0.0026796474985707583 0.0011778260088498302 0 -0.0026613362350298864 0.0012134761578381852 0 -0.0026796474985707583 0.0011778260088498302 0 -0.0026613362350298864 0.0012134761578381852 0 -0.0027582135333877925 0.0012578041330666464 0 -0.0031412775358503312 0.002709427656083421 0 -0.0031780439180363628 0.003114643078613903 0 -0.0029718604318204386 0.0028910051043215005 0 -0.0028982898311516975 0.001622188586628708 0 -0.0026979251041476518 0.0013663795188059854 0 -0.0027582135333877925 0.0012578041330666464 0 -0.0030348789626207695 0.0022200026769921854 0 -0.0027512155220482492 0.0019905173467524209 0 -0.0026613362350298864 0.0012134761578381852 0 -0.0026979251041476518 0.0013663795188059854 0 -0.0027582135333877925 0.0012578041330666464 0 -0.0031780439180363628 0.003114643078613903 0 -0.0029718604318204386 0.0028910051043215005 0 -0.0028627425770760264 0.0030971308313238496 0 -0.0027341181439914939 0.0028734624219385434 0 -0.0029718604318204386 0.0028910051043215005 0 -0.0028627425770760264 0.0030971308313238496 0 -0.0031780439180363628 0.003114643078613903 0 -0.0028627425770760264 0.0030971308313238496 0 -0.0028461464180895798 0.003407560785641593 0 -0.0026796474985707583 0.0011778260088498302 0 -0.002555777288621859 0.0011463667035095681 0 -0.0026190104752736409 0.0011651851753355436 0 -0.0027512155220482492 0.0019905173467524209 0 -0.0027175055501347835 0.0022948271610285422 0 -0.0026796474985707583 0.0011778260088498302 0 -0.0026832808296548783 0.0011596453397736944 0 -0.002555777288621859 0.0011463667035095681 0 -0.0028627425770760264 0.0030971308313238496 0 -0.0028461464180895798 0.003407560785641593 0 -0.0025268291796818249 0.0031808938863769399 0 -0.0028461464180895798 0.003407560785641593 0 -0.0025725324078788594 0.0034587555220225593 0 -0.0025268291796818249 0.0031808938863769399 0 -0.0027341181439914939 0.0028734624219385434 0 -0.0028627425770760264 0.0030971308313238496 0 -0.0025268291796818249 0.0031808938863769399 0 -0.002418001695578337 0.0027823357362412879 0 -0.0027341181439914939 0.0028734624219385434 0 -0.0025268291796818249 0.0031808938863769399 0 -0.002418001695578337 0.0027823357362412879 0 -0.0025268291796818249 0.0031808938863769399 0 -0.0021862011960692095 0.0029992256060698422 0 -0.0025268291796818249 0.0031808938863769399 0 -0.0024058885936079966 0.0034113087276714782 0 -0.0020882559997683955 0.003320075242486723 0 -0.0025725324078788594 0.0034587555220225593 0 -0.0025268291796818249 0.0031808938863769399 0 -0.0024058885936079966 0.0034113087276714782 0 -0.0024402105334778417 0.0036751572780851327 0 -0.0024619516244014242 0.0036748445624053324 0 -0.0026000463179428994 0.0035203001009268082 0 -0.0025725324078788594 0.0034587555220225593 0 -0.0024058885936079966 0.0034113087276714782 0 -0.0024402105334778417 0.0036751572780851327 0 -0.0025725324078788594 0.0034587555220225593 0 -0.0024402105334778417 0.0036751572780851327 0 -0.0024619516244014242 0.0036748445624053324 0 -0.0023993233929173194 0.0012358376890904996 0 -0.002428278625327609 0.0012076234037711768 0 -0.0023363400647694898 0.0012223858794686137 0 -0.0024606979130976487 0.0024103183344572664 0 -0.0024470258011088106 0.0023976864128687704 0 -0.0024400278475270537 0.0011692798692308104 0 -0.002428278625327609 0.0012076234037711768 0 -0.0023363400647694898 0.0012223858794686137 0 -0.002428278625327609 0.0012076234037711768 0 -0.0024831318706094617 0.001200214869833418 0 -0.0024506277676926377 0.0012335969276064138 0 -0.0023993233929173194 0.0012358376890904996 0 -0.002428278625327609 0.0012076234037711768 0 -0.0024506277676926377 0.0012335969276064138 0 -0.0024400278475270537 0.0011692798692308104 0 -0.002428278625327609 0.0012076234037711768 0 -0.0024831318706094617 0.001200214869833418 0 -0.0024831318706094617 0.001200214869833418 0 -0.0024506277676926377 0.0012335969276064138 0 -0.0024964215992911844 0.0012256478691729245 0 -0.0025322366016240624 0.0012400179692246189 0 -0.0024964215992911844 0.0012256478691729245 0 -0.0025318052638730621 0.0012044922904861531 0 -0.0024831318706094617 0.001200214869833418 0 -0.0024964215992911844 0.0012256478691729245 0 -0.0025318052638730621 0.0012044922904861531 0 -0.0024831318706094617 0.001200214869833418 0 -0.0025186366426170801 0.0011799060479276971 0 -0.0025318052638730621 0.0012044922904861531 0 -0.0028461464180895798 0.003407560785641593 0 -0.0025725324078788594 0.0034587555220225593 0 -0.0024619516244014242 0.0036748445624053324 0 -0.0027175055501347835 0.0022948271610285422 0 -0.0024606979130976487 0.0024103183344572664 0 -0.002555777288621859 0.0011463667035095681 0 -0.0024400278475270537 0.0011692798692308104 0 -0.0025186366426170801 0.0011799060479276971 0 -0.0024400278475270537 0.0011692798692308104 0 -0.0024831318706094617 0.001200214869833418 0 -0.0025186366426170801 0.0011799060479276971 0 -0.002555777288621859 0.0011463667035095681 0 -0.0025742863352690936 0.0011794542421609867 0 -0.0026190104752736409 0.0011651851753355436 0 -0.002555777288621859 0.0011463667035095681 0 -0.0025186366426170801 0.0011799060479276971 0 -0.0025742863352690936 0.0011794542421609867 0 -0.0025186366426170801 0.0011799060479276971 0 -0.0025742863352690936 0.0011794542421609867 0 -0.0025318052638730621 0.0012044922904861531 0 -0.0025322366016240624 0.0012400179692246189 0 -0.0026034584627342055 0.0012288079772599435 0 -0.0025704492072468207 0.0012045913527557188 0 -0.0025742863352690936 0.0011794542421609867 0 -0.0025318052638730621 0.0012044922904861531 0 -0.0025704492072468207 0.0012045913527557188 0 -0.0025322366016240624 0.0012400179692246189 0 -0.0025318052638730621 0.0012044922904861531 0 -0.0025704492072468207 0.0012045913527557188 0 -0.0025742863352690936 0.0011794542421609867 0 -0.0025704492072468207 0.0012045913527557188 0 -0.0026054351771703631 0.0011773161960442818 0 -0.0026034584627342055 0.0012288079772599435 0 -0.0025704492072468207 0.0012045913527557188 0 -0.0026054351771703631 0.0011773161960442818 0 -0.0026148523111468526 0.001162549437585993 0 -0.0026034584627342055 0.0012288079772599435 0 -0.0026054351771703631 0.0011773161960442818 0 -0.0026148523111468526 0.001162549437585993 0 -0.0026338973923885397 0.0011542204459968738 0 -0.0026054351771703631 0.0011773161960442818 0 -0.0026338973923885397 0.0011542204459968738 0 -0.0026054351771703631 0.0011773161960442818 0 -0.0026190104752736409 0.0011651851753355436 0 -0.0025742863352690936 0.0011794542421609867 0 -0.0026054351771703631 0.0011773161960442818 0 -0.0026190104752736409 0.0011651851753355436 0 -0.0029819130750274561 0.0040268686682917712 0 -0.0030673181772246376 0.0039315097239372744 0 -0.0029586678418319196 0.0038265606720717738 0 -0.0029819130750274561 0.0040268686682917712 0 -0.0028492307461616584 0.0039413696480878708 0 -0.0029586678418319196 0.0038265606720717738 0 -0.0030277275372223461 0.0039766953797623437 0 -0.0030780171373901251 0.0039269337346120505 0 -0.0031395873973709557 0.0038898729030957323 0 -0.0030673181772246376 0.0039315097239372744 0 -0.0030574588044417037 0.0039015669928610342 0 -0.0030673181772246376 0.0039315097239372744 0 -0.0030574588044417037 0.0039015669928610342 0 -0.0030200642697927067 0.0039651185055641887 0 -0.0030763457359850974 0.003798606842145019 0 -0.0031081446331299688 0.0038410663081010327 0 -0.0030376324467663038 0.0038615985572312979 0 -0.0030574588044417037 0.0039015669928610342 0 -0.0031081446331299688 0.0038410663081010327 0 -0.0030376324467663038 0.0038615985572312979 0 -0.0031395873973709557 0.0038898729030957323 0 -0.0030574588044417037 0.0039015669928610342 0 -0.0031081446331299688 0.0038410663081010327 0 -0.0031398597492335667 0.0037608466571194639 0 -0.0031081446331299688 0.0038410663081010327 0 -0.0031915298420378563 0.0038354773011480925 0 -0.0031395873973709557 0.0038898729030957323 0 -0.0031081446331299688 0.0038410663081010327 0 -0.0031915298420378563 0.0038354773011480925 0 -0.0030277275372223461 0.0039766953797623437 0 -0.0026021772932584143 0.0033097004146397579 0 -0.0026021772932584143 0.0033097004146397579 0 -0.002354626314973453 0.0036715361425209265 0 -0.0025268291796818249 0.0031808938863769399 0 -0.0021862011960692095 0.0029992256060698422 0 -0.0020882559997683955 0.003320075242486723 0 -0.0017989390149608893 0.0030158275339882416 0 -0.0021862011960692095 0.0029992256060698422 0 -0.0020882559997683955 0.003320075242486723 0 -0.0024378009681107252 0.0036759900329975345 0 -0.002354626314973453 0.0036715361425209265 0 -0.0024058885936079966 0.0034113087276714782 0 -0.0024402105334778417 0.0036751572780851327 0 -0.0020882559997683955 0.003320075242486723 0 -0.0026554619375260087 0.0039795594006325347 0 -0.0028492307461616584 0.0039413696480878708 0 -0.002711681959070158 0.0037464305259575195 0 -0.0029819130750274561 0.0040268686682917712 0 -0.0028576895419244802 0.0041632782728570098 0 -0.0028492307461616584 0.0039413696480878708 0 -0.0028576895419244802 0.0041632782728570098 0 -0.0026554619375260087 0.0039795594006325347 0 -0.0028492307461616584 0.0039413696480878708 0 -0.002711681959070158 0.0037464305259575195 0 -0.0029004848526349154 0.0035630164919588049 0 -0.0029586678418319196 0.0038265606720717738 0 -0.0028492307461616584 0.0039413696480878708 0 -0.002711681959070158 0.0037464305259575195 0 -0.0029586678418319196 0.0038265606720717738 0 -0.0024402105334778417 0.0036751572780851327 0 -0.0026554619375260087 0.0039795594006325347 0 -0.002711681959070158 0.0037464305259575195 0 -0.0024402105334778417 0.0036751572780851327 0 -0.002711681959070158 0.0037464305259575195 0 -0.0026000463179428994 0.0035203001009268082 0 -0.002711681959070158 0.0037464305259575195 0 -0.0026000463179428994 0.0035203001009268082 0 -0.0029004848526349154 0.0035630164919588049 0 -0.0028927450144776113 0.0032994675229515115 0 -0.0026000463179428994 0.0035203001009268082 0 -0.0029004848526349154 0.0035630164919588049 0 -0.0029004848526349154 0.0035630164919588049 0 -0.0029586678418319196 0.0038265606720717738 0 -0.0031595540640762454 0.0036239332099583395 0 -0.0031260017700606652 0.0033474109080308375 0 -0.0029004848526349154 0.0035630164919588049 0 -0.0031595540640762454 0.0036239332099583395 0 -0.0030673181772246376 0.0039315097239372744 0 -0.0029586678418319196 0.0038265606720717738 0 -0.0030410004369683112 0.0039323935608796181 0 -0.0029604340594273659 0.0038491433866155089 0 -0.0031276931274082159 0.00374978339720854 0 -0.0030673181772246376 0.0039315097239372744 0 -0.0030412207497088283 0.003965026894139659 0 -0.0030410004369683112 0.0039323935608796181 0 -0.0030673181772246376 0.0039315097239372744 0 -0.0030412207497088283 0.003965026894139659 0 -0.0030200642697927067 0.0039651185055641887 0 -0.0030354108385110073 0.0040179373105835615 0 -0.0030410004369683112 0.0039323935608796181 0 -0.0030325184062111816 0.004016094283305547 0 -0.0031260017700606652 0.0033474109080308375 0 -0.0033548135446043051 0.0034432227517317156 0 -0.0031595540640762454 0.0036239332099583395 0 -0.0030412207497088283 0.003965026894139659 0 -0.0030410004369683112 0.0039323935608796181 0 -0.0030325184062111816 0.004016094283305547 0 -0.0028945657231499405 0.0038190587918457124 0 -0.0031276931274082159 0.00374978339720854 0 -0.0028945657231499405 0.0038190587918457124 0 -0.0030207724402790685 0.004046140984474071 0 -0.0030579554656818657 0.0040861123126069579 0 -0.0030325184062111816 0.004016094283305547 0 -0.0029731097683204691 0.0040820542321779252 0 -0.0030325184062111816 0.004016094283305547 0 -0.0029731097683204691 0.0040820542321779252 0 -0.0029865749126982795 0.0040166060731329622 0 -0.0030412207497088283 0.003965026894139659 0 -0.0030325184062111816 0.004016094283305547 0 -0.0030213693174842952 0.0039915388877489102 0 -0.0030325184062111816 0.004016094283305547 0 -0.0029865749126982795 0.0040166060731329622 0 -0.0030213693174842952 0.0039915388877489102 0 -0.0028995795560654548 0.0041319791966516039 0 -0.0029731097683204691 0.0040820542321779252 0 -0.0029347393279292263 0.0040554377829676415 0 -0.0028995795560654548 0.0041319791966516039 0 -0.0029347393279292263 0.0040554377829676415 0 -0.0028832809955002298 0.0040768961182403142 0 -0.0029731097683204691 0.0040820542321779252 0 -0.0029865749126982795 0.0040166060731329622 0 -0.0029347393279292263 0.0040554377829676415 0 -0.0029347393279292263 0.0040554377829676415 0 -0.0029183900129385772 0.0040133412313114207 0 -0.0028832809955002298 0.0040768961182403142 0 -0.0029865749126982795 0.0040166060731329622 0 -0.0029347393279292263 0.0040554377829676415 0 -0.0029721491191047472 0.0039873838261181684 0 -0.0029347393279292263 0.0040554377829676415 0 -0.0029721491191047472 0.0039873838261181684 0 -0.0029183900129385772 0.0040133412313114207 0 -0.0029721491191047472 0.0039873838261181684 0 -0.0029183900129385772 0.0040133412313114207 0 -0.0029494935553833947 0.0039583968076242655 0 -0.0029183900129385772 0.0040133412313114207 0 -0.0029494935553833947 0.0039583968076242655 0 -0.0029009963409082512 0.0039763446961320961 0 -0.0030412207497088283 0.003965026894139659 0 -0.0030213693174842952 0.0039915388877489102 0 -0.0030200642697927067 0.0039651185055641887 0 -0.0029865749126982795 0.0040166060731329622 0 -0.0030213693174842952 0.0039915388877489102 0 -0.0030200642697927067 0.0039651185055641887 0 -0.0029865749126982795 0.0040166060731329622 0 -0.0029721491191047472 0.0039873838261181684 0 -0.0030200642697927067 0.0039651185055641887 0 -0.0029721491191047472 0.0039873838261181684 0 -0.0030200642697927067 0.0039651185055641887 0 -0.0030039213191783466 0.0039288527151597205 0 -0.0030574588044417037 0.0039015669928610342 0 -0.0030200642697927067 0.0039651185055641887 0 -0.0030039213191783466 0.0039288527151597205 0 -0.0030574588044417037 0.0039015669928610342 0 -0.0030039213191783466 0.0039288527151597205 0 -0.0030376324467663038 0.0038615985572312979 0 -0.0029721491191047472 0.0039873838261181684 0 -0.0030039213191783466 0.0039288527151597205 0 -0.0029494935553833947 0.0039583968076242655 0 -0.0029494935553833947 0.0039583968076242655 0 -0.0029180780697804589 0.0039326950069198284 0 -0.0029009963409082512 0.0039763446961320961 0 -0.0030039213191783466 0.0039288527151597205 0 -0.0029494935553833947 0.0039583968076242655 0 -0.0029629507234753424 0.0038966821539094336 0 -0.0029494935553833947 0.0039583968076242655 0 -0.0029180780697804589 0.0039326950069198284 0 -0.0029629507234753424 0.0038966821539094336 0 -0.0029629507234753424 0.0038966821539094336 0 -0.0029304206025867856 0.0038560448068877622 0 -0.0028880048200028378 0.0039007071868652318 0 -0.0029180780697804589 0.0039326950069198284 0 -0.0029629507234753424 0.0038966821539094336 0 -0.0028880048200028378 0.0039007071868652318 0 -0.0029629507234753424 0.0038966821539094336 0 -0.0029304206025867856 0.0038560448068877622 0 -0.0029978551819196293 0.0038297777406795003 0 -0.0029629507234753424 0.0038966821539094336 0 -0.0029978551819196293 0.0038297777406795003 0 -0.0030376324467663038 0.0038615985572312979 0 -0.0030039213191783466 0.0039288527151597205 0 -0.0029629507234753424 0.0038966821539094336 0 -0.0030376324467663038 0.0038615985572312979 0 -0.0030763457359850974 0.003798606842145019 0 -0.0029978551819196293 0.0038297777406795003 0 -0.0030376324467663038 0.0038615985572312979 0 -0.0027550240139468363 0.0038871144295956057 0 -0.0028244146687052061 0.0039014586272233527 0 -0.002839450213511507 0.0038427155746953603 0 -0.0027550240139468363 0.0038871144295956057 0 -0.0028244146687052061 0.0039014586272233527 0 -0.0027809743948688671 0.0039351942218386077 0 -0.0027809743948688671 0.0039351942218386077 0 -0.0027241866988936079 0.003959221456646826 0 -0.0027135492410902966 0.0039144334307654729 0 -0.0027550240139468363 0.0038871144295956057 0 -0.0027809743948688671 0.0039351942218386077 0 -0.0027135492410902966 0.0039144334307654729 0 -0.0028880048200028378 0.0039007071868652318 0 -0.0028244146687052061 0.0039014586272233527 0 -0.002839450213511507 0.0038427155746953603 0 -0.0029304206025867856 0.0038560448068877622 0 -0.0028880048200028378 0.0039007071868652318 0 -0.002839450213511507 0.0038427155746953603 0 -0.0028880048200028378 0.0039007071868652318 0 -0.0028244146687052061 0.0039014586272233527 0 -0.0028540088787396812 0.0039538185923753411 0 -0.0028244146687052061 0.0039014586272233527 0 -0.0028540088787396812 0.0039538185923753411 0 -0.0027809743948688671 0.0039351942218386077 0 -0.0029180780697804589 0.0039326950069198284 0 -0.0028880048200028378 0.0039007071868652318 0 -0.0028540088787396812 0.0039538185923753411 0 -0.0028540088787396812 0.0039538185923753411 0 -0.0029009963409082512 0.0039763446961320961 0 -0.002862899633423832 0.0040215061414728363 0 -0.0029180780697804589 0.0039326950069198284 0 -0.0028540088787396812 0.0039538185923753411 0 -0.0029009963409082512 0.0039763446961320961 0 -0.0028540088787396812 0.0039538185923753411 0 -0.0028150159494795017 0.00400063391525576 0 -0.002862899633423832 0.0040215061414728363 0 -0.0028150159494795017 0.00400063391525576 0 -0.0027809743948688671 0.0039351942218386077 0 -0.0027582598841056753 0.0040048919520913884 0 -0.0028540088787396812 0.0039538185923753411 0 -0.0028150159494795017 0.00400063391525576 0 -0.0027809743948688671 0.0039351942218386077 0 -0.0027809743948688671 0.0039351942218386077 0 -0.0027582598841056753 0.0040048919520913884 0 -0.0027241866988936079 0.003959221456646826 0 -0.0027582598841056753 0.0040048919520913884 0 -0.0028022575119739847 0.0040667282582289473 0 -0.0027210175051653874 0.0040517719476574872 0 -0.0028150159494795017 0.00400063391525576 0 -0.0028022575119739847 0.0040667282582289473 0 -0.002862899633423832 0.0040215061414728363 0 -0.0028150159494795017 0.00400063391525576 0 -0.0027582598841056753 0.0040048919520913884 0 -0.0028022575119739847 0.0040667282582289473 0 -0.0028022575119739847 0.0040667282582289473 0 -0.002862899633423832 0.0040215061414728363 0 -0.0028832809955002298 0.0040768961182403142 0 -0.0029183900129385772 0.0040133412313114207 0 -0.0029009963409082512 0.0039763446961320961 0 -0.002862899633423832 0.0040215061414728363 0 -0.0029183900129385772 0.0040133412313114207 0 -0.002862899633423832 0.0040215061414728363 0 -0.0028832809955002298 0.0040768961182403142 0 -0.0028022575119739847 0.0040667282582289473 0 -0.0028832809955002298 0.0040768961182403142 0 -0.0028538365691469811 0.0041444050347657401 0 -0.0028995795560654548 0.0041319791966516039 0 -0.0028832809955002298 0.0040768961182403142 0 -0.0028538365691469811 0.0041444050347657401 0 -0.0028022575119739847 0.0040667282582289473 0 -0.0027783126607781546 0.0041393074156170538 0 -0.0027204604069687374 0.0041085883056028024 0 -0.0028022575119739847 0.0040667282582289473 0 -0.0027783126607781546 0.0041393074156170538 0 -0.0028538365691469811 0.0041444050347657401 0 -0.0028157031454391652 0.0042590032987259432 0 -0.0027783126607781546 0.0041393074156170538 0 -0.0028538365691469811 0.0041444050347657401 0 -0.0027382947088316835 0.0042261397294799117 0 -0.0028157031454391652 0.0042590032987259432 0 -0.0027783126607781546 0.0041393074156170538 0 -0.0027382947088316835 0.0042261397294799117 0 -0.0027783126607781546 0.0041393074156170538 0 -0.002685187020412236 0.0041822192561770206 0 -0.0026817638652254371 0.0042484971926444468 0 -0.0027382947088316835 0.0042261397294799117 0 -0.002685187020412236 0.0041822192561770206 0 -0.0027783126607781546 0.0041393074156170538 0 -0.0027204604069687374 0.0041085883056028024 0 -0.002685187020412236 0.0041822192561770206 0 -0.0027204604069687374 0.0041085883056028024 0 -0.0026747660092124427 0.0041347553911540106 0 -0.002685187020412236 0.0041822192561770206 0 -0.0026747660092124427 0.0041347553911540106 0 -0.002639132384342067 0.0041714320300003148 0 -0.0026487957591420181 0.0041240611911864218 0 -0.0026747660092124427 0.0041347553911540106 0 -0.0026487957591420181 0.0041240611911864218 0 -0.0026803188155860749 0.0040913352075307224 0 -0.0027204604069687374 0.0041085883056028024 0 -0.0026747660092124427 0.0041347553911540106 0 -0.0026803188155860749 0.0040913352075307224 0 -0.0026747660092124427 0.0041347553911540106 0 -0.002685187020412236 0.0041822192561770206 0 -0.002639132384342067 0.0041714320300003148 0 -0.002685187020412236 0.0041822192561770206 0 -0.0026502839672007277 0.0042177828041521058 0 -0.002639132384342067 0.0041714320300003148 0 -0.0026817638652254371 0.0042484971926444468 0 -0.002685187020412236 0.0041822192561770206 0 -0.0026502839672007277 0.0042177828041521058 0 -0.0036925488576476603 0.0091576558510458976 0 -0.0036825415978898298 0.0087583388046876594 0 -0.0036816137935378299 0.0091678361472547817 0 -0.0037387649648121619 0.0091386940150968692 0 -0.0038820862582359702 0.0088158364090965332 0 -0.0032696435130491431 0.0066200496104511413 0 -0.0032322577479985742 0.0064389402734465881 0 -0.0036816137935378299 0.0091678361472547817 0 -0.0038820862582359702 0.0088158364090965332 0 -0.003817609882840941 0.0087648417899055739 0 -0.0036816137935378299 0.0091678361472547817 0 -0.0035167686953430284 0.0087305406113323946 0 -0.0035103149492145022 0.0088430130104676218 0 -0.0036816137935378299 0.0091678361472547817 0 -0.0035093049027507487 0.0089884259686484214 0 -0.0035103149492145022 0.0088430130104676218 0 -0.0026101633835117245 0.0042537740848393674 0 -0.002639132384342067 0.0041714320300003148 0 -0.0026071835738146511 0.0040801977035014097 0 -0.0026101633835117245 0.0042537740848393674 0 -0.0026502839672007277 0.0042177828041521058 0 -0.002639132384342067 0.0041714320300003148 0 -0.0036816137935378299 0.0091678361472547817 0 -0.0035224170754016245 0.0090704220100324834 0 -0.0035093049027507487 0.0089884259686484214 0 -0.002639132384342067 0.0041714320300003148 0 -0.0026487957591420181 0.0041240611911864218 0 -0.0026071835738146511 0.0040801977035014097 0 -0.0026487957591420181 0.0041240611911864218 0 -0.0026493668025800382 0.0040752591267588139 0 -0.0026071835738146511 0.0040801977035014097 0 -0.0038820862582359702 0.0088158364090965332 0 -0.003817609882840941 0.0087648417899055739 0 -0.0039014748722725123 0.0078640017173719941 0 -0.0026493668025800382 0.0040752591267588139 0 -0.0026071835738146511 0.0040801977035014097 0 -0.0026450121738782477 0.0040449880157397283 0 -0.0026071835738146511 0.0040801977035014097 0 -0.0026450121738782477 0.0040449880157397283 0 -0.0026360702535553299 0.0040049677084344889 0 -0.0026493668025800382 0.0040752591267588139 0 -0.0026450121738782477 0.0040449880157397283 0 -0.0026761761724473322 0.0040468801514969123 0 -0.0026450121738782477 0.0040449880157397283 0 -0.0026761761724473322 0.0040468801514969123 0 -0.0026675403395265244 0.0040092793572585337 0 -0.0026761761724473322 0.0040468801514969123 0 -0.0027210175051653874 0.0040517719476574872 0 -0.0027087456754139685 0.0040075432465742009 0 -0.0026761761724473322 0.0040468801514969123 0 -0.0027087456754139685 0.0040075432465742009 0 -0.0026675403395265244 0.0040092793572585337 0 -0.0027582598841056753 0.0040048919520913884 0 -0.0027210175051653874 0.0040517719476574872 0 -0.0027087456754139685 0.0040075432465742009 0 -0.0027204604069687374 0.0041085883056028024 0 -0.0027210175051653874 0.0040517719476574872 0 -0.0026803188155860749 0.0040913352075307224 0 -0.0028022575119739847 0.0040667282582289473 0 -0.0027204604069687374 0.0041085883056028024 0 -0.0027210175051653874 0.0040517719476574872 0 -0.0026761761724473322 0.0040468801514969123 0 -0.0027210175051653874 0.0040517719476574872 0 -0.0026803188155860749 0.0040913352075307224 0 -0.0026487957591420181 0.0041240611911864218 0 -0.0026493668025800382 0.0040752591267588139 0 -0.0026803188155860749 0.0040913352075307224 0 -0.0026493668025800382 0.0040752591267588139 0 -0.0026761761724473322 0.0040468801514969123 0 -0.0026803188155860749 0.0040913352075307224 0 -0.002801943948534192 0.0088993548476004863 0 -0.0030747104556298594 0.0089323752371659026 0 -0.0029868462917470029 0.0087279677536138307 0 -0.0029381787659257747 0.0091774170775333792 0 -0.0030747104556298594 0.0089323752371659026 0 -0.0031609239756416403 0.0090915998106684635 0 -0.0029381787659257747 0.0091774170775333792 0 -0.002801943948534192 0.0088993548476004863 0 -0.0030747104556298594 0.0089323752371659026 0 -0.0030747104556298594 0.0089323752371659026 0 -0.0031609239756416403 0.0090915998106684635 0 -0.0032763416963155923 0.0089265607921268 0 -0.0030747104556298594 0.0089323752371659026 0 -0.0032763416963155923 0.0089265607921268 0 -0.0032451731283018878 0.0087716624034315741 0 -0.0032763416963155923 0.0089265607921268 0 -0.0034136062270913288 0.0089981215142512314 0 -0.0034050140910713363 0.0088653314646687919 0 -0.0032763416963155923 0.0089265607921268 0 -0.0034050140910713363 0.0088653314646687919 0 -0.0032451731283018878 0.0087716624034315741 0 -0.0031609239756416403 0.0090915998106684635 0 -0.0032763416963155923 0.0089265607921268 0 -0.0033232347651897644 0.0090508816711148757 0 -0.0033071682730619533 0.0091560703088545015 0 -0.0031609239756416403 0.0090915998106684635 0 -0.0033232347651897644 0.0090508816711148757 0 -0.0033071682730619533 0.0091560703088545015 0 -0.003420316806752591 0.0091143270402895202 0 -0.0033232347651897644 0.0090508816711148757 0 -0.0032763416963155923 0.0089265607921268 0 -0.0033232347651897644 0.0090508816711148757 0 -0.0034136062270913288 0.0089981215142512314 0 -0.003420316806752591 0.0091143270402895202 0 -0.0033232347651897644 0.0090508816711148757 0 -0.0034136062270913288 0.0089981215142512314 0 -0.003420316806752591 0.0091143270402895202 0 -0.0035224170754016245 0.0090704220100324834 0 -0.0034136062270913288 0.0089981215142512314 0 -0.0035224170754016245 0.0090704220100324834 0 -0.0034136062270913288 0.0089981215142512314 0 -0.0035093049027507487 0.0089884259686484214 0 -0.0034136062270913288 0.0089981215142512314 0 -0.0035093049027507487 0.0089884259686484214 0 -0.0034050140910713363 0.0088653314646687919 0 -0.0035093049027507487 0.0089884259686484214 0 -0.0034050140910713363 0.0088653314646687919 0 -0.0035103149492145022 0.0088430130104676218 0 -0.0034050140910713363 0.0088653314646687919 0 -0.0035103149492145022 0.0088430130104676218 0 -0.0034265941068952195 0.0087662152420323325 0 -0.0035167686953430284 0.0087305406113323946 0 -0.0035103149492145022 0.0088430130104676218 0 -0.0034265941068952195 0.0087662152420323325 0 -0.0035167686953430284 0.0087305406113323946 0 -0.0034265941068952195 0.0087662152420323325 0 -0.0033635496979105418 0.0086823882797733062 0 -0.0035167686953430284 0.0087305406113323946 0 -0.0033635496979105418 0.0086823882797733062 0 -0.00338038536220107 0.0085107314433433227 0 -0.0033635496979105418 0.0086823882797733062 0 -0.0032451731283018878 0.0087716624034315741 0 -0.0031546899862452014 0.0086064592404908827 0 -0.0033635496979105418 0.0086823882797733062 0 -0.0031546899862452014 0.0086064592404908827 0 -0.00338038536220107 0.0085107314433433227 0 -0.0034050140910713363 0.0088653314646687919 0 -0.0034265941068952195 0.0087662152420323325 0 -0.0032451731283018878 0.0087716624034315741 0 -0.0034265941068952195 0.0087662152420323325 0 -0.0033635496979105418 0.0086823882797733062 0 -0.0032451731283018878 0.0087716624034315741 0 -0.0030747104556298594 0.0089323752371659026 0 -0.0032451731283018878 0.0087716624034315741 0 -0.0029868462917470029 0.0087279677536138307 0 -0.0032451731283018878 0.0087716624034315741 0 -0.0031546899862452014 0.0086064592404908827 0 -0.0029868462917470029 0.0087279677536138307 0 -0.0031546899862452014 0.0086064592404908827 0 -0.0029868462917470029 0.0087279677536138307 0 -0.0029095626180458724 0.0085196489098514506 0 -0.0026321399880744408 0.008292310917556377 0 -0.0029095626180458724 0.0085196489098514506 0 -0.0029816388298857513 0.0083269475569425089 0 -0.0031546899862452014 0.0086064592404908827 0 -0.0029095626180458724 0.0085196489098514506 0 -0.0029816388298857513 0.0083269475569425089 0 -0.0031546899862452014 0.0086064592404908827 0 -0.0029816388298857513 0.0083269475569425089 0 -0.00338038536220107 0.0085107314433433227 0 -0.0035167686953430284 0.0087305406113323946 0 -0.00338038536220107 0.0085107314433433227 0 -0.0036431242275511123 0.0081627717580142912 0 -0.003817609882840941 0.0087648417899055739 0 -0.0039014748722725123 0.0078640017173719941 0 -0.0037252244562566168 0.0075568064516913155 0 -0.0036825415978898298 0.0087583388046876594 0 -0.0036595266305579884 0.0077977990466628891 0 -0.0029816388298857513 0.0083269475569425089 0 -0.00338038536220107 0.0085107314433433227 0 -0.0036431242275511123 0.0081627717580142912 0 -0.0026122139392533586 0.0039507212976161356 0 -0.0026445288683154045 0.0039119850866335326 0 -0.0026940225666728223 0.0038904036118862354 0 -0.0032517103185721423 0.0058922524548425705 0 -0.0031020454692487973 0.0051119482564398492 0 -0.0039014748722725123 0.0078640017173719941 0 -0.0037252244562566168 0.0075568064516913155 0 -0.0035743317092956201 0.0063359227112336101 0 -0.0026122139392533586 0.0039507212976161356 0 -0.0026445288683154045 0.0039119850866335326 0 -0.002637925324929573 0.0039313840265497299 0 -0.0026321399880744408 0.008292310917556377 0 -0.0029816388298857513 0.0083269475569425089 0 -0.0024659883425498979 0.0079813653795294797 0 -0.0036431242275511123 0.0081627717580142912 0 -0.0029679047811097844 0.0079107735949792563 0 -0.0028764303461780798 0.0068342698955156543 0 -0.0029816388298857513 0.0083269475569425089 0 -0.0036431242275511123 0.0081627717580142912 0 -0.0029679047811097844 0.0079107735949792563 0 -0.0029679047811097844 0.0079107735949792563 0 -0.0024659883425498979 0.0079813653795294797 0 -0.0028764303461780798 0.0068342698955156543 0 -0.0029816388298857513 0.0083269475569425089 0 -0.0029679047811097844 0.0079107735949792563 0 -0.0024659883425498979 0.0079813653795294797 0 -0.0026877143296673385 0.003976610359496281 0 -0.0027241866988936079 0.003959221456646826 0 -0.0026822638827621544 0.0039428742479852216 0 -0.0026877143296673385 0.003976610359496281 0 -0.0026606425399018441 0.0039697619085455578 0 -0.0026822638827621544 0.0039428742479852216 0 -0.0026877143296673385 0.003976610359496281 0 -0.0027241866988936079 0.003959221456646826 0 -0.0027087456754139685 0.0040075432465742009 0 -0.0027582598841056753 0.0040048919520913884 0 -0.0027241866988936079 0.003959221456646826 0 -0.0027087456754139685 0.0040075432465742009 0 -0.0026877143296673385 0.003976610359496281 0 -0.0027087456754139685 0.0040075432465742009 0 -0.0026675403395265244 0.0040092793572585337 0 -0.0026877143296673385 0.003976610359496281 0 -0.0026675403395265244 0.0040092793572585337 0 -0.0026606425399018441 0.0039697619085455578 0 -0.0026675403395265244 0.0040092793572585337 0 -0.0026360702535553299 0.0040049677084344889 0 -0.0026606425399018441 0.0039697619085455578 0 -0.0026071835738146511 0.0040801977035014097 0 -0.0026122139392533586 0.0039507212976161356 0 -0.0026360702535553299 0.0040049677084344889 0 -0.0026450121738782477 0.0040449880157397283 0 -0.0026675403395265244 0.0040092793572585337 0 -0.0026360702535553299 0.0040049677084344889 0 -0.0032322577479985742 0.0064389402734465881 0 -0.0032517103185721423 0.0058922524548425705 0 -0.0026122139392533586 0.0039507212976161356 0 -0.0026360702535553299 0.0040049677084344889 0 -0.0026377557504329904 0.00395840024616866 0 -0.0026606425399018441 0.0039697619085455578 0 -0.0026530263461709224 0.0039368424546762128 0 -0.0026822638827621544 0.0039428742479852216 0 -0.0026377557504329904 0.00395840024616866 0 -0.0026606425399018441 0.0039697619085455578 0 -0.0026530263461709224 0.0039368424546762128 0 -0.0026360702535553299 0.0040049677084344889 0 -0.0026377557504329904 0.00395840024616866 0 -0.0026606425399018441 0.0039697619085455578 0 -0.0026530263461709224 0.0039368424546762128 0 -0.0026703738093834598 0.0039119521984368397 0 -0.0026822638827621544 0.0039428742479852216 0 -0.0026530263461709224 0.0039368424546762128 0 -0.002637925324929573 0.0039313840265497299 0 -0.0026462778396292718 0.0039132546976093753 0 -0.0026122139392533586 0.0039507212976161356 0 -0.0026377557504329904 0.00395840024616866 0 -0.002637925324929573 0.0039313840265497299 0 -0.0026377557504329904 0.00395840024616866 0 -0.0026530263461709224 0.0039368424546762128 0 -0.002637925324929573 0.0039313840265497299 0 -0.0026445288683154045 0.0039119850866335326 0 -0.0026462778396292718 0.0039132546976093753 0 -0.0026406470031826229 0.00390461865726386 0 -0.0026445288683154045 0.0039119850866335326 0 -0.002637925324929573 0.0039313840265497299 0 -0.0026462778396292718 0.0039132546976093753 0 -0.0026462778396292718 0.0039132546976093753 0 -0.0026703738093834598 0.0039119521984368397 0 -0.0026554084921707687 0.0038974374169044395 0 -0.0026530263461709224 0.0039368424546762128 0 -0.0026462778396292718 0.0039132546976093753 0 -0.0026703738093834598 0.0039119521984368397 0 -0.0026703738093834598 0.0039119521984368397 0 -0.0027135492410902966 0.0039144334307654729 0 -0.0026867766549050162 0.0038716847593349177 0 -0.0026703738093834598 0.0039119521984368397 0 -0.0026822638827621544 0.0039428742479852216 0 -0.0027135492410902966 0.0039144334307654729 0 -0.0027241866988936079 0.003959221456646826 0 -0.0026822638827621544 0.0039428742479852216 0 -0.0027135492410902966 0.0039144334307654729 0 -0.0027550240139468363 0.0038871144295956057 0 -0.0027135492410902966 0.0039144334307654729 0 -0.0026867766549050162 0.0038716847593349177 0 -0.0026867766549050162 0.0038716847593349177 0 -0.0027040010830620036 0.0038116840339312654 0 -0.0026634220290262544 0.0038382423875327892 0 -0.0026867766549050162 0.0038716847593349177 0 -0.0027040010830620036 0.0038116840339312654 0 -0.0027424444744739052 0.0038369137059947717 0 -0.0026867766549050162 0.0038716847593349177 0 -0.0026440328846317148 0.0038904426476222731 0 -0.0026634220290262544 0.0038382423875327892 0 -0.0026703738093834598 0.0039119521984368397 0 -0.0026867766549050162 0.0038716847593349177 0 -0.0026554084921707687 0.0038974374169044395 0 -0.0026867766549050162 0.0038716847593349177 0 -0.0026554084921707687 0.0038974374169044395 0 -0.0026440328846317148 0.0038904426476222731 0 -0.0026462778396292718 0.0039132546976093753 0 -0.0026554084921707687 0.0038974374169044395 0 -0.0026406470031826229 0.00390461865726386 0 -0.0026554084921707687 0.0038974374169044395 0 -0.0026406470031826229 0.00390461865726386 0 -0.0026440328846317148 0.0038904426476222731 0 -0.0026445288683154045 0.0039119850866335326 0 -0.0026406470031826229 0.00390461865726386 0 -0.0026486984554738163 0.0039079411166645529 0 -0.0026406470031826229 0.00390461865726386 0 -0.0026324854417866445 0.003930980084960083 0 -0.0026440328846317148 0.0038904426476222731 0 -0.0026406470031826229 0.00390461865726386 0 -0.0026324854417866445 0.003930980084960083 0 -0.0026486984554738163 0.0039079411166645529 0 -0.0026440328846317148 0.0038904426476222731 0 -0.002633825279241163 0.0039176020663346713 0 -0.0026634220290262544 0.0038382423875327892 0 -0.0026324854417866445 0.003930980084960083 0 -0.002633825279241163 0.0039176020663346713 0 -0.0026385295820019871 0.004009464466099167 0 -0.0026324854417866445 0.003930980084960083 0 -0.0026440328846317148 0.0038904426476222731 0 -0.002633825279241163 0.0039176020663346713 0 -0.002633825279241163 0.0039176020663346713 0 -0.00265543992113731 0.0038025164526069646 0 -0.0026634220290262544 0.0038382423875327892 0 -0.002633825279241163 0.0039176020663346713 0 -0.00265543992113731 0.0038025164526069646 0 -0.0026508511444512015 0.0038343689759278046 0 -0.00265543992113731 0.0038025164526069646 0 -0.0026924671216949142 0.0037322603331434992 0 -0.0026634220290262544 0.0038382423875327892 0 -0.0026924671216949142 0.0037322603331434992 0 -0.0027040010830620036 0.0038116840339312654 0 -0.0026634220290262544 0.0038382423875327892 0 -0.0017680109779264772 0.0048883484633391672 0 -0.0024659883425498979 0.0079813653795294797 0 -0.0028764303461780798 0.0068342698955156543 0 -0.0036431242275511123 0.0081627717580142912 0 -0.0028764303461780798 0.0068342698955156543 0 -0.0031719852533910048 0.0055994439782321515 0 -0.0036595266305579884 0.0077977990466628891 0 -0.003179640994377239 0.0057123091826835103 0 -0.0037252244562566168 0.0075568064516913155 0 -0.0035743317092956201 0.0063359227112336101 0 -0.0031719852533910048 0.0055994439782321515 0 -0.0026445288683154045 0.0039119850866335326 0 -0.0026940225666728223 0.0038904036118862354 0 -0.0026486984554738163 0.0039079411166645529 0 -0.0026940225666728223 0.0038904036118862354 0 -0.0026486984554738163 0.0039079411166645529 0 -0.0026385295820019871 0.004009464466099167 0 -0.0026324854417866445 0.003930980084960083 0 -0.0026486984554738163 0.0039079411166645529 0 -0.0026385295820019871 0.004009464466099167 0 -0.0026940225666728223 0.0038904036118862354 0 -0.0026385295820019871 0.004009464466099167 0 -0.002727282356744094 0.0043603967421257314 0 -0.002633825279241163 0.0039176020663346713 0 -0.0026385295820019871 0.004009464466099167 0 -0.0026626824722174995 0.0040394833394129812 0 -0.0026385295820019871 0.004009464466099167 0 -0.002727282356744094 0.0043603967421257314 0 -0.0026626824722174995 0.0040394833394129812 0 -0.0035743317092956201 0.0063359227112336101 0 -0.0031719852533910048 0.0055994439782321515 0 -0.002727282356744094 0.0043603967421257314 0 -0.0017680109779264772 0.0048883484633391672 0 -0.0028764303461780798 0.0068342698955156543 0 -0.0031719852533910048 0.0055994439782321515 0 -0.0017680109779264772 0.0048883484633391672 0 -0.0031719852533910048 0.0055994439782321515 0 -0.002727282356744094 0.0043603967421257314 0 -0.0031020454692487973 0.0051119482564398492 0 -0.0027748173706914816 0.0043995072268974804 0 -0.0019892996367426399 0.0036870055025799895 0 -0.002727282356744094 0.0043603967421257314 0 -0.0026101824712099386 0.0038798487610792183 0 -0.002727282356744094 0.0043603967421257314 0 -0.0026626824722174995 0.0040394833394129812 0 -0.0026101824712099386 0.0038798487610792183 0 -0.0026626824722174995 0.0040394833394129812 0 -0.0026330830370610296 0.0038222879695555736 0 -0.0026101824712099386 0.0038798487610792183 0 -0.0026626824722174995 0.0040394833394129812 0 -0.0026330830370610296 0.0038222879695555736 0 -0.0026508511444512015 0.0038343689759278046 0 -0.0024877359777921758 0.0035646273888255619 0 -0.0025905307106548203 0.0036381121360406807 0 -0.0026101824712099386 0.0038798487610792183 0 -0.0026330830370610296 0.0038222879695555736 0 -0.0025905307106548203 0.0036381121360406807 0 -0.0026335444681791246 0.0036613078761137349 0 -0.0026330830370610296 0.0038222879695555736 0 -0.0025905307106548203 0.0036381121360406807 0 -0.0026101824712099386 0.0038798487610792183 0 -0.0019892996367426399 0.0036870055025799895 0 -0.0024877359777921758 0.0035646273888255619 0 -0.0026101824712099386 0.0038798487610792183 0 -0.0026924671216949142 0.0037322603331434992 0 -0.0026622288777755632 0.0036535280052406981 0 -0.0027059308149187515 0.0035855451528451722 0 -0.00265543992113731 0.0038025164526069646 0 -0.0026924671216949142 0.0037322603331434992 0 -0.0026622288777755632 0.0036535280052406981 0 -0.00265543992113731 0.0038025164526069646 0 -0.0026622288777755632 0.0036535280052406981 0 -0.0026508511444512015 0.0038343689759278046 0 -0.002633825279241163 0.0039176020663346713 0 -0.0026626824722174995 0.0040394833394129812 0 -0.0026508511444512015 0.0038343689759278046 0 -0.0026330830370610296 0.0038222879695555736 0 -0.0026508511444512015 0.0038343689759278046 0 -0.0026335444681791246 0.0036613078761137349 0 -0.0026622288777755632 0.0036535280052406981 0 -0.0026508511444512015 0.0038343689759278046 0 -0.0026335444681791246 0.0036613078761137349 0 -0.0026622288777755632 0.0036535280052406981 0 -0.0026335444681791246 0.0036613078761137349 0 -0.0026428982124323953 0.003514019624574987 0 -0.0025962698408022885 0.0034855556418802698 0 -0.0025905307106548203 0.0036381121360406807 0 -0.0026335444681791246 0.0036613078761137349 0 -0.0025962698408022885 0.0034855556418802698 0 -0.0026335444681791246 0.0036613078761137349 0 -0.0026428982124323953 0.003514019624574987 0 -0.0026622288777755632 0.0036535280052406981 0 -0.0026428982124323953 0.003514019624574987 0 -0.0026797492080533037 0.0034165544426877576 0 -0.0026622288777755632 0.0036535280052406981 0 -0.0026797492080533037 0.0034165544426877576 0 -0.0027059308149187515 0.0035855451528451722 0 -0.0026361115679981789 0.0033547912206678518 0 -0.0026428982124323953 0.003514019624574987 0 -0.0026797492080533037 0.0034165544426877576 0 -0.0027343297614982518 0.0032248803843062971 0 -0.0026797492080533037 0.0034165544426877576 0 -0.0027655999792051229 0.0034681094188831821 0 -0.0026797492080533037 0.0034165544426877576 0 -0.0027059308149187515 0.0035855451528451722 0 -0.0027655999792051229 0.0034681094188831821 0 -0.0027059308149187515 0.0035855451528451722 0 -0.002744844637868817 0.0036438858631828207 0 -0.0027655999792051229 0.0034681094188831821 0 -0.0026924671216949142 0.0037322603331434992 0 -0.0027059308149187515 0.0035855451528451722 0 -0.002744844637868817 0.0036438858631828207 0 -0.002744844637868817 0.0036438858631828207 0 -0.0027655999792051229 0.0034681094188831821 0 -0.0028269666849071178 0.0036775854133397922 0 -0.0027655999792051229 0.0034681094188831821 0 -0.0028946635552177026 0.0035150961704421939 0 -0.0028269666849071178 0.0036775854133397922 0 -0.0027655999792051229 0.0034681094188831821 0 -0.0028321515602467082 0.0030681955552398568 0 -0.0028946635552177026 0.0035150961704421939 0 -0.0027343297614982518 0.0032248803843062971 0 -0.0027655999792051229 0.0034681094188831821 0 -0.0028321515602467082 0.0030681955552398568 0 -0.0028343391738711661 0.0030430820203676684 0 -0.0029208300398470342 0.0030549134740853307 0 -0.0027846064897349078 0.0028482158454285248 0 -0.0028321515602467082 0.0030681955552398568 0 -0.0028159105498062349 0.0026525632880451014 0 -0.0028321515602467082 0.0030681955552398568 0 -0.0030693852622358832 0.0034712578330170427 0 -0.0028946635552177026 0.0035150961704421939 0 -0.0027846064897349078 0.0028482158454285248 0 -0.0027465768837672115 0.0027141015353293395 0 -0.0028159105498062349 0.0026525632880451014 0 -0.0027082246631833953 0.0025888280138413309 0 -0.0027465768837672115 0.0027141015353293395 0 -0.0028159105498062349 0.0026525632880451014 0 -0.0027082246631833953 0.0025888280138413309 0 -0.0027292252890728421 0.0024394007352498289 0 -0.0028159105498062349 0.0026525632880451014 0 -0.0031117541364638649 0.0036573481672270481 0 -0.0030693852622358832 0.0034712578330170427 0 -0.0029732879413789273 0.0036772155612366754 0 -0.002913787767374075 0.0030489015281093173 0 -0.0029208300398470342 0.0030549134740853307 0 -0.0030693852622358832 0.0034712578330170427 0 -0.0028946635552177026 0.0035150961704421939 0 -0.0029732879413789273 0.0036772155612366754 0 -0.0029732879413789273 0.0036772155612366754 0 -0.0029421884780166697 0.003792652704110739 0 -0.0028734612334784903 0.0037622080822650996 0 -0.0031117541364638649 0.0036573481672270481 0 -0.0029732879413789273 0.0036772155612366754 0 -0.0030234905069480857 0.0037528837423959527 0 -0.0030763457359850974 0.003798606842145019 0 -0.0029978551819196293 0.0038297777406795003 0 -0.0030234905069480857 0.0037528837423959527 0 -0.0030763457359850974 0.003798606842145019 0 -0.0031117541364638649 0.0036573481672270481 0 -0.0030234905069480857 0.0037528837423959527 0 -0.0029304206025867856 0.0038560448068877622 0 -0.0029421884780166697 0.003792652704110739 0 -0.002839450213511507 0.0038427155746953603 0 -0.0029732879413789273 0.0036772155612366754 0 -0.0030234905069480857 0.0037528837423959527 0 -0.0029421884780166697 0.003792652704110739 0 -0.0029978551819196293 0.0038297777406795003 0 -0.0030234905069480857 0.0037528837423959527 0 -0.0029421884780166697 0.003792652704110739 0 -0.0029304206025867856 0.0038560448068877622 0 -0.0029978551819196293 0.0038297777406795003 0 -0.0029421884780166697 0.003792652704110739 0 -0.0029421884780166697 0.003792652704110739 0 -0.0028734612334784903 0.0037622080822650996 0 -0.002839450213511507 0.0038427155746953603 0 -0.0028734612334784903 0.0037622080822650996 0 -0.0028044122301402077 0.0037783988846951748 0 -0.002839450213511507 0.0038427155746953603 0 -0.0028044122301402077 0.0037783988846951748 0 -0.002839450213511507 0.0038427155746953603 0 -0.0027424444744739052 0.0038369137059947717 0 -0.0027550240139468363 0.0038871144295956057 0 -0.002839450213511507 0.0038427155746953603 0 -0.0027424444744739052 0.0038369137059947717 0 -0.0027550240139468363 0.0038871144295956057 0 -0.0026867766549050162 0.0038716847593349177 0 -0.0027424444744739052 0.0038369137059947717 0 -0.0027040010830620036 0.0038116840339312654 0 -0.0027424444744739052 0.0038369137059947717 0 -0.002748215759001982 0.0037527250068657208 0 -0.0028044122301402077 0.0037783988846951748 0 -0.0027424444744739052 0.0038369137059947717 0 -0.002748215759001982 0.0037527250068657208 0 -0.0028044122301402077 0.0037783988846951748 0 -0.002748215759001982 0.0037527250068657208 0 -0.0028269666849071178 0.0036775854133397922 0 -0.0026924671216949142 0.0037322603331434992 0 -0.0027040010830620036 0.0038116840339312654 0 -0.002748215759001982 0.0037527250068657208 0 -0.0026924671216949142 0.0037322603331434992 0 -0.002744844637868817 0.0036438858631828207 0 -0.002748215759001982 0.0037527250068657208 0 -0.002744844637868817 0.0036438858631828207 0 -0.002748215759001982 0.0037527250068657208 0 -0.0028269666849071178 0.0036775854133397922 0 -0.0028946635552177026 0.0035150961704421939 0 -0.0029732879413789273 0.0036772155612366754 0 -0.0028269666849071178 0.0036775854133397922 0 -0.0029732879413789273 0.0036772155612366754 0 -0.0028734612334784903 0.0037622080822650996 0 -0.0028269666849071178 0.0036775854133397922 0 -0.0028734612334784903 0.0037622080822650996 0 -0.0028044122301402077 0.0037783988846951748 0 -0.0028269666849071178 0.0036775854133397922 0 
</DataArray>
</PointData>
<CellData Scalars="region_id,cross_section_updated," Vectors="" Tensors="stress,">
<DataArray type="Float64" Name="region_id" format="ascii">
6 5 5 5 5 5 5 5 5 5 5 5 5 6 5 6 5 5 5 6 5 6 5 5 5 5 5 5 5 5 5 5 5 6 5 5 6 6 5 5 5 5 5 5 5 5 5 5 5 5 6 5 5 5 5 5 5 5 5 5 5 5 5 6 6 5 6 5 6 6 5 5 5 5 5 6 5 5 5 5 5 5 6 5 6 5 5 5 5 5 5 6 6 5 5 6 5 6 5 5 5 6 5 6 5 5 5 5 5 5 6 5 5 6 5 5 5 5 5 5 5 5 5 5 5 5 5 5 5 6 5 5 5 5 5 5 5 5 5 5 5 5 5 5 6 5 5 5 5 5 5 6 5 5 5 5 5 5 5 6 5 5 6 5 5 5 5 5 5 5 5 5 6 5 5 6 5 5 6 5 5 5 5 5 5 5 5 6 6 5 6 5 5 6 5 5 5 5 5 5 5 5 6 5 5 5 6 5 5 5 5 5 5 5 6 5 6 6 5 6 6 5 5 6 5 5 5 5 5 5 5 5 5 5 6 5 5 5 5 5 5 5 5 6 6 5 5 5 5 5 5 6 5 5 6 5 5 5 6 5 5 5 5 5 5 5 5 5 5 5 5 5 5 5 5 5 5 5 5 5 6 5 5 5 5 5 5 5 5 5 5 5 5 5 5 5 5 5 5 6 5 5 5 5 6 5 5 5 5 5 5 5 5 5 5 5 5 5 5 6 5 5 5 5 5 5 5 5 5 5 5 5 5 5 5 5 5 5 5 5 5 5 5 5 5 5 5 5 5 5 5 5 5 5 6 5 5 5 5 5 5 6 5 5 5 5 5 5 5 5 5 5 5 5 5 5 5 6 5 5 5 5 6 5 5 6 5 6 5 5 5 5 5 6 5 5 5 5 5 5 5 6 5 5 6 5 5 5 6 5 5 5 5 6 5 5 5 5 5 5 5 5 5 5 5 5 5 5 5 5 5 5 5 5 5 5 5 5 5 5 5 5 5 5 5 5 5 5 5 5 5 5 5 5 5 5 5 5 5 5 5 5 5 5 5 6 5 5 5 5 6 5 5 5 5 5 5 5 5 5 5 5 5 5 5 5 5 5 5 5 5 5 5 5 5 5 6 5 5 5 5 6 5 5 5 6 5 5 5 5 5 5 5 5 5 5 5 5 6 5 5 5 5 5 5 5 5 5 6 5 5 5 5 5 5 5 5 5 5 5 6 5 5 6 5 5 5 5 5 5 5 5 5 5 5 5 6 5 5 6 5 5 5 6 5 5 5 5 6 5 5 5 6 5 5 5 5 5 5 5 5 5 5 5 5 5 5 5 5 5 5 6 5 5 5 5 5 5 5 5 5 5 5 5 5 5 5 5 5 5 5 5 5 5 5 5 5 5 5 5 6 5 5 6 5 5 5 6 5 5 5 5 5 5 5 5 5 5 5 5 5 5 5 5 5 5 6 5 5 5 5 5 5 5 5 5 5 5 5 5 5 5 5 5 6 5 5 5 5 5 5 6 5 5 5 5 5 5 5 5 5 5 5 5 5 5 5 5 5 5 5 5 5 5 5 5 5 5 5 5 5 5 5 5 5 5 5 5 5 5 5 5 5 5 5 5 5 5 5 5 5 5 5 5 5 5 5 5 5 5 5 5 5 5 5 5 5 5 5 5 5 5 5 5 5 5 6 5 5 5 5 5 6 5 5 6 5 5 5 5 5 5 5 5 5 5 5 5 6 5 5 5 5 5 5 6 5 5 5 6 5 5 6 5 5 5 5 6 5 5 6 5 5 5 5 5 5 5 5 6 5 6 5 5 5 6 6 5 5 5 5 5 5 5 5 5 5 5 6 5 5 5 6 5 5 6 5 5 5 5 5 5 5 5 5 6 5 5 5 5 5 5 5 5 5 5 5 5 6 5 6 5 5 5 5 5 5 5 5 5 5 5 5 5 5 5 5 5 5 5 6 5 5 6 5 5 5 5 5 5 6 5 5 5 6 5 6 6 5 5 5 5 5 5 6 6 6 6 5 6 5 5 5 5 5 6 5 5 6 5 5 6 5 5 5 5 5 5 5 5 5 5 5 5 5 5 5 5 5 6 5 5 5 5 5 5 5 6 5 5 5 5 5 5 5 5 5 5 5 5 5 5 5 5 5 5 5 5 6 5 5 5 6 5 6 5 5 6 5 5 5 5 5 5 5 5 5 5 5 6 5 5 5 5 5 5 5 5 5 5 6 5 5 5 5 5 5 5 5 5 5 6 5 5 6 5 5 5 5 5 5 5 5 5 5 5 5 5 5 5 5 5 5 5 6 6 5 6 5 5 6 6 6 5 6 5 5 5 5 5 6 5 5 5 5 5 5 5 5 5 5 5 5 5 5 5 5 5 5 5 5 5 5 6 5 5 6 5 5 5 5 5 5 5 5 6 5 5 5 6 5 5 5 5 5 6 5 5 5 6 5 5 5 6 5 6 6 5 5 5 5 6 5 5 6 5 5 5 5 6 6 5 5 6 6 5 5 5 5 6 5 5 5 5 5 5 5 5 5 5 5 5 5 5 5 5 5 5 5 6 5 6 5 5 5 5 5 5 5 5 6 6 5 5 5 6 6 5 6 5 6 5 5 5 5 6 5 5 5 5 5 5 5 5 5 5 5 6 5 5 5 5 5 5 5 5 6 5 5 5 5 5 5 5 5 5 5 5 5 6 5 5 5 5 5 5 5 5 5 5 5 5 5 5 6 5 5 5 5 5 5 5 5 5 5 5 5 5 5 5 6 5 5 5 5 5 5 5 5 5 5 5 5 5 5 5 5 6 6 5 5 5 6 5 5 6 5 5 5 5 6 6 6 5 5 5 5 5 5 5 5 5 6 5 5 5 5 6 5 5 5 5 5 6 5 5 5 5 5 5 5 5 5 5 5 5 5 5 5 5 5 5 6 5 5 5 5 5 5 6 6 5 5 5 5 5 5 5 5 6 6 6 5 5 5 5 5 5 5 5 5 5 5 5 5 5 5 5 5 5 5 5 6 5 5 5 5 5 5 6 5 5 5 5 5 6 5 5 5 5 5 5 5 5 5 5 5 5 5 5 5 5 6 5 5 5 6 5 5 5 5 5 5 5 5 6 5 5 5 6 5 5 5 5 5 5 5 5 5 5 5 6 5 5 5 6 5 5 5 5 5 5 5 5 5 5 5 5 5 5 5 6 5 6 5 5 5 5 5 5 6 5 5 5 5 5 5 5 5 6 5 6 5 5 5 5 5 5 5 5 5 5 5 6 5 5 5 5 5 5 5 5 5 6 5 5 5 5 6 5 5 6 5 5 5 5 5 5 5 5 6 6 5 5 6 5 5 5 5 5 5 5 5 5 5 5 5 5 5 5 5 5 5 5 5 5 5 5 5 5 5 5 5 6 5 5 5 5 6 5 5 5 5 5 5 5 5 6 5 5 5 5 5 5 5 5 5 5 5 5 5 5 5 5 5 5 5 6 5 5 5 6 5 5 5 5 5 5 5 5 5 5 5 5 5 5 5 5 5 5 5 5 6 5 5 5 5 6 5 5 5 5 5 5 5 6 5 5 5 6 5 5 5 6 5 5 5 5 5 5 5 5 6 5 5 5 5 5 5 5 5 5 6 5 5 6 6 6 5 6 5 5 5 5 5 6 5 6 6 5 6 5 5 5 5 5 5 5 5 6 5 5 5 5 6 5 5 5 6 6 5 5 6 6 5 5 5 5 5 6 5 6 5 5 5 5 5 5 6 6 5 6 5 5 5 5 5 5 5 5 6 5 5 5 5 6 5 6 5 6 5 5 5 5 5 5 5 5 5 5 5 5 5 5 5 5 5 5 5 5 5 6 5 6 5 5 5 5 5 5 6 5 5 5 5 5 5 5 5 5 5 5 6 5 5 5 5 5 5 5 5 5 5 5 5 5 5 5 5 5 5 5 5 6 5 5 5 5 5 5 5 6 6 5 5 5 5 5 5 5 5 5 5 5 5 5 6 5 5 5 6 5 5 5 5 5 5 5 5 5 5 5 5 5 5 5 6 5 5 5 5 5 5 5 5 5 6 5 6 5 5 5 5 6 5 6 6 5 6 5 5 5 6 5 5 5 5 5 5 5 5 5 5 5 5 5 6 5 5 5 5 6 5 5 5 5 5 5 5 6 5 5 5 6 5 6 5 5 6 5 5 5 5 5 5 5 5 5 6 5 5 5 5 5 5 5 5 5 5 5 5 5 5 5 6 5 5 5 6 6 5 6 5 6 5 6 5 5 5 5 5 5 5 6 5 5 5 5 5 5 5 5 5 5 5 5 5 5 5 5 5 5 5 5 5 5 5 5 5 5 5 5 5 5 5 5 5 5 5 5 5 5 5 5 5 5 5 5 5 5 5 5 5 5 5 5 5 5 5 5 6 5 5 5 5 5 5 5 6 5 5 5 5 5 5 5 5 5 5 5 5 6 5 5 5 5 5 5 5 6 5 5 5 5 5 5 5 5 5 6 5 5 5 6 5 5 5 5 5 5 5 5 5 5 5 5 5 5 5 5 5 5 5 5 5 5 5 5 5 5 5 6 5 5 5 5 5 6 5 5 5 6 5 5 6 5 5 6 5 5 5 5 5 6 5 5 6 5 5 5 5 5 5 5 6 5 6 5 5 6 5 5 5 5 5 5 6 5 5 5 5 5 5 6 5 5 5 5 5 5 5 5 5 5 5 5 6 5 5 5 6 5 5 5 5 5 5 5 5 5 5 5 5 5 6 5 5 5 5 6 5 5 5 5 5 5 5 5 6 5 5 5 5 5 5 5 5 5 5 5 5 5 5 5 5 5 5 5 5 5 5 5 5 5 5 5 5 6 5 5 6 6 5 5 5 6 6 5 5 5 5 5 5 5 5 5 5 5 6 5 5 5 5 5 5 5 5 5 5 5 5 5 5 5 5 5 5 5 6 5 5 6 5 5 5 5 5 5 5 5 5 5 5 6 5 5 6 5 5 5 6 5 5 5 5 5 5 5 5 5 5 5 5 5 5 5 5 5 5 5 5 5 5 5 5 5 5 5 5 5 5 5 5 5 5 5 5 5 5 5 5 5 5 5 5 6 5 5 5 6 5 5 5 5 6 5 5 6 5 5 6 5 5 5 5 6 6 5 5 5 5 5 5 5 5 5 5 6 5 6 5 5 5 5 5 5 6 5 5 6 5 5 5 6 5 5 6 5 5 5 6 5 5 5 5 5 5 5 5 5 5 5 5 5 5 5 5 5 5 5 5 5 5 5 5 5 5 5 5 5 5 5 6 5 5 5 5 5 6 5 5 5 5 5 5 5 6 5 5 5 6 5 5 5 5 5 5 5 5 5 5 6 5 5 6 5 5 5 5 5 6 5 5 6 5 6 5 5 5 5 5 5 5 5 5 5 5 5 5 5 5 5 5 5 5 5 5 5 5 5 5 5 5 6 5 6 5 5 5 5 5 5 5 5 5 5 6 5 5 5 5 5 5 5 5 5 5 5 5 5 5 6 5 5 5 5 5 5 6 5 5 5 5 5 5 5 5 5 5 5 5 5 5 5 6 5 5 5 5 5 5 6 5 5 5 5 5 5 5 5 5 5 6 5 5 5 6 5 5 5 5 6 5 5 5 5 6 5 5 5 5 5 5 5 5 5 5 6 5 5 5 5 5 6 5 5 5 5 5 5 5 5 5 5 5 5 6 5 5 6 5 5 5 5 5 5 5 5 5 5 5 5 5 5 5 5 5 5 5 5 5 5 5 5 5 5 5 5 5 5 5 5 5 5 5 5 5 5 5 5 5 5 5 5 5 5 5 5 5 5 6 6 5 5 5 5 5 5 5 5 5 5 5 5 5 5 6 5 5 5 5 5 5 6 5 5 5 5 5 5 6 5 5 5 5 5 5 5 5 5 5 5 6 5 5 5 5 6 5 5 5 6 6 5 5 6 5 5 6 5 5 5 5 6 5 5 5 5 5 6 5 6 5 5 6 5 5 6 5 5 5 5 5 5 5 5 5 5 6 5 5 5 5 5 6 5 5 6 5 6 6 5 5 5 5 6 5 5 5 5 5 6 6 5 5 5 5 5 5 6 5 5 6 5 6 5 5 6 5 5 5 5 6 6 5 5 5 5 5 5 5 5 5 5 5 5 5 5 5 5 5 5 5 5 5 5 5 5 5 5 5 5 5 5 5 5 6 6 5 6 5 5 5 5 5 5 6 5 5 5 5 5 6 5 5 5 5 5 5 5 5 6 5 5 5 6 5 5 5 5 5 5 5 5 5 5 6 5 5 6 5 5 5 5 5 5 5 5 5 6 5 5 5 5 6 5 5 5 5 5 5 6 5 5 5 5 5 5 5 6 5 5 5 5 5 5 5 5 5 5 5 5 5 5 5 5 5 5 5 5 5 5 5 5 5 6 5 5 5 5 6 5 6 5 5 5 5 5 5 6 5 5 6 5 5 5 5 5 5 5 5 5 5 6 5 5 5 5 5 5 5 5 6 5 5 5 5 6 5 5 5 5 5 5 5 5 5 6 5 5 6 5 5 5 5 5 6 6 5 5 5 5 5 5 5 5 5 5 5 5 5 6 5 6 6 5 5 5 5 5 5 5 5 5 5 5 5 5 6 5 5 5 6 6 5 5 5 5 5 5 5 5 5 6 5 5 5 5 5 5 5 5 6 5 6 5 6 6 5 5 6 6 5 5 5 5 5 5 5 5 5 5 6 5 6 5 5 5 6 5 6 6 6 5 5 6 5 5 5 5 5 5 5 5 5 6 5 5 5 5 5 5 5 5 5 5 5 5 5 5 5 6 5 5 5 5 6 6 6 5 5 5 5 6 5 5 5 5 5 5 6 5 5 5 5 5 5 5 5 5 5 5 5 5 5 5 5 5 5 5 5 5 5 5 5 5 5 5 5 5 6 5 5 5 5 5 5 5 5 5 5 5 5 6 5 5 5 5 5 5 6 5 5 5 5 5 5 6 5 5 5 5 5 5 5 5 5 5 6 5 5 5 6 5 6 5 5 5 5 5 5 5 5 5 5 5 5 5 5 5 5 5 5 5 5 5 5 5 6 6 5 5 5 5 5 5 6 5 5 5 5 5 5 5 5 5 5 5 5 5 5 5 5 5 5 5 5 5 5 5 5 5 5 5 5 5 5 5 5 5 6 5 5 6 6 5 5 6 5 5 5 5 5 5 5 5 6 5 5 5 5 5 5 5 5 5 5 5 5 5 5 5 6 5 5 5 5 5 5 5 5 5 5 5 5 5 5 6 5 5 5 5 6 5 6 6 5 5 6 5 5 6 5 5 5 5 6 5 5 5 5 5 6 5 5 6 5 5 5 5 5 5 5 5 5 6 5 5 5 6 5 5 5 5 5 5 5 5 5 5 5 5 5 5 5 5 5 5 5 5 5 5 5 5 5 5 5 5 5 5 5 5 5 5 6 5 5 6 5 5 5 5 5 5 5 5 6 5 5 5 5 5 5 5 5 5 6 5 5 5 5 6 5 5 5 5 5 5 5 5 5 5 5 5 5 5 5 5 5 5 5 5 6 5 6 5 5 5 5 5 6 5 5 5 5 5 5 5 5 5 6 5 5 5 5 5 5 5 5 5 5 5 5 5 5 6 5 5 5 5 6 5 5 5 6 5 5 5 5 5 5 5 6 5 5 5 6 5 5 5 6 5 6 5 5 5 5 5 5 5 5 6 5 5 6 5 5 5 6 5 6 5 5 5 6 5 5 5 6 5 5 6 5 6 5 5 6 5 5 6 5 5 5 5 5 5 5 5 5 5 5 5 5 5 5 5 5 5 6 5 5 5 5 5 6 5 5 6 5 5 5 5 5 6 5 5 5 5 5 6 5 5 5 5 5 5 5 5 6 5 5 6 5 6 5 5 5 6 5 5 5 5 5 5 6 5 5 6 5 5 5 5 6 5 5 5 6 6 5 5 5 5 5 5 6 6 5 5 5 5 6 5 5 5 6 5 5 5 5 5 5 5 5 5 5 5 5 5 5 5 5 5 5 5 5 5 5 5 5 5 5 5 5 5 5 5 5 5 5 5 5 5 5 5 5 5 5 5 5 5 5 5 5 5 5 5 5 5 5 5 5 5 5 5 5 5 5 5 5 5 6 5 5 5 6 5 5 5 5 5 5 5 5 5 5 5 6 5 6 5 5 5 5 5 5 5 6 5 5 5 5 5 5 5 5 5 5 5 5 5 5 5 5 6 5 5 6 5 5 5 6 5 5 5 5 5 6 5 5 5 5 5 5 5 5 5 5 6 5 6 5 5 5 5 5 5 5 5 5 5 5 5 5 5 5 5 5 6 5 5 5 5 5 5 5 5 5 5 5 5 6 5 5 5 5 6 5 5 6 5 6 5 5 5 6 5 5 5 5 5 5 6 5 5 5 5 5 5 5 5 5 5 5 5 6 5 5 5 5 5 5 5 5 5 5 5 5 5 5 5 5 6 5 5 5 5 5 6 6 5 5 6 5 5 5 5 5 5 5 5 5 5 5 5 5 5 5 5 5 5 5 6 5 5 5 5 5 5 5 5 5 5 6 5 5 5 5 5 5 6 5 5 6 5 5 5 5 5 5 5 5 5 5 5 5 5 5 5 5 5 5 5 5 6 5 5 5 5 5 5 6 5 5 5 5 5 6 5 5 6 5 6 5 6 5 6 5 5 5 5 6 5 5 5 5 5 6 5 5 5 5 6 5 5 5 5 5 6 5 5 6 5 5 5 5 6 5 5 5 5 6 5 5 5 5 5 5 5 5 5 5 5 5 5 5 5 5 5 5 5 5 5 6 5 5 5 5 5 5 5 5 6 5 5 5 6 5 5 5 5 5 6 5 5 5 5 5 6 5 5 5 5 5 5 6 5 5 5 5 5 5 5 5 5 5 5 5 5 5 5 5 5 5 5 5 5 5 5 6 6 5 5 5 5 5 5 6 5 5 5 5 6 5 5 5 6 5 5 5 5 5 6 6 5 5 5 6 5 5 6 5 5 5 5 5 5 5 5 5 5 6 6 5 5 5 5 5 5 5 5 5 5 5 5 5 5 5 5 5 5 5 5 5 5 6 5 6 5 5 5 5 6 5 5 5 5 5 5 5 5 5 6 5 5 6 5 5 5 5 5 5 5 5 5 5 5 5 5 5 5 5 5 5 5 5 5 5 5 5 5 5 5 5 5 5 5 6 5 5 5 6 5 5 5 5 6 5 5 5 5 6 5 5 5 5 5 5 5 5 5 5 5 5 5 5 5 6 5 5 5 5 5 5 5 5 5 5 5 5 5 5 5 5 5 5 5 5 5 6 5 5 6 5 5 5 6 5 6 5 5 5 5 5 6 5 5 5 5 5 5 5 5 5 5 5 5 5 5 5 5 5 5 5 6 5 6 5 6 5 5 5 5 5 5 5 5 5 6 5 5 6 5 5 5 5 5 5 5 5 5 5 5 5 5 5 5 5 5 5 5 5 5 5 5 5 5 5 5 5 5 5 5 5 5 5 5 5 5 5 5 6 5 5 5 5 5 5 5 5 5 6 6 5 5 5 5 5 5 5 5 5 5 5 5 5 5 5 5 5 5 6 5 5 5 5 5 5 5 5 5 5 5 5 5 5 5 5 5 5 5 5 5 5 5 5 5 5 5 5 5 5 5 5 5 5 5 5 5 5 5 5 5 5 5 5 5 5 5 6 5 6 5 6 5 5 5 6 5 5 6 5 6 5 5 5 5 5 6 5 5 5 6 5 6 5 5 5 6 5 6 5 5 5 5 6 5 5 5 5 5 5 5 6 5 5 5 5 5 6 5 5 6 5 5 5 5 5 5 5 5 5 5 5 5 5 5 5 5 5 5 5 5 5 5 5 5 5 5 5 5 5 5 5 6 5 5 5 5 5 5 5 5 5 5 5 5 5 5 5 5 5 5 5 5 5 5 5 5 5 5 5 5 6 5 5 5 6 5 5 5 5 5 5 5 5 5 5 5 5 5 5 5 5 5 5 5 5 5 5 5 6 5 5 5 5 5 5 5 5 5 5 5 6 5 5 5 5 5 6 5 5 5 5 5 5 5 6 5 5 5 5 5 5 6 5 5 5 5 6 6 5 6 5 5 5 5 5 6 5 5 5 5 5 5 5 6 5 5 5 5 6 5 5 5 5 5 5 5 5 6 5 5 5 5 5 5 6 5 5 5 5 5 5 5 6 5 5 5 5 5 6 5 5 5 5 5 5 5 5 5 5 5 5 6 5 5 5 5 5 5 5 5 6 5 5 5 5 5 5 5 6 5 5 5 5 6 5 5 5 5 5 5 5 6 5 5 6 5 5 5 5 5 6 5 5 5 6 6 5 5 5 5 5 6 5 5 5 5 5 5 5 5 6 5 5 6 5 5 5 5 5 5 5 5 5 5 5 6 5 6 5 5 5 5 6 5 5 5 5 5 5 5 5 5 6 5 5 5 5 6 5 5 5 5 6 5 5 5 5 6 5 5 5 5 5 5 5 5 5 5 5 5 5 5 5 5 5 5 5 5 5 5 6 5 5 5 5 5 6 5 5 5 6 5 5 6 5 5 5 5 5 5 5 5 5 5 5 5 5 6 5 5 6 5 5 5 6 5 5 6 5 6 5 5 5 6 5 5 5 5 6 5 5 5 5 5 5 6 5 5 5 5 5 5 5 5 5 5 6 5 5 6 5 6 6 5 6 6 5 5 5 6 5 5 5 5 5 5 5 5 5 5 5 5 5 5 5 5 5 5 5 6 5 5 5 5 5 5 5 5 5 5 5 5 6 5 5 5 6 5 5 5 5 5 5 5 5 5 5 5 5 5 5 5 5 5 5 5 5 5 5 5 5 5 5 5 5 5 5 5 5 5 5 5 5 5 5 5 5 5 5 5 5 5 6 5 5 6 5 5 5 6 5 6 5 5 5 5 5 5 5 5 5 5 5 5 5 5 5 5 6 5 6 5 5 5 5 5 5 5 5 5 5 5 6 5 6 5 6 5 6 5 6 6 5 5 5 5 6 5 5 5 5 6 5 6 6 5 6 5 6 5 5 5 5 5 5 5 5 5 5 5 5 5 5 5 6 5 5 6 5 5 6 5 5 5 6 5 5 5 6 5 5 5 5 5 5 5 5 5 5 5 5 5 5 5 5 5 5 5 6 5 5 5 5 5 5 5 5 5 5 5 5 5 5 5 5 6 5 5 5 5 6 6 5 5 5 5 5 5 5 6 6 5 5 5 5 5 5 5 5 5 5 5 5 5 5 5 5 5 5 5 6 5 5 5 6 5 5 5 5 6 5 5 6 5 5 6 5 5 5 5 5 5 5 5 6 5 5 5 5 5 5 5 5 5 6 5 5 5 6 5 5 5 5 5 5 5 5 5 5 5 5 5 5 5 5 5 5 5 5 5 5 5 5 5 5 5 5 6 6 5 5 5 5 5 5 6 5 5 5 5 5 6 5 5 5 5 6 5 5 5 6 5 5 5 5 5 6 5 5 5 6 5 5 5 5 5 5 5 5 5 5 5 5 5 5 5 5 5 6 5 5 5 6 5 5 5 5 5 5 5 5 5 6 5 5 5 6 5 5 5 5 5 5 6 5 5 5 5 5 5 5 5 5 6 5 5 5 5 6 5 5 5 5 5 6 5 5 6 5 5 5 5 5 5 5 5 5 5 5 5 5 5 5 5 5 5 5 5 6 5 5 5 5 5 5 5 5 5 6 5 5 6 5 5 5 6 5 5 5 5 5 5 5 5 6 5 5 5 5 5 6 5 5 5 5 5 6 5 6 5 5 5 5 6 5 5 6 5 6 5 6 5 5 5 5 5 6 5 6 6 5 5 6 5 5 5 6 5 5 5 5 5 5 5 6 6 5 5 5 5 5 5 5 6 5 5 5 6 5 5 5 5 5 5 5 5 6 5 5 6 5 5 5 5 5 5 6 5 5 5 5 5 5 5 5 6 5 6 5 6 5 5 6 6 5 5 6 5 6 6 5 5 5 6 5 6 5 5 5 6 6 6 5 5 6 6 5 6 5 6 5 5 5 6 5 5 5 5 5 6 5 5 5 6 5 5 6 6 5 5 5 5 5 5 6 5 5 5 5 6 5 5 5 5 5 5 5 5 5 5 6 5 6 6 5 5 6 5 6 6 5 5 6 5 6 6 5 5 5 5 5 5 5 6 5 5 5 6 5 5 5 5 5 5 5 5 5 5 5 6 5 5 6 5 5 5 5 5 6 5 5 5 6 5 5 6 5 5 5 6 5 5 5 5 5 6 5 5 5 5 6 6 5 6 5 6 5 6 6 5 5 5 5 5 6 6 5 6 6 5 6 5 5 5 6 6 5 6 5 5 6 5 5 5 5 6 5 6 5 5 5 6 5 5 6 5 5 5 5 6 5 5 5 5 6 5 5 5 5 5 5 5 5 5 5 5 5 6 5 5 5 5 5 5 5 5 5 6 5 5 5 6 5 5 5 5 5 5 5 5 5 5 5 5 5 5 5 5 5 5 5 5 5 5 5 5 5 5 5 5 5 5 5 5 5 5 5 5 5 5 5 5 5 5 5 5 5 5 5 5 5 5 5 5 5 5 5 5 5 5 5 6 5 5 5 5 5 5 5 5 6 5 5 5 5 5 5 6 5 5 5 6 5 5 5 5 5 5 5 6 5 5 5 5 5 6 6 5 5 5 6 5 6 5 6 5 5 5 5 5 5 6 6 5 5 5 5 5 5 6 5 5 5 5 5 5 5 5 6 6 5 5 5 6 6 5 5 5 5 5 6 5 5 5 5 5 5 5 5 5 6 5 5 5 6 5 5 5 5 5 6 5 5 5 5 5 5 5 5 5 5 5 5 5 5 5 6 5 5 5 6 5 6 5 5 5 5 5 5 5 5 5 5 5 5 5 5 5 5 5 5 5 5 5 5 5 5 6 5 6 5 5 5 5 5 5 5 6 5 5 5 5 5 5 5 6 5 6 5 5 5 5 5 5 5 5 5 5 5 5 5 6 5 5 6 6 5 5 5 5 5 5 5 5 5 5 5 5 5 5 6 5 5 5 5 5 6 5 6 5 5 5 5 5 5 5 5 5 5 5 5 5 5 5 5 5 5 5 5 6 6 5 5 5 5 5 5 5 5 5 5 5 5 5 6 5 5 5 5 5 5 5 5 5 5 5 5 5 5 5 5 5 5 5 5 5 5 5 5 5 5 5 5 5 5 5 5 5 5 5 5 5 5 5 6 5 5 6 5 5 5 5 5 5 5 5 5 5 5 6 5 5 5 5 5 5 5 5 5 6 5 5 6 5 5 5 5 5 5 6 5 5 5 5 5 5 5 5 5 5 5 5 5 5 5 5 5 5 5 5 5 5 5 5 5 5 5 5 5 5 5 5 5 5 5 6 6 5 5 5 5 5 6 5 5 5 5 5 5 5 5 5 5 5 5 5 6 5 5 5 5 5 5 5 5 6 5 5 5 5 5 5 5 5 5 5 5 5 5 5 5 5 5 5 5 5 5 5 5 5 5 5 5 5 5 5 5 5 5 5 5 5 5 5 5 5 5 5 5 5 5 5 5 5 5 5 5 5 5 5 5 5 5 5 5 5 5 5 5 5 5 5 5 5 6 6 5 5 5 5 5 5 5 5 5 5 5 5 5 5 5 5 6 5 5 6 5 6 5 6 5 5 6 5 5 5 5 5 5 5 6 5 5 5 5 5 5 5 5 5 5 5 5 6 5 5 5 5 5 5 5 5 5 5 5 5 5 5 6 5 5 5 5 5 5 5 5 5 5 5 5 5 5 5 5 5 5 5 5 5 5 5 5 5 5 5 5 5 5 5 5 5 5 5 5 5 5 5 5 5 5 5 5 5 5 5 5 5 5 5 5 5 5 5 5 5 5 5 5 5 5 5 5 5 5 5 5 5 5 5 5 5 5 5 5 5 5 5 5 5 5 5 5 5 5 5 5 5 5 6 5 6 5 5 5 5 5 5 5 5 5 5 5 5 5 5 5 5 6 6 5 5 5 5 5 5 5 5 5 5 5 5 5 5 5 5 5 5 5 5 5 5 5 5 5 5 5 5 5 5 5 5 5 5 5 5 5 5 5 6 5 5 5 5 6 5 5 5 5 5 5 5 5 5 6 5 6 5 5 5 5 5 5 5 6 5 5 5 5 5 5 5 5 5 5 5 5 5 5 6 5 5 5 5 6 5 5 5 5 5 5 5 5 5 5 5 5 5 6 5 5 5 6 5 5 5 5 5 5 5 5 5 5 5 5 5 5 5 5 5 5 5 5 5 5 5 6 5 5 5 5 6 5 5 5 5 5 5 6 5 5 5 5 6 5 5 5 5 5 5 6 5 5 5 5 5 6 5 5 6 6 5 5 5 5 6 5 5 5 5 5 5 5 5 5 6 5 5 6 5 5 5 5 5 5 5 5 5 5 5 5 5 5 6 5 5 5 5 5 6 5 5 5 5 6 5 5 5 5 5 5 5 5 5 5 5 5 5 5 6 5 5 5 5 5 6 5 5 5 5 5 5 6 5 5 5 5 5 5 5 5 5 5 5 5 5 6 5 5 5 5 5 5 6 5 5 6 5 5 5 5 5 5 5 5 5 5 5 6 5 5 5 5 5 5 5 5 5 5 5 6 5 6 5 5 5 5 5 6 6 5 5 6 6 5 5 6 5 5 5 5 6 5 5 5 5 5 5 6 5 5 6 5 5 5 5 5 5 5 6 5 5 5 5 5 5 6 5 5 5 5 5 5 5 5 5 5 5 5 5 5 5 5 5 6 5 5 5 6 5 5 5 5 5 5 5 5 5 5 5 5 5 5 5 5 5 5 5 5 5 6 5 5 5 5 6 5 6 5 5 6 5 5 6 5 5 5 5 5 6 5 5 5 6 5 5 6 5 5 5 5 6 5 5 5 5 6 5 5 5 5 5 5 5 5 5 5 5 5 5 5 5 5 5 5 5 6 5 5 5 5 5 5 6 5 5 5 5 5 6 5 5 5 6 5 5 6 5 5 5 5 5 5 5 5 5 5 5 5 5 6 5 6 5 5 5 5 5 5 5 5 5 5 5 5 5 5 5 5 6 5 5 5 6 5 5 5 5 5 5 5 5 5 5 5 5 5 5 5 5 5 5 5 5 5 5 5 5 5 5 5 5 5 5 6 5 5 6 5 5 5 5 5 5 5 5 5 5 5 5 5 5 6 5 5 5 5 5 6 5 5 5 5 5 5 5 5 5 6 5 5 5 5 5 5 5 5 5 5 5 5 5 5 5 5 5 5 5 5 5 6 5 6 5 6 5 5 5 5 5 5 5 5 5 6 5 5 5 5 5 5 5 5 5 5 5 5 5 5 5 5 6 6 5 5 5 5 5 5 5 6 5 5 5 5 5 5 5 5 5 5 5 5 5 5 5 5 5 6 6 5 5 5 5 5 5 5 5 5 5 5 5 5 5 5 5 5 5 5 5 5 5 5 5 5 5 5 5 5 5 5 5 5 5 5 5 5 5 5 5 5 5 6 5 5 5 5 5 5 5 5 5 5 5 5 5 5 5 5 5 5 5 6 5 5 5 5 5 5 5 5 6 5 5 5 5 5 5 6 6 5 6 5 5 6 5 5 5 6 5 6 5 5 6 5 5 6 5 5 5 5 5 5 5 5 5 5 5 6 5 5 5 5 6 5 5 5 5 5 5 5 5 5 5 6 5 5 6 5 5 5 5 5 5 5 5 5 5 5 5 5 5 5 5 5 5 5 5 5 6 5 5 6 5 5 5 5 5 5 5 5 6 6 5 5 5 5 5 6 5 5 5 6 5 5 5 5 6 5 5 5 5 5 5 5 5 5 5 5 5 5 5 5 5 5 5 5 5 5 5 5 5 5 5 5 5 5 5 5 5 5 5 6 6 5 5 5 5 5 6 5 5 5 5 6 5 5 5 5 5 5 5 5 6 5 5 5 5 5 6 5 5 5 6 5 5 5 5 5 5 5 5 5 5 5 5 6 6 5 5 5 5 6 6 5 6 6 5 6 5 6 5 5 6 6 5 5 5 5 6 6 5 5 6 6 5 5 6 5 5 6 5 5 5 5 5 5 5 5 5 5 5 5 5 5 5 5 5 5 5 5 5 6 5 5 5 6 5 5 6 5 5 5 6 5 6 6 5 6 5 5 5 5 5 6 6 5 5 6 5 5 5 6 5 5 5 5 5 5 5 5 6 5 5 6 5 5 5 5 6 6 5 6 5 5 5 5 6 5 5 5 5 5 5 5 6 5 5 5 5 5 5 6 5 5 5 5 5 5 5 5 5 5 5 5 5 6 6 6 6 5 5 6 6 5 5 5 5 5 6 6 5 6 5 6 5 6 5 5 6 5 5 6 5 6 6 5 5 5 5 5 5 5 5 5 5 6 5 5 6 5 5 5 5 5 5 5 5 5 5 5 5 5 5 6 5 5 5 6 5 5 6 5 5 5 5 6 5 5 5 5 6 5 5 5 6 5 5 5 5 5 6 5 5 5 5 5 5 6 5 6 5 5 5 5 5 5 5 5 5 5 5 5 5 5 6 5 5 6 5 6 6 5 5 5 5 5 5 6 5 5 6 5 5 5 6 6 5 6 5 5 5 5 5 6 5 5 5 6 5 5 5 5 5 5 5 6 5 5 5 5 5 5 6 5 5 5 5 5 5 6 5 5 5 5 5 5 5 5 5 5 6 5 5 5 5 5 5 5 5 5 5 5 5 5 5 5 6 6 5 5 5 5 5 5 5 5 5 6 5 5 5 5 5 5 5 5 6 5 5 6 5 6 5 5 5 6 5 6 5 5 5 6 5 6 5 5 5 6 6 5 6 5 5 5 5 5 5 5 5 5 5 5 6 6 5 6 5 5 5 6 6 5 6 5 5 5 5 6 6 5 6 5 5 5 5 5 5 6 5 6 5 5 5 5 6 6 5 5 6 5 5 6 5 5 6 5 5 6 6 5 5 6 5 6 6 5 5 6 5 5 5 5 5 5 6 6 6 5 5 5 6 5 6 5 5 5 5 6 6 5 6 6 6 5 5 5 5 5 5 5 5 5 5 5 5 5 5 5 5 5 5 5 5 5 5 5 5 5 5 6 5 5 5 6 5 5 5 5 5 5 5 5 5 5 5 6 5 5 5 5 5 6 5 6 5 5 6 5 5 5 5 5 6 6 5 5 5 5 5 6 5 5 6 5 5 5 5 5 5 5 5 5 5 5 5 5 5 5 5 5 5 5 5 6 5 5 5 5 5 5 5 5 5 5 5 6 6 5 5 5 5 5 5 5 5 5 6 5 5 5 5 5 5 5 6 5 5 5 5 5 5 5 5 5 5 5 5 6 5 6 5 5 5 5 5 5 5 5 5 6 5 6 5 5 5 5 5 5 5 5 5 6 6 5 5 5 5 5 5 5 5 5 5 5 5 5 5 5 5 5 5 5 5 5 5 5 5 5 5 5 5 5 5 5 5 5 6 5 5 5 5 5 5 5 5 5 5 5 5 5 6 5 5 5 5 5 5 5 5 5 5 5 5 5 5 5 5 5 5 5 5 5 5 5 6 6 5 5 5 5 5 5 5 5 5 5 5 5 5 5 5 6 5 5 5 5 5 5 5 5 5 5 5 5 5 5 5 5 5 6 5 5 5 5 6 5 5 5 5 5 5 5 5 5 5 5 6 6 5 5 5 5 5 5 5 5 5 5 5 5 5 5 5 5 5 5 5 6 5 5 5 6 5 5 5 6 6 5 5 6 6 5 6 5 5 5 6 5 5 6 6 5 5 6 5 5 6 6 5 5 5 5 6 5 5 5 6 6 5 5 5 5 5 5 5 5 6 5 5 6 5 5 5 5 6 5 5 5 5 5 6 5 5 6 5 5 5 5 5 6 5 5 5 5 6 5 5 6 5 6 5 5 5 5 5 5 5 6 5 5 5 6 5 5 6 5 5 5 5 5 5 5 5 5 5 5 5 5 5 5 5 6 5 6 5 5 5 5 5 5 5 5 5 6 5 5 5 6 6 6 5 5 5 6 6 5 6 5 6 6 5 5 5 6 5 6 5 5 5 5 5 5 5 5 5 5 6 5 5 5 6 5 5 5 6 5 5 5 5 5 5 5 5 5 5 5 5 5 5 5 5 5 5 5 6 5 5 5 5 6 5 6 5 5 5 5 5 5 5 5 5 5 5 6 5 6 5 5 6 5 6 6 6 5 5 5 6 5 5 5 6 6 5 5 5 5 5 5 6 5 5 5 5 5 5 5 5 5 6 5 5 6 5 5 5 6 5 5 5 5 5 5 5 5 5 5 5 5 5 5 5 5 5 6 5 5 5 5 5 5 6 6 5 5 5 6 5 5 5 5 5 5 5 6 5 5 5 5 5 5 5 5 5 5 5 5 5 6 5 5 5 5 5 5 5 5 5 5 5 5 5 5 5 5 5 5 6 5 5 5 5 5 6 5 5 5 5 5 5 5 5 6 5 5 5 5 5 5 5 5 5 5 5 5 5 5 5 5 5 5 5 5 5 6 6 5 5 6 5 6 5 5 5 5 5 5 5 5 6 5 5 5 5 6 5 5 5 5 6 5 5 5 6 5 6 5 5 5 6 6 5 6 5 6 6 5 5 5 5 5 6 5 5 5 6 5 5 5 5 6 5 5 5 5 5 5 5 5 5 5 5 5 5 5 5 5 5 5 6 5 5 5 5 5 6 5 5 5 5 6 5 5 5 5 5 5 6 5 5 5 5 5 5 5 5 5 5 5 5 5 5 5 5 5 5 5 5 5 5 5 5 6 5 5 5 6 5 5 6 5 5 6 5 5 5 6 5 5 6 5 6 5 5 6 5 5 5 5 5 5 5 5 5 5 5 5 5 5 5 6 5 5 6 5 6 5 5 5 5 5 5 5 6 5 5 6 5 6 5 5 5 6 5 5 5 5 6 5 5 6 5 5 6 5 5 6 5 5 5 5 5 5 5 5 5 6 5 5 6 5 6 6 6 5 5 5 5 5 5 5 6 5 6 5 6 6 5 5 5 5 5 5 5 5 5 5 5 6 5 5 5 5 5 5 5 5 5 5 5 5 5 5 5 5 5 5 5 5 5 5 5 5 5 5 5 5 6 5 5 5 5 5 5 6 5 5 5 5 5 5 5 5 5 5 5 5 5 5 5 5 6 5 5 5 5 5 5 5 5 5 5 5 5 5 5 5 5 5 5 5 5 5 5 5 6 6 5 5 5 5 5 5 5 6 5 5 5 6 6 5 5 6 5 5 5 5 5 5 5 5 5 5 5 5 5 6 5 5 5 5 5 5 5 5 5 5 5 5 5 5 5 5 5 5 5 5 5 5 6 5 5 5 6 5 5 5 5 5 5 5 5 5 5 5 5 5 5 5 5 5 5 5 5 5 5 6 5 5 5 5 5 5 5 5 5 5 5 5 5 5 5 5 5 5 5 5 5 5 5 6 5 5 5 5 5 5 5 5 5 5 5 5 5 5 5 5 5 5 5 6 5 5 5 5 5 5 5 5 5 5 5 5 5 5 5 5 5 5 5 5 5 5 5 5 5 5 5 5 5 5 5 5 5 5 5 5 5 5 5 5 6 5 5 5 5 5 5 5 6 5 5 6 5 5 6 5 5 5 5 5 5 5 5 5 5 5 5 5 5 5 5 5 5 5 5 5 5 5 5 5 5 5 5 5 5 6 5 5 5 5 6 5 5 5 5 5 5 5 5 6 5 5 5 5 5 5 5 5 5 5 5 5 5 5 5 5 5 5 6 6 5 6 5 6 5 5 5 6 5 5 5 5 5 5 6 5 5 5 6 5 5 5 5 6 5 5 5 6 5 5 5 5 5 6 5 5 6 5 5 5 5 5 5 5 5 5 5 5 5 5 5 5 5 5 5 6 5 5 5 5 5 5 5 5 5 5 5 5 5 6 5 6 5 5 5 6 5 6 5 5 5 5 5 5 5 5 5 5 5 5 5 5 5 6 5 5 6 5 5 5 5 5 5 5 5 5 5 5 5 5 5 5 5 5 5 5 5 5 5 5 5 5 5 5 5 5 5 5 5 5 6 5 5 5 5 5 5 5 5 5 5 5 5 5 5 5 5 5 5 5 5 5 5 5 5 5 5 5 5 5 5 5 5 5 5 5 5 5 5 5 5 5 5 5 5 5 5 5 5 5 6 5 5 5 5 5 6 5 6 5 5 5 5 5 5 5 5 5 5 5 5 5 5 5 5 6 5 5 5 5 5 5 5 5 5 5 5 5 5 5 5 5 5 5 5 6 5 5 5 5 5 6 5 5 5 5 6 5 5 5 5 5 5 5 5 5 5 5 5 5 5 5 5 5 5 5 5 5 5 5 5 5 5 5 5 5 5 5 5 5 5 5 5 5 5 5 6 5 5 5 5 5 5 5 5 5 5 5 5 5 5 5 5 5 5 5 5 5 5 5 5 5 5 5 5 6 5 6 5 6 5 5 5 5 5 6 6 5 6 5 5 6 5 5 6 5 5 6 5 5 5 5 5 5 5 5 5 5 5 5 5 5 5 5 5 6 5 5 5 5 5 6 5 5 5 5 5 5 5 5 5 5 5 6 5 5 6 5 5 5 5 5 5 5 6 5 5 5 5 5 5 5 5 6 5 5 5 6 5 6 5 5 5 5 5 5 5 5 5 5 5 5 5 5 5 5 5 5 5 5 5 5 5 5 5 6 5 5 5 6 5 5 5 5 5 5 5 5 5 6 5 5 5 5 5 5 5 6 5 5 5 5 5 5 5 5 5 5 5 5 5 5 5 5 5 5 5 5 5 5 5 5 5 5 5 5 5 5 5 5 5 5 5 6 5 5 5 5 5 5 5 5 5 5 5 5 5 5 5 5 5 5 5 5 5 5 5 5 5 5 5 5 5 5 5 5 5 5 5 5 5 5 5 5 5 5 5 5 5 5 5 5 5 5 6 5 5 5 5 5 6 5 5 5 5 5 5 5 6 5 5 5 5 5 5 5 5 6 5 6 5 5 5 5 6 5 5 6 5 5 5 6 6 5 5 5 6 6 5 6 5 5 5 5 5 5 5 5 5 5 5 5 5 5 5 5 5 5 5 5 5 5 5 6 6 5 6 5 5 5 5 5 6 5 5 5 5 6 5 5 5 6 5 6 5 5 5 5 5 5 5 5 5 5 5 5 5 5 5 5 5 5 5 5 5 5 5 5 5 6 5 5 5 5 5 5 5 5 5 5 6 5 5 5 5 5 5 5 5 6 6 5 5 5 5 5 5 5 5 5 5 5 5 5 5 5 5 5 6 5 5 6 6 5 5 5 5 5 6 5 5 5 5 5 5 5 5 5 6 5 5 5 6 5 5 5 5 5 6 5 6 5 6 6 5 5 6 5 5 5 5 5 6 5 5 5 5 5 6 6 5 5 5 5 6 5 5 5 5 5 5 6 5 5 5 5 5 5 5 5 5 5 5 5 5 5 5 5 5 5 5 5 5 5 5 5 5 5 5 5 5 5 5 5 5 5 5 5 5 5 5 5 5 5 5 5 5 5 5 5 5 5 5 5 5 6 5 5 6 5 5 6 5 6 5 5 5 5 5 5 5 5 5 6 5 5 6 5 5 5 5 5 5 5 5 5 5 6 5 5 5 5 6 5 5 5 6 5 5 5 5 6 5 5 5 5 5 5 5 5 5 6 5 5 5 5 6 5 5 5 5 5 5 5 5 5 5 5 5 5 5 5 5 5 5 5 5 5 5 5 6 5 5 5 5 5 5 5 5 5 6 5 5 5 5 5 5 6 5 5 5 5 5 5 5 5 5 5 5 5 5 5 5 5 5 5 5 5 5 5 5 5 5 5 5 5 5 5 5 5 6 5 5 5 6 5 5 6 6 5 5 5 5 5 5 5 5 5 6 5 5 5 6 6 5 5 6 5 5 5 6 6 6 5 5 5 5 5 5 5 5 5 5 5 5 5 5 5 5 5 5 5 5 5 5 5 5 5 5 6 5 5 6 5 5 6 5 5 5 5 5 5 5 6 5 5 5 5 5 5 5 5 5 5 5 5 5 6 5 5 6 5 5 5 5 5 5 5 5 6 5 5 5 5 5 5 5 5 5 5 5 5 5 5 5 5 5 5 5 5 5 5 5 5 5 5 5 5 5 5 5 5 5 5 5 5 5 5 5 5 5 5 5 5 5 5 5 5 6 5 5 5 5 5 5 5 5 5 5 5 5 5 5 5 6 5 5 5 5 5 6 5 5 5 5 5 5 5 6 5 5 5 5 6 5 5 5 5 5 5 5 5 5 5 6 5 5 6 5 5 5 5 5 5 5 5 6 6 5 5 5 6 5 5 5 5 5 5 5 5 5 5 6 5 5 5 6 5 5 5 6 5 5 5 5 5 5 5 5 5 5 6 5 5 5 5 5 5 6 5 5 6 5 5 5 5 5 5 5 5 5 5 5 5 5 6 5 5 6 5 5 5 6 6 5 5 5 5 5 5 6 5 5 5 5 5 5 5 5 5 5 6 5 5 5 5 5 5 5 5 5 6 5 5 6 5 5 5 5 5 5 6 5 5 5 5 5 5 5 5 5 5 5 5 5 5 6 5 5 5 5 5 6 5 5 6 5 5 5 5 5 5 5 5 5 5 5 6 5 5 5 5 5 6 5 6 5 6 5 5 6 5 5 5 5 6 5 6 5 6 6 5 5 6 5 5 6 5 5 5 5 5 5 5 5 5 5 5 5 5 5 6 5 5 5 5 5 6 5 5 5 5 5 5 5 5 6 5 5 5 5 5 5 5 5 5 5 5 6 5 5 5 5 5 6 5 5 5 5 5 5 6 5 5 5 5 5 6 6 5 5 5 6 5 5 5 5 5 5 5 5 5 5 5 5 5 5 5 5 5 5 5 5 5 5 5 6 5 5 5 5 6 6 5 6 5 5 5 5 5 5 6 5 5 5 6 5 5 5 5 5 5 5 6 5 5 5 6 5 5 5 5 6 5 5 6 5 5 5 6 5 5 6 5 5 6 6 6 5 6 6 5 5 6 5 5 6 5 5 5 5 5 5 5 6 5 5 6 5 5 5 5 5 5 5 5 5 5 5 5 5 5 5 5 5 5 5 6 6 5 5 5 5 5 5 5 5 5 5 5 5 5 5 5 5 5 5 5 5 5 5 5 5 5 5 5 5 5 5 5 5 5 5 5 5 5 5 5 5 5 5 5 5 5 5 5 5 5 5 5 5 5 5 5 6 5 5 5 5 5 5 5 5 5 5 5 5 5 5 5 5 5 5 5 5 5 5 5 5 6 5 5 5 5 5 5 5 5 5 5 5 5 5 5 5 5 5 5 5 5 5 5 5 5 5 5 5 5 5 5 5 5 5 5 5 5 5 5 5 5 6 5 6 5 5 5 5 6 5 5 5 6 5 5 5 5 5 5 5 5 5 5 5 5 5 5 5 6 5 5 5 5 5 5 5 5 5 5 5 6 5 5 5 6 5 5 5 5 5 5 5 5 5 6 5 6 5 5 6 5 5 5 5 5 5 5 5 5 5 5 6 5 5 5 5 5 5 5 5 5 5 5 5 5 5 5 5 5 5 5 5 5 5 5 5 6 5 5 5 5 5 5 5 5 5 5 5 6 5 5 5 6 6 5 5 5 5 5 5 5 5 5 5 6 5 5 5 5 6 5 6 5 5 5 5 6 5 5 6 5 5 5 5 5 6 5 5 5 5 5 5 5 5 5 5 5 5 5 5 5 5 5 5 5 5 5 5 5 5 5 5 5 6 5 5 6 5 5 5 5 6 5 5 5 5 5 6 5 5 5 5 5 5 5 5 5 5 5 5 6 5 5 5 5 5 5 5 5 5 6 5 5 5 5 5 5 5 5 5 5 5 5 5 5 5 5 6 5 5 5 5 5 5 5 6 6 5 5 6 5 5 5 5 5 5 5 5 5 5 5 5 5 6 5 5 5 5 5 6 6 5 5 5 5 5 5 5 5 5 5 5 5 5 5 5 5 5 5 5 5 5 5 5 5 5 5 5 5 5 5 5 5 5 5 5 5 5 5 5 5 5 5 5 5 5 5 5 5 5 5 5 5 5 5 5 5 5 5 5 5 5 5 5 5 5 6 5 6 5 5 5 5 5 5 5 5 5 5 5 5 5 5 5 5 5 5 5 5 5 5 5 5 5 5 5 5 5 5 5 5 5 5 5 5 5 5 5 5 5 5 5 5 5 5 5 5 5 5 5 5 5 6 5 5 6 5 5 5 5 5 5 5 5 5 5 5 5 5 5 5 5 6 5 5 5 5 5 5 5 5 5 5 5 5 5 5 5 5 5 5 5 5 5 5 5 5 5 5 5 5 5 5 5 5 5 5 5 6 5 5 5 5 5 5 5 5 5 5 6 5 5 5 5 5 5 5 5 5 5 5 5 5 5 5 5 5 5 5 5 5 5 5 5 5 5 5 5 6 5 5 5 5 5 5 6 5 5 5 5 5 5 5 5 5 5 5 5 5 5 5 5 5 5 5 5 5 5 5 
</DataArray>
<DataArray type="Float64" Name="stress" NumberOfComponents="9" format="ascii">
0.0096605730220033527 0.98738060904356928 0 0.98738060904356928 -2.9707980081246603 0 0 0 0 0.52112688872181556 -8.5742383293278195 0 -8.5742383293278195 -1498.1391713674529 0 0 0 0 76.51326638303027 -3.8051786398682452 0 -3.8051786398682452 -1497.8471019159347 0 0 0 0 1.1542657072162346 1.6158592516694625 0 1.6158592516694625 -4.2205286218741094 0 0 0 0 0.0036586633133535679 4.8336618426183122 0 4.8336618426183122 -0.70806260285098688 0 0 0 0 -0.0036745427401036739 5.4654968825034302 0 5.4654968825034302 -8.4511488172429381 0 0 0 0 0.73851282585052336 5.5703381143844126 0 5.5703381143844126 -3.8717992821766529 0 0 0 0 2.5229749766735345 1.3953999581208336 0 1.3953999581208336 -14.540097372086166 0 0 0 0 3.1938350167656964 2.8219152876190492 0 2.8219152876190492 -14.392738101188797 0 0 0 0 2.6000176281821696 2.8634628474085275 0 2.8634628474085275 -14.389814650559856 0 0 0 0 0.7787441643643902 5.0338048768135195 0 5.0338048768135195 -12.911600522631488 0 0 0 0 3.1396920611349444 -0.24522223807798582 0 -0.24522223807798582 -8.3650337118961033 0 0 0 0 27.08927838124076 25.97166550353586 0 25.97166550353586 -38.823899614057154 0 0 0 0 -1.2103099744552483 4.6438933222177923 0 4.6438933222177923 -10.971229445060501 0 0 0 0 3.3115068940091987 -11.91310977350804 0 -11.91310977350804 -16.790473687229678 0 0 0 0 1.5437810248662123 0.83261223491920333 0 0.83261223491920333 -5.1889604701801773 0 0 0 0 90.439415672911707 165.25080548240658 0 165.25080548240658 -394.52288904743909 0 0 0 0 -28.135888502302748 -56.326292414367344 0 -56.326292414367344 -195.55099268472986 0 0 0 0 -6.8009363986733433 -53.263805233298626 0 -53.263805233298626 -33.095789656166744 0 0 0 0 0.13373988108036589 2.1498677335159044 0 2.1498677335159044 -3.4176525976887291 0 0 0 0 -63.841582819550815 95.646904141172854 0 95.646904141172854 -53.342761992986198 0 0 0 0 -0.61507994037101932 1.538894984596439 0 1.538894984596439 -5.2355297218375796 0 0 0 0 -38.82555324360284 -502.96429691634876 0 -502.96429691634876 -1498.3668821620486 0 0 0 0 112.6251178594153 -118.82590169826472 0 -118.82590169826472 -587.88981840966153 0 0 0 0 290.12834317713396 15.536502469686639 0 15.536502469686639 -1497.5620774200033 0 0 0 0 -52.638378936817936 360.79260778262687 0 360.79260778262687 -808.78951548544865 0 0 0 0 -180.49903338902382 228.36985021366945 0 228.36985021366945 -177.68693016206817 0 0 0 0 -37.108388902202478 -79.678026480643894 0 -79.678026480643894 -138.62685968552023 0 0 0 0 -61.944415418356577 -72.698667065757945 0 -72.698667065757945 -220.00322355800017 0 0 0 0 -11.901092999355654 89.174597120669205 0 89.174597120669205 -137.24371254772632 0 0 0 0 -158.04579828701151 -444.73223763536771 0 -444.73223763536771 -1148.4935787966897 0 0 0 0 -94.558793899456987 62.641820802669827 0 62.641820802669827 136.60305722162593 0 0 0 0 -272.46920722593904 -646.73862351552816 0 -646.73862351552816 -1499.8908989806575 0 0 0 0 -1.9302801163382457 2.5292287073967259 0 2.5292287073967259 -4.0514052927691253 0 0 0 0 77.18067567755304 46.637390628156936 0 46.637390628156936 -133.77659243262679 0 0 0 0 33.145696111403822 82.47148848123561 0 82.47148848123561 12.919008033139107 0 0 0 0 -0.19858462356071893 -0.68592668439765703 0 -0.68592668439765703 0.22917073324552106 0 0 0 0 -4.6615160898336905 8.3642548285151577 0 8.3642548285151577 -8.9032099615860503 0 0 0 0 17.553456356013385 17.82538942361316 0 17.82538942361316 -5.6211014091022662 0 0 0 0 44.045093833960891 2.1575627075235388 0 2.1575627075235388 -45.430369919049554 0 0 0 0 17.079672646230392 -27.407088850271975 0 -27.407088850271975 -76.734387558231901 0 0 0 0 4.9241223168914985 -20.175923913133374 0 -20.175923913133374 -55.846614538473659 0 0 0 0 -10.936925596578192 -33.571520344270539 0 -33.571520344270539 -49.90197903428998 0 0 0 0 4.8348845173903783 -12.184968327441311 0 -12.184968327441311 -21.514055247309443 0 0 0 0 -0.1313621534323488 -21.729921892012499 0 -21.729921892012499 -14.637812339164157 0 0 0 0 9.5407624339572976 -11.487681072299893 0 -11.487681072299893 -44.214306907372702 0 0 0 0 19.289753150910542 3.3328777519109281 0 3.3328777519109281 -40.357232287624356 0 0 0 0 -16.283306883289093 47.263096355025482 0 47.263096355025482 29.388979679135446 0 0 0 0 -57.274694726563354 10.611641360650538 0 10.611641360650538 40.00944201720813 0 0 0 0 115.03879870665104 10.523794707396064 0 10.523794707396064 -88.513620618949062 0 0 0 0 -0.76164014014777881 1.8673959200655474 0 1.8673959200655474 1.4211174023040201 0 0 0 0 -160.80184532637196 -4.2282123354398209 0 -4.2282123354398209 -18.526352468063124 0 0 0 0 -25.068319190036448 -7.7686303185419092 0 -7.7686303185419092 -28.635242875068798 0 0 0 0 -26.616199051403726 12.290052798154647 0 12.290052798154647 -7.8646014475671109 0 0 0 0 15.792885295134631 30.680013319157297 0 30.680013319157297 -18.828707456406846 0 0 0 0 8.0552520959920457 -5.4413781644871051 0 -5.4413781644871051 -19.436156907322584 0 0 0 0 -32.072847590729381 13.775159450844512 0 13.775159450844512 -4.0551682687364519 0 0 0 0 -38.155990578366072 -11.492741242524062 0 -11.492741242524062 -13.318046088039409 0 0 0 0 4.3652756531911336 -5.530178710418113 0 -5.530178710418113 -17.982550232598442 0 0 0 0 1.2447076784189157 10.790725304170337 0 10.790725304170337 -45.616491326334653 0 0 0 0 15.262450724288215 -37.184178457348025 0 -37.184178457348025 -34.811257871320777 0 0 0 0 2.7720292213286299 58.168661772571795 0 58.168661772571795 9.4039512475574156 0 0 0 0 11.696816443868158 63.372271331216325 0 63.372271331216325 -75.704764802096179 0 0 0 0 0.92862969959389874 -1.2528833738332779 0 -1.2528833738332779 -3.8283778052081061 0 0 0 0 0.088986854459011333 -0.06754219552422569 0 -0.06754219552422569 -1.0034229703813082 0 0 0 0 0.51135374707433812 -12.721197836701322 0 -12.721197836701322 -5.6586437310470501 0 0 0 0 -0.50829114687357158 4.671426919079277 0 4.671426919079277 -11.063738579561743 0 0 0 0 9.7265706562868104 0.26251931785009219 0 0.26251931785009219 -28.352212099154713 0 0 0 0 0.76923207267535942 0.79950745104071697 0 0.79950745104071697 -15.013295017549098 0 0 0 0 6.9939925833643626 -3.8218633508049678 0 -3.8218633508049678 -10.644863940116593 0 0 0 0 -0.014391504780064679 -3.5363114253159438 0 -3.5363114253159438 8.4658676452527288 0 0 0 0 -3.0371147800389338 0.68242842989457131 0 0.68242842989457131 4.6473222157219425 0 0 0 0 -11.949103379407006 8.0283092758727435 0 8.0283092758727435 -24.738713654931416 0 0 0 0 -6.6222391290089035 18.582409454598746 0 18.582409454598746 -44.60852620244259 0 0 0 0 -15.530060162890777 16.869239534564258 0 16.869239534564258 -30.893636016244272 0 0 0 0 1.2348173799182178 4.59170438267269 0 4.59170438267269 -24.792552343573888 0 0 0 0 0.90835720207360282 6.743832921521971 0 6.743832921521971 -38.857801268841285 0 0 0 0 2.6257059259930458 11.249801209947691 0 11.249801209947691 -34.819075185179827 0 0 0 0 0.41734020658071458 4.4431137664041671 0 4.4431137664041671 -26.91615250724135 0 0 0 0 26.488197653226791 45.259345955533718 0 45.259345955533718 -25.517747017627698 0 0 0 0 61.937019931469649 14.201449481113741 0 14.201449481113741 -63.622263018416561 0 0 0 0 24.608683716865499 35.151831407780264 0 35.151831407780264 -64.562917632367316 0 0 0 0 4.9100265154764458 -7.1024876599422413 0 -7.1024876599422413 -6.8996524914993032 0 0 0 0 -4.4276780036544778 -0.4151872272741457 0 -0.4151872272741457 -35.836935678647933 0 0 0 0 -2.57474957077843 -0.50573659885753841 0 -0.50573659885753841 0.3593296861440578 0 0 0 0 0.70556760436409149 18.593751619044269 0 18.593751619044269 6.334429076010565 0 0 0 0 -70.154554421796774 20.030931012172005 0 20.030931012172005 -21.101565149125236 0 0 0 0 -7.214022573271464 -4.6408081066081195 0 -4.6408081066081195 -18.543615474405669 0 0 0 0 -0.65103916091516112 36.293277228154693 0 36.293277228154693 -132.91941722758929 0 0 0 0 -47.384981436207681 94.347833954434464 0 94.347833954434464 -203.15183915688067 0 0 0 0 -95.249145536549406 92.699620051037982 0 92.699620051037982 -148.64756533333275 0 0 0 0 -0.97774201601796173 -0.77973398515203485 0 -0.77973398515203485 0.17717844232614688 0 0 0 0 -2.0944477092197236 4.7402812482120211 0 4.7402812482120211 -18.454246741843406 0 0 0 0 -0.18014767425694345 7.9061937508158735 0 7.9061937508158735 -25.763584174090283 0 0 0 0 -3.3985491665505378 2.6090084717288846 0 2.6090084717288846 -21.21336575303576 0 0 0 0 -0.60697552066020233 1.9656269850569288 0 1.9656269850569288 -4.291542327681654 0 0 0 0 -2.9767769000775388 6.9482713479446829 0 6.9482713479446829 -25.880128260929268 0 0 0 0 -3.5122510340851143 0.42471102500044822 0 0.42471102500044822 -3.1598118970533768 0 0 0 0 -6.0764920936026598 8.7578973218808187 0 8.7578973218808187 -20.222058155195555 0 0 0 0 -6.8471821439434279 4.935142043785163 0 4.935142043785163 -15.867027647764189 0 0 0 0 -32.637270860668252 27.202004500119074 0 27.202004500119074 -55.262109176671402 0 0 0 0 -2.829883763317663 -0.16749975278654006 0 -0.16749975278654006 -3.3429729355079658 0 0 0 0 -44.358054877887653 -25.608260877779685 0 -25.608260877779685 -24.725726279762966 0 0 0 0 -0.10377139531125629 0.0060812300231845029 0 0.0060812300231845029 -4.0024694113057109 0 0 0 0 1.0705939482482449 4.9152505487945746 0 4.9152505487945746 -30.94170656543065 0 0 0 0 2.4045961363513584 4.5286844806632871 0 4.5286844806632871 -31.032264494584524 0 0 0 0 1.7467376381721209 6.3628728587354999 0 6.3628728587354999 -34.939773834390508 0 0 0 0 1.0796812935314222 7.5478610017744359 0 7.5478610017744359 -28.27156017183006 0 0 0 0 3.797455755088734 3.176772733550024 0 3.176772733550024 -32.817601526177896 0 0 0 0 -1.3039759507015454 1.4269966904848843 0 1.4269966904848843 -33.033824509671831 0 0 0 0 -0.46630366376041416 -0.66637074160489362 0 -0.66637074160489362 0.010911611811916799 0 0 0 0 4.0568469855494129 0.78580116292869207 0 0.78580116292869207 -36.783297995705652 0 0 0 0 4.0545137001164946 0.18389433532684052 0 0.18389433532684052 -38.458809234201908 0 0 0 0 -0.2596047046369383 -0.26234099788598542 0 -0.26234099788598542 -0.24132351324824519 0 0 0 0 -6.1595718072140233 -8.5114091529612779 0 -8.5114091529612779 -19.567868983415792 0 0 0 0 -7.2981886340775191 -61.886570906768611 0 -61.886570906768611 -254.30242942806763 0 0 0 0 -34.401878126386713 -47.614592718680797 0 -47.614592718680797 -69.656858710950473 0 0 0 0 -0.030925605942899975 5.865824300894019 0 5.865824300894019 -44.240815063843002 0 0 0 0 -1.179885495147353 2.2485915616907732 0 2.2485915616907732 -28.224396007448377 0 0 0 0 1.8536024025832276 5.655377996576135 0 5.655377996576135 -35.955356992564703 0 0 0 0 3.2305811043872694 1.5179381347770686 0 1.5179381347770686 -29.737018102059665 0 0 0 0 0.19657698229548615 4.2314352977082308 0 4.2314352977082308 -24.215487945890345 0 0 0 0 1.9065608509436949 1.2428038209036458 0 1.2428038209036458 -27.89699183679113 0 0 0 0 0.0087594296804870062 5.9442892455013281 0 5.9442892455013281 -22.492685485369293 0 0 0 0 -1.2790678504316197 3.7899849886434822 0 3.7899849886434822 -15.455066437389178 0 0 0 0 3.3944340437284168 2.9621376643935946 0 2.9621376643935946 -23.76075694138126 0 0 0 0 2.1149773305287169 3.9540008624790062 0 3.9540008624790062 -18.919179586282553 0 0 0 0 3.8364233171022448 1.8598810065159341 0 1.8598810065159341 -17.725212898381869 0 0 0 0 2.6483302825219943 0.68789384346268889 0 0.68789384346268889 -18.512096783932066 0 0 0 0 -0.23804066856156664 1.3542477876760302 0 1.3542477876760302 -4.781105992548774 0 0 0 0 6.2490880966584683 -0.74864596251791227 0 -0.74864596251791227 -18.152141642323841 0 0 0 0 3.9541450813327828 10.933769534945895 0 10.933769534945895 -37.929384310904425 0 0 0 0 6.4438426527672554 1.0272397339472263 0 1.0272397339472263 -25.418041471108154 0 0 0 0 2.8378492772429738 4.5468156603783427 0 4.5468156603783427 -28.508437305848929 0 0 0 0 49.491347090347404 -6.9460530765099975 0 -6.9460530765099975 -36.313253207496018 0 0 0 0 12.688954263762525 -10.645285785863962 0 -10.645285785863962 -31.400321486104986 0 0 0 0 46.976596117915577 0.5583433976366905 0 0.5583433976366905 -33.947060056932969 0 0 0 0 40.674476476380789 -8.4661150877545879 0 -8.4661150877545879 -32.072456684298231 0 0 0 0 65.811833891527158 -4.9286291040516517 0 -4.9286291040516517 -40.0527712329731 0 0 0 0 42.496684153042345 -11.801135575509761 0 -11.801135575509761 -39.0736343394492 0 0 0 0 34.903082016436201 -21.628078811146224 0 -21.628078811146224 -40.583546338644737 0 0 0 0 95.207678950799277 -32.884304093415267 0 -32.884304093415267 -40.482328679062448 0 0 0 0 55.958373996258729 -31.58758423052177 0 -31.58758423052177 -39.330219742463669 0 0 0 0 55.62411612225651 128.40236527407342 0 128.40236527407342 -461.61792839105692 0 0 0 0 0.94479952445176263 0.43122470984595296 0 0.43122470984595296 0.16804370406496183 0 0 0 0 -34.046602994330897 76.747350141045899 0 76.747350141045899 -219.78899618493597 0 0 0 0 28.732274940552998 -43.758162727273884 0 -43.758162727273884 8.8388221348559455 0 0 0 0 98.893154748648158 -2.9908952143523493 0 -2.9908952143523493 -173.94200311537861 0 0 0 0 145.23206120276654 -62.583968473423738 0 -62.583968473423738 -97.901139964276808 0 0 0 0 -17.371698570171247 119.87345401755738 0 119.87345401755738 -132.68798238524869 0 0 0 0 26.151001750881733 53.48095893903519 0 53.48095893903519 -33.528813864884796 0 0 0 0 1.1865742493169109 0.64051897379262357 0 0.64051897379262357 0.079867518220494205 0 0 0 0 76.477399447797779 1.3854827504637797 0 1.3854827504637797 -161.60367778720865 0 0 0 0 132.40279511172474 -111.78011315918411 0 -111.78011315918411 -71.629123826060095 0 0 0 0 91.121344653431152 8.916837682880896 0 8.916837682880896 -35.014216637355275 0 0 0 0 46.95416272820961 -8.0636516352315084 0 -8.0636516352315084 0.65771025708454545 0 0 0 0 45.869551402309014 -17.404598816450743 0 -17.404598816450743 -63.790988445769472 0 0 0 0 5.597053310993374 0.62799978630209807 0 0.62799978630209807 -30.159375480030576 0 0 0 0 -23.358930266014795 -81.654840098946806 0 -81.654840098946806 -59.84652436622855 0 0 0 0 -1.2664928884573883 -3.1546106929276334 0 -3.1546106929276334 -2.7971098737506139 0 0 0 0 60.028379800047844 18.320192474895521 0 18.320192474895521 -278.33801941653746 0 0 0 0 30.499575859602942 -123.5753806911016 0 -123.5753806911016 -172.76337186824821 0 0 0 0 -2.5370293140587483 -2.4260673693256294 0 -2.4260673693256294 -2.2540838559948462 0 0 0 0 -294.38160611713789 -323.97233368738671 0 -323.97233368738671 -1501.1808045412909 0 0 0 0 -198.17465753515825 -385.2486457604673 0 -385.2486457604673 -35.096175953898637 0 0 0 0 223.71901853778434 202.01386192932114 0 202.01386192932114 -1577.2691410640746 0 0 0 0 228.31442262556115 225.73772221397417 0 225.73772221397417 -1495.635372880366 0 0 0 0 121.24040157144077 -77.338672319581747 0 -77.338672319581747 107.68307162586279 0 0 0 0 -75.237399670648813 -69.232613618326468 0 -69.232613618326468 329.19143119139335 0 0 0 0 39.322552350872684 264.02621847759019 0 264.02621847759019 -435.06557062081993 0 0 0 0 -38.747594064049281 -36.534125942387618 0 -36.534125942387618 191.62204592909984 0 0 0 0 -15.799603336876316 -200.66475598912075 0 -200.66475598912075 328.81462677529157 0 0 0 0 -0.90331341728457559 -0.59570786655305241 0 -0.59570786655305241 -0.44493108340897081 0 0 0 0 -73.908824392869917 241.79093988700015 0 241.79093988700015 -202.60004322709574 0 0 0 0 86.554524242719708 -207.00310612868998 0 -207.00310612868998 214.46455959890818 0 0 0 0 -6.8134779743732077 -5.4744667718644422 0 -5.4744667718644422 -7.7213949413960741 0 0 0 0 74.282977273579036 -30.83795663602541 0 -30.83795663602541 59.780419106122281 0 0 0 0 151.89448317909319 -175.61185638831012 0 -175.61185638831012 64.32700018804934 0 0 0 0 -2.7064922522127293 -1.6922445678065827 0 -1.6922445678065827 -5.5881708940595018 0 0 0 0 -247.96108130892543 -297.76156909443307 0 -297.76156909443307 -375.75964860894419 0 0 0 0 -599.49170499384047 849.67289728070682 0 849.67289728070682 -1045.3283052215775 0 0 0 0 -169.91627356583643 436.85034078101035 0 436.85034078101035 -1005.1789528173395 0 0 0 0 -270.02531859648832 723.30743835768226 0 723.30743835768226 -1496.9722051467841 0 0 0 0 -524.72592923194588 656.44494651627247 0 656.44494651627247 -781.16493404748144 0 0 0 0 -6.4513480853066767 -0.26898237933255587 0 -0.26898237933255587 -23.721892306733935 0 0 0 0 43.394657912804178 -41.37637677614839 0 -41.37637677614839 -91.185103891581093 0 0 0 0 -128.832410706942 110.57944949066405 0 110.57944949066405 -283.05847129848553 0 0 0 0 -2.9873291095857528 -4.9846426875827738 0 -4.9846426875827738 -23.952776023213595 0 0 0 0 -4.9306304394689988 -4.0628940017292052 0 -4.0628940017292052 -8.9965772797672159 0 0 0 0 13.500313270736797 -13.182569192855226 0 -13.182569192855226 -87.412762234314869 0 0 0 0 6.7611275124580184 -10.620655818581799 0 -10.620655818581799 -48.794968020580129 0 0 0 0 165.06449868993332 -119.98708594531854 0 -119.98708594531854 -340.4506827250334 0 0 0 0 3.0759808297470954 -12.313222877370208 0 -12.313222877370208 -43.984951113339775 0 0 0 0 3.3826169388054117 -0.023689566820301877 0 -0.023689566820301877 -11.615283693291968 0 0 0 0 -157.9175326198997 -51.318472577477223 0 -51.318472577477223 -70.207897707106895 0 0 0 0 2.7199642696186856 -11.349079752226316 0 -11.349079752226316 -41.798977659833326 0 0 0 0 6.5236640593188895 -27.869972057236737 0 -27.869972057236737 -55.920649638645955 0 0 0 0 2.3801971184568629 -13.723472492229121 0 -13.723472492229121 -22.263045995532593 0 0 0 0 3.2183987526982492 -35.312136014823409 0 -35.312136014823409 -19.299240358806628 0 0 0 0 3.2607038395233303 -32.448723853400224 0 -32.448723853400224 -33.648147562815211 0 0 0 0 6.967841133223601 -13.526461847839528 0 -13.526461847839528 -48.164212394865899 0 0 0 0 62.382916158647276 -64.422621667517888 0 -64.422621667517888 53.395431516180906 0 0 0 0 24.631092114730517 -15.256206225586382 0 -15.256206225586382 -4.9267763831158931 0 0 0 0 58.392197165336569 61.407538005850483 0 61.407538005850483 -69.167875999963144 0 0 0 0 58.399198912838528 62.560843011771794 0 62.560843011771794 -7.0510482947502169 0 0 0 0 28.386176309133589 -5.500126966231619 0 -5.500126966231619 -141.20883420581231 0 0 0 0 5.0236276689063573 0.6493456579924981 0 0.6493456579924981 -19.400471498153109 0 0 0 0 8.5647366609738356 124.88003598149771 0 124.88003598149771 -299.69987079060957 0 0 0 0 54.656311114300479 95.676655561615917 0 95.676655561615917 -178.09002654783581 0 0 0 0 26.084313543932694 8.6881125294748927 0 8.6881125294748927 -122.49054680072368 0 0 0 0 9.5538415182838889 80.780908556620489 0 80.780908556620489 -56.687807610025629 0 0 0 0 -3.4318639943012386 1.9762506918887084 0 1.9762506918887084 -17.519394838065637 0 0 0 0 7.6375914218447178 90.465514910634738 0 90.465514910634738 52.953951704650535 0 0 0 0 53.437761267617134 60.444265837613784 0 60.444265837613784 -56.723876496197583 0 0 0 0 -6.2696955637484599 6.7689586670901249 0 6.7689586670901249 -7.4389680251512864 0 0 0 0 108.27055307321643 153.96619948581792 0 153.96619948581792 100.84180631060735 0 0 0 0 0.12116286002614629 -0.18809589541146465 0 -0.18809589541146465 -1.159892725707536 0 0 0 0 -4.4567977357078066 6.9334096913044334 0 6.9334096913044334 -6.7039512121829929 0 0 0 0 -23.377785286133076 21.164589596242877 0 21.164589596242877 -34.902697480254574 0 0 0 0 -5.4756369740211692 4.534311018940933 0 4.534311018940933 -12.582214413705444 0 0 0 0 -3.8854946560414314 -2.1460798080655437 0 -2.1460798080655437 -8.8357192582401609 0 0 0 0 -4.8986120175995893 3.4012380361455143 0 3.4012380361455143 -32.278542953666147 0 0 0 0 0.051109338242895319 22.373511586185487 0 22.373511586185487 -52.565581183619543 0 0 0 0 -3.7943998903649838 8.6660711632035046 0 8.6660711632035046 -10.628935912722675 0 0 0 0 26.47418384206776 43.501392002843204 0 43.501392002843204 -89.449181769072311 0 0 0 0 1.2068022648368242 62.467747915183281 0 62.467747915183281 -67.974115586013795 0 0 0 0 -48.395261413261693 77.407745939241067 0 77.407745939241067 -370.75651479992302 0 0 0 0 -64.597396527093949 436.8140424607127 0 436.8140424607127 -879.87711651317659 0 0 0 0 217.15195538003573 182.86544499523734 0 182.86544499523734 -1084.2857187430236 0 0 0 0 168.45777608222886 494.07211208620629 0 494.07211208620629 -1500.0727363109381 0 0 0 0 214.50261321500017 183.2644144673236 0 183.2644144673236 -1000.7135337992149 0 0 0 0 -38.506609738665347 126.39964610359925 0 126.39964610359925 -462.35308659087968 0 0 0 0 29.488916963314978 -118.69509471291167 0 -118.69509471291167 -876.2097421982653 0 0 0 0 39.4835694893587 -51.168470962425999 0 -51.168470962425999 -859.70875404904655 0 0 0 0 -7.4681288645028614 12.408347561358042 0 12.408347561358042 -10.417988076475424 0 0 0 0 93.663102929938688 -211.12651458013352 0 -211.12651458013352 -971.58537455302212 0 0 0 0 235.30476880065785 -73.007128586043109 0 -73.007128586043109 -1499.5885227598883 0 0 0 0 8.8109024163328193 -428.45751725292394 0 -428.45751725292394 -1499.4859282264622 0 0 0 0 49.338475219017255 -29.103095140533696 0 -29.103095140533696 -103.46447155116039 0 0 0 0 -5.6099238206744531 36.140960147931764 0 36.140960147931764 -35.873919536767062 0 0 0 0 -8.7879810659496798 11.26642698444266 0 11.26642698444266 -25.68706175900661 0 0 0 0 0.8461740672353244 -4.1721308398373367 0 -4.1721308398373367 -31.142168027592561 0 0 0 0 -81.843221200036396 -100.24351916833257 0 -100.24351916833257 123.13335099449978 0 0 0 0 0.048110977396651933 -7.3446290839096804 0 -7.3446290839096804 -8.3397371230779243 0 0 0 0 -0.27526872727044349 0.69437784810364178 0 0.69437784810364178 -5.903940161020433 0 0 0 0 -5.7990801600467421 11.825210081744444 0 11.825210081744444 -34.381555515405978 0 0 0 0 -10.239020751728276 9.3060778942854085 0 9.3060778942854085 -22.692644343442225 0 0 0 0 -3.2244369187101256 3.1803670990993851 0 3.1803670990993851 -34.261209392471869 0 0 0 0 -428.5607010492422 106.87896866923074 0 106.87896866923074 166.54934486405909 0 0 0 0 200.34022951086604 -133.25143541652869 0 -133.25143541652869 -405.60005972979707 0 0 0 0 109.39147913944089 -128.50275436571974 0 -128.50275436571974 -23.685337534083374 0 0 0 0 1.7828015533211481 -8.4013998020660097 0 -8.4013998020660097 -7.8149814075856625 0 0 0 0 71.39570949482777 41.108604913077215 0 41.108604913077215 -2.1265443918673554 0 0 0 0 -18.837777149226667 223.91613970082653 0 223.91613970082653 -310.33492922747246 0 0 0 0 -2.8636728569989587 3.676162921056779 0 3.676162921056779 -3.5945129540925507 0 0 0 0 -134.95754186658041 -155.14125493298707 0 -155.14125493298707 -199.44806104786403 0 0 0 0 -59.73252276272251 69.274994190447615 0 69.274994190447615 -6.8234117934480309 0 0 0 0 -187.9924561476987 192.20697993628164 0 192.20697993628164 91.761277635752776 0 0 0 0 -0.8784127605973211 -0.67202129709902891 0 -0.67202129709902891 -0.36420646532351952 0 0 0 0 -141.85310635054725 50.755506492096174 0 50.755506492096174 223.55997938779183 0 0 0 0 -24.556752390223892 191.40406493901719 0 191.40406493901719 -179.9529492177935 0 0 0 0 -184.82567018942791 199.92647601840144 0 199.92647601840144 96.436596079089213 0 0 0 0 -28.967815674529447 113.55612624501737 0 113.55612624501737 -49.028150045385701 0 0 0 0 49.751710053446004 42.948381739399338 0 42.948381739399338 -36.332028333465132 0 0 0 0 -13.825458647744199 87.90588607484824 0 87.90588607484824 -149.27289398444736 0 0 0 0 -38.228880361892607 63.029710756563873 0 63.029710756563873 -103.47100303341722 0 0 0 0 -53.634535812771787 80.465146557050502 0 80.465146557050502 -117.23276225882 0 0 0 0 -83.947100124359849 26.167221837007673 0 26.167221837007673 -108.29501181331943 0 0 0 0 -24.541964984829974 21.836746236589534 0 21.836746236589534 -135.40429202167888 0 0 0 0 24.039019091043428 19.581383837692556 0 19.581383837692556 -115.95273465642094 0 0 0 0 -24.849287683044992 28.062996712240079 0 28.062996712240079 -76.358750586055976 0 0 0 0 17.26158975974613 51.444063952609213 0 51.444063952609213 -38.302913349180017 0 0 0 0 55.996881063823821 64.959604593401309 0 64.959604593401309 -67.340855121663481 0 0 0 0 -34.221112945590903 76.172126158999163 0 76.172126158999163 -63.525076181937038 0 0 0 0 18.448302175867866 53.045275245553057 0 53.045275245553057 -94.130354949731554 0 0 0 0 29.233520635476452 64.476350268276292 0 64.476350268276292 -72.664237187578692 0 0 0 0 -24.825785218328747 102.0613522422027 0 102.0613522422027 -60.146139692165889 0 0 0 0 39.72965566930543 87.50931525728447 0 87.50931525728447 -51.900843373237876 0 0 0 0 156.69229363400245 121.87228825764396 0 121.87228825764396 -55.060941703297431 0 0 0 0 78.320248934298888 96.740252213312488 0 96.740252213312488 -66.168275706149871 0 0 0 0 1.1362810914842694 2.7739794710112733 0 2.7739794710112733 -19.325593035273087 0 0 0 0 63.166724106613401 73.101784911908908 0 73.101784911908908 -54.803392721725686 0 0 0 0 83.193137613334329 114.72393446122442 0 114.72393446122442 20.093181679054396 0 0 0 0 75.986493594522472 71.249175797827775 0 71.249175797827775 38.845101729035378 0 0 0 0 75.986493594493368 71.249175797973294 0 71.249175797973294 38.845101728889858 0 0 0 0 75.986493594551575 71.249175797711359 0 71.249175797711359 38.845101728831651 0 0 0 0 102.6874849682772 116.33226098509476 0 116.33226098509476 -29.447375759336865 0 0 0 0 57.076933324589845 81.797083150813705 0 81.797083150813705 -30.638146246099495 0 0 0 0 105.45778696913658 87.858760563300166 0 87.858760563300166 -60.421021491391002 0 0 0 0 68.958252790123879 84.946736208679795 0 84.946736208679795 5.0355193510185927 0 0 0 0 70.014000486286022 68.310405032694689 0 68.310405032694689 -46.43554376904649 0 0 0 0 132.51423085260785 52.833783196139848 0 52.833783196139848 -64.612865504375804 0 0 0 0 37.456308262891071 71.67558149011893 0 71.67558149011893 -35.136161103626364 0 0 0 0 70.937283745050081 48.775544188945787 0 48.775544188945787 -63.742291703500086 0 0 0 0 81.566764893103027 68.559822587954841 0 68.559822587954841 -66.404810891504894 0 0 0 0 70.725676842161192 35.618192656802421 0 35.618192656802421 -11.597944416367682 0 0 0 0 74.668987742861646 61.657463495241245 0 61.657463495241245 -22.738735957245808 0 0 0 0 73.483843989886736 43.540127399639459 0 43.540127399639459 8.4581346511695301 0 0 0 0 17.269570001085413 23.109666759253741 0 23.109666759253741 -48.521884556139412 0 0 0 0 -16.571534540612713 38.987619564099631 0 38.987619564099631 -65.754039430340683 0 0 0 0 986.19059153555099 317.42854152951986 0 317.42854152951986 -416.67435676923196 0 0 0 0 518.85648878787015 227.26582355936534 0 227.26582355936534 320.86786678296994 0 0 0 0 280.97595566026212 -151.28778049191533 0 -151.28778049191533 16.427915588888936 0 0 0 0 376.22882049701457 -253.35616844519427 0 -253.35616844519427 -137.17504739044489 0 0 0 0 7.5286706982147589 10.555561944956146 0 10.555561944956146 -60.181251076631241 0 0 0 0 367.58758445923195 -219.76741859834897 0 -219.76741859834897 -205.11569330746352 0 0 0 0 37.294928801652077 -66.001842481595304 0 -66.001842481595304 -35.640433483029483 0 0 0 0 -8.8887335629865447 -60.05617201080895 0 -60.05617201080895 -10.94602603648309 0 0 0 0 34.943365994101953 -40.959201763132342 0 -40.959201763132342 -38.386552470088645 0 0 0 0 187.76890084703518 15.345132617523632 0 15.345132617523632 -52.117625875922386 0 0 0 0 22.595640275158075 -56.991014149338298 0 -56.991014149338298 139.70111356422422 0 0 0 0 -248.12788182406121 47.987741648641531 0 47.987741648641531 278.62485895719146 0 0 0 0 -13.789205213311561 -14.333383607197902 0 -14.333383607197902 -47.996677883154916 0 0 0 0 56.87951310113931 -21.927686200702738 0 -21.927686200702738 -220.63562718210596 0 0 0 0 8.052597457965021 -44.50562685260229 0 -44.50562685260229 -370.53356563753732 0 0 0 0 -112.3824123646009 -66.072731243144517 0 -66.072731243144517 -62.562827276444295 0 0 0 0 25.039062035215693 22.128064898257435 0 22.128064898257435 -168.08039345654834 0 0 0 0 57.43039088670821 -28.619510191736481 0 -28.619510191736481 -165.66608922665182 0 0 0 0 97.055078791434312 24.7099897095286 0 24.7099897095286 -109.0967831719463 0 0 0 0 13.218427882789204 1.3057867878565972 0 1.3057867878565972 -64.931502931407223 0 0 0 0 114.68350494773154 -10.892039950458638 0 -10.892039950458638 -118.48209424616834 0 0 0 0 36.300660316629546 -153.78493346098548 0 -153.78493346098548 70.016562012620852 0 0 0 0 134.51618237809816 -144.02102575440222 0 -144.02102575440222 33.976684562592709 0 0 0 0 -29.359791307499108 -45.996046219444906 0 -45.996046219444906 68.067250138854433 0 0 0 0 -53.591803075475468 -69.130515509292763 0 -69.130515509292763 47.153750904199114 0 0 0 0 -26.264395401198271 -13.578940366141978 0 -13.578940366141978 -68.863177561825069 0 0 0 0 -61.223848615865791 -80.231341525071912 0 -80.231341525071912 70.238484381351569 0 0 0 0 258.28748746186648 -76.677375619060967 0 -76.677375619060967 -185.84950846396168 0 0 0 0 -370.06389258597846 -586.30478351824331 0 -586.30478351824331 -391.60969855144504 0 0 0 0 600.55150586360105 342.06758579913003 0 342.06758579913003 -1496.5334426595982 0 0 0 0 -661.86925624866251 272.73988380616152 0 272.73988380616152 -331.32263435947971 0 0 0 0 -13.376055195763911 66.995041901852346 0 66.995041901852346 -1033.2367249235103 0 0 0 0 -218.5047839247022 166.32806573925092 0 166.32806573925092 -220.10090437401595 0 0 0 0 -206.89554375944681 -72.572315574543609 0 -72.572315574543609 -83.22630129123263 0 0 0 0 29.136472592408609 69.528705818611343 0 69.528705818611343 -531.83157701588971 0 0 0 0 -4.2169441921623729 102.8345577193013 0 102.8345577193013 -271.11172529394912 0 0 0 0 41.702484848996846 0.27616151973870728 0 0.27616151973870728 -262.63747474251795 0 0 0 0 3.4036834975422607 -31.718624615617955 0 -31.718624615617955 -463.78014267814069 0 0 0 0 87.438522943863063 -67.384703620078653 0 -67.384703620078653 -412.05889951301651 0 0 0 0 90.046279311825856 -63.961225222778694 0 -63.961225222778694 -597.72147413523635 0 0 0 0 82.873419033086975 19.631565060410139 0 19.631565060410139 -359.59892238375278 0 0 0 0 94.569019113439936 -80.897919716000615 0 -80.897919716000615 -392.08840779598813 0 0 0 0 105.43457919233788 -63.482716411321235 0 -63.482716411321235 -366.57473437088629 0 0 0 0 81.804786287076212 4.4236460758178282 0 4.4236460758178282 -244.35548096319326 0 0 0 0 84.296110265257084 -35.390505047445913 0 -35.390505047445913 -247.93111645524914 0 0 0 0 72.739680058293743 49.916425667612202 0 49.916425667612202 -234.4620757849932 0 0 0 0 63.607782185994893 37.847440359883876 0 37.847440359883876 -72.261051181350922 0 0 0 0 53.054536938187084 83.184530601777624 0 83.184530601777624 13.1798272429387 0 0 0 0 100.88447808743513 32.2467388901714 0 32.2467388901714 -84.456739661477059 0 0 0 0 14.43309364437664 32.223963830891535 0 32.223963830891535 -82.94192551965898 0 0 0 0 -44.160468494345594 58.041687624008716 0 58.041687624008716 6.4506257517332415 0 0 0 0 -81.532901534301345 -5.9766667656804202 0 -5.9766667656804202 -25.998932926613634 0 0 0 0 -67.885435051286095 35.646600585707347 0 35.646600585707347 141.48230190795039 0 0 0 0 44.074214076680164 -25.157958012321615 0 -25.157958012321615 -42.902201000264995 0 0 0 0 15.96388805758899 -9.9092195274370418 0 -9.9092195274370418 7.7008684393869942 0 0 0 0 37.645472884978631 -14.892467036926064 0 -14.892467036926064 -27.766534695572773 0 0 0 0 37.817172858789547 -16.959364192452995 0 -16.959364192452995 -35.653286684187151 0 0 0 0 7.1601672663632598 84.178681496342506 0 84.178681496342506 -86.969357766802204 0 0 0 0 123.48864442210629 13.091763406498103 0 13.091763406498103 -53.035184638438295 0 0 0 0 1572.1991002789391 1130.9771103410194 0 1130.9771103410194 -877.61228655507875 0 0 0 0 209.19741806491038 152.78695544879793 0 152.78695544879793 -132.03402012289189 0 0 0 0 -7.2626155471904212 24.956141093636582 0 24.956141093636582 -62.468272670826224 0 0 0 0 64.864549614256248 -7.6404382601785983 0 -7.6404382601785983 19.387365741130452 0 0 0 0 114.82154500173897 -2.2467034515016167 0 -2.2467034515016167 -211.30994694240326 0 0 0 0 80.295528923212942 -65.052188759967976 0 -65.052188759967976 -216.33888280501924 0 0 0 0 78.690986620587864 -121.92180615818324 0 -121.92180615818324 -338.57986916800837 0 0 0 0 62.735521850102486 -29.687365148634854 0 -29.687365148634854 -276.85598340427487 0 0 0 0 61.665728462349762 -131.59700326878647 0 -131.59700326878647 -311.38973289573187 0 0 0 0 84.095078519634626 -131.38413918599144 0 -131.38413918599144 -339.5428956540236 0 0 0 0 86.500845246217978 -164.07233781178911 0 -164.07233781178911 -461.46584884212916 0 0 0 0 70.79339209637692 -109.59828024747094 0 -109.59828024747094 -373.57100098780575 0 0 0 0 5.7314877637581958 -274.28855986487542 0 -274.28855986487542 -537.88442868506536 0 0 0 0 42.278778900202269 -161.56752354406854 0 -161.56752354406854 -297.93260633998943 0 0 0 0 115.34871737011713 30.921187919555905 0 30.921187919555905 -164.73952890787768 0 0 0 0 -38.763655035417742 -26.12152304838628 0 -26.12152304838628 -59.835771379759535 0 0 0 0 36.194407656956628 -125.53741756769341 0 -125.53741756769341 -194.68033290294625 0 0 0 0 45.441658721812018 -145.13303840462686 0 -145.13303840462686 -299.76311005379807 0 0 0 0 -8.2578536539368379 19.894456818094316 0 19.894456818094316 -40.716197261187418 0 0 0 0 778.78846386179066 744.68768941819508 0 744.68768941819508 42.670862473016314 0 0 0 0 244.48170645512891 593.47974395408892 0 593.47974395408892 179.93820866163514 0 0 0 0 -276.90205699216449 -59.121532348104665 0 -59.121532348104665 624.51070995885675 0 0 0 0 -234.24381576052338 -401.21228782536127 0 -401.21228782536127 -631.70664725150345 0 0 0 0 -4.804207682870655 7.6013272581062239 0 7.6013272581062239 -12.416284097108878 0 0 0 0 -143.46460955204384 -203.93167285606069 0 -203.93167285606069 -210.07309131466172 0 0 0 0 -116.7714503335983 1079.7882290968682 0 1079.7882290968682 70.296107062360534 0 0 0 0 2.1031645704526447 8.1693098705165994 0 8.1693098705165994 -18.066469369100417 0 0 0 0 228.40644190513467 454.16412919362119 0 454.16412919362119 1152.3556332944936 0 0 0 0 -9.9306743444733421 23.626648360933594 0 23.626648360933594 -36.024197678290847 0 0 0 0 8.8703934074655031 12.05218142175363 0 12.05218142175363 -139.5296988488335 0 0 0 0 -164.4462396277504 113.18824506425881 0 113.18824506425881 164.16771334615987 0 0 0 0 507.26904320181347 178.02499792397793 0 178.02499792397793 -268.18873557924371 0 0 0 0 -791.47579359548968 -79.781175707979855 0 -79.781175707979855 649.7155925077077 0 0 0 0 238.21589586623122 813.96972747805921 0 813.96972747805921 275.81100847164635 0 0 0 0 -6.168305808369916 7.6091934216478556 0 7.6091934216478556 -10.615298655067775 0 0 0 0 25.554764213301681 -98.031211235313094 0 -98.031211235313094 -757.89294065246577 0 0 0 0 -9.5511883722036259 -29.33961963123329 0 -29.33961963123329 -231.11678557346022 0 0 0 0 54.187254083750958 -0.68499804198290803 0 -0.68499804198290803 -382.88239585161136 0 0 0 0 12.568380279254825 37.706201229275393 0 37.706201229275393 -262.28957389137213 0 0 0 0 -8.0800548997960107 -7.6434861054622161 0 -7.6434861054622161 -186.07564917574564 0 0 0 0 2.2685579256531838 47.352276340268872 0 47.352276340268872 -156.06709807989319 0 0 0 0 -23.244732721888425 30.381171264516524 0 30.381171264516524 -23.501363622461213 0 0 0 0 15.220503684672924 7.6313133403623112 0 7.6313133403623112 -13.263238025706164 0 0 0 0 518.88991620473098 980.80355867231992 0 980.80355867231992 -130.82330186513354 0 0 0 0 57.821721986478678 44.187289300253724 0 44.187289300253724 -110.47609606667902 0 0 0 0 -20.509783453135476 38.604609798434318 0 38.604609798434318 -54.634572755872938 0 0 0 0 5.0618127183934121 22.869822027685586 0 22.869822027685586 -78.702347474869384 0 0 0 0 18.534345927818833 55.004080429818714 0 55.004080429818714 -141.59984836153853 0 0 0 0 -17.458674810219463 2.9607254095853932 0 2.9607254095853932 -16.184993466635206 0 0 0 0 10.25181101351375 0.85435420195135237 0 0.85435420195135237 1.1038045691902418 0 0 0 0 -2.9343613233668293 1.8743680068473623 0 1.8743680068473623 -107.70023259681602 0 0 0 0 37.623582254715984 7.8093757479718988 0 7.8093757479718988 -146.04486172486941 0 0 0 0 -6.5013151457713434 16.806806619618328 0 16.806806619618328 -134.91796312110819 0 0 0 0 -37.440641096327454 25.317039105590084 0 25.317039105590084 -129.13826743227037 0 0 0 0 4.8333679442645607 0.99109939755659582 0 0.99109939755659582 -0.12833442883282942 0 0 0 0 -42.644779885863755 -18.081916333787376 0 -18.081916333787376 -28.48892733917819 0 0 0 0 -4.7083695902027785 83.365942936326974 0 83.365942936326974 -197.07055131113157 0 0 0 0 -21.765499496049415 7.3856277414415672 0 7.3856277414415672 -301.59781467277207 0 0 0 0 26.178573511217806 -16.415807639925106 0 -16.415807639925106 -289.95378001855715 0 0 0 0 -4.8521235399052216 -7.7749301927278793 0 -7.7749301927278793 -317.26354975458526 0 0 0 0 -37.9579950716996 -111.43313784432803 0 -111.43313784432803 -540.81705965088622 0 0 0 0 -44.257112157015854 -1.4146513879750273 0 -1.4146513879750273 -304.03193717792237 0 0 0 0 -29.520279107601823 -24.587871138663104 0 -24.587871138663104 -328.37678490070903 0 0 0 0 -199.55562260602343 -35.259276327088401 0 -35.259276327088401 -13.547737918393977 0 0 0 0 -200.64599621043942 -51.836366069330325 0 -51.836366069330325 -262.82943496590997 0 0 0 0 -144.64841156827606 75.517385164785082 0 75.517385164785082 -362.04658669950732 0 0 0 0 -110.93688310635214 1.2103014704548514 0 1.2103014704548514 -215.16506441540696 0 0 0 0 -110.24522683155465 3.2863307987281587 0 3.2863307987281587 -220.69346224585024 0 0 0 0 -112.03985901062993 9.4256677995253995 0 9.4256677995253995 -222.37343988625798 0 0 0 0 -112.70527996623503 7.3187594791702395 0 7.3187594791702395 -216.09964573862817 0 0 0 0 -95.122133773368489 -14.092269533401122 0 -14.092269533401122 -256.46136799336091 0 0 0 0 -91.514715946291687 -38.165782329868307 0 -38.165782329868307 -162.23760622549162 0 0 0 0 -59.182492564693362 -61.803345916479884 0 -61.803345916479884 -210.63520204958331 0 0 0 0 -98.014318662669169 3.4951291160505207 0 3.4951291160505207 -207.72881670589777 0 0 0 0 -87.189114432170868 37.086329000683691 0 37.086329000683691 -176.38716143324746 0 0 0 0 -97.496857291559621 63.465495281641779 0 63.465495281641779 -230.44924334141251 0 0 0 0 -89.779962364496441 19.66433481103013 0 19.66433481103013 -291.17877667410721 0 0 0 0 -0.57294411876105755 45.869060998291388 0 45.869060998291388 -284.40147999357578 0 0 0 0 -23.096892927637796 96.743889633129584 0 96.743889633129584 -399.03157243323585 0 0 0 0 -68.985995655912916 145.73927339244256 0 145.73927339244256 -256.96022267131048 0 0 0 0 -286.85964920635888 449.19372525242215 0 449.19372525242215 -463.15858098115677 0 0 0 0 -69.209897423187101 140.30780935314033 0 140.30780935314033 -194.6571491131217 0 0 0 0 253.88107188441055 -311.18731034259781 0 -311.18731034259781 -93.676539994390623 0 0 0 0 -650.50623502376993 -289.50507293177134 0 -289.50507293177134 49.79095443361075 0 0 0 0 -401.55080058127265 130.1394298648047 0 130.1394298648047 -53.456195875703997 0 0 0 0 -157.14628163993314 56.92472897267362 0 56.92472897267362 -123.11518310972315 0 0 0 0 -77.061996523941559 -62.225553219439462 0 -62.225553219439462 -6.2022262960617809 0 0 0 0 -87.628125255487703 -44.487748604459284 0 -44.487748604459284 -86.273961756349308 0 0 0 0 -21.192157324052005 -100.57367194570543 0 -100.57367194570543 -131.10584767280443 0 0 0 0 -38.047755003419411 -39.159843380297389 0 -39.159843380297389 -137.50338063428353 0 0 0 0 24.07658853459634 -115.59750490411534 0 -115.59750490411534 -96.375380930319807 0 0 0 0 -1.6183300758685277 -80.294123240466433 0 -80.294123240466433 -143.88671693467768 0 0 0 0 71.517829942012668 -71.630711239293305 0 -71.630711239293305 -110.72379572967384 0 0 0 0 -13.619100318213981 -91.700738810979601 0 -91.700738810979601 -68.854741759379976 0 0 0 0 90.890389701502272 -54.143087712702254 0 -54.143087712702254 -87.5505960825285 0 0 0 0 161.16938525326032 -93.747954782666056 0 -93.747954782666056 -50.934302696514351 0 0 0 0 89.59689646240993 -32.54725772949871 0 -32.54725772949871 -42.37093429579545 0 0 0 0 70.385901487868637 -67.135963690881908 0 -67.135963690881908 -39.190818379545817 0 0 0 0 283.79036899563823 -6.7819886831020995 0 -6.7819886831020995 -83.587376904542907 0 0 0 0 133.38553964936784 -24.450939066948195 0 -24.450939066948195 -44.672392963366292 0 0 0 0 166.35844848498914 -69.879944643264025 0 -69.879944643264025 -105.88786883533612 0 0 0 0 68.929007614445254 -85.756141296089481 0 -85.756141296089481 -82.631173874437081 0 0 0 0 210.95446061624602 43.77911868024421 0 43.77911868024421 -1.3339236470783362 0 0 0 0 157.63311270838972 27.45082979633662 0 27.45082979633662 -21.219722502748482 0 0 0 0 196.27218871326613 -24.184295535909769 0 -24.184295535909769 -77.525810840605118 0 0 0 0 273.01237558446064 20.797260078263207 0 20.797260078263207 -39.985090983893315 0 0 0 0 -3.8379320478550025 19.4185786633467 0 19.4185786633467 -61.797303523869182 0 0 0 0 520.19106918186753 116.66526211269957 0 116.66526211269957 -91.036913493906468 0 0 0 0 263.83452538852953 -85.198188153099181 0 -85.198188153099181 -99.069743362651934 0 0 0 0 857.14348405659211 125.53263195521504 0 125.53263195521504 -96.173218421313862 0 0 0 0 155.69949767147386 160.14265319496144 0 160.14265319496144 -65.133762912784732 0 0 0 0 -5.178779110829999 22.628599543570459 0 22.628599543570459 -67.657219609475192 0 0 0 0 17.63496625046632 -2.1732914368767524 0 -2.1732914368767524 -472.46199860568777 0 0 0 0 -11.42131664813143 -21.9641950851601 0 -21.9641950851601 -454.27378353106906 0 0 0 0 -19.026488764698641 36.331296625137838 0 36.331296625137838 -442.7813819844655 0 0 0 0 34.615538238824939 -30.213658046643104 0 -30.213658046643104 -432.75444833227084 0 0 0 0 -3.3275592798310498 10.314907539805972 0 10.314907539805972 -413.66885382351029 0 0 0 0 10.422312010352186 -6.891564317738812 0 -6.891564317738812 -438.74760383135072 0 0 0 0 19.571566665224381 -19.557067687444942 0 -19.557067687444942 -421.30826704642823 0 0 0 0 0.00089613897821921168 -24.813592733618862 0 -24.813592733618862 -410.64356453916844 0 0 0 0 0.034203684748434014 -37.748862440619632 0 -37.748862440619632 -376.24532911249844 0 0 0 0 24.065138597113602 -44.964236061407064 0 -44.964236061407064 -399.50340667615819 0 0 0 0 18.932966768378876 -32.034062760410961 0 -32.034062760410961 -419.37479954201262 0 0 0 0 19.090168823452274 -71.310510080325912 0 -71.310510080325912 -406.04065905372681 0 0 0 0 0.41984906925211934 -68.031853641348789 0 -68.031853641348789 -311.34225114332003 0 0 0 0 10.87328694165997 -58.670898650569143 0 -58.670898650569143 -311.91636495250691 0 0 0 0 -0.044758901490637437 -28.58149693048108 0 -28.58149693048108 -240.33147302491852 0 0 0 0 -5.9712191612256209 -49.125803562044894 0 -49.125803562044894 -284.55498561882996 0 0 0 0 8.4868223841982786 -69.505574084817454 0 -69.505574084817454 -283.67608112620655 0 0 0 0 -32.542051091005895 -74.004357294616057 0 -74.004357294616057 -146.80636640784951 0 0 0 0 15.332006415380581 -36.321026794294312 0 -36.321026794294312 -282.59504777429902 0 0 0 0 2.0468957706968567 -91.40747193551033 0 -91.40747193551033 -286.12762224919425 0 0 0 0 18.319373919646907 -150.19856059246376 0 -150.19856059246376 -513.33822570974917 0 0 0 0 -70.080721559209508 -117.7761201096846 0 -117.7761201096846 -196.80936240471419 0 0 0 0 -29.369824497701529 5.5483422413117296 0 5.5483422413117296 -88.382522441141191 0 0 0 0 -2.2208283701527876 -6.2340561377168342 0 -6.2340561377168342 -155.17936589653982 0 0 0 0 -34.989513803869116 54.845455381735519 0 54.845455381735519 -92.946767014749639 0 0 0 0 -0.66022434890834569 1.2250163065541688 0 1.2250163065541688 -11.517316673781067 0 0 0 0 -16.489300546465785 -39.155727319337529 0 -39.155727319337529 -90.930019252657075 0 0 0 0 -32.20567406631244 62.430860027097879 0 62.430860027097879 -86.620042666714653 0 0 0 0 -210.51938908166147 254.38986073250271 0 254.38986073250271 -226.80809240115923 0 0 0 0 -113.40405167041067 -301.67692973337034 0 -301.67692973337034 -610.69023601305526 0 0 0 0 -0.23533874025028312 0.55269596607569671 0 0.55269596607569671 -4.3768876542347073 0 0 0 0 -16.97342742163778 53.885613168491545 0 53.885613168491545 -142.70939815185466 0 0 0 0 -58.276374136082381 102.93550950585268 0 102.93550950585268 -136.97519543624503 0 0 0 0 -106.17546229682603 -68.102322559265303 0 -68.102322559265303 7.5763522974202715 0 0 0 0 1.3192922619695566 -0.066688688621624692 0 -0.066688688621624692 -0.17548465983245443 0 0 0 0 -38.992577294223111 98.563799559680774 0 98.563799559680774 -224.24904382614113 0 0 0 0 39.354825092006308 9.2414978459692065 0 9.2414978459692065 -267.1766353368148 0 0 0 0 62.085675489965638 -50.69577065077101 0 -50.69577065077101 -329.37125225027921 0 0 0 0 -58.157938428635248 -259.97713581959215 0 -259.97713581959215 -528.31161957796758 0 0 0 0 82.551029551365218 -192.4171726670138 0 -192.4171726670138 -617.5520007044106 0 0 0 0 -223.21873885254752 25.532906785454543 0 25.532906785454543 -261.40299709395822 0 0 0 0 -311.81385664129812 -128.80741024427152 0 -128.80741024427152 -405.35181751683922 0 0 0 0 -134.33707947635116 113.77645594023852 0 113.77645594023852 -576.26480866382576 0 0 0 0 11.599955378184916 -200.31051218674293 0 -200.31051218674293 -587.38222674458666 0 0 0 0 -52.630215143490773 -117.58789588366562 0 -117.58789588366562 -405.07944179551419 0 0 0 0 -25.751614207810235 -113.27421393319037 0 -113.27421393319037 -436.51507510150259 0 0 0 0 -26.30962469510132 -113.59983644268141 0 -113.59983644268141 -418.17863872340968 0 0 0 0 -1.1733302291950503 -0.87728687782860959 0 -0.87728687782860959 0.067314153805751786 0 0 0 0 -64.458484452834796 -81.734706134835506 0 -81.734706134835506 -376.3687619285156 0 0 0 0 -101.4501211834834 -101.34784366508029 0 -101.34784366508029 -385.85555486203521 0 0 0 0 -21.65687935708263 -89.283261944059632 0 -89.283261944059632 -425.56370298341244 0 0 0 0 -21.596564123534126 -88.053294071987239 0 -88.053294071987239 -451.99889386024734 0 0 0 0 24.157358034163394 -27.305860310008939 0 -27.305860310008939 125.42622910206774 0 0 0 0 -42.488325204114972 -153.83648935093879 0 -153.83648935093879 193.0622975688384 0 0 0 0 -65.403962143952072 -5.1608247418935207 0 -5.1608247418935207 195.97290978190722 0 0 0 0 -276.77651583757574 -212.59160857616553 0 -212.59160857616553 -267.42608464463046 0 0 0 0 123.72868116854318 -57.903357568189676 0 -57.903357568189676 -528.58267672607508 0 0 0 0 -1.8164769453862011 -2.3493962433272415 0 -2.3493962433272415 -3.0051579893717673 0 0 0 0 123.04386461252943 124.44987359180595 0 124.44987359180595 -175.1257054148009 0 0 0 0 35.816807375504141 98.597651241729181 0 98.597651241729181 -2.024887170533475 0 0 0 0 -285.69869917604615 -130.24259788569179 0 -130.24259788569179 127.10162188774848 0 0 0 0 -233.72894945833036 74.876487211457061 0 74.876487211457061 -183.04716998726872 0 0 0 0 -314.34846724264298 36.624600582894345 0 36.624600582894345 27.694898712681606 0 0 0 0 173.11087522421082 -217.05636905715028 0 -217.05636905715028 -119.18825382511204 0 0 0 0 4.1037935488444646 -210.24163645963472 0 -210.24163645963472 -75.99192025524826 0 0 0 0 -270.36891034655537 -226.76579897644842 0 -226.76579897644842 -754.46522769695002 0 0 0 0 -170.11766393408971 84.459897178374376 0 84.459897178374376 -183.12086587673548 0 0 0 0 -212.61012950184409 262.52166500697058 0 262.52166500697058 -448.59907072512942 0 0 0 0 12.228675476004128 10.300403897117576 0 10.300403897117576 26.799561364809051 0 0 0 0 -3.0634062533026327 -4.5553971907968744 0 -4.5553971907968744 -5.7280935849472456 0 0 0 0 -52.172321455608426 224.06107005917147 0 224.06107005917147 -151.59859859701419 0 0 0 0 116.24564373640675 -37.382944541367124 0 -37.382944541367124 -690.40499552068286 0 0 0 0 -1.1330675341757102 -1.9299426888328526 0 -1.9299426888328526 -3.2261928234995878 0 0 0 0 -168.95507254215795 -85.80761968207662 0 -85.80761968207662 23.593496606042208 0 0 0 0 -106.19711603219048 -217.32499139576248 0 -217.32499139576248 -222.83439730769351 0 0 0 0 69.058064523224061 30.589275605096191 0 30.589275605096191 -602.3490083137076 0 0 0 0 77.272854749585946 -23.845741632187583 0 -23.845741632187583 -242.81361240336264 0 0 0 0 79.92365334877303 27.874205562136922 0 27.874205562136922 -146.13120218820404 0 0 0 0 -19.29747711480308 -93.520526525851835 0 -93.520526525851835 37.360678340493905 0 0 0 0 -119.65146887869304 -55.931554626396974 0 -55.931554626396974 99.971291972378822 0 0 0 0 -21.972847917107629 -21.012587224429808 0 -21.012587224429808 -36.601222096527636 0 0 0 0 32.966152123005486 -0.31803113530986593 0 -0.31803113530986593 109.12853133689077 0 0 0 0 -43.216002034001406 -42.733631266852171 0 -42.733631266852171 105.18196636950961 0 0 0 0 77.852669963110316 -73.41295583561805 0 -73.41295583561805 38.548705911212892 0 0 0 0 -14.298007286378805 -9.87579293964518 0 -9.87579293964518 -361.28562482115012 0 0 0 0 -2.2364053184099295 -2.3804132036292032 0 -2.3804132036292032 -0.79112497408129734 0 0 0 0 5.254018600951909 -20.495545904919709 0 -20.495545904919709 -390.90820283459107 0 0 0 0 -7.4897081753014554 2.7069605464521374 0 2.7069605464521374 -375.22821272745205 0 0 0 0 0.053250750715771934 0.34513774586739032 0 0.34513774586739032 -1.3758503025188276 0 0 0 0 5.4572389870921523 0.94477960898075253 0 0.94477960898075253 -8.7369938575084234 0 0 0 0 5.5628420820340381 -22.128011518034327 0 -22.128011518034327 -421.4153920299359 0 0 0 0 6.9738780009295152 1.6292271428319509 0 1.6292271428319509 -8.5137754387105815 0 0 0 0 -0.42191479340568228 -2.2462826036552848 0 -2.2462826036552848 -8.0302357782605043 0 0 0 0 0.048893894290963601 0.98015533311263425 0 0.98015533311263425 -5.8082907928073837 0 0 0 0 28.073995696539626 5.6513312353563379 0 5.6513312353563379 -3.6204908403926765 0 0 0 0 4.3149597230156687 4.1896889060881222 0 4.1896889060881222 -3.5528410793995135 0 0 0 0 166.0172719160407 -100.23794093104152 0 -100.23794093104152 -68.139706863876199 0 0 0 0 0.005781999555341269 -1.3617445370596712 0 -1.3617445370596712 -7.2871046734400693 0 0 0 0 47.62237916022324 7.6540899452593294 0 7.6540899452593294 -15.847481673372386 0 0 0 0 -0.086759373444961208 16.550721032957881 0 16.550721032957881 1.8872718047205126 0 0 0 0 31.06056100184944 35.978215578757954 0 35.978215578757954 -12.008260116061138 0 0 0 0 0.080251068732576814 -0.18240507313099741 0 -0.18240507313099741 -3.3864167899826612 0 0 0 0 33.733731439251045 -58.617986314558948 0 -58.617986314558948 -38.733189046755797 0 0 0 0 -51.448364562787916 289.72837444712422 0 289.72837444712422 -420.73539406053169 0 0 0 0 -20.890477861941974 186.12539316956281 0 186.12539316956281 -122.37607261064841 0 0 0 0 94.106011286689522 170.52251074074047 0 170.52251074074047 -413.19722355367412 0 0 0 0 90.657426012996552 144.66510397157799 0 144.66510397157799 -391.31096278547193 0 0 0 0 88.900036377718934 121.70238843976449 0 121.70238843976449 -682.64282890231698 0 0 0 0 0.19626841372007992 87.881445807424825 0 87.881445807424825 -600.71248667035252 0 0 0 0 -63.426344782042065 238.23673391331067 0 238.23673391331067 -439.45295114741748 0 0 0 0 83.671019276533968 186.59953473986752 0 186.59953473986752 -402.09942434302502 0 0 0 0 53.457248231263861 106.53062107227015 0 106.53062107227015 -347.40877410034136 0 0 0 0 15.277583950648591 153.55764279975119 0 153.55764279975119 -354.20329154053616 0 0 0 0 -63.799535301676201 90.06640384174716 0 90.06640384174716 -120.18068996451984 0 0 0 0 47.816581739685006 81.264900005609888 0 81.264900005609888 -231.62496791077137 0 0 0 0 -9.9666786454652083 0.8614501109077537 0 0.8614501109077537 -3.9663914058255614 0 0 0 0 29.083762270515365 -48.834316656531882 0 -48.834316656531882 -125.43872490723879 0 0 0 0 69.147441801280991 12.358387204420069 0 12.358387204420069 -258.29261761291855 0 0 0 0 63.565423822044039 -54.500848766401305 0 -54.500848766401305 -73.784402470191708 0 0 0 0 38.75799805748909 32.509878527007459 0 32.509878527007459 -113.50514994384866 0 0 0 0 -6.6771642002569767 -11.899626017858289 0 -11.899626017858289 -18.739332770421626 0 0 0 0 -25.04241652255838 -60.731158207814588 0 -60.731158207814588 -528.4179572360008 0 0 0 0 -0.17052267427668633 -8.7252606415295304 0 -8.7252606415295304 -323.95246583815242 0 0 0 0 -128.05333733684265 141.54720006533898 0 141.54720006533898 -493.00564535766171 0 0 0 0 66.711755811116603 56.638788373707939 0 56.638788373707939 -466.49834014183944 0 0 0 0 23.20307590763079 63.31103287265978 0 63.31103287265978 -308.5699444668935 0 0 0 0 0.4434653586954056 -43.638143719290383 0 -43.638143719290383 -247.03405924058461 0 0 0 0 18.246337335446952 12.98286893551267 0 12.98286893551267 -159.56189619086217 0 0 0 0 7.8202363308809453 12.777935169342527 0 12.777935169342527 -151.57340000277554 0 0 0 0 -57.637827605906537 15.46616758466098 0 15.46616758466098 -150.77811693568947 0 0 0 0 -0.0058986215294335046 -42.391957428516015 0 -42.391957428516015 -50.713001042604446 0 0 0 0 6.4365321448481865 -49.169869745172036 0 -49.169869745172036 11.708214921911804 0 0 0 0 -9.4347636167040321 -9.3741330938428291 0 -9.3741330938428291 9.2165359344739954 0 0 0 0 63.01737948109735 -52.977970070089214 0 -52.977970070089214 21.322133298526751 0 0 0 0 83.108645716481419 -29.695422094126116 0 -29.695422094126116 48.276200416694337 0 0 0 0 93.910635178147118 -77.996906730805676 0 -77.996906730805676 103.05577916844049 0 0 0 0 200.69650005937513 -159.05433623530917 0 -159.05433623530917 95.508056590260821 0 0 0 0 114.63254792382799 -50.091037191436044 0 -50.091037191436044 12.012628093492822 0 0 0 0 39.911888974804867 -59.682005569200555 0 -59.682005569200555 73.07921421694482 0 0 0 0 6.3118377300570074 -47.034325555745454 0 -47.034325555745454 34.017580505082151 0 0 0 0 35.929192176783793 -74.412037957195935 0 -74.412037957195935 45.37818302528467 0 0 0 0 10.6793425337776 -58.751344306729152 0 -58.751344306729152 9.7720182025768736 0 0 0 0 58.201602209814951 -38.543086004789075 0 -38.543086004789075 66.174152147345012 0 0 0 0 79.237855696145971 -26.00482634587388 0 -26.00482634587388 24.834630565106636 0 0 0 0 35.279839558238564 -11.36511564760076 0 -11.36511564760076 -42.568301309689559 0 0 0 0 -2.1493747537059917 -49.295932948969948 0 -49.295932948969948 -71.110906298323243 0 0 0 0 41.649876722263848 -109.85366669118059 0 -109.85366669118059 25.724097621074179 0 0 0 0 21.917041708907192 -16.116829863247744 0 -16.116829863247744 -17.988500003553781 0 0 0 0 11.755165633260624 -2.0013266065246711 0 -2.0013266065246711 -38.704931560761906 0 0 0 0 -7.6403037709144659 -14.695121651428209 0 -14.695121651428209 -21.599737162319016 0 0 0 0 22.124733641318983 -17.782286106330048 0 -17.782286106330048 -32.375824304817797 0 0 0 0 110.47668029195989 -111.38710339108366 0 -111.38710339108366 5.0573338465692359 0 0 0 0 6.6195941026430214 2.6730968570184359 0 2.6730968570184359 -9.0684847358640184 0 0 0 0 14.882207132257458 11.754985622905224 0 11.754985622905224 21.925201225276396 0 0 0 0 14.37392584823867 16.477067645435454 0 16.477067645435454 -18.750570928998059 0 0 0 0 57.070571035665992 -29.953180047563364 0 -29.953180047563364 -6.3064992514118785 0 0 0 0 10.54549534270051 5.581946810304828 0 5.581946810304828 -20.296690252997067 0 0 0 0 11.857823846314659 -19.710297033194365 0 -19.710297033194365 -32.691415045346275 0 0 0 0 2.2443921294034936 77.318259768584539 0 77.318259768584539 63.649152431589755 0 0 0 0 4.7108170514294656 -52.107939421302945 0 -52.107939421302945 -44.598224415771256 0 0 0 0 -45.870268556404767 -27.601572555951861 0 -27.601572555951861 22.772227672608494 0 0 0 0 3.5914068877199199 -47.111499147787981 0 -47.111499147787981 -30.010003730556491 0 0 0 0 21.136808925893618 -57.362593629648472 0 -57.362593629648472 -26.938722917348059 0 0 0 0 -0.028267495088748706 -43.477133032721639 0 -43.477133032721639 6.719766763606458 0 0 0 0 48.733003261731227 -54.978341946669389 0 -54.978341946669389 -1.9418642204691423 0 0 0 0 11.450945001389428 -56.150595184386475 0 -56.150595184386475 0.5435219049686566 0 0 0 0 42.240611969591299 -48.273149353910412 0 -48.273149353910412 12.56462272659428 0 0 0 0 21.436140946753653 -24.047724532727443 0 -24.047724532727443 -6.197010897398286 0 0 0 0 4.6722081516422804 15.158407111288398 0 15.158407111288398 -28.057161065848049 0 0 0 0 0.35713699078723948 19.158024561882485 0 19.158024561882485 -27.204608573843871 0 0 0 0 -19.233758296185442 18.445015088993387 0 18.445015088993387 -22.129806506425666 0 0 0 0 1.7648674934471273 9.238504543007366 0 9.238504543007366 -19.635565614691586 0 0 0 0 10.924296314731237 17.799618257213297 0 17.799618257213297 -27.001445935235097 0 0 0 0 22.494565246612638 11.90386650637447 0 11.90386650637447 -26.503859444168484 0 0 0 0 19.930095809112117 5.9139983419481723 0 5.9139983419481723 -40.31489419178979 0 0 0 0 11.109074872704781 7.2879954060376946 0 7.2879954060376946 -21.094550724829702 0 0 0 0 32.961620206951466 6.911533641814458 0 6.911533641814458 -40.243147931060093 0 0 0 0 27.692342337770071 18.299800160501491 0 18.299800160501491 -48.938767875264602 0 0 0 0 13.64914368818836 23.468312571658316 0 23.468312571658316 -39.385026598351033 0 0 0 0 28.100704808487762 13.776122108098207 0 13.776122108098207 -47.250463906224468 0 0 0 0 53.556950293375849 -11.268933431685582 0 -11.268933431685582 -39.235343342447891 0 0 0 0 48.658534179177565 17.093972340783921 0 17.093972340783921 -55.138133340282366 0 0 0 0 17.59933777673325 31.949120056940046 0 31.949120056940046 -67.722821525996551 0 0 0 0 -44.325097107407601 39.712117333909191 0 39.712117333909191 -34.684332970642572 0 0 0 0 -27.134377006573686 26.260886820262385 0 26.260886820262385 -59.010023000770161 0 0 0 0 55.158752881695364 23.106341076627359 0 23.106341076627359 -94.769007246275578 0 0 0 0 105.68081041082269 6.2979314983131189 0 6.2979314983131189 -89.129138567273912 0 0 0 0 -54.823475810913465 -36.479903795234804 0 -36.479903795234804 -44.409493674145779 0 0 0 0 -43.456307370389652 -77.651975143990057 0 -77.651975143990057 -175.42635406420959 0 0 0 0 87.766472396229801 -52.362099117242906 0 -52.362099117242906 -19.576040075204673 0 0 0 0 65.918762327746663 -20.248923217910487 0 -20.248923217910487 -47.24100661245302 0 0 0 0 75.583233830931022 -5.7039362817831716 0 -5.7039362817831716 -28.703251231654576 0 0 0 0 151.22090736396149 -129.45650179648692 0 -129.45650179648692 3.0552043950765437 0 0 0 0 -4.0789484762162669 -8.4078037799943814 0 -8.4078037799943814 -14.226192454796873 0 0 0 0 4.3381815592485964 57.588724899643239 0 57.588724899643239 -287.96099083261288 0 0 0 0 -163.14436318306116 39.315536067233552 0 39.315536067233552 -287.74938050212268 0 0 0 0 -8.2118237194779837 159.57988924248775 0 159.57988924248775 -660.0138337147946 0 0 0 0 -115.34355772698439 -217.10138718326016 0 -217.10138718326016 -158.16312106074474 0 0 0 0 -100.26546463904538 -250.45433887525178 0 -250.45433887525178 69.999250231563565 0 0 0 0 -36.677968723055898 396.38688920305935 0 396.38688920305935 -910.40462682824727 0 0 0 0 -1.7173198057381374 -3.0133834438594391 0 -3.0133834438594391 -5.7086579191512783 0 0 0 0 -67.083894479374521 -256.08919624583723 0 -256.08919624583723 -469.55757809244824 0 0 0 0 -42.075103636551603 5.6564876218471909 0 5.6564876218471909 -744.96525816485519 0 0 0 0 -34.697991440503756 -53.85481844273454 0 -53.85481844273454 -320.16175202850081 0 0 0 0 -84.986408266844592 -126.31408495676806 0 -126.31408495676806 -388.22999215077289 0 0 0 0 -87.742001098042181 -103.09544861653194 0 -103.09544861653194 -223.18911417889467 0 0 0 0 -141.07129665385241 -130.5245697946466 0 -130.5245697946466 -229.8692108676787 0 0 0 0 -93.231861561995743 -93.468981092555623 0 -93.468981092555623 -237.77792385634166 0 0 0 0 -82.061380849567826 -76.628242173037506 0 -76.628242173037506 -212.5162404849616 0 0 0 0 -43.665552948468431 -78.146690361877518 0 -78.146690361877518 -220.32104039090336 0 0 0 0 -67.459558047211203 -97.619493602345756 0 -97.619493602345756 -191.92270014236419 0 0 0 0 -10.75213935651459 -104.71664173454155 0 -104.71664173454155 -216.39197445699392 0 0 0 0 -119.12799361847772 -98.746258666551512 0 -98.746258666551512 -218.01531562888431 0 0 0 0 15.296063115047922 -67.614098533256765 0 -67.614098533256765 -273.53756037940002 0 0 0 0 -71.356580023847371 -53.400372173555297 0 -53.400372173555297 -244.94696129253862 0 0 0 0 51.286166593502344 -95.944860532308667 0 -95.944860532308667 -315.69613009101704 0 0 0 0 -54.393322919632169 -50.835482677030086 0 -50.835482677030086 -267.89290924769375 0 0 0 0 -72.900726320992931 5.2952484465099587 0 5.2952484465099587 -362.77570459068374 0 0 0 0 -294.78487233058104 -82.817089531950842 0 -82.817089531950842 -195.77938873641688 0 0 0 0 -73.53111959662192 -113.70640127001934 0 -113.70640127001934 -314.31364280859998 0 0 0 0 -61.417389092561734 -25.965378477892955 0 -25.965378477892955 -114.50115324988656 0 0 0 0 -143.22029500145959 -113.13628411102582 0 -113.13628411102582 -103.43851091777469 0 0 0 0 -117.23974054590695 -104.72744570017767 0 -104.72744570017767 -202.74390448026315 0 0 0 0 1.6992355844901113 -180.10516639496814 0 -180.10516639496814 -160.36422836474958 0 0 0 0 64.194313596422944 -139.55912965710922 0 -139.55912965710922 -217.66599573600979 0 0 0 0 23.562633121614397 -36.794316446469111 0 -36.794316446469111 -19.974864632509707 0 0 0 0 85.043874840342596 -67.323359141653782 0 -67.323359141653782 -89.164357134144666 0 0 0 0 76.352389535496286 0.81963753932723193 0 0.81963753932723193 0.72845776338363066 0 0 0 0 207.86263166945082 28.16178849239077 0 28.16178849239077 -45.69259234909623 0 0 0 0 97.598128992952752 -42.689494611142436 0 -42.689494611142436 -52.115608710817469 0 0 0 0 116.42968469778089 -70.904349855644796 0 -70.904349855644796 -93.291153223552101 0 0 0 0 77.916278859327065 -131.79410356679364 0 -131.79410356679364 -195.55181535096199 0 0 0 0 43.119115104436105 -127.30722631435856 0 -127.30722631435856 -108.30017439523635 0 0 0 0 131.07434619969399 -79.860453282950402 0 -79.860453282950402 -123.95248651257134 0 0 0 0 46.880894367243172 -146.18247494493698 0 -146.18247494493698 -186.28016833843503 0 0 0 0 68.994027374453935 -178.53757427546225 0 -178.53757427546225 -270.35596299707686 0 0 0 0 59.975746158138122 -131.90451871873665 0 -131.90451871873665 -265.3734325644341 0 0 0 0 54.746670152268152 -139.11568701843044 0 -139.11568701843044 -229.16332363368565 0 0 0 0 29.272757839706742 -113.18565142396255 0 -113.18565142396255 -128.98351631162586 0 0 0 0 83.442027382004426 -102.78797947657404 0 -102.78797947657404 -144.14771231327904 0 0 0 0 30.791684681496744 -133.53410636648198 0 -133.53410636648198 -162.54365819283703 0 0 0 0 2.4271333500996661 -105.37312626461062 0 -105.37312626461062 -190.07322669940186 0 0 0 0 0.42002235344210703 -120.10771012460827 0 -120.10771012460827 -182.57955673937204 0 0 0 0 -59.526577654002949 -61.006188499871314 0 -61.006188499871314 -171.8987780876414 0 0 0 0 37.099715254604405 -117.32257974615277 0 -117.32257974615277 -254.14577508575894 0 0 0 0 34.185324242045056 -100.30527190573957 0 -100.30527190573957 -266.91840039786621 0 0 0 0 12.728493884547749 -93.655027276990722 0 -93.655027276990722 -266.31455997004377 0 0 0 0 61.326070596233535 -77.495077495243095 0 -77.495077495243095 -281.37026936824986 0 0 0 0 64.205359140607754 -101.85680707614665 0 -101.85680707614665 -264.3488683152973 0 0 0 0 84.938325866985906 -92.865091638046579 0 -92.865091638046579 -286.13241906070471 0 0 0 0 76.529861507248654 -103.16166253903157 0 -103.16166253903157 -297.45873232544545 0 0 0 0 70.819457068812426 -113.8511899692021 0 -113.8511899692021 -293.50931822565326 0 0 0 0 86.709785310137477 -136.21454672838809 0 -136.21454672838809 -266.43903771460919 0 0 0 0 93.724268575738051 -145.00139431660045 0 -145.00139431660045 -352.44875261991547 0 0 0 0 108.84031712139745 -99.435116540733361 0 -99.435116540733361 -454.45572990283108 0 0 0 0 99.639955965391209 -92.95415920911546 0 -92.95415920911546 -326.72245980182652 0 0 0 0 33.510312188684566 57.181189034698036 0 57.181189034698036 -351.96323420102635 0 0 0 0 6.6432749590753701 -269.87340201078405 0 -269.87340201078405 -393.10349356562438 0 0 0 0 95.113159171502957 -100.74450558073477 0 -100.74450558073477 -429.75043507361988 0 0 0 0 44.324819357919068 14.242456677688097 0 14.242456677688097 -68.863415221479954 0 0 0 0 -37.115488013037293 14.958730037264104 0 14.958730037264104 -68.853956295086391 0 0 0 0 4.6010441648235201 17.282417219253148 0 17.282417219253148 -266.39435000067169 0 0 0 0 -61.171351346376014 96.297173595950881 0 96.297173595950881 -220.31291293499817 0 0 0 0 22.617087263301073 48.192866531993786 0 48.192866531993786 -220.05390250840355 0 0 0 0 45.618788545244399 -22.377418538731945 0 -22.377418538731945 -186.04458900195459 0 0 0 0 44.947595518661274 -14.194542280714813 0 -14.194542280714813 -250.11599621045752 0 0 0 0 23.291977290141233 37.810157611201248 0 37.810157611201248 -164.47050464809581 0 0 0 0 17.084917343256848 -29.270229427333106 0 -29.270229427333106 -81.710586226465239 0 0 0 0 -45.17162420920431 25.275466927363595 0 25.275466927363595 10.94096834690572 0 0 0 0 5.7178199392637907 -1.7169084629604185 0 -1.7169084629604185 -80.205021968222354 0 0 0 0 66.916989735359721 -41.235476114834455 0 -41.235476114834455 -287.11221222512353 0 0 0 0 50.895963998897997 -62.215712627054018 0 -62.215712627054018 -169.09012975637597 0 0 0 0 26.761348502541409 -84.651331872722949 0 -84.651331872722949 -156.61742947324092 0 0 0 0 24.079359430032859 -96.243684920336818 0 -96.243684920336818 -37.994699399285309 0 0 0 0 -27.822646511804976 -33.668424772216895 0 -33.668424772216895 -31.105691799242777 0 0 0 0 -3.4613014115928018 -3.0202560091695325 0 -3.0202560091695325 3.725076048809413 0 0 0 0 51.663901655389829 -32.896689001414416 0 -32.896689001414416 -43.440241064665315 0 0 0 0 -8.0610687796438469 -11.103631923941975 0 -11.103631923941975 -33.311162041074567 0 0 0 0 3.8705190668301839 -0.72406459406374779 0 -0.72406459406374779 -31.135591577752621 0 0 0 0 4.2759939491177192 -7.7588464218370063 0 -7.7588464218370063 -59.986284863225592 0 0 0 0 13.174439961128883 -20.58722852610299 0 -20.58722852610299 -41.53225262120759 0 0 0 0 -9.7200060800417152 -11.427368294673116 0 -11.427368294673116 0.69797510525459927 0 0 0 0 -5.2725811814837016 -24.272492198953842 0 -24.272492198953842 -41.494084414731333 0 0 0 0 -2.5475845095984369 -16.843457541305725 0 -16.843457541305725 -28.438826621211774 0 0 0 0 -14.036462227997474 -10.458571885511056 0 -10.458571885511056 3.5025661824111918 0 0 0 0 -15.160795669349 -40.158445890895564 0 -40.158445890895564 23.122005336364964 0 0 0 0 29.920233615832331 -27.214311275438376 0 -27.214311275438376 -76.821428709397878 0 0 0 0 31.882250333955653 -29.377907886184403 0 -29.377907886184403 -152.04076627681206 0 0 0 0 -363.47410651383598 159.75186063797264 0 159.75186063797264 -41.98771803395357 0 0 0 0 39.959582577306264 -94.282360592087571 0 -94.282360592087571 -29.956623204670905 0 0 0 0 86.676894749581152 -106.26118003894589 0 -106.26118003894589 -283.77621973626265 0 0 0 0 -33.959844614685608 -82.546707449488167 0 -82.546707449488167 -30.935144218377218 0 0 0 0 -30.860997338264951 1.7817648438722244 0 1.7817648438722244 -16.794492332574919 0 0 0 0 -13.13989321231179 24.48492486449868 0 24.48492486449868 -164.01388099933683 0 0 0 0 -78.890511766784812 43.081726698248531 0 43.081726698248531 -29.250958750841164 0 0 0 0 -41.562988532668044 74.844875133838286 0 74.844875133838286 -193.21371852538141 0 0 0 0 -397.40894909742929 -58.954398416578442 0 -58.954398416578442 -52.597807805606863 0 0 0 0 -0.76694350509829889 -1.5061378043485778 0 -1.5061378043485778 -2.5656641523694219 0 0 0 0 -114.40459463093498 -158.27931181035456 0 -158.27931181035456 -352.3653539559275 0 0 0 0 -69.870989139772604 -62.069748178921145 0 -62.069748178921145 -157.81885932730802 0 0 0 0 39.486590870641322 -86.530165134397976 0 -86.530165134397976 -198.05762366946874 0 0 0 0 68.30192655283723 -129.96317565424397 0 -129.96317565424397 -201.25142543579864 0 0 0 0 -26.107592059457488 -69.572274101446965 0 -69.572274101446965 150.1105382188598 0 0 0 0 33.567022321442607 -154.89196736034864 0 -154.89196736034864 28.359697779815178 0 0 0 0 1.5021396761199215 -1.0200040091722045 0 -1.0200040091722045 -3.5956855627107913 0 0 0 0 -68.467934589401466 -99.770734483216074 0 -99.770734483216074 78.46109594526024 0 0 0 0 -127.38149564251592 58.120453562432886 0 58.120453562432886 -8.506550424190209 0 0 0 0 87.748346784362298 -105.82498041200597 0 -105.82498041200597 -179.82799860628802 0 0 0 0 -4.2819711602257371 -10.203745827353476 0 -10.203745827353476 -15.76194288251483 0 0 0 0 12.96636446585444 -10.943207973205062 0 -10.943207973205062 -21.219775026937441 0 0 0 0 25.815491626696655 -26.54847754032744 0 -26.54847754032744 -18.036660866295279 0 0 0 0 -2.923968906751806 -5.2488421535896954 0 -5.2488421535896954 -10.399834224903216 0 0 0 0 -18.890058257430269 28.290611259315483 0 28.290611259315483 -68.122748678939388 0 0 0 0 -45.21623388294347 -31.971252076520614 0 -31.971252076520614 -9.0067507973690226 0 0 0 0 -36.404549072961942 -47.936154281499512 0 -47.936154281499512 7.2275400825310498 0 0 0 0 -47.865324203140062 -61.078746938311269 0 -61.078746938311269 22.627636118508235 0 0 0 0 -1.2403279391378947 -4.6377383207752683 0 -4.6377383207752683 -13.725646130269794 0 0 0 0 -47.484965776812032 -59.510536509293161 0 -59.510536509293161 16.139241539733806 0 0 0 0 -18.459631394959501 4.6860978360223271 0 4.6860978360223271 -18.412430995693285 0 0 0 0 -1.0929001170642405 -3.2282226543911037 0 -3.2282226543911037 -8.0534013555932233 0 0 0 0 -163.97725332778691 -0.93228904337047425 0 -0.93228904337047425 16.117064759309869 0 0 0 0 -24.81298714450827 -0.2049854728848004 0 -0.2049854728848004 -11.00774266883127 0 0 0 0 -13.233592605954527 -0.43176635132840602 0 -0.43176635132840602 -13.475455788047839 0 0 0 0 -14.64748659773295 -1.3733672914404451 0 -1.3733672914404451 -13.39637154409138 0 0 0 0 -8.634295173834289 0.078166692230297485 0 0.078166692230297485 -15.316231726308615 0 0 0 0 -11.682329815132107 -2.7042251008952007 0 -2.7042251008952007 -17.029787288040097 0 0 0 0 -8.9038221555956625 -5.1789684504874458 0 -5.1789684504874458 -16.795855313102948 0 0 0 0 -5.9875118082736662 -2.9078322246677999 0 -2.9078322246677999 -26.154767057843856 0 0 0 0 -0.81027035699794769 -4.6086047196456335 0 -4.6086047196456335 -19.413327920031364 0 0 0 0 0.91090819464443484 13.575683851187932 0 13.575683851187932 -19.060878189571667 0 0 0 0 2.614533157508772 2.2894854670008655 0 2.2894854670008655 -7.9066237137061108 0 0 0 0 -0.67815611147493371 -7.141368638957033 0 -7.141368638957033 -12.208354780457739 0 0 0 0 -1.0172931519927886 1.2317155457064928 0 1.2317155457064928 -21.962705536381691 0 0 0 0 3.2159567287881146 7.2846566106672981 0 7.2846566106672981 -25.670836188130124 0 0 0 0 0.73349411361040673 0.59350337526043262 0 0.59350337526043262 -2.4062945326835035 0 0 0 0 0.68416678467620073 -1.2289760627015198 0 -1.2289760627015198 -6.8806970192171661 0 0 0 0 139.71594391843291 -62.063761108538529 0 -62.063761108538529 -124.59219259136444 0 0 0 0 41.680737987246061 -83.420860365136377 0 -83.420860365136377 -340.31911406379368 0 0 0 0 43.543013035860895 -107.61268175878286 0 -107.61268175878286 -62.525049001343177 0 0 0 0 197.06788817144707 27.046265949287772 0 27.046265949287772 -11.125153654576025 0 0 0 0 -65.26864791156413 -33.018039874495116 0 -33.018039874495116 45.35740124862059 0 0 0 0 -53.93836407675721 -21.221991835913741 0 -21.221991835913741 -12.254036427544634 0 0 0 0 32.249619421721945 9.5803151454128965 0 9.5803151454128965 -77.472241857484732 0 0 0 0 315.23610458829876 -59.923929953476545 0 -59.923929953476545 -211.96664289545515 0 0 0 0 -2.1145361968657426 -3.3845506789489264 0 -3.3845506789489264 -30.6058021693716 0 0 0 0 -290.30382420190358 -90.441867354427814 0 -90.441867354427814 -25.435603664014707 0 0 0 0 -60.244766246924485 159.22723119026205 0 159.22723119026205 -256.25426793410952 0 0 0 0 -1.5740849049217733 -2.0498082303095337 0 -2.0498082303095337 -3.0374813477608598 0 0 0 0 -413.84453673461189 46.27886298697922 0 46.27886298697922 33.807182405555068 0 0 0 0 -41.481461052630948 -23.321840999078631 0 -23.321840999078631 45.748468529338425 0 0 0 0 -37.151664129748497 -160.53298119047759 0 -160.53298119047759 -174.90878999627512 0 0 0 0 0.19030757797335984 0.0056932636665170122 0 0.0056932636665170122 0.15000410564168476 0 0 0 0 55.651710362527069 0.26903702886829706 0 0.26903702886829706 39.934541633010667 0 0 0 0 123.90263374012579 -141.90296193463655 0 -141.90296193463655 19.321925953511027 0 0 0 0 -2.3088061158893276 -2.5896262367059419 0 -2.5896262367059419 2.4502173273026813 0 0 0 0 -35.513265201318745 -17.152177170650248 0 -17.152177170650248 52.120033776922355 0 0 0 0 -7.015929324932813 -64.945029337624874 0 -64.945029337624874 80.046600463744653 0 0 0 0 24.301372018364873 -7.2765598304322339 0 -7.2765598304322339 14.009912035282468 0 0 0 0 -106.62963730176943 38.706531841744436 0 38.706531841744436 26.636465559742646 0 0 0 0 -53.016202214317673 7.6062032906993409 0 7.6062032906993409 42.007885072789577 0 0 0 0 3.3457093788670136 45.063610462781071 0 45.063610462781071 -29.839250133884207 0 0 0 0 0.2430767834780454 52.199339816348584 0 52.199339816348584 -5.6811841032103985 0 0 0 0 29.933575170973654 47.704805813154962 0 47.704805813154962 -45.57272027657018 0 0 0 0 8.586953503763425 27.549035596712201 0 27.549035596712201 -39.908938051608857 0 0 0 0 -0.88033902600089853 -5.7788725198164386 0 -5.7788725198164386 -30.101233333644402 0 0 0 0 22.37255972897276 -9.3337141375468491 0 -9.3337141375468491 -40.126773955489625 0 0 0 0 -1.8187057502609605 6.2934383868705481 0 6.2934383868705481 -17.875230335637752 0 0 0 0 19.297249003970251 0.861612733142465 0 0.861612733142465 -64.865512241754914 0 0 0 0 107.65601176306882 -96.833155267722759 0 -96.833155267722759 -21.790669239498584 0 0 0 0 69.161990598095144 176.96845305709576 0 176.96845305709576 -47.788962755433658 0 0 0 0 201.14021058262415 104.82364626826893 0 104.82364626826893 -102.81921966811205 0 0 0 0 -40.904580826689198 123.55582874167885 0 123.55582874167885 -33.896242519796942 0 0 0 0 -47.551065912191007 187.0656957986721 0 187.0656957986721 -223.05541385932702 0 0 0 0 -85.09422101630139 98.414476261721575 0 98.414476261721575 -29.499041793424112 0 0 0 0 47.659661937163492 131.13518458951512 0 131.13518458951512 -74.752472143398336 0 0 0 0 21.417101227962121 63.596897040224576 0 63.596897040224576 -74.100185367264203 0 0 0 0 44.494319110728156 -0.50759358411050925 0 -0.50759358411050925 -26.848460075401817 0 0 0 0 -0.79159509696520303 -2.5118676583014716 0 -2.5118676583014716 -8.5216190915849097 0 0 0 0 -90.673739337177267 31.587727854906007 0 31.587727854906007 -0.46396577575069387 0 0 0 0 -0.722266543895838 -1.3168176042579356 0 -1.3168176042579356 -2.5508420202996263 0 0 0 0 -282.09230392049835 -22.177172082973811 0 -22.177172082973811 9.0266985677590128 0 0 0 0 11.736014520319941 33.828252467583297 0 33.828252467583297 -78.046791227156064 0 0 0 0 -8.7447559877941785 89.232955114321157 0 89.232955114321157 -197.61030966114504 0 0 0 0 3.4005465342695516 10.898824353720556 0 10.898824353720556 -22.685893047233549 0 0 0 0 11.779453308913617 5.9841503531388298 0 5.9841503531388298 -77.67303954640613 0 0 0 0 7.3972614064055051 -14.529186400748586 0 -14.529186400748586 -23.412509283052032 0 0 0 0 -1.3403505404996849 -8.9161901662291712 0 -8.9161901662291712 -10.124332940624299 0 0 0 0 -42.730388832578228 -35.22128283794882 0 -35.22128283794882 -20.485179645880635 0 0 0 0 -5.300240974630924 -22.795842059505958 0 -22.795842059505958 -50.838698601434771 0 0 0 0 16.036734402740649 -42.977452543384061 0 -42.977452543384061 -32.496112004264432 0 0 0 0 14.285112594681891 -10.240434813042157 0 -10.240434813042157 -61.064779636253661 0 0 0 0 14.24567775919536 -6.3784925266600112 0 -6.3784925266600112 -45.27475384421632 0 0 0 0 20.263078871912057 -11.301151992613086 0 -11.301151992613086 -68.04178078460609 0 0 0 0 21.410412023381468 -39.500589183609918 0 -39.500589183609918 -85.711186848620855 0 0 0 0 -115.91943679979028 -24.100769149691587 0 -24.100769149691587 20.563307171752967 0 0 0 0 5.7080806851308807 -25.184106364187755 0 -25.184106364187755 -7.5469290324072063 0 0 0 0 -9.4877388077857177 -21.230911816663138 0 -21.230911816663138 1.6693816130591586 0 0 0 0 -30.32815837801121 -22.171004666479803 0 -22.171004666479803 10.516917414421187 0 0 0 0 -11.05556298337342 -4.5716973429316567 0 -4.5716973429316567 -3.2395652818631788 0 0 0 0 -5.8567377465910138 -9.7491890567852444 0 -9.7491890567852444 -9.4130889004688925 0 0 0 0 -8.6613515032058785 -9.3813879784393066 0 -9.3813879784393066 2.8237468584002272 0 0 0 0 -9.1432428734215137 -15.336747791658127 0 -15.336747791658127 3.5813485801941169 0 0 0 0 -6.773993596624031 -10.221743896592294 0 -10.221743896592294 -5.3619971764865184 0 0 0 0 -7.1755730425484217 -8.1739944818145887 0 -8.1739944818145887 -8.4369633722271828 0 0 0 0 -8.322445705005066 -7.7947417011764628 0 -7.7947417011764628 -7.2791426906042034 0 0 0 0 -7.2887544588500077 -13.963312030232828 0 -13.963312030232828 -9.610612615950231 0 0 0 0 -7.0982212809813063 -15.217230762675172 0 -15.217230762675172 -2.2101051707122679 0 0 0 0 8.7350131044165664 -12.201030351473719 0 -12.201030351473719 -7.8493559703601932 0 0 0 0 -8.8651653794790946 -26.950999086066076 0 -26.950999086066076 -18.025856980370008 0 0 0 0 -0.57392847372429046 -1.4127739616558301 0 -1.4127739616558301 -1.5745113594270777 0 0 0 0 -8.9172506756204086 -29.74666496190116 0 -29.74666496190116 -71.019220243084419 0 0 0 0 20.116934035237136 -50.99928134016136 0 -50.99928134016136 -44.88567571646854 0 0 0 0 -31.167087375308711 -12.363275336056176 0 -12.363275336056176 9.4774504894994607 0 0 0 0 -4.127539313735193 -8.2066013337709798 0 -8.2066013337709798 -11.872950141657526 0 0 0 0 -17.606846039463107 9.3259934106099536 0 9.3259934106099536 6.4565229583458859 0 0 0 0 -1.2681342994200904 0.27736325400176298 0 0.27736325400176298 2.4109819255973619 0 0 0 0 -6.885850044578298 -9.8776352571176105 0 -9.8776352571176105 2.1212265046416761 0 0 0 0 -7.5578994209081429 -12.848564738156711 0 -12.848564738156711 -12.306309992527531 0 0 0 0 -21.553400294295898 -1.5262616728541616 0 -1.5262616728541616 1.2142156341014925 0 0 0 0 -7.4008598712534877 -7.8651887215310126 0 -7.8651887215310126 -8.8343356240043249 0 0 0 0 -6.9956562499937718 -9.0581231818741799 0 -9.0581231818741799 -16.232363467039249 0 0 0 0 -6.3634139316036453 -12.253942244034988 0 -12.253942244034988 -12.229616211960092 0 0 0 0 3.6036932213355612 -10.255844417748449 0 -10.255844417748449 -5.7144109422370093 0 0 0 0 -4.9866982610905612 -10.508191829999678 0 -10.508191829999678 -7.9334720489720922 0 0 0 0 -5.2430535077146576 -10.746698981916769 0 -10.746698981916769 -21.508407643263638 0 0 0 0 -9.2099439288467977 -25.864942346855848 0 -25.864942346855848 -36.998272563369099 0 0 0 0 2.8891141402882425 -6.7785807729305887 0 -6.7785807729305887 -3.7904079652372431 0 0 0 0 7.4878544019948095 -24.328670409667666 0 -24.328670409667666 -34.420431728671247 0 0 0 0 -12.068925727803371 -18.566857079393756 0 -18.566857079393756 -23.639779114381852 0 0 0 0 -37.079135179707009 -52.598110754344816 0 -52.598110754344816 34.676413514327578 0 0 0 0 -1.1449442041289331 -41.028915634184244 0 -41.028915634184244 -8.705509937255556 0 0 0 0 -0.55183719073079374 -48.905381109674977 0 -48.905381109674977 -0.6057687233951583 0 0 0 0 -14.932630600811535 -18.35580534512701 0 -18.35580534512701 -27.184744117271293 0 0 0 0 1.0604341767680125 -44.61535706585687 0 -44.61535706585687 -25.46787170926109 0 0 0 0 -3.3955486748712111 -10.484531529304142 0 -10.484531529304142 -34.805985435085859 0 0 0 0 62.108247442570701 -2.04832139071641 0 -2.04832139071641 -70.662314273060474 0 0 0 0 16.734068446807669 -45.855502756386159 0 -45.855502756386159 -21.707492938281575 0 0 0 0 0.85729652305475845 0.42433989693881813 0 0.42433989693881813 -7.3237587130625883 0 0 0 0 -7.2160369600233025 -2.5320348991572246 0 -2.5320348991572246 -14.698727139595121 0 0 0 0 -35.236890267446142 114.43070080137841 0 114.43070080137841 -53.713246204561074 0 0 0 0 -0.80597185275636285 -0.59227841155150429 0 -0.59227841155150429 -0.32091643007755266 0 0 0 0 -7.6605641536598341 -3.8217529527955776 0 -3.8217529527955776 -5.1852287112851627 0 0 0 0 -54.630041248029102 -5.325650951530406 0 -5.325650951530406 -2.3633726015650609 0 0 0 0 -7.3822972907237272 -2.7877437780844048 0 -2.7877437780844048 -9.061770763553568 0 0 0 0 9.988717473406723 -17.788890547140909 0 -17.788890547140909 -8.1638675441754458 0 0 0 0 -14.774680722924131 -18.054936976168392 0 -18.054936976168392 -6.4660852573560987 0 0 0 0 -25.59878103821211 -38.609186952889104 0 -38.609186952889104 -44.574142276571365 0 0 0 0 6.5993974428917568 9.0076324225965436 0 9.0076324225965436 -13.414976801261218 0 0 0 0 6.89176338244215 6.3780097875951469 0 6.3780097875951469 -103.90195973246591 0 0 0 0 -12.072699684612417 50.2556355852048 0 50.2556355852048 -55.660661282101501 0 0 0 0 -13.454667404168504 56.530295762178866 0 56.530295762178866 -70.521853812293557 0 0 0 0 -0.5849236803705935 46.413228481292208 0 46.413228481292208 -57.193583404878154 0 0 0 0 -9.405954839309743 75.210215849214364 0 75.210215849214364 -120.96949673941708 0 0 0 0 77.316967053497592 -53.292676783377829 0 -53.292676783377829 -51.716094810280083 0 0 0 0 -17.259552612528296 28.135626323816268 0 28.135626323816268 -26.810805637025624 0 0 0 0 -32.189574550184034 44.406585318010912 0 44.406585318010912 -40.660405275430094 0 0 0 0 72.255779315545624 -72.507658739392355 0 -72.507658739392355 -98.564822291721157 0 0 0 0 37.134622747332287 -34.441952245925677 0 -34.441952245925677 -18.717749314148023 0 0 0 0 -2.2664273887248374 -10.129457783467199 0 -10.129457783467199 -40.266768627272398 0 0 0 0 88.538188848750906 -81.344483844215802 0 -81.344483844215802 -36.826062211895987 0 0 0 0 26.010137319155547 -35.094775916963044 0 -35.094775916963044 -16.624785929584959 0 0 0 0 -20.924284343645922 -83.348951459044201 0 -83.348951459044201 -45.382797153214142 0 0 0 0 26.107348494598227 -22.209087691806872 0 -22.209087691806872 -118.14315369221231 0 0 0 0 19.03129236129098 -62.603897601097742 0 -62.603897601097742 -35.437936468622866 0 0 0 0 -25.16038785357523 -57.627713626125114 0 -57.627713626125114 -3.3963082743603081 0 0 0 0 13.035165840583886 -38.113443311613082 0 -38.113443311613082 -117.95108825920033 0 0 0 0 -2.291300646468466 -0.87419720202441198 0 -0.87419720202441198 -0.16975792870369588 0 0 0 0 0.35771642024792527 -42.926401527662165 0 -42.926401527662165 -107.50147064314592 0 0 0 0 9.6231282665626168 -41.234650249325568 0 -41.234650249325568 -112.25164610972115 0 0 0 0 5.7818813331828096 -30.920092959604517 0 -30.920092959604517 -108.70558723472641 0 0 0 0 2.5959434040414635 -23.561508550719736 0 -23.561508550719736 -125.10959263001132 0 0 0 0 5.8600711761391722 -35.46100411173029 0 -35.46100411173029 -114.41330618417123 0 0 0 0 5.0479203423983563 -32.393721766959061 0 -32.393721766959061 -110.61458998134185 0 0 0 0 6.7331853147989023 -25.167796181078302 0 -25.167796181078302 -101.17457368067335 0 0 0 0 2.5641407652110502 -35.833092448494426 0 -35.833092448494426 -106.83353421055654 0 0 0 0 -16.312349797670322 -35.719092317216564 0 -35.719092317216564 -94.202507632813649 0 0 0 0 -28.348342062679876 -44.475613131813589 0 -44.475613131813589 -107.41570747451624 0 0 0 0 2.6307969835415861 -35.150378185569934 0 -35.150378185569934 -101.8347276529239 0 0 0 0 -39.987410652069229 -29.890855351106438 0 -29.890855351106438 -84.68461014762579 0 0 0 0 -8.9504350868428446 -19.747467477718601 0 -19.747467477718601 -82.940362047645976 0 0 0 0 -6.7626383459646604 -43.186768087049131 0 -43.186768087049131 -108.61005665335688 0 0 0 0 27.173712670472014 76.507259524187248 0 76.507259524187248 -105.77750462916447 0 0 0 0 -338.08158425420515 258.27680354571203 0 258.27680354571203 -82.329515262274072 0 0 0 0 -77.19144445776692 -49.526330872904509 0 -49.526330872904509 -92.774651615814946 0 0 0 0 -148.81608596073966 -123.31815042481321 0 -123.31815042481321 49.857486794476245 0 0 0 0 -15.707332174981275 -46.309856301236323 0 -46.309856301236323 48.567942411573313 0 0 0 0 34.482417969314952 -14.07149865266274 0 -14.07149865266274 -43.95927033344924 0 0 0 0 -1.3748657278250302 -6.9714856344652398 0 -6.9714856344652398 -35.815659952956011 0 0 0 0 -20.004870738887803 -25.035463107735268 0 -25.035463107735268 -24.211559892886271 0 0 0 0 -43.327801239567634 -30.828774978791444 0 -30.828774978791444 73.502027571510553 0 0 0 0 -16.794990047843839 7.485308904170779 0 7.485308904170779 71.683394440380653 0 0 0 0 -4.7984114302273788 -2.8380177796877106 0 -2.8380177796877106 -2.0243475531361455 0 0 0 0 24.555837855396021 -31.013537190636271 0 -31.013537190636271 -17.147100223708549 0 0 0 0 -1.8717286329152105 -3.4126780799070366 0 -3.4126780799070366 -9.0852638243269723 0 0 0 0 -1.7506137853956716 7.5436326214257861 0 7.5436326214257861 24.665361681396462 0 0 0 0 6.6562798074510283 -35.512949693952578 0 -35.512949693952578 -12.73618793802234 0 0 0 0 -0.12348331568546467 -1.3704974362219042 0 -1.3704974362219042 -7.9398839143481439 0 0 0 0 43.25822752190561 -5.5447784084244631 0 -5.5447784084244631 -38.963525693005067 0 0 0 0 -51.417875002727669 -83.080126962810027 0 -83.080126962810027 -86.401321515117161 0 0 0 0 138.61060764615559 100.70203404247877 0 100.70203404247877 -290.00640438083792 0 0 0 0 31.925454894738323 13.907098758470966 0 13.907098758470966 -44.05117287037865 0 0 0 0 -63.125857423178786 -4.5694583599197358 0 -4.5694583599197358 37.883624196927485 0 0 0 0 8.9730923012925814 -11.80815487626387 0 -11.80815487626387 -103.66333279715036 0 0 0 0 -19.260870711907046 -47.078888045769418 0 -47.078888045769418 -114.99427276372626 0 0 0 0 16.836453032123245 48.427039939586393 0 48.427039939586393 -297.22453288984434 0 0 0 0 2.6556567811742298 -22.535442687958039 0 -22.535442687958039 -225.1115118979651 0 0 0 0 -30.235033431095871 58.471518856596958 0 58.471518856596958 -164.11449620052736 0 0 0 0 -2.6975239346197668 -79.061884444834504 0 -79.061884444834504 -279.172073635993 0 0 0 0 -1.71457013315678 -0.61053823081175551 0 -0.61053823081175551 -0.31521899656892316 0 0 0 0 -147.38381225872581 -84.212455209981272 0 -84.212455209981272 109.3851071843892 0 0 0 0 -243.33662581915769 -112.91848061516794 0 -112.91848061516794 194.32495453087904 0 0 0 0 -244.156969419505 -113.27680050454182 0 -113.27680050454182 195.83386300980055 0 0 0 0 -246.62702914467172 -118.58544452914066 0 -118.58544452914066 188.92179328862403 0 0 0 0 -164.49060879582066 -113.79191625925523 0 -113.79191625925523 146.75582118621242 0 0 0 0 142.28938829215076 -133.12558562572667 0 -133.12558562572667 117.24828025341048 0 0 0 0 -4.2329985006972493 3.7449794694166485 0 3.7449794694166485 5.4270715185666631 0 0 0 0 -25.723684780019539 39.787859317289985 0 39.787859317289985 -27.383108364099826 0 0 0 0 -241.78688827549422 -108.39874667812364 0 -108.39874667812364 200.04151907828054 0 0 0 0 -57.662797197251166 56.383081683536147 0 56.383081683536147 -23.204775339438129 0 0 0 0 -0.45177524610126207 -1.0869905947481864 0 -1.0869905947481864 -3.141194533798739 0 0 0 0 -2.4658169085382724 -26.811368371227218 0 -26.811368371227218 -284.38093504257631 0 0 0 0 -68.036331541708478 84.35189075883045 0 84.35189075883045 -94.835614767012885 0 0 0 0 -5.8100252005529001 -30.394485535682179 0 -30.394485535682179 -97.567988093869189 0 0 0 0 -265.60556393278966 -142.77372004514109 0 -142.77372004514109 155.71606053656069 0 0 0 0 122.85008944961282 -17.016990534884826 0 -17.016990534884826 -308.45963599985953 0 0 0 0 79.756765614663891 11.447641304956051 0 11.447641304956051 43.17707090876138 0 0 0 0 -167.70555082712963 -141.81101351649704 0 -141.81101351649704 237.83118748864217 0 0 0 0 -240.28847218511328 -193.12334437389291 0 -193.12334437389291 63.961432592837809 0 0 0 0 -54.151175063758274 -188.01784380389654 0 -188.01784380389654 -221.7922634791903 0 0 0 0 47.985625782080206 -35.928591979929479 0 -35.928591979929479 -25.521475932318936 0 0 0 0 1.3675596984054135 0.47717953369117794 0 0.47717953369117794 -1.9247556009917481 0 0 0 0 105.95326482032584 -170.60430496356844 0 -170.60430496356844 70.206174663606362 0 0 0 0 -8.1159035208384012 -5.6476561807285179 0 -5.6476561807285179 -67.097162978054257 0 0 0 0 -4.8832474673630379 -1.8632103251760235 0 -1.8632103251760235 -1.848117903187493 0 0 0 0 -26.403645466318267 23.812370830884902 0 23.812370830884902 -72.712505334044181 0 0 0 0 71.093413189694729 -1.1128508049409902 0 -1.1128508049409902 -19.633467444524285 0 0 0 0 -30.064549801632339 45.447847862098797 0 45.447847862098797 -109.90089495392749 0 0 0 0 6.666474818772258 1.0331878500346647 0 1.0331878500346647 -88.061955610792211 0 0 0 0 5.8070093172473207 -12.060303837330139 0 -12.060303837330139 -98.359505733751575 0 0 0 0 -0.82215479894148302 -11.480406114736979 0 -11.480406114736979 -74.029152356903069 0 0 0 0 -0.91612194191293383 -23.53148445495026 0 -23.53148445495026 -97.724398965445289 0 0 0 0 5.2504298731769268 -29.895826627413044 0 -29.895826627413044 -114.31274072059023 0 0 0 0 6.0046012272139251 -12.318824297368337 0 -12.318824297368337 -127.05887277690636 0 0 0 0 1.6522675121054817 -28.246269392170689 0 -28.246269392170689 -135.38058032622212 0 0 0 0 2.5561523425931227 3.4507409850921249 0 3.4507409850921249 -173.36957806623104 0 0 0 0 3.4916556600473996 -4.9218810973179643 0 -4.9218810973179643 -103.04790117473749 0 0 0 0 55.047739120617052 4.1028389656230502 0 4.1028389656230502 -83.522256798030867 0 0 0 0 7.0522882423001647 -13.445153624636077 0 -13.445153624636077 -18.98068774035346 0 0 0 0 -7.0608681094763597 -23.33996703610137 0 -23.33996703610137 -77.093351263611112 0 0 0 0 -12.649669783979334 -21.050964128087799 0 -21.050964128087799 -61.927709805488121 0 0 0 0 -0.59991791177890263 -18.255815077092848 0 -18.255815077092848 -82.465936009524739 0 0 0 0 -0.66444348777440609 10.806897359470895 0 10.806897359470895 -53.294194925976626 0 0 0 0 -3.9824568047233697 -1.3698399384848017 0 -1.3698399384848017 -22.231809028911812 0 0 0 0 -2.3942731180499841 -6.7328823365390242 0 -6.7328823365390242 -11.22448443353823 0 0 0 0 -0.52894840632239948 2.339050377820783 0 2.339050377820783 -8.9179856253794494 0 0 0 0 43.040793294258492 -7.6082712747002006 0 -7.6082712747002006 -40.008739768294618 0 0 0 0 -5.4762360091146745 -4.5445599124838232 0 -4.5445599124838232 -12.187994172612065 0 0 0 0 -4.7223550007950053 -6.1191607944037969 0 -6.1191607944037969 -20.354517309140647 0 0 0 0 -2.8978554035338675 -6.3839075029864034 0 -6.3839075029864034 -26.166940039731344 0 0 0 0 -2.444242593307778 -9.9344606701844071 0 -9.9344606701844071 -8.4889262884539072 0 0 0 0 -0.30722813598655208 -3.2536134275992485 0 -3.2536134275992485 -23.291854349403721 0 0 0 0 0.28890792541344013 -3.0404969618664595 0 -3.0404969618664595 -20.284514148553413 0 0 0 0 1.3433770101335085 -18.768652347134775 0 -18.768652347134775 -32.663869888817317 0 0 0 0 2.2157624558284961 1.197717490874723 0 1.197717490874723 -10.791660691991105 0 0 0 0 0.65888820936925185 -19.895072805680684 0 -19.895072805680684 -34.268323213458643 0 0 0 0 3.2542790855409294 -19.883023898848478 0 -19.883023898848478 -36.681030160634691 0 0 0 0 2.0105311796287424 -23.537527025397139 0 -23.537527025397139 -47.217772544725449 0 0 0 0 -2.6177100448535384 -22.55180390073474 0 -22.55180390073474 -32.282518170759431 0 0 0 0 8.0198647280726618 -17.436379191694868 0 -17.436379191694868 -35.427230019333365 0 0 0 0 -1.0453532331781248 -7.6490862317523636 0 -7.6490862317523636 -39.551944285013931 0 0 0 0 11.510095143482204 -18.883285156338388 0 -18.883285156338388 -39.07854452925676 0 0 0 0 11.981246945458793 -20.121021504936834 0 -20.121021504936834 -38.250798554363428 0 0 0 0 8.3223089218711266 -22.509826200344833 0 -22.509826200344833 -41.909200894282549 0 0 0 0 10.621326059249441 -12.190085401045508 0 -12.190085401045508 -27.385104291512107 0 0 0 0 18.330046374624999 -5.9822267515774001 0 -5.9822267515774001 -43.187002110787944 0 0 0 0 19.332665383763015 -1.8605745865352219 0 -1.8605745865352219 -34.903851736264187 0 0 0 0 8.7852930669267835 -17.214824963264618 0 -17.214824963264618 -37.426704915647861 0 0 0 0 6.3530410592156841 -13.293377380596212 0 -13.293377380596212 -42.988995431049261 0 0 0 0 -1.2226731622613443 -8.8808194464327244 0 -8.8808194464327244 -48.041473671877384 0 0 0 0 0.70553432057397458 -9.2021676560343622 0 -9.2021676560343622 -58.915220229020633 0 0 0 0 2.8523378646355013 -15.647623330125498 0 -15.647623330125498 -40.206117510613694 0 0 0 0 -28.1483122347056 12.257239233851578 0 12.257239233851578 -42.40215143210844 0 0 0 0 2.3364761937707499 -1.1297431621424039 0 -1.1297431621424039 -51.096454947884922 0 0 0 0 -2.4440624972671685 -4.4170383706386929 0 -4.4170383706386929 -49.695902329105593 0 0 0 0 -19.91215933104877 5.4029157340810343 0 5.4029157340810343 -51.727540493586275 0 0 0 0 15.742350099187206 -7.9651845539920032 0 -7.9651845539920032 -45.121395281224977 0 0 0 0 16.959498605973295 -22.429894074568438 0 -22.429894074568438 -29.612277508316765 0 0 0 0 5.1985286494145839 -9.5622899625204809 0 -9.5622899625204809 -37.777379920000385 0 0 0 0 -28.57776467537974 30.88720869979079 0 30.88720869979079 -67.666218470784997 0 0 0 0 -14.762886547159951 9.8816404190874891 0 9.8816404190874891 -69.61215492096926 0 0 0 0 -15.440568863821454 5.5098003391285602 0 5.5098003391285602 -64.096729645407322 0 0 0 0 -9.9228449713674536 4.3777438890610938 0 4.3777438890610938 -74.69437543926324 0 0 0 0 -3.4439832658888623 -2.6228686561091905 0 -2.6228686561091905 -2.1358233826854871 0 0 0 0 -14.894579904342436 77.752835987649632 0 77.752835987649632 -240.80656507913955 0 0 0 0 -45.107254881259848 46.5874906501449 0 46.5874906501449 -106.00053049549751 0 0 0 0 1.5138881148355952 -0.62513925635633427 0 -0.62513925635633427 0.39384833853107182 0 0 0 0 -29.433926863602665 -70.105769605186651 0 -70.105769605186651 -79.911387284195371 0 0 0 0 -63.40729047340119 -143.82232734782883 0 -143.82232734782883 -56.33338062675648 0 0 0 0 -54.56175793909415 17.761410751156291 0 17.761410751156291 -13.095809449616354 0 0 0 0 18.865299434902681 -31.034430127278029 0 -31.034430127278029 -102.41748155236951 0 0 0 0 -50.602474263839667 3.3905048353044549 0 3.3905048353044549 -36.976806783120992 0 0 0 0 -2.6688262470005384 -38.22307687342618 0 -38.22307687342618 -26.929756048237323 0 0 0 0 -7.7466619124386398 -14.768159579394705 0 -14.768159579394705 -16.176649416516739 0 0 0 0 2.8232168826391444 -25.569266202630388 0 -25.569266202630388 -69.099466748761188 0 0 0 0 3.9098994761377055 -3.0609065023498303 0 -3.0609065023498303 -0.54284643606930416 0 0 0 0 1.5735743713901229 -18.422439983460208 0 -18.422439983460208 -13.86615757285108 0 0 0 0 -23.522581168426314 -12.743959028411155 0 -12.743959028411155 -18.792661993385991 0 0 0 0 -14.108217300946933 7.9349015839043204 0 7.9349015839043204 -50.333237994025694 0 0 0 0 -2.8607894648648751 -1.2597353546659136 0 -1.2597353546659136 -1.2995874078370093 0 0 0 0 4.7875807009469327 -18.146852907440916 0 -18.146852907440916 -67.99336651660542 0 0 0 0 -58.600574848372048 -48.012603799905264 0 -48.012603799905264 -15.728486999432789 0 0 0 0 -79.678366821858731 -17.825813166444277 0 -17.825813166444277 -7.4149505368841346 0 0 0 0 -69.233129738057869 0.75273608385759871 0 0.75273608385759871 24.380893911413295 0 0 0 0 -43.733744278109441 19.145719027383166 0 19.145719027383166 -1.0372466100088786 0 0 0 0 -1.0981864864062003 0.22163220241977655 0 0.22163220241977655 -0.051394716810708729 0 0 0 0 18.542788275929979 -46.119800506727188 0 -46.119800506727188 -172.55430549435005 0 0 0 0 60.146363447890053 93.247310915936396 0 93.247310915936396 -139.69034334713433 0 0 0 0 38.115880333344876 98.555552010657266 0 98.555552010657266 6.1065267893309283 0 0 0 0 1.5539632964901753 1.4857316828213669 0 1.4857316828213669 -6.8070406885789083 0 0 0 0 34.492514373571794 -12.472226422869426 0 -12.472226422869426 23.656692496217147 0 0 0 0 -24.181837844070969 13.17166275996351 0 13.17166275996351 58.942493315757019 0 0 0 0 5.4052981128688771 4.8500639958147076 0 4.8500639958147076 8.6195473419866175 0 0 0 0 -0.64667947604420961 2.166415748535389 0 2.166415748535389 1.8823221365915543 0 0 0 0 47.696737027444215 88.737538161720295 0 88.737538161720295 155.87085656085401 0 0 0 0 0.87709435241520861 -0.22694429022167384 0 -0.22694429022167384 -2.1979570133420694 0 0 0 0 4.5897773265754331 4.6798968018966534 0 4.6798968018966534 -10.506335966038414 0 0 0 0 55.242176566110629 99.65444346528966 0 99.65444346528966 152.68943452727399 0 0 0 0 130.00237339004207 49.179379866116506 0 49.179379866116506 60.939659391791793 0 0 0 0 47.351123077672128 -42.931056324174278 0 -42.931056324174278 89.148061303283612 0 0 0 0 1.6137851955622864 0.49908866946498165 0 0.49908866946498165 -2.6501547252992168 0 0 0 0 3.0228752209275145 3.2477045723271303 0 3.2477045723271303 -5.9959204111820412 0 0 0 0 3.1914852554216395 2.7342670515936334 0 2.7342670515936334 -13.000153244036483 0 0 0 0 87.168330862362836 -27.223622089390119 0 -27.223622089390119 -3.740173249207146 0 0 0 0 0.61717864792058119 0.68528318567514646 0 0.68528318567514646 -6.7266557718591713 0 0 0 0 -0.20450927348647951 2.4277706398279406 0 2.4277706398279406 -15.618294999854697 0 0 0 0 -1.9004633834331202 -0.77297400027146068 0 -0.77297400027146068 -11.752334478696866 0 0 0 0 -0.39928533811496436 1.6513829068280756 0 1.6513829068280756 -12.132111679211448 0 0 0 0 -0.49112170900210117 2.4330723268067231 0 2.4330723268067231 -14.590479637612589 0 0 0 0 3.2917090447277744 2.0776494518379494 0 2.0776494518379494 -11.549145172558312 0 0 0 0 3.6274076995945181 2.2102471067933749 0 2.2102471067933749 -8.8411876798011519 0 0 0 0 2.053980149747531 -0.29081745978328399 0 -0.29081745978328399 -4.5219101867842255 0 0 0 0 6.2072874422383393 13.913664594823786 0 13.913664594823786 108.58969660779985 0 0 0 0 2.5804076430806138 0.84707508390775388 0 0.84707508390775388 -10.177892972588964 0 0 0 0 4.1050262624742846 0.28716019375278989 0 0.28716019375278989 -11.422049263656504 0 0 0 0 37.464243280061964 60.693659735035908 0 60.693659735035908 116.20531817921437 0 0 0 0 143.57474751050847 145.51787848602271 0 145.51787848602271 -34.883017013700737 0 0 0 0 86.654487972880133 44.317996945088453 0 44.317996945088453 51.5663448573614 0 0 0 0 1.1152329392539286 -1.6902586865653575 0 -1.6902586865653575 -11.09325239003374 0 0 0 0 1.6244329301882416 0.58452344729577277 0 0.58452344729577277 -8.7971931401440173 0 0 0 0 -25.780977981336491 84.651116496701434 0 84.651116496701434 -0.34319956367653504 0 0 0 0 -252.20470985102975 -21.029591563827125 0 -21.029591563827125 61.798496706986043 0 0 0 0 -29.207518484657157 85.340788132016314 0 85.340788132016314 11.37851571959618 0 0 0 0 -10.598881892300597 -50.820801723733894 0 -50.820801723733894 30.665686866093893 0 0 0 0 17.64606718765117 112.22674779943191 0 112.22674779943191 2.4082908270629559 0 0 0 0 -12.040787782455936 -26.903190500532219 0 -26.903190500532219 38.608420174932689 0 0 0 0 -93.171969308447387 -89.90307538331399 0 -89.90307538331399 42.981141709358781 0 0 0 0 -12.995105512633472 -47.120025144424289 0 -47.120025144424289 8.4141548767438508 0 0 0 0 -15.22861639616923 -3.9126564566754496 0 -3.9126564566754496 94.256658328755293 0 0 0 0 70.52441731448107 98.700634519744199 0 98.700634519744199 149.47247670355137 0 0 0 0 36.822208856132875 -37.354436417263059 0 -37.354436417263059 31.083549372619018 0 0 0 0 127.70580080723903 34.963446755107725 0 34.963446755107725 60.248553312994773 0 0 0 0 12.361941754196778 -1.9927121745422482 0 -1.9927121745422482 90.54388269080664 0 0 0 0 31.921929562920923 21.010167918502702 0 21.010167918502702 111.43764827783161 0 0 0 0 61.577328436022071 87.909803429793101 0 87.909803429793101 152.35382335036411 0 0 0 0 -77.524272958687106 5.5866733269213 0 5.5866733269213 70.653211776909302 0 0 0 0 48.794519200474042 30.853174242001842 0 30.853174242001842 69.662352601255407 0 0 0 0 0.19823242572496633 -0.88247244193007646 0 -0.88247244193007646 -9.2816386510130542 0 0 0 0 0.0007519977965203021 0.080381769057566999 0 0.080381769057566999 -10.63000579474101 0 0 0 0 0.82110679994680547 0.182430345444903 0 0.182430345444903 -8.2673973111528198 0 0 0 0 -0.77003486598678705 -2.1399177952571335 0 -2.1399177952571335 -14.454154591559927 0 0 0 0 0.035859005352421314 -1.3636742671768616 0 -1.3636742671768616 -5.3014438581118171 0 0 0 0 1.0242807947712151 0.4379492399530136 0 0.4379492399530136 -12.108284345333232 0 0 0 0 -5.0166378059657859 -8.8536796272892389 0 -8.8536796272892389 -15.537113977827175 0 0 0 0 1.3296396204330563 3.5370768967859476 0 3.5370768967859476 -9.4462265198399109 0 0 0 0 -0.00089243408516538874 -0.16177305001474451 0 -0.16177305001474451 -6.3394740357762203 0 0 0 0 -5.5771119536177025 -4.5972004357645346 0 -4.5972004357645346 -4.32909175349414 0 0 0 0 0.1634570104020554 -5.004789567878106 0 -5.004789567878106 -10.562666331858054 0 0 0 0 0.23357132787120691 -0.42350548054673709 0 -0.42350548054673709 -6.077180846765259 0 0 0 0 0.0019860728214678913 -1.4027249169115743 0 -1.4027249169115743 -2.6634971623425372 0 0 0 0 -1.4051757401132443 -1.8140148401864593 0 -1.8140148401864593 1.2436710600453011 0 0 0 0 0.80027831647447423 -0.82439190473635549 0 -0.82439190473635549 -5.302653259377422 0 0 0 0 -0.82623236542533007 -14.139591385926906 0 -14.139591385926906 -14.88621333046467 0 0 0 0 -1.1871235135785128 -3.5099923292764288 0 -3.5099923292764288 -10.794078175655159 0 0 0 0 2.0612344099591837 -3.3403849974838522 0 -3.3403849974838522 -10.931967151271238 0 0 0 0 2.1995042575227113 -4.6461762679561396 0 -4.6461762679561396 -13.166305066129922 0 0 0 0 -0.68928445933130511 -4.1412583199935113 0 -4.1412583199935113 -9.7618347203105742 0 0 0 0 -2.7637733464993861 -10.795515226353018 0 -10.795515226353018 -14.708207542818855 0 0 0 0 2.1676053919065277 0.63484778450696666 0 0.63484778450696666 -6.7379281854765622 0 0 0 0 10.973421665698385 -5.1980680890665099 0 -5.1980680890665099 -12.968840363349955 0 0 0 0 -1.3939958932099139 -2.8226669562776152 0 -2.8226669562776152 -2.3453480204399 0 0 0 0 4.8401151119046544 -14.376962628932233 0 -14.376962628932233 -16.061029373173369 0 0 0 0 0.30234563194644526 -10.71286442820201 0 -10.71286442820201 -15.764109488110989 0 0 0 0 0.14280810098771823 -9.7632949185208417 0 -9.7632949185208417 -18.05097626585848 0 0 0 0 -22.412624432939641 -25.045577687618788 0 -25.045577687618788 -23.18877040327061 0 0 0 0 -2.1276390571698629 -1.4631313923426355 0 -1.4631313923426355 -0.72396464076507527 0 0 0 0 -94.027710456905879 -143.61510153656491 0 -143.61510153656491 -89.066830061936344 0 0 0 0 -169.02199269019457 -331.99700423272589 0 -331.99700423272589 -197.34426825683477 0 0 0 0 -205.99558564698197 310.28362060801032 0 310.28362060801032 -114.87167688259797 0 0 0 0 48.574666323253496 -49.99960297398502 0 -49.99960297398502 -430.748871867665 0 0 0 0 84.845022302498819 -88.692001950163103 0 -88.692001950163103 -121.44814955243055 0 0 0 0 129.55424292881048 6.112250057667552 0 6.112250057667552 -17.066182166010549 0 0 0 0 45.469334442776244 177.46108363365602 0 177.46108363365602 -28.772684335206577 0 0 0 0 46.829255657298745 -43.686473189449316 0 -43.686473189449316 -18.431219756384507 0 0 0 0 -31.735738407977237 -60.371077711006365 0 -60.371077711006365 22.058056504080014 0 0 0 0 27.449777147499617 -27.14176184086682 0 -27.14176184086682 9.4032532627898036 0 0 0 0 31.536831447111581 -65.938683667962323 0 -65.938683667962323 -29.153665423111306 0 0 0 0 -4.3270908291831187 -8.4197881447683329 0 -8.4197881447683329 -13.665803532732951 0 0 0 0 -57.189301406287541 -20.743710212373117 0 -20.743710212373117 32.87430054107972 0 0 0 0 -30.422314383090225 -57.063748912674782 0 -57.063748912674782 22.454217130045436 0 0 0 0 -51.129075239836396 -9.1353011339415389 0 -9.1353011339415389 54.859270514607033 0 0 0 0 -91.981652861339512 -58.892577269853064 0 -58.892577269853064 50.092150757554919 0 0 0 0 -36.940405582891856 -21.177159264494549 0 -21.177159264494549 19.876684086248133 0 0 0 0 -47.065100794074056 -31.935057546914322 0 -31.935057546914322 26.998857870572465 0 0 0 0 -0.34693897968273291 8.2113977364715538 0 8.2113977364715538 -27.882456237159204 0 0 0 0 8.4718923112448259 -28.348797124800058 0 -28.348797124800058 -11.571682822046569 0 0 0 0 -3.6730948188859411 -5.1969323124623088 0 -5.1969323124623088 -7.3092836108349957 0 0 0 0 14.07001905099618 0.069386429049700382 0 0.069386429049700382 -49.030401263618842 0 0 0 0 2.7945449987990827 20.907832821816555 0 20.907832821816555 -42.511324261491609 0 0 0 0 -41.273656980456082 48.905801574335783 0 48.905801574335783 -3.4634453402568397 0 0 0 0 -96.714223387095046 -71.721465076840104 0 -71.721465076840104 -18.535289809718961 0 0 0 0 14.286433182901533 -115.46296998664548 0 -115.46296998664548 -130.00552914678701 0 0 0 0 -0.23974415359401746 -71.903137200683432 0 -71.903137200683432 -81.040987082866195 0 0 0 0 -0.031263098046425707 -9.004729552396384 0 -9.004729552396384 -15.5167661681553 0 0 0 0 -0.0081008170247981459 -7.6892085202472344 0 -7.6892085202472344 -2.5811305649331189 0 0 0 0 23.545033349702379 13.065293102452415 0 13.065293102452415 -10.757694837722738 0 0 0 0 13.734023776377907 -7.3307112219481496 0 -7.3307112219481496 -52.963704146015516 0 0 0 0 -28.499496439841295 -14.007128100762202 0 -14.007128100762202 2.3453123718354618 0 0 0 0 -3.6691546496261651 -24.548166343205594 0 -24.548166343205594 -2.4797575113989296 0 0 0 0 -0.3072192710761405 0.26122600143068553 0 0.26122600143068553 0.12295567494044235 0 0 0 0 -37.082551421155841 -32.035408301760981 0 -32.035408301760981 -35.288841079011036 0 0 0 0 7.4879956159831664 -0.70693700262199854 0 -0.70693700262199854 -65.282924843657383 0 0 0 0 -6.7817702733534393 -8.0200340558967582 0 -8.0200340558967582 -68.395320573712524 0 0 0 0 2.5403423105719725 -11.824137349882221 0 -11.824137349882221 -69.235512980128988 0 0 0 0 -1.5351169762800332 -12.709991306692245 0 -12.709991306692245 -52.249578247922273 0 0 0 0 4.4321751519200303 -19.390466315737285 0 -19.390466315737285 -79.21392498440764 0 0 0 0 0.026712416219784811 -18.087378807551431 0 -18.087378807551431 -68.457043642287317 0 0 0 0 30.056821382958262 -18.101175872354361 0 -18.101175872354361 -97.805228711502423 0 0 0 0 9.3846449298661128 11.974241246800375 0 11.974241246800375 -103.04085883745574 0 0 0 0 20.722438930281697 -52.455401562114275 0 -52.455401562114275 -79.939534981829638 0 0 0 0 17.392505835847828 -24.643644862891051 0 -24.643644862891051 -97.471029319654917 0 0 0 0 0.032231108774669649 -31.701854074568473 0 -31.701854074568473 -62.096794656397833 0 0 0 0 19.612453023945754 -32.707392240738045 0 -32.707392240738045 -69.708106299571227 0 0 0 0 -52.672972745981042 93.76239925493428 0 93.76239925493428 -179.58009202958783 0 0 0 0 -1.2940365806078664 -1.605649169797239 0 -1.605649169797239 -2.2370900721579687 0 0 0 0 103.05203496848551 160.16933953216721 0 160.16933953216721 73.064766390387376 0 0 0 0 9.5172076691842733 25.474526993566542 0 25.474526993566542 -293.26672161718216 0 0 0 0 28.029346377651429 -2.8463637887398363 0 -2.8463637887398363 -176.97388557720842 0 0 0 0 1.9386379178950222 37.780628936867288 0 37.780628936867288 -129.69847203349491 0 0 0 0 8.5670215315730864 19.630201051718586 0 19.630201051718586 -126.97130899758486 0 0 0 0 7.5766976595430293 -37.308001052453619 0 -37.308001052453619 -57.171238765287853 0 0 0 0 -3.0896119129100015 -88.886577503875742 0 -88.886577503875742 -115.45033994282312 0 0 0 0 -3.3409923853462402 -95.158383984613465 0 -95.158383984613465 -269.52219854749364 0 0 0 0 -209.70875695042753 -71.985143558786149 0 -71.985143558786149 25.935632012646238 0 0 0 0 92.836911368640074 138.68797612141861 0 138.68797612141861 -166.51676841264998 0 0 0 0 -39.683799419767411 -26.266434292047052 0 -26.266434292047052 128.69574104602725 0 0 0 0 -204.77090033694265 -255.84861509323491 0 -255.84861509323491 -114.26832598057081 0 0 0 0 28.850998353839486 -63.053106973777176 0 -63.053106973777176 -103.33022592180532 0 0 0 0 95.503947771317769 116.60695156958536 0 116.60695156958536 -11.040590463395347 0 0 0 0 19.982124336486322 20.752682213151274 0 20.752682213151274 -20.134754907259776 0 0 0 0 11.212592903933398 7.1956926295982271 0 7.1956926295982271 -21.698141506336441 0 0 0 0 18.264170982117548 9.8128352920466568 0 9.8128352920466568 -20.217360305745387 0 0 0 0 14.31954360731379 10.579282458460511 0 10.579282458460511 -20.316615461309993 0 0 0 0 11.614453294712803 11.491523738619435 0 11.491523738619435 -7.1639973280471168 0 0 0 0 1.6058585104583472 10.916251739985455 0 10.916251739985455 -17.843929773731361 0 0 0 0 -9.0016747630833152 1.157970882563859 0 1.157970882563859 -17.673969197523547 0 0 0 0 1.5152457995964141 6.6241051253091427 0 6.6241051253091427 -15.358813288039528 0 0 0 0 3.5721719866554622 9.3222102630625159 0 9.3222102630625159 -14.097134450057638 0 0 0 0 9.0071288707931672 7.2567434930206218 0 7.2567434930206218 -20.945525164432183 0 0 0 0 24.625681679517584 11.923783026970341 0 11.923783026970341 -17.907155984510609 0 0 0 0 10.012754978569944 14.074169272587824 0 14.074169272587824 -11.856828049945761 0 0 0 0 16.848361579982338 1.9743345802398835 0 1.9743345802398835 -6.7154226721759187 0 0 0 0 6.3257123650837457 3.102037010838103 0 3.102037010838103 2.3591656396456528 0 0 0 0 10.439383739640107 12.304850063424965 0 12.304850063424965 -14.156787806517741 0 0 0 0 -2.3240114238196838 12.000259072381596 0 12.000259072381596 -3.1129561617126456 0 0 0 0 43.36252253065777 -28.668274426583594 0 -28.668274426583594 -23.63632462780879 0 0 0 0 18.685216054995635 21.480389907352219 0 21.480389907352219 -9.3092135758524819 0 0 0 0 13.865082288884818 7.6093206131680589 0 7.6093206131680589 -20.28120517752005 0 0 0 0 -12.005697854219536 -12.979261133763735 0 -12.979261133763735 -12.578231615065647 0 0 0 0 31.300433500809959 -45.877698386422708 0 -45.877698386422708 -35.941025193718815 0 0 0 0 -13.897285378113338 9.1442121257678082 0 9.1442121257678082 -44.177428361588682 0 0 0 0 44.133486985574564 -21.499904489199253 0 -21.499904489199253 -77.346732838752359 0 0 0 0 5.628850151826807 -0.96805181779335214 0 -0.96805181779335214 -4.6936479470761636 0 0 0 0 -33.077244772597624 16.938383702421561 0 16.938383702421561 -1.2639402307468117 0 0 0 0 -0.76484420786073315 -1.2381411017850041 0 -1.2381411017850041 -17.911035133940459 0 0 0 0 -2.1145069675475798 -2.9668635651078645 0 -2.9668635651078645 -4.2337147276241467 0 0 0 0 0.36629739339423395 4.0676448764861561 0 4.0676448764861561 -16.383976782904938 0 0 0 0 -2.3391549869493247 4.4410576868249336 0 4.4410576868249336 -16.267732664868163 0 0 0 0 10.472383556014393 -2.1530702693780768 0 -2.1530702693780768 -17.888707586069359 0 0 0 0 4.333340002041723 -4.893092963277013 0 -4.893092963277013 -18.66908860579133 0 0 0 0 9.5858616909330348 0.22696247018187421 0 0.22696247018187421 -14.874757867182568 0 0 0 0 6.2880054414847741 -3.9279673671932684 0 -3.9279673671932684 -16.962005950938575 0 0 0 0 6.7327881950615831 -3.7041094589710468 0 -3.7041094589710468 -14.925102071558882 0 0 0 0 -18.35858476328832 1.7320537767545829 0 1.7320537767545829 -52.678583548462484 0 0 0 0 -13.943395492673176 -9.3677018210100869 0 -9.3677018210100869 -67.389622648610384 0 0 0 0 -1.5907245787930151 3.6259516959544271 0 3.6259516959544271 -57.456901998190006 0 0 0 0 -9.9589076166944324 2.3766296699413942 0 2.3766296699413942 -32.225328991407878 0 0 0 0 -1.2322203036349038 8.125723052322428 0 8.125723052322428 -28.380285616854962 0 0 0 0 -9.3082940332944872 13.092695155019101 0 13.092695155019101 -42.741102716405294 0 0 0 0 -5.1444150273878222 5.0678849262003496 0 5.0678849262003496 -34.191120637504355 0 0 0 0 -1.0115178869823467 -11.003530135982146 0 -11.003530135982146 -15.480423563280056 0 0 0 0 -10.375619200435949 6.2922293820556661 0 6.2922293820556661 -45.874223382768832 0 0 0 0 -8.8731532532852277 -7.8172777851220232 0 -7.8172777851220232 -7.0355198034149566 0 0 0 0 18.126152505865662 -74.364734381686503 0 -74.364734381686503 18.177264221150836 0 0 0 0 8.0726831076177632 -4.7481202562594262 0 -4.7481202562594262 -4.762673487279244 0 0 0 0 -22.168663678830796 -54.858647407271746 0 -54.858647407271746 -79.866534821245295 0 0 0 0 39.249734721344794 -11.826019809275749 0 -11.826019809275749 -162.34039406804732 0 0 0 0 1.7188899808379832 1.3096375116099921 0 1.3096375116099921 0.78742636990654713 0 0 0 0 45.097758028073372 -37.477896936845355 0 -37.477896936845355 -68.688542447242071 0 0 0 0 -23.547248160344225 13.31452751938923 0 13.31452751938923 -40.143815209547029 0 0 0 0 -133.45378828890989 -78.934430354215465 0 -78.934430354215465 -143.27187874878314 0 0 0 0 30.083665136777199 -16.781561667384722 0 -16.781561667384722 -323.67923165518778 0 0 0 0 -118.21798706847653 48.787330876669785 0 48.787330876669785 -210.11218624181129 0 0 0 0 -0.2166074217988454 0.47773378384071208 0 0.47773378384071208 -2.5639815061692008 0 0 0 0 -90.785507978225723 77.027371771440016 0 77.027371771440016 -61.878217110045625 0 0 0 0 -99.28914869268101 -100.31154343807907 0 -100.31154343807907 -119.48858206065233 0 0 0 0 -9.4618360396270873 -51.277182614483991 0 -51.277182614483991 -310.84668879805054 0 0 0 0 -22.117447723615442 -19.650506931557629 0 -19.650506931557629 -262.53396336699416 0 0 0 0 -16.652570573891353 40.465198591163698 0 40.465198591163698 -111.83734092801751 0 0 0 0 -30.535254460612123 107.65549297060033 0 107.65549297060033 -194.89525455514399 0 0 0 0 -15.994045265911154 45.528773986506849 0 45.528773986506849 -141.1890360945049 0 0 0 0 -10.987493311808066 70.297211596394845 0 70.297211596394845 -119.88644292536719 0 0 0 0 -15.118116324738111 31.238609431794643 0 31.238609431794643 -92.663759090585245 0 0 0 0 -3.7095205526302379 31.994751617685779 0 31.994751617685779 -128.01781659903372 0 0 0 0 -26.850156908749341 -33.92730989511665 0 -33.92730989511665 -144.74740873715575 0 0 0 0 -33.183312787588875 -46.168688961876796 0 -46.168688961876796 -52.182560206039852 0 0 0 0 -23.233206086237715 -2.7489452015747702 0 -2.7489452015747702 -72.583885788914813 0 0 0 0 -8.7787948414234052 -29.577828641962924 0 -29.577828641962924 -41.137987436921776 0 0 0 0 -35.669490656990092 -27.790561211976637 0 -27.790561211976637 -32.100620302121342 0 0 0 0 -67.571226615886189 -26.341697319565469 0 -26.341697319565469 -31.383825677994537 0 0 0 0 -48.71131457021329 -31.072992899813016 0 -31.072992899813016 -73.348242785517868 0 0 0 0 -84.344579000583053 -18.210958086298547 0 -18.210958086298547 -72.189534810028363 0 0 0 0 -0.22708519702318242 0.13431618906640042 0 0.13431618906640042 0.081634387116559459 0 0 0 0 -70.577252256469365 -37.148947324071287 0 -37.148947324071287 -58.873008844035894 0 0 0 0 -67.093814548352384 30.993859114375823 0 30.993859114375823 -18.673465288624357 0 0 0 0 -106.93132740088731 -28.496820414733293 0 -28.496820414733293 -16.684805555403727 0 0 0 0 -39.369561473482463 -7.0891314127566147 0 -7.0891314127566147 -14.942011510332947 0 0 0 0 -4.6568700745328897 12.041260616733098 0 12.041260616733098 -22.231072359699283 0 0 0 0 -6.4674374326887119 6.6646189000041431 0 6.6646189000041431 -6.1365201309790791 0 0 0 0 -0.25732890041736667 0.47663816303673778 0 0.47663816303673778 0.1137811655685077 0 0 0 0 -0.33679435367632848 0.13076068789307715 0 0.13076068789307715 0.43151753512574231 0 0 0 0 -8.8868168954395514 27.218011928601754 0 27.218011928601754 18.876428253523954 0 0 0 0 -0.89732230347635777 0.74252009257520513 0 0.74252009257520513 -0.18998267615847908 0 0 0 0 13.975082028306133 -10.569561155609108 0 -10.569561155609108 -86.163276415984001 0 0 0 0 -38.690184817305635 -49.090218508178168 0 -49.090218508178168 -54.440744410220304 0 0 0 0 -0.26993297339686251 -6.4273595495909603 0 -6.4273595495909603 -0.64159024637524453 0 0 0 0 5.3499644427229214 -40.789945980661059 0 -40.789945980661059 24.513376352385876 0 0 0 0 -1.0387013489962555 -0.16835588003550583 0 -0.16835588003550583 -4.4516314434488322 0 0 0 0 11.575511326382184 -10.113025461763755 0 -10.113025461763755 -19.843108314212941 0 0 0 0 -2.2982449306462645 -3.8884598704064786 0 -3.8884598704064786 -6.2774422045992129 0 0 0 0 0.30209972154003495 1.3445571195715513 0 1.3445571195715513 -0.6099997927557208 0 0 0 0 0.58764281593202483 0.026475477051276286 0 0.026475477051276286 -1.437188300054439 0 0 0 0 15.941883101037092 -31.411277653599882 0 -31.411277653599882 -39.727651814678211 0 0 0 0 -5.5091990471682948 10.589683514966964 0 10.589683514966964 -33.898691905539692 0 0 0 0 17.715144876310148 -5.2692692067615994 0 -5.2692692067615994 -53.178587556077218 0 0 0 0 6.7203241990810056 -22.130082406486736 0 -22.130082406486736 -58.76103196572933 0 0 0 0 12.693723528623195 16.809053074129451 0 16.809053074129451 -125.23618106272988 0 0 0 0 15.551403743599167 2.738471481264412 0 2.738471481264412 -98.652207650372929 0 0 0 0 24.650322869185857 -2.5110727493187142 0 -2.5110727493187142 -140.5046169054458 0 0 0 0 -15.104159616265861 -47.282501625907003 0 -47.282501625907003 -164.23588497619153 0 0 0 0 9.5871666149828343 -29.644482242583194 0 -29.644482242583194 -150.98427486570654 0 0 0 0 67.577549498557346 14.091542984804164 0 14.091542984804164 -195.45496374382947 0 0 0 0 82.530832060147077 -25.989610481490217 0 -25.989610481490217 -194.77863063231916 0 0 0 0 -49.592134589307534 91.457464897538557 0 91.457464897538557 -160.63757901882946 0 0 0 0 83.895647473415011 12.221545177144208 0 12.221545177144208 -230.92114531232619 0 0 0 0 71.966462112523004 -4.2996092197578264 0 -4.2996092197578264 -114.74451038453935 0 0 0 0 102.30903774772105 -71.402096278890895 0 -71.402096278890895 -168.09701113209758 0 0 0 0 152.55869329548841 -83.523773135562806 0 -83.523773135562806 -69.778258033821089 0 0 0 0 120.44869550495423 -56.27798926151354 0 -56.27798926151354 -113.99558800747921 0 0 0 0 169.93016921089475 30.002211333511241 0 30.002211333511241 -10.119816080530654 0 0 0 0 70.592670821041793 -63.095590422440182 0 -63.095590422440182 -85.419226198450815 0 0 0 0 61.58077502281958 -43.759505933910532 0 -43.759505933910532 -66.944352433533936 0 0 0 0 0.26527026951882604 -0.60202592917429643 0 -0.60202592917429643 -11.646285314487059 0 0 0 0 57.605085071940266 -91.153751657128396 0 -91.153751657128396 5.1341828855048561 0 0 0 0 -82.636369828926036 -22.146129681201273 0 -22.146129681201273 -35.787515838982017 0 0 0 0 42.240932117883858 16.174624972385686 0 16.174624972385686 -23.3254866411271 0 0 0 0 63.407037971501268 25.272872294878653 0 25.272872294878653 -149.09528062101435 0 0 0 0 19.478419412978837 -36.690745227638217 0 -36.690745227638217 17.344768125673454 0 0 0 0 59.612175942254112 -9.1348070749246304 0 -9.1348070749246304 -137.73721992063292 0 0 0 0 2.7884828288796299 -7.2591158542084635 0 -7.2591158542084635 -13.910088474248393 0 0 0 0 31.417766370728714 -99.0295728032836 0 -99.0295728032836 -294.02771581852494 0 0 0 0 23.162508246039579 3.1580217190658004 0 3.1580217190658004 -360.87551924416175 0 0 0 0 -65.555421675592072 21.508111425105525 0 21.508111425105525 -98.748464798844907 0 0 0 0 10.915430244045638 -63.272873019270492 0 -63.272873019270492 -73.22506700940562 0 0 0 0 -29.695932880164719 166.41202453407357 0 166.41202453407357 -297.51186324764967 0 0 0 0 -0.70837829187307833 -1.2490150906271387 0 -1.2490150906271387 -2.5678032317595418 0 0 0 0 61.669107169884228 26.471430484688426 0 26.471430484688426 -437.28654490531562 0 0 0 0 22.778626641311348 51.18051193348856 0 51.18051193348856 -215.06264366689174 0 0 0 0 -179.46514002436743 -69.159948773638462 0 -69.159948773638462 -110.42423331854843 0 0 0 0 -54.597828963164829 -144.02934260116695 0 -144.02934260116695 -349.19984047961952 0 0 0 0 55.746569556942632 -74.304773428179942 0 -74.304773428179942 -270.99524167663458 0 0 0 0 24.386089515423009 -0.53080873002181761 0 -0.53080873002181761 -140.70974971559281 0 0 0 0 33.134629229305574 45.641898195523936 0 45.641898195523936 163.13831431028711 0 0 0 0 -40.311799321932995 -48.01390196730415 0 -48.01390196730415 13.524119172686369 0 0 0 0 -51.068095227834419 -67.650246875760786 0 -67.650246875760786 75.899526603874619 0 0 0 0 -76.146939788561212 -21.926997638675914 0 -21.926997638675914 -89.82705518149487 0 0 0 0 -97.169399526010238 -121.18625477245678 0 -121.18625477245678 -51.599308102261148 0 0 0 0 0.67976540190829837 -37.002468526361554 0 -37.002468526361554 -112.47360386246146 0 0 0 0 -38.43871125566875 -128.36473208212919 0 -128.36473208212919 -33.450743081005385 0 0 0 0 -61.089083818007566 60.532308587030002 0 60.532308587030002 -296.61707141602346 0 0 0 0 -18.703325784905246 -56.882838754341265 0 -56.882838754341265 -125.97216547597918 0 0 0 0 -258.1619586684028 -185.60790125577478 0 -185.60790125577478 -334.84623960689146 0 0 0 0 -5.9923024603617669 0.12112716605392571 0 0.12112716605392571 -1.85221828542555 0 0 0 0 -55.510141978211323 -27.608858781243384 0 -27.608858781243384 -1.8042875097639808 0 0 0 0 100.68695922228289 -149.57475260515639 0 -149.57475260515639 -29.571659669034489 0 0 0 0 231.52554010311724 -223.11889294592982 0 -223.11889294592982 -351.94482373091705 0 0 0 0 1.0285382917122767 1.1868519705795721 0 1.1868519705795721 -1.4863162651937281 0 0 0 0 -53.511516710143042 -191.70502948350622 0 -191.70502948350622 161.73859885443744 0 0 0 0 -12.842208069858316 -150.27945948240495 0 -150.27945948240495 223.45476013240841 0 0 0 0 -14.646774679417376 -160.74019772999691 0 -160.74019772999691 174.71950215716788 0 0 0 0 -40.331759793345554 -148.09619863771411 0 -148.09619863771411 45.765594003862134 0 0 0 0 -12.511163366962137 -221.9665434787039 0 -221.9665434787039 149.40084615988326 0 0 0 0 -54.170191184181022 -151.35171495772238 0 -151.35171495772238 45.223285528271845 0 0 0 0 -13.057521608796378 -215.45036212931973 0 -215.45036212931973 191.36546191917978 0 0 0 0 206.21086916603235 116.94227670622604 0 116.94227670622604 -430.01705863302323 0 0 0 0 -1.5027172806702076 -1.7397008192841112 0 -1.7397008192841112 0.26483578475049008 0 0 0 0 8.8613563171584246 87.563459140732903 0 87.563459140732903 -405.81539069971541 0 0 0 0 -108.92660531237379 -120.1000912610275 0 -120.1000912610275 90.672505946339697 0 0 0 0 93.136152450995723 57.116965118230837 0 57.116965118230837 -451.24904254408125 0 0 0 0 -3.0251050658168026 -0.058844678327639066 0 -0.058844678327639066 -0.98895067912830115 0 0 0 0 -100.38166332283799 -172.88127827715334 0 -172.88127827715334 221.02944521769041 0 0 0 0 -95.049067922162067 -147.37621966301094 0 -147.37621966301094 94.259806112134811 0 0 0 0 -70.908458191471709 -194.75064044508201 0 -194.75064044508201 162.34063853200678 0 0 0 0 -91.854185280578349 -85.545914701037646 0 -85.545914701037646 252.74727073467602 0 0 0 0 -13.141778678935225 -44.350167542446343 0 -44.350167542446343 -1.0029590893545901 0 0 0 0 -50.257585284452034 10.078898932387688 0 10.078898932387688 70.271534898051868 0 0 0 0 27.732036299166793 -12.619627610321459 0 -12.619627610321459 -55.144083712684733 0 0 0 0 55.238477425740712 32.307711647618817 0 32.307711647618817 -49.803965500745107 0 0 0 0 38.07563761378151 86.869094722510454 0 86.869094722510454 97.372145358601301 0 0 0 0 -68.632038948155241 -32.96262442775469 0 -32.96262442775469 71.0024424885287 0 0 0 0 -70.536263067175241 25.994728994848288 0 25.994728994848288 315.92048147982223 0 0 0 0 0.039765893179234624 0.28619323439269806 0 0.28619323439269806 -8.8341668272751139 0 0 0 0 41.680702008938169 18.792840007521363 0 18.792840007521363 -57.2726998477915 0 0 0 0 92.181630669279912 -58.638050229328087 0 -58.638050229328087 24.247507809102444 0 0 0 0 -18.075115701980394 -62.235445479595683 0 -62.235445479595683 -268.48882683621173 0 0 0 0 -3.7594313947725624 -0.171544711184766 0 -0.171544711184766 -2.3260301994668895 0 0 0 0 -15.536355199643367 -53.156195667749557 0 -53.156195667749557 -195.33438163323899 0 0 0 0 -11.039742768458382 8.2152609371439667 0 8.2152609371439667 -228.33627822402195 0 0 0 0 -32.982046787787112 3.2988865351321692 0 3.2988865351321692 -136.49860819336959 0 0 0 0 3.1247017726982449 -57.652807634145915 0 -57.652807634145915 -276.60643483986496 0 0 0 0 -53.916751008251595 -128.40360682145683 0 -128.40360682145683 -334.14792758654289 0 0 0 0 7.6782164305986953 11.377160433841937 0 11.377160433841937 -637.63323876655249 0 0 0 0 -36.74022543598403 -154.8644200157521 0 -154.8644200157521 -488.8084154559233 0 0 0 0 3.6930305064306594 49.657302436361533 0 49.657302436361533 -338.04468894959211 0 0 0 0 -210.81738215001678 118.95047059206718 0 118.95047059206718 -4.2156605329155354 0 0 0 0 -9.9776530888302659 3.3597160394566572 0 3.3597160394566572 -260.88960535026854 0 0 0 0 -283.79870940724504 422.02088694678423 0 422.02088694678423 -313.0535136476874 0 0 0 0 70.658139078215754 -4.9737206396994225 0 -4.9737206396994225 -544.59396156367438 0 0 0 0 95.703136377698684 29.168060363603786 0 29.168060363603786 -662.51041218287901 0 0 0 0 -59.068673413614306 158.44582728873638 0 158.44582728873638 -447.29319799084737 0 0 0 0 -149.65553345164881 284.39324750233027 0 284.39324750233027 -620.80126248869715 0 0 0 0 -1.3076965341394482 0.81749272058054245 0 0.81749272058054245 -0.95026152337530867 0 0 0 0 0.66551625514057378 -16.376127403735822 0 -16.376127403735822 11.51478263811881 0 0 0 0 0.49815128083904892 -6.4038822256218086 0 -6.4038822256218086 -11.642266222283213 0 0 0 0 -37.413567109905671 -8.359518186168998 0 -8.359518186168998 -7.1456802061911731 0 0 0 0 -23.486768503073108 11.339092751413318 0 11.339092751413318 3.0905873974888891 0 0 0 0 31.909131918662752 7.5225747563072218 0 7.5225747563072218 -66.394013082471247 0 0 0 0 11.510669710223738 29.332712331396579 0 29.332712331396579 -1.8114330601745223 0 0 0 0 -9.1707852134850327 -10.959943007458151 0 -10.959943007458151 -45.998298288875048 0 0 0 0 -1.0952253324594494 -15.428928326469773 0 -15.428928326469773 16.858378468927015 0 0 0 0 6.5485516547197662 -21.05949894394519 0 -21.05949894394519 -24.39010513154998 0 0 0 0 47.613635590085323 5.1948637341902213 0 5.1948637341902213 -83.158806416950938 0 0 0 0 2.3515606588516675 -13.285703245975315 0 -13.285703245975315 7.2110935480081295 0 0 0 0 0.31530173913233739 -61.106483099239995 0 -61.106483099239995 -16.252618588478072 0 0 0 0 0.5474557976504002 -10.076236425186238 0 -10.076236425186238 14.412749077214357 0 0 0 0 202.82876196463894 -100.03666536024321 0 -100.03666536024321 -29.862655070171968 0 0 0 0 41.923372687582741 -112.98734263030838 0 -112.98734263030838 57.789392253453116 0 0 0 0 104.23974230315071 -24.236461929109282 0 -24.236461929109282 -68.777588728780756 0 0 0 0 520.16385770235593 544.23080025743297 0 544.23080025743297 -54.518619108726853 0 0 0 0 2.0490252098286996 7.1408117517884673 0 7.1408117517884673 -58.206806007774347 0 0 0 0 -68.648945239746354 93.135839337357766 0 93.135839337357766 488.12033050661285 0 0 0 0 1.8985831438675405 1.4630759813082412 0 1.4630759813082412 -13.384420031133656 0 0 0 0 -959.32323216948134 832.13708638584899 0 832.13708638584899 371.14459701416968 0 0 0 0 41.980633779548043 -192.88130452499627 0 -192.88130452499627 188.46285518109653 0 0 0 0 -144.97040316275525 38.75128331859014 0 38.75128331859014 286.21553451083309 0 0 0 0 -77.141101206955682 -50.049865684558426 0 -50.049865684558426 54.963556296745082 0 0 0 0 33.340700288742482 -144.17528253466764 0 -144.17528253466764 187.81255801730003 0 0 0 0 -96.462730697014194 -176.61884643798317 0 -176.61884643798317 245.32974697675309 0 0 0 0 -204.08844290631714 -61.99359698487433 0 -61.99359698487433 330.61419380071067 0 0 0 0 -22.035233961720678 -39.884187275199224 0 -39.884187275199224 218.77350814533429 0 0 0 0 -891.37023056840735 -560.30390658130045 0 -560.30390658130045 -350.45931542312678 0 0 0 0 -289.90022592871537 83.55522995470119 0 83.55522995470119 161.99328845320701 0 0 0 0 391.26632514808443 224.5492973184239 0 224.5492973184239 -648.5197888597263 0 0 0 0 0.47896138217226092 0.24600805744858789 0 0.24600805744858789 -4.7722344184996679 0 0 0 0 -83.880698756103357 -279.40425448287681 0 -279.40425448287681 -732.61606834177474 0 0 0 0 -290.26276915372546 -204.27776002412429 0 -204.27776002412429 242.027293986144 0 0 0 0 -64.258202540996535 -168.9353243190717 0 -168.9353243190717 -238.62906723257129 0 0 0 0 30.254424170916536 -18.650643296893577 0 -18.650643296893577 -329.3543198030975 0 0 0 0 50.67530694155721 48.039954562163985 0 48.039954562163985 -334.3781053028045 0 0 0 0 -38.674238472495745 -58.522689975635558 0 -58.522689975635558 -145.74637959643769 0 0 0 0 -39.580804589131731 4.1789633713847252 0 4.1789633713847252 -16.021252438598822 0 0 0 0 -45.633065713922406 13.057536505808685 0 13.057536505808685 -17.411207454636042 0 0 0 0 31.841283021930394 16.410104637380527 0 16.410104637380527 -44.859736539121059 0 0 0 0 -1.8224623412233925 1.9022168195205431 0 1.9022168195205431 -0.88228442475118563 0 0 0 0 -27.097196234508374 12.973441079285294 0 12.973441079285294 41.838172172091163 0 0 0 0 2.9220029032585444 22.351429986371841 0 22.351429986371841 -17.513299172292619 0 0 0 0 25.567887366914874 41.836303221563639 0 41.836303221563639 -112.81627582510373 0 0 0 0 -75.469700596569965 19.523472817212678 0 19.523472817212678 5.1063078908964599 0 0 0 0 -0.85048943780091335 -0.16005876401168795 0 -0.16005876401168795 -1.3811309886013277 0 0 0 0 -1.2088433646931662 1.0564406226603751 0 1.0564406226603751 -8.717516267100109 0 0 0 0 0.32135906396069913 10.660896659661375 0 10.660896659661375 -24.769181913739885 0 0 0 0 -4.9343069127333319 2.5958095708521363 0 2.5958095708521363 -3.1975001758936905 0 0 0 0 -20.470852826300415 38.395578457898182 0 38.395578457898182 -134.39303265251783 0 0 0 0 -17.003766342568269 62.051517977424396 0 62.051517977424396 -132.07516933593433 0 0 0 0 -17.032448860863497 58.792084597470421 0 58.792084597470421 -110.46948950892329 0 0 0 0 -8.3710529986010442 65.886126473265676 0 65.886126473265676 -74.721762607598066 0 0 0 0 -12.035711677834115 53.355163493412419 0 53.355163493412419 -116.28557376030994 0 0 0 0 -29.187032347554123 -14.956157674650058 0 -14.956157674650058 87.59135548532231 0 0 0 0 -18.641489880479639 37.683880076867354 0 37.683880076867354 -106.72543232585326 0 0 0 0 -18.613337377906646 46.253822540448709 0 46.253822540448709 -101.17879785067362 0 0 0 0 -3.002339834878871 1.1926740129772107 0 1.1926740129772107 0.13232680617096326 0 0 0 0 0.036393654427065769 -0.71721181201250062 0 -0.71721181201250062 0.47946911307570689 0 0 0 0 4.3539571779806749 -29.748232275530441 0 -29.748232275530441 7.475621869249153 0 0 0 0 0.72046788642182946 30.662426822006182 0 30.662426822006182 20.213875840558558 0 0 0 0 -2.182137889991008 0.63906707251180794 0 0.63906707251180794 0.17587633662502622 0 0 0 0 18.20520007052437 18.143084177877427 0 18.143084177877427 -41.259081729082936 0 0 0 0 -17.009285815441217 -10.25663096312644 0 -10.25663096312644 63.650127725862149 0 0 0 0 -12.291533765092936 70.571957428636324 0 70.571957428636324 -186.48015029131602 0 0 0 0 -0.68369907796477492 30.814680299873999 0 30.814680299873999 -93.72359598244941 0 0 0 0 22.694435761683053 -14.018367765200765 0 -14.018367765200765 -81.453393782533567 0 0 0 0 15.236896147798689 9.4200904860217634 0 9.4200904860217634 -144.36222973412055 0 0 0 0 -6.6837491849582875 17.876563076430102 0 17.876563076430102 -40.284624097056167 0 0 0 0 -10.058501472819898 -32.585872952833597 0 -32.585872952833597 -115.25126842989084 0 0 0 0 -9.1672494446993369 -16.190791383673968 0 -16.190791383673968 -26.603770681061178 0 0 0 0 32.752375512549861 7.3925920353249239 0 7.3925920353249239 -242.47317118650608 0 0 0 0 14.133246420791693 62.826459484743737 0 62.826459484743737 -258.50118869219875 0 0 0 0 -7.1824409177243069 46.349029477577005 0 46.349029477577005 -196.74513050773004 0 0 0 0 28.725174137647628 18.415159357188941 0 18.415159357188941 -194.63988641275137 0 0 0 0 3.6306223795927508 29.492313174147966 0 29.492313174147966 -227.71505360122501 0 0 0 0 15.419411423013116 5.2719157048106808 0 5.2719157048106808 -131.65810493974277 0 0 0 0 19.519400658222366 36.466893290360076 0 36.466893290360076 -56.028192533471724 0 0 0 0 -18.673849993750082 32.085552682570551 0 32.085552682570551 -56.231636880270344 0 0 0 0 -85.13133960448431 59.731069444495688 0 59.731069444495688 0.84279251703173941 0 0 0 0 -93.000294235986075 83.98056584944834 0 83.98056584944834 -72.882190016170171 0 0 0 0 -26.935177449779076 74.474763677519604 0 74.474763677519604 -183.61539105454949 0 0 0 0 -30.814711397914607 41.938146606160615 0 41.938146606160615 -148.94365600161927 0 0 0 0 -48.300934033750309 116.76383481039193 0 116.76383481039193 -220.65267430131735 0 0 0 0 -47.806947396724354 85.746171036488249 0 85.746171036488249 -154.72190230022852 0 0 0 0 -84.754327817717126 34.199596151864682 0 34.199596151864682 -47.852718024705609 0 0 0 0 -109.66044191999845 107.5711047519585 0 107.5711047519585 -95.220697609070612 0 0 0 0 -72.099111387453377 107.27187859947935 0 107.27187859947935 -144.18104911873411 0 0 0 0 6.0426247106954634 19.260593570417768 0 19.260593570417768 -83.357506834498963 0 0 0 0 -28.05971923546349 82.731959613214485 0 82.731959613214485 -77.698366315840758 0 0 0 0 -2.0808426724812126 -4.9997151410061527 0 -4.9997151410061527 -13.298366671545693 0 0 0 0 -62.961486309379325 66.357139936926615 0 66.357139936926615 -82.890678161603319 0 0 0 0 -64.14870666920342 91.241587158956463 0 91.241587158956463 -94.193922438676054 0 0 0 0 -36.335590269259562 21.16969704781658 0 21.16969704781658 9.1473244463750234 0 0 0 0 -36.340263418395487 57.912694996685723 0 57.912694996685723 -130.38791792065604 0 0 0 0 -3.3376630150891904 -8.3633600763861899 0 -8.3633600763861899 -20.498383530100302 0 0 0 0 -58.042403965740732 -28.950342303661728 0 -28.950342303661728 -5.1355307525955141 0 0 0 0 77.208471743758309 -48.531237777935758 0 -48.531237777935758 -76.090977018645617 0 0 0 0 25.436415274056344 35.468048242523764 0 35.468048242523764 -81.449470308361583 0 0 0 0 -74.877316502818303 33.223592823004196 0 33.223592823004196 -30.925123496789183 0 0 0 0 -54.582905903231222 53.992802004974692 0 53.992802004974692 -137.54098101848263 0 0 0 0 -4.0950692665992392 60.287965048969909 0 60.287965048969909 -137.26327436069442 0 0 0 0 -43.222281573843247 63.03154847647329 0 63.03154847647329 -99.032393537279404 0 0 0 0 -139.50261801332272 73.125842001335059 0 73.125842001335059 -54.611939519258385 0 0 0 0 -0.7737429272405123 0.08845023629832216 0 0.08845023629832216 -0.096791714578013277 0 0 0 0 -31.943826091532401 -37.770608427949469 0 -37.770608427949469 98.999533110640186 0 0 0 0 -56.978137156178491 144.32230886712023 0 144.32230886712023 -285.3319771102465 0 0 0 0 -48.125226633614147 -55.617228262633034 0 -55.617228262633034 -17.153155400999822 0 0 0 0 -21.613757912156871 -56.008234932440246 0 -56.008234932440246 -17.148578854671257 0 0 0 0 -28.728281410524687 -69.874337150245083 0 -69.874337150245083 -121.05207483769868 0 0 0 0 -86.137620949507436 -82.029150214223591 0 -82.029150214223591 -123.52914194754885 0 0 0 0 -110.28476621150321 -34.240913841145812 0 -34.240913841145812 8.4487486106227152 0 0 0 0 -89.69990903659891 109.72558728895547 0 109.72558728895547 152.06458918104227 0 0 0 0 25.916088311086241 -24.716004947266811 0 -24.716004947266811 -1.2140387491715501 0 0 0 0 -131.72739167256236 55.552321039459741 0 55.552321039459741 -32.693112562188617 0 0 0 0 -143.30776660088486 -108.69065238975418 0 -108.69065238975418 -92.523503982043621 0 0 0 0 -77.169615175556828 -36.121090184824425 0 -36.121090184824425 -173.00299835713759 0 0 0 0 -101.2651384737328 63.676103326475641 0 63.676103326475641 85.696874805682455 0 0 0 0 -107.82215543215079 -54.666824609915238 0 -54.666824609915238 47.771193090212364 0 0 0 0 -95.366018439066011 -34.945529857061501 0 -34.945529857061501 -32.487896042852299 0 0 0 0 -122.84088919020996 6.6395977886022592 0 6.6395977886022592 -37.718643182273809 0 0 0 0 -69.498289537121309 -7.1089854691444998 0 -7.1089854691444998 -37.047477573956144 0 0 0 0 -14.230021159891294 -20.411896464861002 0 -20.411896464861002 -26.118403893143295 0 0 0 0 -60.992527024161632 -46.9724213169942 0 -46.9724213169942 -33.021314136803994 0 0 0 0 0.83142393948456217 -0.28373418388013505 0 -0.28373418388013505 -0.12346507155192654 0 0 0 0 -23.76725160580736 -11.662909459856564 0 -11.662909459856564 51.041256476186391 0 0 0 0 -59.125747217943626 -59.43721411251272 0 -59.43721411251272 43.09817230326189 0 0 0 0 -15.425867307738372 -17.258123358152261 0 -17.258123358152261 -30.478867675773472 0 0 0 0 2.5096805737991659 -1.2247034253452149 0 -1.2247034253452149 2.0835262244369446 0 0 0 0 -25.902707433366231 -29.419043271263035 0 -29.419043271263035 -15.579728498205895 0 0 0 0 -0.81330127069986702 -17.43751468837354 0 -17.43751468837354 -30.162707844176111 0 0 0 0 23.289894716980598 -37.566284725725382 0 -37.566284725725382 -20.390121641315545 0 0 0 0 -3.4402252553640267 -17.484378779373856 0 -17.484378779373856 -33.069723918652016 0 0 0 0 -2.9988514269534789 -25.638727954471506 0 -25.638727954471506 -34.542154879145528 0 0 0 0 -1.8992546174085874 -18.992472322409412 0 -18.992472322409412 -32.056865569403271 0 0 0 0 -13.95862880392815 -3.7447170984582954 0 -3.7447170984582954 -30.971255330417989 0 0 0 0 2.8226292778035713 -12.857517868482319 0 -12.857517868482319 -30.116278993371566 0 0 0 0 -36.00023952948959 -18.986448347709484 0 -18.986448347709484 -24.979419253395463 0 0 0 0 -61.551759678898179 8.0850724894860377 0 8.0850724894860377 -16.903475805449489 0 0 0 0 -37.746353899211726 6.8630990571839448 0 6.8630990571839448 -17.929568905050473 0 0 0 0 -97.906570184909015 91.242031647218482 0 91.242031647218482 -136.05371094669863 0 0 0 0 -10.241231030876293 -21.595758921823972 0 -21.595758921823972 -49.654986436489708 0 0 0 0 -62.940360482858523 -92.156233443998644 0 -92.156233443998644 -137.28823414128641 0 0 0 0 44.259425297936104 -27.596210415305904 0 -27.596210415305904 -86.419843644921912 0 0 0 0 -2.2852379579626358 -60.566989347490562 0 -60.566989347490562 28.275031474695425 0 0 0 0 -26.443282439275663 20.69253704979883 0 20.69253704979883 -39.438594036757422 0 0 0 0 11.550413491120707 -8.9489183874097762 0 -8.9489183874097762 -44.093605414302147 0 0 0 0 45.599036808735946 -72.036562618875905 0 -72.036562618875905 0.63900275204650825 0 0 0 0 98.809929782445664 -138.43649978233634 0 -138.43649978233634 -41.270418852076546 0 0 0 0 -13.422258423706623 -18.957058500309195 0 -18.957058500309195 -25.522830590648333 0 0 0 0 79.561822168225262 -38.515645286723156 0 -38.515645286723156 -94.321437291166148 0 0 0 0 -144.17159513366096 -117.77436430439229 0 -117.77436430439229 -101.63919088260445 0 0 0 0 -109.27189735522029 20.906200205316054 0 20.906200205316054 0.19641371460602386 0 0 0 0 -17.242694021860984 -90.734667558705041 0 -90.734667558705041 38.635843991516595 0 0 0 0 -13.969113151692483 -18.840658692651626 0 -18.840658692651626 -25.041532794285011 0 0 0 0 26.019623267723091 -36.788261507623247 0 -36.788261507623247 -26.532109838752149 0 0 0 0 -22.407321639795555 -17.822263672404006 0 -17.822263672404006 -13.410903252226035 0 0 0 0 28.640943677144605 -0.21023038132648253 0 -0.21023038132648253 -32.742343416238327 0 0 0 0 -24.692951346870359 34.047817927296819 0 34.047817927296819 -83.309547519824264 0 0 0 0 -83.621567083745504 -11.924476054131446 0 -11.924476054131446 10.797942986474936 0 0 0 0 36.311578035888488 -80.813986510190261 0 -80.813986510190261 4.6418678981463017 0 0 0 0 70.748839105848674 -34.296851319805 0 -34.296851319805 -43.284835529215343 0 0 0 0 -4.3134869374784195 -10.953557354834388 0 -10.953557354834388 -26.464929513555262 0 0 0 0 85.614398590224482 43.656442996054466 0 43.656442996054466 -220.72041928555882 0 0 0 0 -190.60083181835262 -67.596693713385321 0 -67.596693713385321 38.721876719195734 0 0 0 0 -205.80446478957128 -8.9682951070949457 0 -8.9682951070949457 11.399191461274313 0 0 0 0 -0.73081387536553599 -1.198160555346762 0 -1.198160555346762 -2.8623683379846341 0 0 0 0 -121.71803617010846 103.19177509743895 0 103.19177509743895 -17.992856808572469 0 0 0 0 152.50856763428214 -97.161295059623399 0 -97.161295059623399 -80.196998090994384 0 0 0 0 44.847562287061919 -52.755232313851138 0 -52.755232313851138 -25.073510359979622 0 0 0 0 -4.5519215683610668 -12.044666747713109 0 -12.044666747713109 -30.312892144062818 0 0 0 0 19.073401588468641 -13.311038271883717 0 -13.311038271883717 -43.923545132598065 0 0 0 0 -11.33856944096533 -24.799846667688826 0 -24.799846667688826 -39.752149850427941 0 0 0 0 -8.2019039609740503 -33.805199751220698 0 -33.805199751220698 -11.357035578226032 0 0 0 0 23.802703781073433 -43.657192216414842 0 -43.657192216414842 -23.669184338722062 0 0 0 0 -8.5875170779051615 -22.310116756084089 0 -22.310116756084089 -16.489392197012421 0 0 0 0 -12.786749652028448 -20.263317413618097 0 -20.263317413618097 -17.319689807627583 0 0 0 0 -33.507948237356686 -23.846808156213228 0 -23.846808156213228 -10.879378797695608 0 0 0 0 85.325571259559638 -32.131369034395902 0 -32.131369034395902 -46.402287876650007 0 0 0 0 -4.3287367646751846 -12.299737259560759 0 -12.299737259560759 -31.307966604847937 0 0 0 0 -41.453562694518041 -5.8143740907589745 0 -5.8143740907589745 -45.279435340369673 0 0 0 0 2.1312955766502455 55.018737966406661 0 55.018737966406661 -7.9262562975977744 0 0 0 0 -74.951557773607419 8.1647820539074019 0 8.1647820539074019 -3.7744573485160799 0 0 0 0 -71.474625837432995 -19.767773313391444 0 -19.767773313391444 14.727915380415652 0 0 0 0 -57.96746680276533 -27.669795761130899 0 -27.669795761130899 -17.504187630822344 0 0 0 0 -53.471904631814141 -17.589632616713061 0 -17.589632616713061 -18.106727923255676 0 0 0 0 16.118736538525809 -76.925998219688154 0 -76.925998219688154 -31.415445939088386 0 0 0 0 -13.903391023466156 8.8006929847369975 0 8.8006929847369975 -65.210775888772332 0 0 0 0 -34.453389262363999 34.007565505185084 0 34.007565505185084 -16.160224505505994 0 0 0 0 -2.2691857948235885 -4.5784854317993826 0 -4.5784854317993826 -8.4139561391850393 0 0 0 0 -1.4414568187560235 -13.773430759276835 0 -13.773430759276835 -42.878547833213815 0 0 0 0 -4.9602077251765877 0.5971042981982464 0 0.5971042981982464 -3.5283049835270504 0 0 0 0 -0.95327400124130435 -2.4608900501924253 0 -2.4608900501924253 -7.2807387403075374 0 0 0 0 -8.8538480872244882 -21.137015038726307 0 -21.137015038726307 -12.678762067494802 0 0 0 0 -7.4483673915160118 -18.699491307897617 0 -18.699491307897617 -7.8719064174397033 0 0 0 0 -3.7057003026566235 -10.665596603976155 0 -10.665596603976155 7.7708007452310994 0 0 0 0 -2.3982620105085957 -12.664678481345994 0 -12.664678481345994 -24.237188541893971 0 0 0 0 -30.528360254015752 -33.714914103446063 0 -33.714914103446063 -36.771877705556108 0 0 0 0 23.729323216844477 -46.916103307030426 0 -46.916103307030426 -53.561665270477533 0 0 0 0 -52.459002772312488 -35.268498899170936 0 -35.268498899170936 45.629203483622405 0 0 0 0 -46.520074212175132 -10.92747387412237 0 -10.92747387412237 14.040393622977717 0 0 0 0 -39.870802674742663 6.9358690686149203 0 6.9358690686149203 12.062752615773206 0 0 0 0 -2.2421336467123201 -0.20978408141003513 0 -0.20978408141003513 2.8269933805696255 0 0 0 0 15.742721320161763 -65.905741491318622 0 -65.905741491318622 -43.430908238427946 0 0 0 0 -14.088546141601244 -22.46001903628532 0 -22.46001903628532 -2.1053327524901846 0 0 0 0 -23.761520189643242 -26.978274960693145 0 -26.978274960693145 -10.622709582533666 0 0 0 0 -10.633212135673602 -42.425013643813145 0 -42.425013643813145 -51.235785074673913 0 0 0 0 -3.205101932029276 -0.4094903919325219 0 -0.4094903919325219 -10.980769330718815 0 0 0 0 -28.230627514578373 -80.844308179170184 0 -80.844308179170184 41.306554637296358 0 0 0 0 53.201744897937715 -141.2846786741211 0 -141.2846786741211 -18.250222071830649 0 0 0 0 -13.162628313789355 -65.431257545584231 0 -65.431257545584231 -2.9884692906052805 0 0 0 0 -12.027222079139008 -71.168811559964524 0 -71.168811559964524 0.41096083444426768 0 0 0 0 -61.109133290598265 29.045541544597654 0 29.045541544597654 -41.791904825027814 0 0 0 0 -14.507756058858831 -68.186425900596078 0 -68.186425900596078 -2.4571984175345278 0 0 0 0 15.845974504651622 -54.792303415890274 0 -54.792303415890274 -145.89834258423798 0 0 0 0 19.025741197215211 -36.807967327655206 0 -36.807967327655206 -32.371750680686091 0 0 0 0 -0.39952613562561234 -9.3977149105567541 0 -9.3977149105567541 -28.821162854193616 0 0 0 0 -15.972164223482821 -57.766750626553403 0 -57.766750626553403 -10.623105693084653 0 0 0 0 32.040083861404128 -105.92250038678503 0 -105.92250038678503 29.219756072510791 0 0 0 0 -34.038280808519858 -34.437208368763095 0 -34.437208368763095 98.903421813960449 0 0 0 0 -0.48362450657657519 -65.859570877502847 0 -65.859570877502847 -10.272177761284411 0 0 0 0 -0.85060937223677247 -2.9614660528399241 0 -2.9614660528399241 -5.6690547773040905 0 0 0 0 121.17249515372032 -18.321568197352462 0 -18.321568197352462 -63.209534774810891 0 0 0 0 3.4257537049470557 -8.8241638822123605 0 -8.8241638822123605 -18.813145803960651 0 0 0 0 11.021017652718001 -11.749490757194508 0 -11.749490757194508 -37.345356186729077 0 0 0 0 1.476658643902045 -7.7991917038013678 0 -7.7991917038013678 -17.336805280315033 0 0 0 0 6.136593558995358 -4.2425627737957612 0 -4.2425627737957612 -17.50600356670407 0 0 0 0 2.1239826960363644 0.31490273640156374 0 0.31490273640156374 -29.911324449786662 0 0 0 0 -2.8903530349634821 1.8171959616388449 0 1.8171959616388449 -23.087093019732947 0 0 0 0 2.6189504627619282 2.5372404333289857 0 2.5372404333289857 -18.736703817679604 0 0 0 0 -5.9119077910441735 -10.694402988065292 0 -10.694402988065292 -31.483399628771977 0 0 0 0 -13.788827413934996 -19.907844989093974 0 -19.907844989093974 -16.757409267704134 0 0 0 0 42.554787011428743 -4.2628419278703404 0 -4.2628419278703404 -53.772721896712028 0 0 0 0 23.468379522586019 22.376631362692024 0 22.376631362692024 -68.146304641428287 0 0 0 0 2.2746955062139023 0.28159822289489966 0 0.28159822289489966 -35.139151658526316 0 0 0 0 -45.43645642539559 -1.2790185538760852 0 -1.2790185538760852 -35.116296530634372 0 0 0 0 -0.33678514904780332 1.9352236748426463 0 1.9352236748426463 3.1632171769959179 0 0 0 0 -45.097801650454855 47.757338717923801 0 47.757338717923801 34.314450314785063 0 0 0 0 -16.909544469084633 -10.579069969054615 0 -10.579069969054615 0.78384072466401555 0 0 0 0 -86.148144915938246 -3.7051619991434563 0 -3.7051619991434563 81.423777924228489 0 0 0 0 -86.236073016697901 -38.027274225292786 0 -38.027274225292786 23.554876128632714 0 0 0 0 15.99484721264389 -17.26394099184472 0 -17.26394099184472 -222.62223514316429 0 0 0 0 47.464102324180544 -2.3473307682334053 0 -2.3473307682334053 -40.81473886132153 0 0 0 0 10.682414496267143 -39.207861423479699 0 -39.207861423479699 -25.343020177209837 0 0 0 0 33.005320731086613 25.741119897546014 0 25.741119897546014 -94.185812506668299 0 0 0 0 -3.0305252920606183 -2.199196216053096 0 -2.199196216053096 -7.0720046753381745 0 0 0 0 -11.275122537826732 -11.788981104478005 0 -11.788981104478005 -4.6423297992879071 0 0 0 0 -11.03956452533248 -10.17074575299921 0 -10.17074575299921 -16.220831256436213 0 0 0 0 -13.051949866465689 -18.087587491423164 0 -18.087587491423164 -23.990102045342923 0 0 0 0 54.974914850203277 -108.38974845951998 0 -108.38974845951998 -4.8207760150617105 0 0 0 0 56.562759600491773 -57.328007885729278 0 -57.328007885729278 4.3994703341013519 0 0 0 0 -2.9468494394022855 -88.392779104322472 0 -88.392779104322472 -4.1620568359703611 0 0 0 0 -96.257523290804784 -31.910263866016066 0 -31.910263866016066 35.325265469768055 0 0 0 0 -6.0981442390693701 -38.549201092573639 0 -38.549201092573639 15.72208702723583 0 0 0 0 -9.3599859486130299 -13.075319039018723 0 -13.075319039018723 -11.325415435760078 0 0 0 0 8.7467188655791688 -84.431608837450767 0 -84.431608837450767 2.225262691055832 0 0 0 0 -29.662753511791379 -62.777613322181423 0 -62.777613322181423 49.454382613643247 0 0 0 0 -10.823867828675965 -15.626976283615173 0 -15.626976283615173 -18.786028109770584 0 0 0 0 -26.649122812948917 -55.525877292617224 0 -55.525877292617224 65.811451082628992 0 0 0 0 5.1301585269193311 -16.271099847310325 0 -16.271099847310325 59.196670314071525 0 0 0 0 89.835315965570771 -63.918379528342484 0 -63.918379528342484 3.7760960350469759 0 0 0 0 61.447772261657519 -101.20770224343141 0 -101.20770224343141 114.50733507337281 0 0 0 0 -0.89916748242974975 -4.0374356599496224 0 -4.0374356599496224 -4.3609564528072724 0 0 0 0 5.0626558057747388 -41.362668856458185 0 -41.362668856458185 -26.563467097579633 0 0 0 0 -11.066167648187776 -14.724032235313111 0 -14.724032235313111 -14.66452584340125 0 0 0 0 -32.419636853572001 -3.3534523000253103 0 -3.3534523000253103 -51.133482449018629 0 0 0 0 -8.6554031924791275 7.9366872754214981 0 7.9366872754214981 -7.0457627548323885 0 0 0 0 157.53744121813907 -14.810397453475161 0 -14.810397453475161 -669.74694629544683 0 0 0 0 144.95203447799167 -94.16743171541566 0 -94.16743171541566 -368.7038848026059 0 0 0 0 145.23693347943663 183.40588241449586 0 183.40588241449586 -340.77245320376778 0 0 0 0 17.524565578974034 -28.558310405682278 0 -28.558310405682278 -62.862624830217101 0 0 0 0 -2213.6883462012702 541.41112419239653 0 541.41112419239653 -500.54593958050827 0 0 0 0 14.496218957802739 -26.081381669480834 0 -26.081381669480834 -62.390409079955134 0 0 0 0 13.788127087279804 -31.687071732095319 0 -31.687071732095319 -63.320691821652872 0 0 0 0 -18.088322615222523 -56.691240855456272 0 -56.691240855456272 -40.946663016125967 0 0 0 0 -27.002399396124019 -45.423819801175341 0 -45.423819801175341 36.563892792117258 0 0 0 0 3.2901717670620201 -45.462066461794166 0 -45.462066461794166 -91.650534446533129 0 0 0 0 -85.094361265368661 -4.0875590854157053 0 -4.0875590854157053 -59.613493463213672 0 0 0 0 -87.33006019367167 -34.685092668596553 0 -34.685092668596553 -81.081807092214149 0 0 0 0 -50.977458100170907 0.48582794060530432 0 0.48582794060530432 -182.78281474781397 0 0 0 0 -39.049784701648605 21.993838755613524 0 21.993838755613524 -19.041641726762464 0 0 0 0 -83.987550894683977 -122.91289094350759 0 -122.91289094350759 -179.19525928286748 0 0 0 0 -348.98494166431192 -431.69660577769173 0 -431.69660577769173 -428.57010077535597 0 0 0 0 -220.54813293848611 179.07997988535499 0 179.07997988535499 -182.63403936252928 0 0 0 0 -42.007466371504279 244.67725283412074 0 244.67725283412074 -706.62549615807438 0 0 0 0 64.12155480315414 -239.97119182138249 0 -239.97119182138249 -907.22253188679315 0 0 0 0 87.966289890773623 -739.93001342210846 0 -739.93001342210846 -1402.9618872663195 0 0 0 0 -130.23678668247658 44.715247560532589 0 44.715247560532589 -43.767831011477938 0 0 0 0 -5.4894979930949592 5.9962467118067124 0 5.9962467118067124 -6.1392956386720883 0 0 0 0 -456.13790151786031 470.24747054466332 0 470.24747054466332 -486.79712287403891 0 0 0 0 -3.4998463209751272 13.394404145754084 0 13.394404145754084 -38.14812667559741 0 0 0 0 436.81371686360853 114.92271275566236 0 114.92271275566236 -349.32864550019804 0 0 0 0 95.667331149908023 143.21837190391307 0 143.21837190391307 143.19543730421992 0 0 0 0 600.21428184508841 363.871059915773 0 363.871059915773 -92.137147265642852 0 0 0 0 1165.8302781398597 -2559.4089487134479 0 -2559.4089487134479 -1487.4817273826511 0 0 0 0 64.271331258394639 485.90521727402484 0 485.90521727402484 -608.88688444462605 0 0 0 0 101.42500890838164 668.50542498716277 0 668.50542498716277 -78.106572764474549 0 0 0 0 -1.468613906620595 4.8104320066781696 0 4.8104320066781696 -15.101304833802601 0 0 0 0 -1.3016529173778508 381.99338725107555 0 381.99338725107555 -119.48221114700937 0 0 0 0 144.86741326706579 170.12140689185617 0 170.12140689185617 -739.83875674980118 0 0 0 0 14.82448868634674 201.64329268642905 0 201.64329268642905 -316.98226521713514 0 0 0 0 48.964099561964758 344.90002798078604 0 344.90002798078604 -264.38736488376162 0 0 0 0 -296.46253439474003 357.15377341332169 0 357.15377341332169 -86.565840807394125 0 0 0 0 132.78906991386566 3.1056060626660837 0 3.1056060626660837 -430.12901828238137 0 0 0 0 -150.81362270002342 466.8975011818884 0 466.8975011818884 -336.18486370353821 0 0 0 0 42.576209125176774 -42.214800372067657 0 -42.214800372067657 -312.16256204757519 0 0 0 0 188.55107465200194 150.98152869323485 0 150.98152869323485 -304.49263494781917 0 0 0 0 -115.93106289427033 207.89084590411403 0 207.89084590411403 -302.16476564696995 0 0 0 0 302.70425001392141 -17.074713870073538 0 -17.074713870073538 -60.082910358975369 0 0 0 0 -3.0687208166352509 22.226682682679417 0 22.226682682679417 -48.414782016975096 0 0 0 0 574.33180707761051 199.35026695399716 0 199.35026695399716 9.6409051171358442 0 0 0 0 574.28485312137309 212.36420628793076 0 212.36420628793076 -351.20137186063221 0 0 0 0 590.04036782107141 -126.13009595890253 0 -126.13009595890253 -106.21720450211978 0 0 0 0 585.64646652065858 -144.87906545218721 0 -144.87906545218721 -184.99115938519208 0 0 0 0 350.70609889336356 186.44857493140444 0 186.44857493140444 -16.446927105804207 0 0 0 0 134.29224316318869 104.81232489904505 0 104.81232489904505 68.003398138855118 0 0 0 0 139.58699413688419 93.793600744398645 0 93.793600744398645 56.181083246163325 0 0 0 0 134.29224316320688 104.81232489888498 0 104.81232489888498 68.003398138724151 0 0 0 0 134.29224316321415 104.81232489875401 0 104.81232489875401 68.003398138796911 0 0 0 0 217.54015583446926 121.00832172050286 0 121.00832172050286 4.7795168981429015 0 0 0 0 162.15850710721952 143.79951605381939 0 143.79951605381939 53.108497880739378 0 0 0 0 54.528131940130152 -33.851268297250499 0 -33.851268297250499 -36.982946783999068 0 0 0 0 29.99677208378489 42.306988805932633 0 42.306988805932633 74.92621620733189 0 0 0 0 130.54877687220323 48.697477969300962 0 48.697477969300962 2.2316033885726938 0 0 0 0 99.717234652860498 66.273735994756862 0 66.273735994756862 19.038166430884303 0 0 0 0 137.88314324089288 85.101132217991108 0 85.101132217991108 25.409317646262934 0 0 0 0 138.0888331345468 103.79408514445095 0 103.79408514445095 42.765641795878764 0 0 0 0 -252.67962522767357 145.71091749003244 0 145.71091749003244 161.08512685992173 0 0 0 0 -25.444179216190605 -159.12559156245334 0 -159.12559156245334 -158.33644651755822 0 0 0 0 169.28693700733493 235.0369699628427 0 235.0369699628427 56.157095159163873 0 0 0 0 -0.5143270873944692 -3.8949177098859216 0 -3.8949177098859216 -19.870737612060751 0 0 0 0 -5.6095311618528285 -18.198828190676977 0 -18.198828190676977 -19.53800782785197 0 0 0 0 20.553534178012342 -18.317425739232931 0 -18.317425739232931 -20.277833737070068 0 0 0 0 15.588170605005871 43.946528876920638 0 43.946528876920638 -45.873755910568434 0 0 0 0 87.740271633295379 10.106627661122729 0 10.106627661122729 -56.598044907354051 0 0 0 0 3.5181741050437267 8.1155406091820623 0 8.1155406091820623 -53.771858380524463 0 0 0 0 36.505880500384592 -1.81971174399132 0 -1.81971174399132 -54.571870277301059 0 0 0 0 16.615847150353602 11.732711287269694 0 11.732711287269694 -52.011327155196341 0 0 0 0 6.7249088642088246 -2.6524748973889594 0 -2.6524748973889594 -18.638303904017299 0 0 0 0 -0.35366051590919323 -6.9376728988721874 0 -6.9376728988721874 -28.944095822976792 0 0 0 0 7.4205077707297278 -7.7459757275455559 0 -7.7459757275455559 -35.348990335623967 0 0 0 0 16.250747558269723 -10.168778525805465 0 -10.168778525805465 -38.026359607887571 0 0 0 0 14.217794754424176 -5.9664289117226872 0 -5.9664289117226872 -35.711331688369683 0 0 0 0 -8.5961731508005528 -81.602806817651071 0 -81.602806817651071 93.546631318017717 0 0 0 0 -79.343331692776474 68.723548149097041 0 68.723548149097041 5.7844313649038668 0 0 0 0 104.77264792877992 -139.78790695137286 0 -139.78790695137286 -76.602353576097812 0 0 0 0 -36.476236233620739 94.970035696209379 0 94.970035696209379 -100.90459902224029 0 0 0 0 -44.157512366880383 82.244640609103953 0 82.244640609103953 -129.96988484450958 0 0 0 0 -26.323501934854448 44.173364896661951 0 44.173364896661951 -50.407537118113396 0 0 0 0 -121.66435516869979 149.31053254143626 0 149.31053254143626 -55.383512373968188 0 0 0 0 -566.53988870000944 251.78708713273772 0 251.78708713273772 -68.388053879038125 0 0 0 0 -127.41678583746659 -0.43587760915215767 0 -0.43587760915215767 -554.98651568677815 0 0 0 0 -129.40011416846892 76.512725688126011 0 76.512725688126011 43.567634731191447 0 0 0 0 1.6858797634435616 0.89132001334051481 0 0.89132001334051481 -10.907525995015362 0 0 0 0 56.805815763308317 -104.90069454202421 0 -104.90069454202421 -54.30393648806421 0 0 0 0 -420.09007046974938 322.15242270518866 0 322.15242270518866 -137.10148734352515 0 0 0 0 -666.53918639719825 772.6777806465434 0 772.6777806465434 -483.73256128044096 0 0 0 0 0.72257518236722262 0.52179872161591501 0 0.52179872161591501 -8.3556829965415105 0 0 0 0 -117.13805555779209 238.52158779152251 0 238.52158779152251 -199.04762697479964 0 0 0 0 -331.36179603296614 414.66451257358403 0 414.66451257358403 -141.74480737982958 0 0 0 0 151.04610876895413 -136.29141634057942 0 -136.29141634057942 -259.69811848409518 0 0 0 0 36.735855981724853 -69.76036970880341 0 -69.76036970880341 8.0534008556896879 0 0 0 0 135.80526289050522 -56.419479424964265 0 -56.419479424964265 -87.33247827408195 0 0 0 0 74.420186641047621 33.370445046206441 0 33.370445046206441 -125.57493007038283 0 0 0 0 154.45102191507681 21.016831213243904 0 21.016831213243904 85.056839189885068 0 0 0 0 -382.15472637680068 19.383628120339381 0 19.383628120339381 101.46669453102004 0 0 0 0 -321.53045415214183 -476.42320324354932 0 -476.42320324354932 166.10467005985993 0 0 0 0 452.62627968737615 80.784923451277791 0 80.784923451277791 -138.51919512032691 0 0 0 0 25.589036649900663 62.009407433042725 0 62.009407433042725 -52.124747443710021 0 0 0 0 210.78126994174454 -1029.0148143203705 0 -1029.0148143203705 -50.189968335529556 0 0 0 0 575.30674306279252 -352.5872758469668 0 -352.5872758469668 -243.63960599546772 0 0 0 0 32.064829303165538 139.34763323571798 0 139.34763323571798 94.258797862751635 0 0 0 0 -68.182615424599248 106.59394876254504 0 106.59394876254504 192.9492592541128 0 0 0 0 -12.053872875228617 20.35340473794589 0 20.35340473794589 -28.928571666950315 0 0 0 0 -29.756727683871965 38.179498871547935 0 38.179498871547935 100.80482932191171 0 0 0 0 -30.342354112159228 69.117879975743563 0 69.117879975743563 90.066066964991478 0 0 0 0 -48.293756861699876 71.977585027852001 0 71.977585027852001 89.828839766695296 0 0 0 0 -60.037844894400678 46.174012102644497 0 46.174012102644497 98.734200622164281 0 0 0 0 -47.062543074167934 38.589706229498006 0 38.589706229498006 35.900573629377504 0 0 0 0 -67.422831743421284 -21.28695738175611 0 -21.28695738175611 50.813888035585023 0 0 0 0 35.529727564633049 34.545567221186957 0 34.545567221186957 64.358536017019105 0 0 0 0 -32.075188972705064 -52.921073483502369 0 -52.921073483502369 0.24121325772262026 0 0 0 0 -16.155208117706934 42.820328788574216 0 42.820328788574216 10.692730091199337 0 0 0 0 -0.30348188271916499 3.1515069376025426 0 3.1515069376025426 -2.0562086935524002 0 0 0 0 -34.913555577465559 18.011997619925296 0 18.011997619925296 83.777562916809529 0 0 0 0 1.5889581154210619 1.6866166404074905 0 1.6866166404074905 -1.889867153336565 0 0 0 0 -8.800396033111042 9.980497859941579 0 9.980497859941579 -24.408811968077771 0 0 0 0 11.53426968464737 6.4498895030519634 0 6.4498895030519634 -28.41735255894946 0 0 0 0 11.425616337276665 5.1526288970019323 0 5.1526288970019323 -22.745339004597554 0 0 0 0 2.8924092478837338 9.2939153916722717 0 9.2939153916722717 -15.969112560147551 0 0 0 0 0.98572411741391486 7.3381259513794106 0 7.3381259513794106 -16.642148148522438 0 0 0 0 -27.571774509309762 8.4658126256017567 0 8.4658126256017567 -50.395360487586004 0 0 0 0 -3.3332911223203734 14.866886781170946 0 14.866886781170946 -24.2384821247317 0 0 0 0 -1.5525038677255161 4.7866100443314643 0 4.7866100443314643 -9.5617432671173308 0 0 0 0 -7.1640290265531803 32.837171615632542 0 32.837171615632542 -40.974009582967483 0 0 0 0 -7.9016601329948077 15.161718559058734 0 15.161718559058734 -13.374791148627139 0 0 0 0 20.935689300775266 8.2717814422214815 0 8.2717814422214815 -28.503600629604989 0 0 0 0 57.987835758868641 61.263012625582405 0 61.263012625582405 34.158297628976925 0 0 0 0 -52.434654234778009 33.493321324498879 0 33.493321324498879 -46.732489359724696 0 0 0 0 0.61456496646950587 -0.34141581930985332 0 -0.34141581930985332 0.085340067533389963 0 0 0 0 -36.121010298702913 -83.017055829852552 0 -83.017055829852552 -99.214265618963736 0 0 0 0 35.370856322539794 40.506995721113981 0 40.506995721113981 -33.776313459984408 0 0 0 0 -2.4568925077740005 10.65974076570501 0 10.65974076570501 -33.877756846984084 0 0 0 0 -12.930639464234787 36.924087585239988 0 36.924087585239988 -61.899429627241261 0 0 0 0 -31.676694933699082 46.284799384635789 0 46.284799384635789 -47.918195065866712 0 0 0 0 -23.186182509279206 46.726471933216544 0 46.726471933216544 -55.56955396577132 0 0 0 0 -40.243928576503322 38.613829433877982 0 38.613829433877982 -34.663417395650669 0 0 0 0 -21.226773708528526 17.948758231526426 0 17.948758231526426 -16.187057806131634 0 0 0 0 -58.865980252047848 52.369223513994257 0 52.369223513994257 -35.749353447933572 0 0 0 0 -34.055488132413416 83.619129782552136 0 83.619129782552136 -127.12910101968646 0 0 0 0 -94.917816805246275 67.40905519696571 0 67.40905519696571 -14.857946797069417 0 0 0 0 -6.9956810886692438 39.587526233578501 0 39.587526233578501 -56.748914188135132 0 0 0 0 -4.233807939998826 12.967394271700073 0 12.967394271700073 -52.118924307269481 0 0 0 0 7.4264586464927174 6.7546034008869844 0 6.7546034008869844 -35.32446531673051 0 0 0 0 -9.3715462973032118 30.357936997088473 0 30.357936997088473 -37.346011871577502 0 0 0 0 -1.1147837994776637 22.34941784948478 0 22.34941784948478 -51.261886811713339 0 0 0 0 25.26572862934222 15.535370007798974 0 15.535370007798974 -26.627171619572437 0 0 0 0 10.160239407732206 10.625668637974741 0 10.625668637974741 -20.343020198862177 0 0 0 0 3.0575517974030979 -0.35990891238335632 0 -0.35990891238335632 -7.9935791344294262 0 0 0 0 10.094643466715297 12.376884918428914 0 12.376884918428914 -29.460298315808132 0 0 0 0 -23.015042301012272 11.390036246831187 0 11.390036246831187 -18.494096723302391 0 0 0 0 20.243340894043968 -10.90202382658299 0 -10.90202382658299 -14.360844720290515 0 0 0 0 -41.535630323449368 -4.5721884672184387 0 -4.5721884672184387 18.019404497674259 0 0 0 0 12.141221811414255 -53.494697721304874 0 -53.494697721304874 -34.690108697739561 0 0 0 0 78.443955602169353 -13.202200710649777 0 -13.202200710649777 -69.358771413690192 0 0 0 0 5.1957839026545116 14.438014673990892 0 14.438014673990892 -20.057229516844018 0 0 0 0 -1.4911211239537003 1.1422871197968885 0 1.1422871197968885 -0.13721914163737026 0 0 0 0 -93.141086921963506 33.319222855309363 0 33.319222855309363 -4.177419362832552 0 0 0 0 -49.766015367216141 -76.169221453335467 0 -76.169221453335467 -122.00889228998403 0 0 0 0 51.303230801193877 7.5720008240209609 0 7.5720008240209609 -75.808871912943687 0 0 0 0 4.0533854337607256 1.0583155655508727 0 1.0583155655508727 -19.491648419316192 0 0 0 0 25.950207780234564 -34.746612908184261 0 -34.746612908184261 5.2343184695982927 0 0 0 0 -2.9634488712955003 5.4325767711848236 0 5.4325767711848236 -8.2944846589169146 0 0 0 0 83.53480245528047 -77.893439806550191 0 -77.893439806550191 -1.9271482446547452 0 0 0 0 4.08283342876814 64.584652930241873 0 64.584652930241873 22.617373002602108 0 0 0 0 -20.496319460422082 1.761386483636576 0 1.761386483636576 -4.1685166018676982 0 0 0 0 -14.334107679721455 -18.691768197255897 0 -18.691768197255897 -13.962225069155465 0 0 0 0 -18.129125200892304 -15.715936476389743 0 -15.715936476389743 -15.890636624767922 0 0 0 0 -27.127728561015829 -13.910017095615331 0 -13.910017095615331 -7.5427660461173218 0 0 0 0 5.0083100436613677 97.572639925151407 0 97.572639925151407 -154.14907075069624 0 0 0 0 -15.427248871884103 -44.953030475666765 0 -44.953030475666765 -105.52093959480953 0 0 0 0 -107.81467841455458 -49.898924180622885 0 -49.898924180622885 65.90377859947148 0 0 0 0 5.0070635391946325 33.545950227132835 0 33.545950227132835 12.875108402476599 0 0 0 0 5.9806234828345275 -14.405465675308086 0 -14.405465675308086 -5.0336988902304256 0 0 0 0 -33.958347987686466 -3.1103488033775193 0 -3.1103488033775193 20.549274554514113 0 0 0 0 -19.456518632444578 1.4766683564749989 0 1.4766683564749989 1.4667985065301234 0 0 0 0 -88.580044572423731 35.616123946289463 0 35.616123946289463 144.33085039913817 0 0 0 0 -28.439282559556545 -13.88530414858711 0 -13.88530414858711 6.8903343060414954 0 0 0 0 -24.207111774894656 16.922853616083216 0 16.922853616083216 16.876859906338723 0 0 0 0 -54.074484977666089 10.237431856020294 0 10.237431856020294 -1.3866640619171449 0 0 0 0 -46.394795313261966 -7.3980449968712492 0 -7.3980449968712492 5.456059600325375 0 0 0 0 -61.80262630254856 -16.052444143587081 0 -16.052444143587081 2.8505324612124241 0 0 0 0 -55.33344202846979 -33.301456705287933 0 -33.301456705287933 -11.339842741538632 0 0 0 0 -34.255139356647305 -22.809899989792939 0 -22.809899989792939 -7.9185444235872637 0 0 0 0 -21.133557931005271 -34.711842452241854 0 -34.711842452241854 -12.545290517661378 0 0 0 0 -40.713645708621698 -31.148620698223795 0 -31.148620698223795 -12.626915881671721 0 0 0 0 -8.6566807644453405 -26.893731322782823 0 -26.893731322782823 -14.760447750267303 0 0 0 0 -24.601105543346421 -20.430243753749892 0 -20.430243753749892 -14.136351754599673 0 0 0 0 -14.500869324865107 -25.424820931076056 0 -25.424820931076056 -14.547420434758351 0 0 0 0 -24.847826267990058 -19.959375087070214 0 -19.959375087070214 -0.91930804526691645 0 0 0 0 -38.588432837726941 -26.306617188233986 0 -26.306617188233986 -2.2201941670718952 0 0 0 0 -12.078513716973362 -0.88975891658570738 0 -0.88975891658570738 1.4592167329631245 0 0 0 0 -27.562234654290933 -2.8923930934311102 0 -2.8923930934311102 49.961795235780755 0 0 0 0 -10.642481857512394 8.1483690784394867 0 8.1483690784394867 12.241353097539104 0 0 0 0 -26.667409716083966 3.6440664693695908 0 3.6440664693695908 8.0875720380176972 0 0 0 0 -1.8626349090341652 0.0028858564094065287 0 0.0028858564094065287 0.66167874772669322 0 0 0 0 -7.2040315288334895 -3.7841464786471359 0 -3.7841464786471359 -0.93603236763677078 0 0 0 0 -5.0922451599541603 -2.4747472667296151 0 -2.4747472667296151 -1.8941310495538346 0 0 0 0 -2.6115349047616334 -3.778547894713014 0 -3.778547894713014 -3.3154794519811883 0 0 0 0 -5.0767631017934036 -2.8942061570012356 0 -2.8942061570012356 -0.61304932373195697 0 0 0 0 -2.4874475219176446 -2.3853472654357262 0 -2.3853472654357262 -2.1894201198396459 0 0 0 0 -5.1582791765013098 -0.83195518756802755 0 -0.83195518756802755 0.46472708821875131 0 0 0 0 -2.2702670364782307 0.079061402369251965 0 0.079061402369251965 0.85638335551484346 0 0 0 0 -3.9013747187223089 4.2944390761560953 0 4.2944390761560953 -3.9478099879661386 0 0 0 0 -6.7047187509097057 12.198938530849546 0 12.198938530849546 -3.5333698755454321 0 0 0 0 -13.817628366390636 6.4098833776042738 0 6.4098833776042738 -2.0831284786738706 0 0 0 0 -25.729750822222286 12.423072144682919 0 12.423072144682919 31.749893658878591 0 0 0 0 -14.417465857940442 1.0113079695440774 0 1.0113079695440774 16.675280903369185 0 0 0 0 -14.905625404977172 -11.161885925627871 0 -11.161885925627871 29.781949223021911 0 0 0 0 -28.879218752632141 13.919391990364602 0 13.919391990364602 72.685650127521171 0 0 0 0 -16.332945147596678 0.28576602196032219 0 0.28576602196032219 1.0807626764293818 0 0 0 0 -38.461551665333445 10.958352305789049 0 10.958352305789049 11.859356678577797 0 0 0 0 -23.450602937645158 -18.011909813048419 0 -18.011909813048419 12.106171097357219 0 0 0 0 1.722897180801283 -28.158076946916026 0 -28.158076946916026 40.17116969093604 0 0 0 0 -39.043508383640983 -14.150814927879765 0 -14.150814927879765 37.292484740284408 0 0 0 0 -23.048031994429039 -10.343495794335468 0 -10.343495794335468 15.635559351293068 0 0 0 0 -22.712221622397919 -33.600907563155488 0 -33.600907563155488 30.714065018300062 0 0 0 0 -53.426846113007059 -35.650419830233631 0 -35.650419830233631 -4.3040787179297695 0 0 0 0 -35.873755384529204 9.1839367320546899 0 9.1839367320546899 -42.99164029315034 0 0 0 0 -63.481061295539348 7.2879016582960503 0 7.2879016582960503 2.3356613008822933 0 0 0 0 -18.094316395527471 26.426460988828353 0 26.426460988828353 -43.463577830985287 0 0 0 0 -25.297566312992103 30.799508656543594 0 30.799508656543594 -28.168070644952081 0 0 0 0 -42.271087870390147 -1.3574505863107333 0 -1.3574505863107333 3.9022158304169352 0 0 0 0 -69.872193677710584 -8.2159390280730804 0 -8.2159390280730804 -49.24574622472619 0 0 0 0 -49.665458292392032 39.082610987609087 0 39.082610987609087 -46.590610700603463 0 0 0 0 -55.923087252615915 6.2562101949911835 0 6.2562101949911835 -154.01971544590288 0 0 0 0 -76.970816547252298 -0.25160760939434113 0 -0.25160760939434113 -60.240299829603032 0 0 0 0 -35.053502106093816 24.971459487454567 0 24.971459487454567 -73.011491161144932 0 0 0 0 -79.473560912875143 -67.95338254526115 0 -67.95338254526115 -139.67243011492337 0 0 0 0 -104.35323415405583 16.37016634352517 0 16.37016634352517 -65.762956986118525 0 0 0 0 -84.687767565811555 -47.909221054801947 0 -47.909221054801947 -157.41114691496853 0 0 0 0 -263.44381185557199 -128.32859052294594 0 -128.32859052294594 -192.39253064711306 0 0 0 0 -158.73930280972183 33.997665497118447 0 33.997665497118447 -275.07964719732558 0 0 0 0 -84.830906704524523 -69.488313334299391 0 -69.488313334299391 -346.0325050096726 0 0 0 0 -269.71975551954705 -127.39605670219454 0 -127.39605670219454 33.438792638418022 0 0 0 0 -274.20128345610641 -87.851535247786529 0 -87.851535247786529 -254.69560789688512 0 0 0 0 -166.64128075106669 8.1679591547827499 0 8.1679591547827499 -217.33256387507475 0 0 0 0 -242.40520470179683 96.558403118333871 0 96.558403118333871 -298.73161170137553 0 0 0 0 -307.07702223431295 62.134973675414585 0 62.134973675414585 -38.298001230383534 0 0 0 0 -21.981752810391185 18.114943893345981 0 18.114943893345981 -360.09258901128078 0 0 0 0 -13.28190820497116 -37.227881085684999 0 -37.227881085684999 -363.68398658510046 0 0 0 0 -112.21942417644755 56.745154683510492 0 56.745154683510492 -301.21740354321821 0 0 0 0 -125.75706434213771 -37.057016190441004 0 -37.057016190441004 -144.32589967703581 0 0 0 0 -90.029434294935072 -41.323560988448435 0 -41.323560988448435 -274.39915911121761 0 0 0 0 -20.726630675417709 -42.175174559843128 0 -42.175174559843128 -277.59042196374276 0 0 0 0 -31.334912778763851 1.2125900780211509 0 1.2125900780211509 -191.28078732957192 0 0 0 0 -57.097518557431613 -95.77678463479981 0 -95.77678463479981 -192.99534108141802 0 0 0 0 -82.630089089385592 -134.9793969988641 0 -134.9793969988641 -433.07515035551364 0 0 0 0 3.4151208415223664 -15.339140310959806 0 -15.339140310959806 -290.14337684616032 0 0 0 0 -15.147709551043363 -71.759328480063004 0 -71.759328480063004 -274.97661156633922 0 0 0 0 -62.968724564626882 34.410514413663122 0 34.410514413663122 -218.0540050235586 0 0 0 0 -29.162310211509521 -69.202765064683945 0 -69.202765064683945 -165.1472382685115 0 0 0 0 -82.316841075554748 9.1880685773999176 0 9.1880685773999176 61.220804957863493 0 0 0 0 -36.323773982291186 -38.741851127127347 0 -38.741851127127347 -116.94950618052553 0 0 0 0 -17.59564161311755 -16.150600143265819 0 -16.150600143265819 -334.32332877660519 0 0 0 0 -30.291627867500438 -51.155383443276151 0 -51.155383443276151 -268.06882217349084 0 0 0 0 -60.085100518359468 7.8687618838730486 0 7.8687618838730486 -146.57554471809704 0 0 0 0 -49.195751261344014 9.9601388549310457 0 9.9601388549310457 -104.22162532688526 0 0 0 0 -52.600032263790922 18.22196758544942 0 18.22196758544942 -412.76985915974637 0 0 0 0 -106.88897876554665 33.102696021313704 0 33.102696021313704 -290.78981161559108 0 0 0 0 -143.01612955616247 22.660528896718915 0 22.660528896718915 -307.64634222615132 0 0 0 0 -146.47056812026818 199.74411102174216 0 199.74411102174216 -474.44988238807673 0 0 0 0 71.519387353428101 1.405291934395791 0 1.405291934395791 -371.80990355102676 0 0 0 0 -269.85921634493991 282.80590304726002 0 282.80590304726002 -296.65207774775308 0 0 0 0 -509.6484393467324 -79.886471013869425 0 -79.886471013869425 -433.82854694037133 0 0 0 0 -82.121395646268184 275.28858879320796 0 275.28858879320796 -706.29218129495916 0 0 0 0 -43.127284479590571 -87.874001744340603 0 -87.874001744340603 -753.21010612867053 0 0 0 0 -2.1732745878269126 -2.4912972111076206 0 -2.4912972111076206 -3.7572519757716814 0 0 0 0 -340.326295050098 -72.771643770486207 0 -72.771643770486207 -551.74392854532425 0 0 0 0 -6.6900492442007362 26.106136807787379 0 26.106136807787379 -433.1123544785047 0 0 0 0 33.306771602065055 24.864132734213285 0 24.864132734213285 -471.8672888144456 0 0 0 0 36.079164830347281 54.627199497430752 0 54.627199497430752 -343.18302161618362 0 0 0 0 -67.43277649083916 145.24705959033452 0 145.24705959033452 -266.2658790359792 0 0 0 0 11.37146120266766 42.131101896176062 0 42.131101896176062 -233.3902352106752 0 0 0 0 74.511683609329722 -116.21253627513988 0 -116.21253627513988 -11.233078559223941 0 0 0 0 -4.2835992947696937 -6.4858540285565685 0 -6.4858540285565685 -9.135087863716107 0 0 0 0 -38.782204189786057 73.009773952694559 0 73.009773952694559 -104.18358781199322 0 0 0 0 -346.26501209544074 -364.14356462013779 0 -364.14356462013779 -465.01116946866841 0 0 0 0 -321.8797677303204 -261.06914575078542 0 -261.06914575078542 -256.39973388860926 0 0 0 0 -342.65843839077803 -138.2670934011112 0 -138.2670934011112 83.021548932209498 0 0 0 0 -72.811800586495593 227.1205592116371 0 227.1205592116371 -221.80667056629886 0 0 0 0 55.926876217252016 79.306649239984239 0 79.306649239984239 -361.68710114196892 0 0 0 0 -245.05624168854649 282.41845855694692 0 282.41845855694692 -633.85803523409334 0 0 0 0 -150.0521915923249 112.45954307621946 0 112.45954307621946 -330.55899483454505 0 0 0 0 -30.843412397246453 208.00083522304362 0 208.00083522304362 -347.34609445819933 0 0 0 0 -40.11944369441099 164.69547983624284 0 164.69547983624284 -271.77958167030556 0 0 0 0 -99.378039843813838 231.69325750916687 0 231.69325750916687 -328.156645322391 0 0 0 0 79.916435791416916 -56.353116329350371 0 -56.353116329350371 -115.98948664111504 0 0 0 0 -4.9115003474680288 -7.9113043478009279 0 -7.9113043478009279 -11.107611983330527 0 0 0 0 27.797058944560316 -73.607819921282157 0 -73.607819921282157 -11.112163392614548 0 0 0 0 -174.22090844159419 203.36116951453278 0 203.36116951453278 -65.700591718698433 0 0 0 0 -14.538423502509756 397.09115600845757 0 397.09115600845757 -754.6401135039423 0 0 0 0 47.312227350983086 237.4737438212378 0 237.4737438212378 -352.25419265346017 0 0 0 0 -545.39602368165151 184.36473637045697 0 184.36473637045697 0.10783126412115962 0 0 0 0 -13.644822574181703 334.43531514640392 0 334.43531514640392 -828.85688209645878 0 0 0 0 -12.802119616335723 127.54749268189528 0 127.54749268189528 -267.85689560464471 0 0 0 0 -3.5964612503939293 -6.1929117043289388 0 -6.1929117043289388 -9.562949730575097 0 0 0 0 16.057615789047304 -105.9405538238866 0 -105.9405538238866 11.01002523948668 0 0 0 0 -42.020026477686315 41.51269008587019 0 41.51269008587019 -34.035020335361935 0 0 0 0 -103.62500551678841 -43.334133240992628 0 -43.334133240992628 -54.187557295645092 0 0 0 0 -136.63340569002526 13.179998798934548 0 13.179998798934548 65.217343777808992 0 0 0 0 -44.874736710529078 15.717457457233991 0 15.717457457233991 -8.8895457450064441 0 0 0 0 -161.83619347111062 -68.431781813832572 0 -68.431781813832572 108.8890009568114 0 0 0 0 -175.31615921966704 -30.812948742259891 0 -30.812948742259891 34.269598816082862 0 0 0 0 -71.656489139108089 -122.50213062541491 0 -122.50213062541491 36.854238697281176 0 0 0 0 10.52570126212504 33.406185526284048 0 33.406185526284048 24.18442974214986 0 0 0 0 0.090635239365657316 0.20154132870389541 0 0.20154132870389541 -8.4453274555720963 0 0 0 0 -994.00452785433481 539.4676325343089 0 539.4676325343089 -27.2925542184812 0 0 0 0 -1009.6373898186437 493.52941269596852 0 493.52941269596852 -151.06991014056712 0 0 0 0 15.93516881099049 -124.35817043213979 0 -124.35817043213979 -99.470592133107061 0 0 0 0 0.6671457527464586 0.73996065463892302 0 0.73996065463892302 -1.3541999221566259 0 0 0 0 -716.48377481224225 550.33061293827882 0 550.33061293827882 -436.19903574930822 0 0 0 0 -130.71924724400674 -15.112136402404246 0 -15.112136402404246 17.05008643293877 0 0 0 0 -159.90349398794615 -56.887782952818952 0 -56.887782952818952 -20.695347351876421 0 0 0 0 -144.27636517919336 -20.637457700702669 0 -20.637457700702669 -89.7530546325969 0 0 0 0 -5.0183241379245374 -62.009678264188551 0 -62.009678264188551 -267.64321582776995 0 0 0 0 -122.02332386758781 -77.442270319567683 0 -77.442270319567683 -72.557645949490393 0 0 0 0 -77.098569177773925 13.265372918988703 0 13.265372918988703 -333.917357624072 0 0 0 0 -214.3827528336476 202.73054154846918 0 202.73054154846918 -452.58435290715988 0 0 0 0 -322.34007095868856 24.461840257903191 0 24.461840257903191 -186.15638878188975 0 0 0 0 -340.0649666503391 157.84451301042066 0 157.84451301042066 -273.41076411852328 0 0 0 0 -404.97817456506482 223.29803499848052 0 223.29803499848052 137.95137497731065 0 0 0 0 -581.43396953527008 708.5003781064338 0 708.5003781064338 -1029.4460247199338 0 0 0 0 -479.64294466896172 -242.168884819879 0 -242.168884819879 -331.40007503703413 0 0 0 0 -687.26468885439067 189.14972842800276 0 189.14972842800276 -217.30800879936464 0 0 0 0 -380.55977485258268 -65.103284857114858 0 -65.103284857114858 -60.657659627593375 0 0 0 0 -255.35568202081953 -181.75057716003388 0 -181.75057716003388 -158.20178665270998 0 0 0 0 -290.67992207218589 -19.233156135236825 0 -19.233156135236825 -211.65739339562811 0 0 0 0 -149.11015872055918 87.624648596149939 0 87.624648596149939 -272.02190701950155 0 0 0 0 -257.2568287101958 5.3427045340436052 0 5.3427045340436052 -295.19364582349459 0 0 0 0 -132.76955834889941 48.824589722381916 0 48.824589722381916 -274.60662923489514 0 0 0 0 -35.84825459547028 65.710382438723514 0 65.710382438723514 -304.57065024011888 0 0 0 0 -49.688794188699376 44.442473764992656 0 44.442473764992656 -302.28828252201311 0 0 0 0 16.190684778618561 47.210071529852712 0 47.210071529852712 -304.86961268767391 0 0 0 0 -49.875042929118081 -30.196873796899581 0 -30.196873796899581 -167.0683289363036 0 0 0 0 -40.86991812585461 110.14827305067814 0 110.14827305067814 -239.26173725153512 0 0 0 0 -102.22669245630141 38.950076058418915 0 38.950076058418915 -175.08878679883719 0 0 0 0 -176.89969867798322 94.255934717859418 0 94.255934717859418 -26.670167125059379 0 0 0 0 2.8829702940808901 3.964961167890241 0 3.964961167890241 -5.6806031471639216 0 0 0 0 -136.23319324345994 102.07131961173945 0 102.07131961173945 11.851962739649025 0 0 0 0 -18.669830500275111 46.387216505459037 0 46.387216505459037 -61.974662147931667 0 0 0 0 -20.577231382200353 48.94570772384759 0 48.94570772384759 13.369063292615465 0 0 0 0 103.01551819652786 139.82600049621215 0 139.82600049621215 -28.411064449021524 0 0 0 0 4.3752504075580418 -0.042560095465432823 0 -0.042560095465432823 -37.39666655617475 0 0 0 0 -0.15810598144036936 12.127916183120725 0 12.127916183120725 -56.984657089595515 0 0 0 0 -2.1516004277252705 85.050097224169804 0 85.050097224169804 -16.566774519505998 0 0 0 0 307.12264439200044 133.43943831196157 0 133.43943831196157 -39.353147726607858 0 0 0 0 509.52157470305974 -99.643863102755859 0 -99.643863102755859 -28.088558996054417 0 0 0 0 2.7002906753970528 12.115535541829699 0 12.115535541829699 -8.3721082030053253 0 0 0 0 533.47325274715899 -160.14967901651585 0 -160.14967901651585 61.487583688187442 0 0 0 0 536.22108754609985 -164.02461843876472 0 -164.02461843876472 -6.1370015330030583 0 0 0 0 4.1548419601187865 5.041574653924819 0 5.041574653924819 -5.3789082342757766 0 0 0 0 391.45809319190903 -148.57227232164223 0 -148.57227232164223 68.026615919992764 0 0 0 0 342.7335171405291 -68.520637955014536 0 -68.520637955014536 31.569808122712857 0 0 0 0 2.3302244142130704 0.4176850330770705 0 0.4176850330770705 -3.6632996341938551 0 0 0 0 664.78840148333074 -216.78671649098078 0 -216.78671649098078 -16.51817839670548 0 0 0 0 -17.881771896318241 73.107325940118244 0 73.107325940118244 -111.62509886040607 0 0 0 0 -28.379781596422617 40.910141835086961 0 40.910141835086961 -90.734116828985862 0 0 0 0 -16.909937153579904 71.812247740366729 0 71.812247740366729 -109.97386854517754 0 0 0 0 -20.333468164400074 74.817555819072368 0 74.817555819072368 -109.6198111312724 0 0 0 0 2.6305781411817577 -0.55447444215954533 0 -0.55447444215954533 -7.2900239961405759 0 0 0 0 -20.286072018114737 73.147047731593091 0 73.147047731593091 -105.42288435282899 0 0 0 0 -3.5488316375890463 -22.115099594314415 0 -22.115099594314415 -21.256266707627219 0 0 0 0 3.0281520282218919 -1.1269718338194146 0 -1.1269718338194146 -12.378538857562084 0 0 0 0 165.98894718818633 5.3603374202266423 0 5.3603374202266423 23.21800179172169 0 0 0 0 322.29736662925689 -168.25675270664942 0 -168.25675270664942 8.8080443721116808 0 0 0 0 399.72019487374564 -76.408442296033172 0 -76.408442296033172 58.466665280580855 0 0 0 0 515.01594921224341 -140.40461907796544 0 -140.40461907796544 17.417772816820161 0 0 0 0 336.55158816033895 -41.911142663728697 0 -41.911142663728697 169.14083412047876 0 0 0 0 285.20223315360681 -136.17754051587781 0 -136.17754051587781 9.6107918132912573 0 0 0 0 264.33277680636536 -215.9643007206671 0 -215.9643007206671 208.58378781153078 0 0 0 0 3.9015023631688477 4.2144264978070485 0 4.2144264978070485 1.4318398242869144 0 0 0 0 176.47160179792905 -86.662376718708856 0 -86.662376718708856 -28.761343692273499 0 0 0 0 0.66782824573615018 -4.0696511039359002 0 -4.0696511039359002 -22.12879088066763 0 0 0 0 115.61005039459445 121.08667784405225 0 121.08667784405225 -162.44180352760532 0 0 0 0 -57.534158033192426 22.696337647468681 0 22.696337647468681 -61.276678860611355 0 0 0 0 1.2447521648012163 1.4295203250799444 0 1.4295203250799444 -0.69354502815150454 0 0 0 0 -4.3377726850776526 75.656851366542469 0 75.656851366542469 -18.532003747476779 0 0 0 0 82.368781804620539 80.747117118516144 0 80.747117118516144 -92.894913272681151 0 0 0 0 -11.880789990547868 89.353403260822006 0 89.353403260822006 -86.296965168630777 0 0 0 0 256.41766023383593 233.77775853293997 0 233.77775853293997 -526.58633713946438 0 0 0 0 -402.40063053709218 412.13070989591688 0 412.13070989591688 -249.88985203893481 0 0 0 0 32.803695974556206 47.907862388962712 0 47.907862388962712 -110.69836521422803 0 0 0 0 1.5407798333177691 -3.3046931936010573 0 -3.3046931936010573 -25.688764617174364 0 0 0 0 50.998748410972979 57.507578570349324 0 57.507578570349324 -107.59359118051361 0 0 0 0 -120.2290931971761 1077.5394585205754 0 1077.5394585205754 -1194.9491458512821 0 0 0 0 -1514.9687438205196 -267.37371475492137 0 -267.37371475492137 701.95324978024291 0 0 0 0 -728.68267026844387 846.6800789863446 0 846.6800789863446 -641.76278554271357 0 0 0 0 -815.58427638364924 365.49625019558152 0 365.49625019558152 -88.897490049530461 0 0 0 0 -404.9669636553906 256.73797005513188 0 256.73797005513188 -128.69005605693565 0 0 0 0 -7.0292335114341213 9.0000208866776408 0 9.0000208866776408 -11.940686368025 0 0 0 0 43.681931170080588 65.7449386143835 0 65.7449386143835 -670.20265243207905 0 0 0 0 68.048889578181388 -132.60997152407049 0 -132.60997152407049 -268.17583451415339 0 0 0 0 -917.52595613050653 463.28323103311595 0 463.28323103311595 89.895144452646491 0 0 0 0 -67.296819802653317 -94.956601109438907 0 -94.956601109438907 158.25052289073739 0 0 0 0 -34.31069147935159 236.85950182421857 0 236.85950182421857 -540.06601532554396 0 0 0 0 -19.468908366929554 224.35515466850211 0 224.35515466850211 -531.92092145790502 0 0 0 0 22.171590232085009 137.26307575093233 0 137.26307575093233 -649.42430690591755 0 0 0 0 -61.958739303957827 458.93401987646939 0 458.93401987646939 -1054.3631104176984 0 0 0 0 7.3306055795833345 248.8239606996915 0 248.8239606996915 -240.81272853570022 0 0 0 0 -240.8906488443431 379.13646683668958 0 379.13646683668958 -491.58678139263588 0 0 0 0 -289.72484981054254 319.75114719161002 0 319.75114719161002 -57.705005361594885 0 0 0 0 237.68870711185036 -552.14229534074275 0 -552.14229534074275 5.7418076102608211 0 0 0 0 -0.97796436482085003 -6.4506590836418347 0 -6.4506590836418347 -24.198230222126568 0 0 0 0 -175.96195021674629 185.45292726749767 0 185.45292726749767 -32.323550249587242 0 0 0 0 -294.74152835682867 116.70886005675561 0 116.70886005675561 216.67299681613804 0 0 0 0 -434.4362190266811 -333.80663760203834 0 -333.80663760203834 -122.94224513678978 0 0 0 0 -1.3053046302074609 -2.7200745595199489 0 -2.7200745595199489 -8.9504490932481104 0 0 0 0 -275.61583811573655 150.7585236687695 0 150.7585236687695 11.327979809094359 0 0 0 0 -323.79682479940618 319.25574432515214 0 319.25574432515214 -559.79935254946849 0 0 0 0 13.290779125133593 -192.30984477935397 0 -192.30984477935397 -715.04221699663503 0 0 0 0 -4.5954651537263658 -276.95720413098297 0 -276.95720413098297 -910.36895911155671 0 0 0 0 -610.40863940436157 -50.286588273068674 0 -50.286588273068674 -300.37825186413011 0 0 0 0 -240.04744539524353 61.688985757265982 0 61.688985757265982 -109.00057228335118 0 0 0 0 -109.46666805580827 25.834480875348845 0 25.834480875348845 -293.54087188285757 0 0 0 0 -156.24260278354166 39.228715385083433 0 39.228715385083433 -85.34465003335481 0 0 0 0 325.04983640233252 44.049438537932474 0 44.049438537932474 -536.24077459737737 0 0 0 0 395.14196685656054 -120.05750565210383 0 -120.05750565210383 -1623.1474214370828 0 0 0 0 -48.011986432469108 -64.45829735693701 0 -64.45829735693701 -457.3566252116525 0 0 0 0 23.063109437907798 -110.8699228247624 0 -110.8699228247624 485.16536389176053 0 0 0 0 26.246770837748741 160.54356752531112 0 160.54356752531112 -83.925323353721978 0 0 0 0 0.26057053569045063 -2.4276971891115231 0 -2.4276971891115231 -13.027185249535528 0 0 0 0 363.5950777766933 -386.20591470199929 0 -386.20591470199929 -1513.1350730660452 0 0 0 0 370.79512727470683 1147.3172637483049 0 1147.3172637483049 -415.08113249668622 0 0 0 0 -289.1909999499494 -324.49185354592646 0 -324.49185354592646 -430.34219971699531 0 0 0 0 686.97274371360709 -104.03582268798982 0 -104.03582268798982 -1807.6627916257676 0 0 0 0 0.20821675624359248 -0.56566149534572352 0 -0.56566149534572352 -10.565536484889019 0 0 0 0 16.100214488578146 -570.44916917675937 0 -570.44916917675937 -972.10469690938771 0 0 0 0 -55.547789169315138 27.4354300536761 0 27.4354300536761 81.926263555475089 0 0 0 0 234.91509985366753 -404.0583981385189 0 -404.0583981385189 -513.73520632932286 0 0 0 0 322.94410653146542 -207.04949787243368 0 -207.04949787243368 -620.83180251530848 0 0 0 0 38.426820192298067 73.666630888979398 0 73.666630888979398 70.596097472747715 0 0 0 0 173.14775039847063 -138.5048267331822 0 -138.5048267331822 398.81250737081473 0 0 0 0 122.29021919545494 0.57826870904341376 0 0.57826870904341376 161.05814428134181 0 0 0 0 763.68223732781553 -196.61527677462891 0 -196.61527677462891 -236.1709640018089 0 0 0 0 1.2738207108658868 1.5209087593118849 0 1.5209087593118849 -2.8159173511015396 0 0 0 0 -226.72671092739552 721.50512533190749 0 721.50512533190749 344.16630837975572 0 0 0 0 632.13930453668945 220.73555050674713 0 220.73555050674713 -1311.1026908227095 0 0 0 0 192.46802513001967 -486.63705973946162 0 -486.63705973946162 -1035.1452872983664 0 0 0 0 1.4975513917984244 -530.93257794262854 0 -530.93257794262854 -297.4851642703652 0 0 0 0 232.23752312884108 88.015402833851113 0 88.015402833851113 57.896281890210048 0 0 0 0 -30.853939798940701 -128.61681283424514 0 -128.61681283424514 184.12519007903029 0 0 0 0 -110.52794196272498 -315.63511428500169 0 -315.63511428500169 -1.8519699226562807 0 0 0 0 -79.679887294829769 -35.258700172091267 0 -35.258700172091267 -69.540994610160851 0 0 0 0 -51.500055572153997 -68.496927788379253 0 -68.496927788379253 -219.39497155050321 0 0 0 0 -32.991356449517752 -225.20129549886951 0 -225.20129549886951 -401.56401242595348 0 0 0 0 -34.419792628017376 -182.31083275004357 0 -182.31083275004357 -248.04514166907029 0 0 0 0 55.997054108646125 -185.57940460494046 0 -185.57940460494046 -550.33346246156907 0 0 0 0 59.910956356871793 -218.49817876624638 0 -218.49817876624638 -402.49596208441471 0 0 0 0 3.9311929005921229 -82.555877140547636 0 -82.555877140547636 -396.36987977034642 0 0 0 0 69.554660331003106 -102.68875401218975 0 -102.68875401218975 -331.52202289448633 0 0 0 0 42.640435363618053 -105.56548554057372 0 -105.56548554057372 -331.73472760725872 0 0 0 0 8.6505213684648368 -132.72622119765958 0 -132.72622119765958 -348.91849219231881 0 0 0 0 60.997704243089174 -45.308665039081461 0 -45.308665039081461 -394.08740384943258 0 0 0 0 -25.312647524382555 43.849647876995732 0 43.849647876995732 -237.38564938942727 0 0 0 0 -393.34591128590898 298.74692534354199 0 298.74692534354199 -277.45107042213021 0 0 0 0 0.0055791881964069034 124.3497787623055 0 124.3497787623055 -666.3682300117398 0 0 0 0 -131.28316622874991 48.88484083232288 0 48.88484083232288 -54.347983941183884 0 0 0 0 11.758658140484158 83.138694283873519 0 83.138694283873519 -272.92775220618933 0 0 0 0 34.690708039702258 -10.916769449351705 0 -10.916769449351705 -31.974962461636096 0 0 0 0 34.719913254026665 -47.92856891880183 0 -47.92856891880183 -35.693540061201929 0 0 0 0 -32.806990983232595 -102.9880857138678 0 -102.9880857138678 -79.767169313559862 0 0 0 0 -182.79258184470677 211.82723858926511 0 211.82723858926511 178.97738626926366 0 0 0 0 -61.873407816960821 -51.455424543911249 0 -51.455424543911249 1.3346526289569738 0 0 0 0 -0.61033338321112596 -0.7710554231158806 0 -0.7710554231158806 -1.5324188745014666 0 0 0 0 -18.419013710644776 25.526498690946482 0 25.526498690946482 -18.508951112924024 0 0 0 0 -156.8683542572453 -140.66685770482582 0 -140.66685770482582 -275.88284256900079 0 0 0 0 -5.1581446630262864 4.1472614054846719 0 4.1472614054846719 -3.091459540878386 0 0 0 0 11.500283725759473 -2.4457933664102285 0 -2.4457933664102285 -10.287151275667512 0 0 0 0 172.85624025649554 24.548341835790779 0 24.548341835790779 -266.41528266669047 0 0 0 0 80.983308703571765 87.075005272177805 0 87.075005272177805 23.26903321786267 0 0 0 0 89.565753603819758 -30.610366520402749 0 -30.610366520402749 -8.1847807860071953 0 0 0 0 11.632207403134235 -6.0746133726989342 0 -6.0746133726989342 2.0846342389335391 0 0 0 0 0.95756407162661361 -0.23394838365422999 0 -0.23394838365422999 -0.52603474228541813 0 0 0 0 106.22065725068023 -19.770079169124074 0 -19.770079169124074 -228.50482355983331 0 0 0 0 77.677215315639842 29.645644885296861 0 29.645644885296861 -196.30773300067267 0 0 0 0 -0.36504855401199165 -0.20848160819514305 0 -0.20848160819514305 -139.04741811292479 0 0 0 0 25.427349144403706 -21.963277195125556 0 -21.963277195125556 -222.98738596121257 0 0 0 0 87.190928986675317 -27.00911048728085 0 -27.00911048728085 -305.15324343229258 0 0 0 0 65.043723362946366 -55.456998260215187 0 -55.456998260215187 -293.51778689641014 0 0 0 0 22.1443558106821 -92.359258071151089 0 -92.359258071151089 -325.21844340023017 0 0 0 0 -8.3354806183834853 -45.022389543645431 0 -45.022389543645431 -251.6537142908237 0 0 0 0 25.806146853829972 -19.938792587218188 0 -19.938792587218188 -248.87913165581995 0 0 0 0 -16.831223325631527 -41.053723494512269 0 -41.053723494512269 -186.4113378177326 0 0 0 0 2.4368025513059592 -3.4597653845885361 0 -3.4597653845885361 -161.03776801623098 0 0 0 0 -2.9616576766364258 0.50262365887395433 0 0.50262365887395433 -0.057711004479745753 0 0 0 0 -19.750167397824953 -16.567438934065763 0 -16.567438934065763 -364.19854078455137 0 0 0 0 -94.249765356484204 -16.810810908194071 0 -16.810810908194071 5.8002408320771792 0 0 0 0 -132.24843376407125 85.169181987363118 0 85.169181987363118 -195.88426954981605 0 0 0 0 -92.822405247128245 -68.130835795886014 0 -68.130835795886014 -133.38445260195658 0 0 0 0 195.62013554637178 -158.3514775686881 0 -158.3514775686881 -236.93190568755563 0 0 0 0 96.321147261256556 -186.95851307802332 0 -186.95851307802332 -12.615033484151354 0 0 0 0 -154.05438190068617 -2.5884247187896108 0 -2.5884247187896108 -58.492721269720278 0 0 0 0 132.68168600384683 174.93844749319669 0 174.93844749319669 -202.06953523167977 0 0 0 0 -120.40121686604152 76.019458239969026 0 76.019458239969026 3.8305356042565109 0 0 0 0 88.173413880701958 27.2388440066361 0 27.2388440066361 -17.051956754239654 0 0 0 0 66.785350039820514 76.483435012906739 0 76.483435012906739 -3.1699933861054888 0 0 0 0 -29.242694052510615 0.38272125555295133 0 0.38272125555295133 -0.50725952729862911 0 0 0 0 -28.484851101994309 9.8918523312077014 0 9.8918523312077014 -32.50389117128725 0 0 0 0 34.149772002177087 66.804920708571899 0 66.804920708571899 -51.937180494050608 0 0 0 0 21.667233568899064 2.263640229522025 0 2.263640229522025 -40.523040342349304 0 0 0 0 200.77891979485901 58.112748163067408 0 58.112748163067408 -23.111563719849073 0 0 0 0 188.08362193093376 12.607784265012015 0 12.607784265012015 -104.78548967311508 0 0 0 0 188.27084448843721 49.597461580206982 0 49.597461580206982 -48.757721057425442 0 0 0 0 235.98488977969487 20.919932975011761 0 20.919932975011761 -129.04002395566022 0 0 0 0 -0.14740926401925292 -1.8330917247837091 0 -1.8330917247837091 -7.4442171450854744 0 0 0 0 212.24242061639609 49.419163915346189 0 49.419163915346189 -124.25697629716524 0 0 0 0 238.82326074978573 29.568842156759274 0 29.568842156759274 -198.74912015929294 0 0 0 0 0.38989647152880658 -1.8616622172481581 0 -1.8616622172481581 -5.5731398931640221 0 0 0 0 -113.07088362644896 -384.16953316404852 0 -384.16953316404852 492.55075914014014 0 0 0 0 144.51209124296264 -143.24810662156597 0 -143.24810662156597 30.105948049223798 0 0 0 0 97.71010998278615 168.54797534817135 0 168.54797534817135 -112.21042469252802 0 0 0 0 248.16178710912618 -66.35560075288322 0 -66.35560075288322 77.866687420384551 0 0 0 0 239.46331934860859 70.206507139444511 0 70.206507139444511 -78.228519611370757 0 0 0 0 516.64051244199027 -80.148709764819614 0 -80.148709764819614 -108.85486831632625 0 0 0 0 192.35514107467679 -1.4588229842547662 0 -1.4588229842547662 -4.6931388569191768 0 0 0 0 400.62925012899109 97.860145335106608 0 97.860145335106608 -109.35074631566386 0 0 0 0 620.61816439787651 -182.29906439172782 0 -182.29906439172782 -130.90569136096565 0 0 0 0 555.30724666908645 -273.1679352213464 0 -273.1679352213464 -15.999927577872313 0 0 0 0 204.69660533923889 -101.26255945623166 0 -101.26255945623166 112.28000314395831 0 0 0 0 -0.48458489946447436 -6.6607166542899403 0 -6.6607166542899403 -24.632827016309484 0 0 0 0 262.8091816924541 24.344868677639624 0 24.344868677639624 -35.873777392327611 0 0 0 0 -57.458933459526122 -131.13781053735738 0 -131.13781053735738 70.281376672476426 0 0 0 0 0.10903224927474811 -0.89936584173084078 0 -0.89936584173084078 -1.4771753460736292 0 0 0 0 -221.44307355746724 -134.37350889166157 0 -134.37350889166157 157.4584675574406 0 0 0 0 -35.314252162277626 -292.22081790959328 0 -292.22081790959328 85.718406440953231 0 0 0 0 309.00530757221497 -221.00623090033059 0 -221.00623090033059 -67.110338085240073 0 0 0 0 -0.42586612053778355 -5.198322614017143 0 -5.198322614017143 -19.521364264804632 0 0 0 0 242.7826821708253 -10.988488113334313 0 -10.988488113334313 -53.659324540283706 0 0 0 0 144.01257427221481 -86.160443089582031 0 -86.160443089582031 -16.813429345298573 0 0 0 0 -89.543513961551866 4.2865518576650175 0 4.2865518576650175 -102.91057261484661 0 0 0 0 -108.902428822498 -71.387955312756731 0 -71.387955312756731 6.4039576326067618 0 0 0 0 -72.953517744896459 74.00351637300605 0 74.00351637300605 -116.95505335867983 0 0 0 0 -52.379290165944212 -38.113487099046779 0 -38.113487099046779 32.117107570532426 0 0 0 0 -45.143687433883194 23.365734459159626 0 23.365734459159626 -3.647389173926058 0 0 0 0 -24.535230556328102 7.1828016878350809 0 7.1828016878350809 -6.0371419131643052 0 0 0 0 -27.938230625785081 4.6885686426503526 0 4.6885686426503526 16.171809735340503 0 0 0 0 -79.718589378481056 9.8898622636538676 0 9.8898622636538676 32.754581986700032 0 0 0 0 12.397170053636728 -36.896985469909396 0 -36.896985469909396 26.979605658358196 0 0 0 0 98.913230453647998 -15.809600306460197 0 -15.809600306460197 11.297261128139326 0 0 0 0 118.8968000306154 -51.749811973945725 0 -51.749811973945725 6.2602995825882317 0 0 0 0 114.23310147893028 35.58654437327732 0 35.58654437327732 41.283282221633272 0 0 0 0 82.585632574962347 -11.670137090394746 0 -11.670137090394746 62.426657821091339 0 0 0 0 35.626460961384055 -33.588879810775325 0 -33.588879810775325 7.2687281021385388 0 0 0 0 83.080936464882825 -16.034961499082783 0 -16.034961499082783 -3.5884542281837639 0 0 0 0 98.982439119900505 -15.357118680282838 0 -15.357118680282838 -41.217781542589364 0 0 0 0 167.97933770346896 -8.0896240817201033 0 -8.0896240817201033 -56.160613196989289 0 0 0 0 103.1431937354445 27.633471821691728 0 27.633471821691728 -33.433761248455994 0 0 0 0 53.067215790584669 -23.310694472764226 0 -23.310694472764226 -35.196132606599349 0 0 0 0 89.124107513273202 -29.703373408724474 0 -29.703373408724474 -61.022867213829159 0 0 0 0 5.8453065645084052 -16.769439560418959 0 -16.769439560418959 -36.077775982793355 0 0 0 0 46.855023053465374 -6.2096382999957314 0 -6.2096382999957314 -79.7496730648636 0 0 0 0 2.0996518503916306 14.87941439151345 0 14.87941439151345 -97.706746435304922 0 0 0 0 34.387542493149112 -13.776728583286967 0 -13.776728583286967 -39.946581522690394 0 0 0 0 58.713698045518697 -27.164394361023369 0 -27.164394361023369 -146.08669369310337 0 0 0 0 61.894340276764645 -3.9227881803675473 0 -3.9227881803675473 -188.82536044149856 0 0 0 0 59.344294171951333 -42.496049742258037 0 -42.496049742258037 -110.49646797404603 0 0 0 0 72.341416020381871 -50.994997167296788 0 -50.994997167296788 -108.04999104254239 0 0 0 0 -197.05729477859535 -146.5219762345755 0 -146.5219762345755 -15.890999256365831 0 0 0 0 42.959937340308215 -81.932707124670742 0 -81.932707124670742 -94.26610912335218 0 0 0 0 62.576431927449789 -25.908638541561231 0 -25.908638541561231 -52.545192557186965 0 0 0 0 26.027927627730548 -30.61066221382498 0 -30.61066221382498 -6.455459638418688 0 0 0 0 126.70448312370036 -83.057759941441873 0 -83.057759941441873 -148.85696477772456 0 0 0 0 70.574066113628078 -62.986103354156057 0 -62.986103354156057 -146.6422975856749 0 0 0 0 9.9349452523629225 -156.78115537480971 0 -156.78115537480971 -165.53975807133611 0 0 0 0 -24.446103912782164 -324.14607236405584 0 -324.14607236405584 -91.386760312843762 0 0 0 0 139.39914161781849 -361.41778398364613 0 -361.41778398364613 -124.83890233625789 0 0 0 0 303.31798391355096 -227.6934954663584 0 -227.6934954663584 -178.69145162555469 0 0 0 0 93.091502589202207 -63.497395308967043 0 -63.497395308967043 -73.964848183501999 0 0 0 0 97.437680605902472 -41.308978995617963 0 -41.308978995617963 -204.36984649537226 0 0 0 0 256.04730821061497 -50.754242902006354 0 -50.754242902006354 -204.35029685368863 0 0 0 0 468.80201671728355 78.084498658716257 0 78.084498658716257 -22.66106708872212 0 0 0 0 -5.2744757248752663 2.2596187339387939 0 2.2596187339387939 -0.02836496884791373 0 0 0 0 -12.179646381281259 11.501579195672548 0 11.501579195672548 -20.627979545495691 0 0 0 0 -167.62090139999336 -506.10083499908569 0 -506.10083499908569 482.24140072010368 0 0 0 0 -55.47168071460181 358.49090345805689 0 358.49090345805689 -1499.8463993815913 0 0 0 0 2.6450590646913019 -5.6295708255991332 0 -5.6295708255991332 -8.5795715781383066 0 0 0 0 -5.1814933664982696 -1.0617773881137964 0 -1.0617773881137964 -28.423576322684312 0 0 0 0 -55.994682139194992 357.82628640985831 0 357.82628640985831 -1500.4515667976048 0 0 0 0 504.08118892005911 -378.40304481783846 0 -378.40304481783846 -130.99216505732693 0 0 0 0 -4.8412129861825406 6.6073999413174533 0 6.6073999413174533 -31.385136154680822 0 0 0 0 0.90212797578112758 -9.8229847151167853 0 -9.8229847151167853 -14.521311094018639 0 0 0 0 -175.20918531217012 -620.67894397276905 0 -620.67894397276905 198.1502440641525 0 0 0 0 211.14662740584021 82.96156522529418 0 82.96156522529418 -1348.3486778715323 0 0 0 0 -2.3905252760064046 -0.62000086076644223 0 -0.62000086076644223 -1.2455008439549644 0 0 0 0 257.44676976269903 89.901888874026099 0 89.901888874026099 -1496.8975342517715 0 0 0 0 -267.59749296602558 -354.48762021676157 0 -354.48762021676157 -461.94426444665896 0 0 0 0 1.8145181163289001 -1.5616188635314856 0 -1.5616188635314856 -3.877417625246915 0 0 0 0 -2.2458235860258071 0.38387483990209148 0 0.38387483990209148 -33.398773313028869 0 0 0 0 3.0519193609633248 4.2428177131923803 0 4.2428177131923803 -32.296835568628012 0 0 0 0 296.49158562294565 -149.64280799207359 0 -149.64280799207359 -23.979738786596499 0 0 0 0 11.464914597031736 -3.6751929872652909 0 -3.6751929872652909 -32.34776798312123 0 0 0 0 4.0431204792099642 -9.1722334085296922 0 -9.1722334085296922 -15.850686710323046 0 0 0 0 0.12800245080750425 -0.32589505649128125 0 -0.32589505649128125 -4.0513383019709472 0 0 0 0 374.96546180986161 -63.577802973734947 0 -63.577802973734947 -89.127095457286487 0 0 0 0 361.27689869974239 65.652552294463021 0 65.652552294463021 13.30368858485599 0 0 0 0 236.39112357306277 101.69114122250994 0 101.69114122250994 466.28752032344028 0 0 0 0 288.53861106561578 137.93873114227199 0 137.93873114227199 -77.602809069059731 0 0 0 0 146.9364714785944 -83.050584681420332 0 -83.050584681420332 -89.771523744506339 0 0 0 0 -139.62864970615794 873.49561542254105 0 873.49561542254105 -950.29926900518331 0 0 0 0 245.45333439382102 -50.465308245943106 0 -50.465308245943106 -79.41360671953953 0 0 0 0 253.07378044294342 -62.242846867627122 0 -62.242846867627122 -263.77247385957162 0 0 0 0 245.16387305444619 -27.882032093901216 0 -27.882032093901216 -163.14204354917729 0 0 0 0 178.35759027523738 -88.453152094491998 0 -88.453152094491998 -23.014796134910284 0 0 0 0 7.6352651044138327 -6.2878879855482097 0 -6.2878879855482097 -13.988418217089148 0 0 0 0 -48.976562100970796 27.339357787643166 0 27.339357787643166 -1.9707040490341114 0 0 0 0 -1.1233728182223759 -2.4135429170742952 0 -2.4135429170742952 -6.1517144951486529 0 0 0 0 -52.472721481046847 69.872058510454735 0 69.872058510454735 -76.941560766727889 0 0 0 0 7.9136395652585634 -82.097859598734431 0 -82.097859598734431 -27.198064817275736 0 0 0 0 63.061299387540657 -60.130634938718686 0 -60.130634938718686 -202.6012860949777 0 0 0 0 38.590192100200625 -29.902871917765879 0 -29.902871917765879 -15.7059236916175 0 0 0 0 -1.5590291618616448 1.7455289885137972 0 1.7455289885137972 -5.3097824312753801 0 0 0 0 19.55668501809248 19.08797193686496 0 19.08797193686496 -36.079732643600437 0 0 0 0 -0.42854874016288536 -5.1164545325174995 0 -5.1164545325174995 -11.407386529661586 0 0 0 0 -15.519262024324462 16.747351972967408 0 16.747351972967408 -33.315226492515649 0 0 0 0 -41.670882642966873 457.63166094193093 0 457.63166094193093 -1496.790397801371 0 0 0 0 0.52565881640178269 -1.4234737854798798 0 -1.4234737854798798 -4.4635227772861938 0 0 0 0 14.127783232111643 214.750772204643 0 214.750772204643 -525.9850662064091 0 0 0 0 166.92025293398569 -117.12554644148622 0 -117.12554644148622 -1497.8388112292014 0 0 0 0 28.92196064939526 -5.2040719514325247 0 -5.2040719514325247 -35.174746092197893 0 0 0 0 6.689460984277118 1.8420617269403223 0 1.8420617269403223 -2.6147462388041394 0 0 0 0 -151.83584681275431 -56.857984881868106 0 -56.857984881868106 -237.52284485440214 0 0 0 0 37.963089260972936 52.721048377981788 0 52.721048377981788 -134.92296894091851 0 0 0 0 3.5869035428828555 1.3548196239225696 0 1.3548196239225696 0.4685760167296813 0 0 0 0 45.635270957458118 41.047610238358175 0 41.047610238358175 -127.67482014979578 0 0 0 0 39.908989427695431 98.577592640181138 0 98.577592640181138 -319.24131497012422 0 0 0 0 23.030275772986514 -167.23920167342203 0 -167.23920167342203 -43.461551430129475 0 0 0 0 -0.74994746746246532 -1.9861885815849547 0 -1.9861885815849547 -3.024064400618272 0 0 0 0 36.368714756783376 -258.13365049988715 0 -258.13365049988715 -449.85791646388134 0 0 0 0 26.027940241891486 45.539615734502149 0 45.539615734502149 -105.85259079063871 0 0 0 0 286.47064973876724 196.5873438924209 0 196.5873438924209 -1498.3415118261651 0 0 0 0 248.29770714365225 214.30872805473155 0 214.30872805473155 -1316.74679115256 0 0 0 0 22.245824171035963 53.520748958533659 0 53.520748958533659 -116.62521444062986 0 0 0 0 22.324118408730016 51.593927223158971 0 51.593927223158971 -132.6408448673028 0 0 0 0 11.306157447200803 30.034588423883179 0 30.034588423883179 -98.057539499070117 0 0 0 0 -19.308329054800311 -11.569970893974187 0 -11.569970893974187 -24.810564405535843 0 0 0 0 -26.436720675507331 17.929107685158669 0 17.929107685158669 -49.934043339326308 0 0 0 0 8.7042019116713618 -13.494638218671753 0 -13.494638218671753 -34.803099263710465 0 0 0 0 7.8362342086497847 4.3612057328336959 0 4.3612057328336959 -63.967814533808451 0 0 0 0 -4.5036146716113308 -17.436795965628335 0 -17.436795965628335 -27.44396479012994 0 0 0 0 8.714866141789912 1.2500785593056207 0 1.2500785593056207 -3.5105297793925274 0 0 0 0 -23.520285827609314 -17.00673063839713 0 -17.00673063839713 20.165005577198826 0 0 0 0 -24.61907551033363 -37.953033543837876 0 -37.953033543837876 -14.695297873735399 0 0 0 0 5.7308756134344208 -7.6891691548808012 0 -7.6891691548808012 -28.657711246181861 0 0 0 0 -6.405032793848136 -24.628520481248415 0 -24.628520481248415 -10.03098348995627 0 0 0 0 -129.08174049724721 105.35537259938259 0 105.35537259938259 -182.0302394263033 0 0 0 0 -176.9221757141151 66.891138209241745 0 66.891138209241745 -60.547493838544881 0 0 0 0 1.8197845771241532 -0.36388151351121678 0 -0.36388151351121678 -101.0865388679054 0 0 0 0 -250.02204238294416 142.20242237358971 0 142.20242237358971 -93.256965063834414 0 0 0 0 -197.79867881914782 170.8797363375426 0 170.8797363375426 -114.18957193183843 0 0 0 0 -170.41424173207963 228.04795990124126 0 228.04795990124126 -137.49945374610513 0 0 0 0 -45.496995365487123 128.02055670893631 0 128.02055670893631 -116.57161052349998 0 0 0 0 -144.74337313475053 246.97130442723645 0 246.97130442723645 -154.75340149149679 0 0 0 0 -172.1617763483564 205.3931508933216 0 205.3931508933216 -156.77886842737155 0 0 0 0 -188.2886103555411 233.0413049656168 0 233.0413049656168 -131.94379239583711 0 0 0 0 -129.26453150197267 277.45346083223831 0 277.45346083223831 -323.46838084755291 0 0 0 0 -370.7808989008621 254.7313475641908 0 254.7313475641908 -162.14720645952809 0 0 0 0 -0.99920035091281534 143.88871030217217 0 143.88871030217217 -210.72721575262932 0 0 0 0 -25.326889552788543 156.41393722676997 0 156.41393722676997 -14.662154606045533 0 0 0 0 1.0714318337923727 -1.6926364586570894 0 -1.6926364586570894 -22.981257925090134 0 0 0 0 194.06461235118286 -130.64635448498782 0 -130.64635448498782 -160.07842921354654 0 0 0 0 -35.235420964140076 -63.182506339683812 0 -63.182506339683812 8.4008348256766112 0 0 0 0 -197.72262020840731 -186.40934160371557 0 -186.40934160371557 -184.41488191488975 0 0 0 0 66.884011218400701 -1.031461809873008 0 -1.031461809873008 -412.33924091940048 0 0 0 0 -239.51679337998212 -36.453632180146201 0 -36.453632180146201 61.316150337099415 0 0 0 0 -1.2491451132999645 -2.0122885409556508 0 -2.0122885409556508 -3.930929087264416 0 0 0 0 -170.4095430064956 317.67487299568302 0 317.67487299568302 -538.34352366844769 0 0 0 0 -289.70268868507918 26.668380768811119 0 26.668380768811119 -506.058834176662 0 0 0 0 -242.49436564420671 191.66308649315226 0 191.66308649315226 -156.17591695336478 0 0 0 0 -162.69368232994321 194.84605454945313 0 194.84605454945313 -463.13533155929463 0 0 0 0 -212.63616402700052 192.23099337488185 0 192.23099337488185 -94.298599188467733 0 0 0 0 -167.83981388984043 271.75082388924591 0 271.75082388924591 -393.29848734126745 0 0 0 0 -522.08251904395263 364.98426411022024 0 364.98426411022024 -188.50241539198805 0 0 0 0 -0.65645354582305337 1.9921578826110022 0 1.9921578826110022 -6.0065848756237052 0 0 0 0 150.33530396432752 -85.223469916164959 0 -85.223469916164959 -457.58111850614659 0 0 0 0 -42.221394938412345 20.407064823999463 0 20.407064823999463 7.050841771890191 0 0 0 0 87.125078918959559 57.821968524042859 0 57.821968524042859 -40.002347076758269 0 0 0 0 -1.0980083552338447 4.6507166981795383 0 4.6507166981795383 -15.622330928748534 0 0 0 0 41.365584342566308 97.756399850937811 0 97.756399850937811 -120.84875547260924 0 0 0 0 -105.70162714635194 43.994809232784746 0 43.994809232784746 -3.7472897448120648 0 0 0 0 -20.112845714439885 32.37217837154185 0 32.37217837154185 -210.96809539678816 0 0 0 0 -97.63556759265083 -4.7993716901401058 0 -4.7993716901401058 -18.676832241360898 0 0 0 0 -123.99254496015487 41.996315372670324 0 41.996315372670324 11.140151140446505 0 0 0 0 -74.400098739417956 36.275949832744118 0 36.275949832744118 9.8161712084801138 0 0 0 0 -60.093989098943375 15.199083320299906 0 15.199083320299906 39.730026798321887 0 0 0 0 -4.8421512375144005 -8.4660172386429622 0 -8.4660172386429622 47.319163010572538 0 0 0 0 -28.738979642314163 54.506090336149782 0 54.506090336149782 2.1988373192189101 0 0 0 0 -17.411610919631819 12.574814319319557 0 12.574814319319557 16.036627461216995 0 0 0 0 -0.56170996601514067 1.2902678928570719 0 1.2902678928570719 -3.7067823204422385 0 0 0 0 -76.613260636698058 0.58267361340949719 0 0.58267361340949719 -20.270961948481727 0 0 0 0 -39.21716172384825 104.88952650765395 0 104.88952650765395 -112.92760274624015 0 0 0 0 -0.54615734253527692 0.30433181328042913 0 0.30433181328042913 0.39208172900524474 0 0 0 0 -80.255469888761013 78.939531238387644 0 78.939531238387644 -82.125899680286238 0 0 0 0 -107.1290104871139 41.168095821775296 0 41.168095821775296 -19.795129320874366 0 0 0 0 -44.530096576572873 27.41447147444245 0 27.41447147444245 -151.88772727489558 0 0 0 0 -49.911599405990728 27.201937463996245 0 27.201937463996245 13.181210306951215 0 0 0 0 21.278837644226769 42.748307048426796 0 42.748307048426796 4.7256199726938348 0 0 0 0 0.17458138683101221 4.267507625389249 0 4.267507625389249 -22.503351250775392 0 0 0 0 78.526979462965869 -13.736018850990243 0 -13.736018850990243 -68.83157416714657 0 0 0 0 -23.074769268034657 -34.495523295215378 0 -34.495523295215378 -2.7539348745544885 0 0 0 0 2.6486707113583496 -9.4129011919911729 0 -9.4129011919911729 -12.097726836047308 0 0 0 0 -13.662867375435304 -78.525067364165409 0 -78.525067364165409 -387.37244546062902 0 0 0 0 0.35599564548279006 -2.3968441465667336 0 -2.3968441465667336 -1.6374092595749055 0 0 0 0 -103.17891727847027 136.30432875526401 0 136.30432875526401 -156.67238450471814 0 0 0 0 21.823876313302122 -58.211399761182292 0 -58.211399761182292 -859.96453194785045 0 0 0 0 -31.319016697057066 100.88124009989883 0 100.88124009989883 -447.54447031308155 0 0 0 0 -32.774799783310556 41.260179436481849 0 41.260179436481849 -111.94219627888424 0 0 0 0 -33.203211600847162 33.250442767279083 0 33.250442767279083 -200.71503710234902 0 0 0 0 -42.606448519520001 40.335376699209974 0 40.335376699209974 -205.10009521704296 0 0 0 0 -30.795977664533353 -27.228698178008926 0 -27.228698178008926 -485.85622874174987 0 0 0 0 23.827811123503722 -91.500787938482517 0 -91.500787938482517 -424.49299880342278 0 0 0 0 -154.09852540106502 -195.93273471750126 0 -195.93273471750126 -286.43828183584696 0 0 0 0 87.812428617297456 -96.621361749993412 0 -96.621361749993412 -280.00425344596442 0 0 0 0 -5.7984761611369322 -17.26784746973135 0 -17.26784746973135 -162.23771656090912 0 0 0 0 0.3322595881482755 -18.432867530733347 0 -18.432867530733347 -371.87047896971035 0 0 0 0 -42.112667299626963 -68.607067264912985 0 -68.607067264912985 -185.71390852445529 0 0 0 0 131.65091222562123 -379.87756973104024 0 -379.87756973104024 -716.59857262780906 0 0 0 0 -32.404569796852257 -275.45029298922873 0 -275.45029298922873 -768.51824497300731 0 0 0 0 129.20246454070721 -664.33925119010109 0 -664.33925119010109 -1496.0571844994556 0 0 0 0 -234.16062745413214 -749.86171760408797 0 -749.86171760408797 -335.33914125242222 0 0 0 0 127.77704794082109 -307.53353645568222 0 -307.53353645568222 -875.27067799329518 0 0 0 0 247.10377356593401 -126.14269605503569 0 -126.14269605503569 -1500.4351528697753 0 0 0 0 205.4526963401288 98.856483534439576 0 98.856483534439576 -1499.5333069548471 0 0 0 0 83.016889230119403 115.0549914464267 0 115.0549914464267 -1188.0722178903284 0 0 0 0 -29.722298508487093 284.61718456841834 0 284.61718456841834 -1183.0761718483886 0 0 0 0 235.79869097661225 -83.354593304611512 0 -83.354593304611512 -1081.8254062721394 0 0 0 0 -5.9606452624717008 106.68700736483947 0 106.68700736483947 -723.18082503602886 0 0 0 0 -32.961291756008336 76.699397775365128 0 76.699397775365128 -132.35030610877686 0 0 0 0 43.687470665238919 122.41750998102862 0 122.41750998102862 -956.7941348287502 0 0 0 0 -91.384714045565005 29.46504043321417 0 29.46504043321417 -1.9285601620307489 0 0 0 0 -0.99508364848290365 -10.878505719259202 0 -10.878505719259202 -9.8717273088943109 0 0 0 0 -87.833165929676966 180.52344699683027 0 180.52344699683027 -223.86856133434162 0 0 0 0 -3.3852979222432866 -8.891838246603875 0 -8.891838246603875 -8.9481557588966965 0 0 0 0 1.8374527455312091 53.022282252279865 0 53.022282252279865 -114.24606723498198 0 0 0 0 -183.96170048515617 313.52689717897772 0 313.52689717897772 -1246.6843361136084 0 0 0 0 -50.43058285432469 249.60370091229493 0 249.60370091229493 -1216.3062847884007 0 0 0 0 15.608226383397406 263.35034088213803 0 263.35034088213803 -1500.3606887026833 0 0 0 0 -209.07047182885802 128.62166055778459 0 128.62166055778459 -2241.207700785731 0 0 0 0 -880.7123904177937 -179.96269394412002 0 -179.96269394412002 -1500.0646562363813 0 0 0 0 -710.47322765150102 81.176032785290204 0 81.176032785290204 -1523.2550667082824 0 0 0 0 -716.01774446231593 -301.59599079566942 0 -301.59599079566942 -1555.4197190579885 0 0 0 0 -553.22901868015379 -456.23274803008212 0 -456.23274803008212 -1542.8486711103319 0 0 0 0 -521.42664345446747 -51.804563708985143 0 -51.804563708985143 8.9504916586124637 0 0 0 0 -2.2233158023473094 -3.5126912039639047 0 -3.5126912039639047 -4.6060931776967191 0 0 0 0 16.492617825469921 -99.063476338144937 0 -99.063476338144937 -1596.518854288061 0 0 0 0 -294.02693129031439 -192.0900458473609 0 -192.0900458473609 -1499.9731785891749 0 0 0 0 -167.09174180621793 -286.28603098251915 0 -286.28603098251915 -1117.7804890729167 0 0 0 0 -197.78775630536566 31.76089986103284 0 31.76089986103284 -1428.0692026634747 0 0 0 0 7.5300570097364652 -157.09373593012435 0 -157.09373593012435 -1266.9482569425945 0 0 0 0 -105.63056176854482 -220.23570719746198 0 -220.23570719746198 -824.18064070931905 0 0 0 0 -96.743925408277818 -134.71851301617454 0 -134.71851301617454 -975.80549784734012 0 0 0 0 -213.78017697306626 -325.74974085547319 0 -325.74974085547319 -767.49391271015793 0 0 0 0 -217.05764915922066 126.02433088333646 0 126.02433088333646 -60.790182398149454 0 0 0 0 -316.69810865495157 -218.74804054835079 0 -218.74804054835079 -131.4623041267705 0 0 0 0 -192.1741664277352 -54.959361698107841 0 -54.959361698107841 -390.43456898897102 0 0 0 0 -85.854741406723122 -110.13275803436977 0 -110.13275803436977 -818.95900025988703 0 0 0 0 -198.54105137600618 -88.951609328739323 0 -88.951609328739323 -370.6645514039401 0 0 0 0 -35.817971198032282 367.86406532522614 0 367.86406532522614 -488.43164193351276 0 0 0 0 -0.69598975300533339 -0.9552337679416798 0 -0.9552337679416798 -7.3260959772229075 0 0 0 0 -776.00196699747789 581.27590431797057 0 581.27590431797057 -378.02040263557774 0 0 0 0 -167.73190536363359 -506.12559732007048 0 -506.12559732007048 -704.94011820870764 0 0 0 0 -509.59015054232884 224.20089171638074 0 224.20089171638074 -145.75113372384567 0 0 0 0 -301.2011237878487 263.64091013548079 0 263.64091013548079 -141.96780773930777 0 0 0 0 -88.004290923728377 183.06359740843186 0 183.06359740843186 -114.97860838880297 0 0 0 0 -163.30995436068997 184.50160649581539 0 184.50160649581539 11.758556157963767 0 0 0 0 0.14293933018170435 -2.0203650327433689 0 -2.0203650327433689 -19.281198567404157 0 0 0 0 49.156860415582059 13.875642654564217 0 13.875642654564217 -33.046226756369833 0 0 0 0 -16.777789715975928 124.87321656709742 0 124.87321656709742 -137.28790048001974 0 0 0 0 -222.60277783748214 33.586745738587524 0 33.586745738587524 -174.78962327775571 0 0 0 0 -125.6244804132681 102.14209685358128 0 102.14209685358128 -174.05891093058653 0 0 0 0 -185.17380745562025 106.48152943083323 0 106.48152943083323 -87.29122834552345 0 0 0 0 -135.7658032774109 191.78067842937526 0 191.78067842937526 -56.085495819926564 0 0 0 0 -38.34372316178721 176.77055508594029 0 176.77055508594029 -231.25111373953769 0 0 0 0 -28.79663935717349 76.802092574602284 0 76.802092574602284 -105.35331507911178 0 0 0 0 -76.388916660149675 90.535908513118557 0 90.535908513118557 -92.294802106066982 0 0 0 0 -147.01459737779209 49.126369735154185 0 49.126369735154185 -29.120498614263852 0 0 0 0 -123.84591366882933 2.760262669153235 0 2.760262669153235 -48.090921574161257 0 0 0 0 8.9198775886147814 67.467236679783127 0 67.467236679783127 -118.74320844326576 0 0 0 0 -37.694498553626886 -33.663398648138354 0 -33.663398648138354 -107.28004816743851 0 0 0 0 18.454913173627574 116.74140029652335 0 116.74140029652335 53.834784868116003 0 0 0 0 100.14015796261151 40.380988447224809 0 40.380988447224809 -97.869699349845632 0 0 0 0 0.88429643408461112 0.2665348803066987 0 0.2665348803066987 -0.081471248342895208 0 0 0 0 -26.816333209818595 63.855344792049436 0 63.855344792049436 -59.728078457700576 0 0 0 0 -346.02093123691282 -222.46620908554269 0 -222.46620908554269 286.44418602044152 0 0 0 0 -24.612619682237323 75.490695422546651 0 75.490695422546651 10.774219545768574 0 0 0 0 2.0389547403306096 51.486216259282628 0 51.486216259282628 12.482657309614694 0 0 0 0 0.67081505978057976 19.153568268861818 0 19.153568268861818 -62.486340552010006 0 0 0 0 15.552291550392511 -0.074842793498646643 0 -0.074842793498646643 -116.65967693056609 0 0 0 0 -5.9525739422873869 3.4720474912350774 0 3.4720474912350774 -2.1043741688090787 0 0 0 0 27.979832065544542 112.64105328226924 0 112.64105328226924 -483.53987275102554 0 0 0 0 -667.05652742828397 23.209973149325378 0 23.209973149325378 28.742962422760229 0 0 0 0 -507.69743374871905 313.92290647833033 0 313.92290647833033 -17.789796392834887 0 0 0 0 -30.455599100026575 305.57428464065288 0 305.57428464065288 -232.02356500492533 0 0 0 0 -72.168844338405506 582.45749224438805 0 582.45749224438805 -403.85634757489788 0 0 0 0 -790.76662372068995 542.81467709064145 0 542.81467709064145 -50.477988850110705 0 0 0 0 -356.09549708945087 833.21882267116052 0 833.21882267116052 -447.77958022532584 0 0 0 0 28.704745648278049 -108.32424945691309 0 -108.32424945691309 -122.05238914471738 0 0 0 0 -852.30239756069159 -410.93011401890453 0 -410.93011401890453 123.96639769652597 0 0 0 0 40.600903199886488 139.33872088899625 0 139.33872088899625 -166.71180594135308 0 0 0 0 0.56691809274619098 -3.2278747439194508 0 -3.2278747439194508 -26.19831093904844 0 0 0 0 -107.34997107712388 205.28748633218584 0 205.28748633218584 -111.54502429952083 0 0 0 0 -321.53855729956229 418.19577453320517 0 418.19577453320517 -323.17058693530089 0 0 0 0 -9.7324216113702278 -6.948371526081246 0 -6.948371526081246 -17.714653278296737 0 0 0 0 -2.8867977616945906 2.0588171425859754 0 2.0588171425859754 -6.3572889358126368 0 0 0 0 -8.3343116286787335 -9.4561928437942697 0 -9.4561928437942697 -16.283723265792105 0 0 0 0 -11.07526852566798 -8.7684955585218631 0 -8.7684955585218631 -11.006087534558901 0 0 0 0 -25.804298045070055 -35.277145991072018 0 -35.277145991072018 -12.818161178764058 0 0 0 0 -19.969718900481155 -4.5293072836267356 0 -4.5293072836267356 -9.590555827051503 0 0 0 0 -4.8022667217826722 3.1348883612321088 0 3.1348883612321088 -5.4638537592329932 0 0 0 0 -11.445113971548381 -2.9847032733459855 0 -2.9847032733459855 3.6479782515721126 0 0 0 0 -21.245030951445756 -10.819990509341892 0 -10.819990509341892 -6.4445742738553236 0 0 0 0 -23.588616557808564 -6.2481502872433339 0 -6.2481502872433339 -5.9619287517707562 0 0 0 0 -17.544765445672965 -7.0150715369018144 0 -7.0150715369018144 -12.240968155501832 0 0 0 0 -4.9477532547803236 -0.082738106087029806 0 -0.082738106087029806 1.5324124324726434 0 0 0 0 -11.538474141155348 -13.530463312516076 0 -13.530463312516076 -0.48517740952138411 0 0 0 0 -7.134640873379567 -6.6052576719519038 0 -6.6052576719519038 -11.038503148767632 0 0 0 0 0.58258907448362152 -3.2872941901669037 0 -3.2872941901669037 1.6838551725446251 0 0 0 0 -14.352323833238188 -10.680748606562702 0 -10.680748606562702 1.5529650967473572 0 0 0 0 -18.339171591866034 -11.153695042274194 0 -11.153695042274194 8.6563184363594701 0 0 0 0 -8.8023233581856175 -4.4688675889892693 0 -4.4688675889892693 -4.9740250872400793 0 0 0 0 176.84350085211463 -0.34943932636815589 0 -0.34943932636815589 -76.349357532547401 0 0 0 0 14.059147283515358 52.317000603018641 0 52.317000603018641 -61.340474286950666 0 0 0 0 -72.278596926161754 25.595721567926375 0 25.595721567926375 7.2483210717646216 0 0 0 0 -19.346276421522816 2.4472295527357346 0 2.4472295527357346 15.929291930733598 0 0 0 0 -2.038198118289098 -1.4769721468893913 0 -1.4769721468893913 -1.0548573632390443 0 0 0 0 -130.99822553013746 -2.1718209105422375 0 -2.1718209105422375 4.2533984584115387 0 0 0 0 -142.75455684818616 34.126305856727754 0 34.126305856727754 12.95798530365937 0 0 0 0 -9.1463039846084939 -2.6462023333860998 0 -2.6462023333860998 -26.119968671835522 0 0 0 0 -6.9113588084553612 -12.204263252615874 0 -12.204263252615874 -24.696612871601246 0 0 0 0 -23.340251489370303 -14.789616096835744 0 -14.789616096835744 -7.1739328726091571 0 0 0 0 -5.3542093858287512 -4.0374096256130301 0 -4.0374096256130301 -4.1852609881874159 0 0 0 0 -48.682721598071964 -65.783236847706618 0 -65.783236847706618 4.6458176006535723 0 0 0 0 15.951210117306175 -25.154206888225417 0 -25.154206888225417 8.2042710280620668 0 0 0 0 -185.78403209703174 25.7983487597362 0 25.7983487597362 -81.657458974412293 0 0 0 0 -43.322228945121012 79.731057197632254 0 79.731057197632254 -64.814873660710873 0 0 0 0 -68.272410875027646 117.23829900017108 0 117.23829900017108 -264.74432496683494 0 0 0 0 -130.73917715017598 14.756639265716331 0 14.756639265716331 -332.98524608956495 0 0 0 0 30.139061813350395 8.282597483491827 0 8.282597483491827 -308.48692283524178 0 0 0 0 -53.227491913277561 147.8129800399247 0 147.8129800399247 -22.946234044766243 0 0 0 0 -119.64751100574307 49.042015458564492 0 49.042015458564492 -123.39730809805133 0 0 0 0 -30.316168741113035 -87.479021776714802 0 -87.479021776714802 -14.037330995257435 0 0 0 0 96.75060492133548 104.92169237997678 0 104.92169237997678 -246.38338844696864 0 0 0 0 -21.404314160578878 28.607393284637055 0 28.607393284637055 120.13413749848041 0 0 0 0 -1.0254328306774694 -2.5201865691531831 0 -2.5201865691531831 -2.2346429741968983 0 0 0 0 -6.3536124761315023 89.83608027635637 0 89.83608027635637 7.0544158341126604 0 0 0 0 -83.131064832147786 -101.84267492094932 0 -101.84267492094932 -11.817276146155223 0 0 0 0 -4.6634830178657678 -7.6112756020971872 0 -7.6112756020971872 -8.3334825360404405 0 0 0 0 48.708760536839009 27.633529004980119 0 27.633529004980119 -91.066836844885984 0 0 0 0 -155.10675910968689 210.38087444041048 0 210.38087444041048 -62.601839545889675 0 0 0 0 93.005325891385155 48.78024726110425 0 48.78024726110425 -408.22128134236118 0 0 0 0 -279.95547536541449 527.09318861901102 0 527.09318861901102 -499.00522946675437 0 0 0 0 34.582622506153029 59.821902107216829 0 59.821902107216829 -676.15792670132396 0 0 0 0 -17.221465588508153 177.0612627593091 0 177.0612627593091 -411.94964641109982 0 0 0 0 23.999636354659231 200.12914956094846 0 200.12914956094846 -716.417916853012 0 0 0 0 121.16862885448654 138.1932670320316 0 138.1932670320316 -1197.4595293758093 0 0 0 0 78.425099315273798 -125.93238527117228 0 -125.93238527117228 -1258.1380674755519 0 0 0 0 -559.98966270458493 -142.23301811598321 0 -142.23301811598321 -1364.7030698141743 0 0 0 0 113.5518293337532 231.29071506031642 0 231.29071506031642 -1612.6633711170089 0 0 0 0 -96.630592346287671 11.174032048385016 0 11.174032048385016 -514.30724067513222 0 0 0 0 -105.57337056586648 8.395038520729031 0 8.395038520729031 -513.96038675596174 0 0 0 0 -70.778039256088221 -51.08013849748977 0 -51.08013849748977 -738.04361891523058 0 0 0 0 33.875317219390183 38.315358161304175 0 38.315358161304175 -733.07824067934598 0 0 0 0 -21.120176178953159 130.07610621948606 0 130.07610621948606 -506.69271617586492 0 0 0 0 -9.6901847466822346 46.158568669246051 0 46.158568669246051 -733.8211902356768 0 0 0 0 40.209334720317472 66.14642375451831 0 66.14642375451831 -944.48047623077946 0 0 0 0 59.378249389425449 -66.452021668185807 0 -66.452021668185807 -1207.7173421192119 0 0 0 0 45.60711298482164 -109.11358020704256 0 -109.11358020704256 -1064.5321579092933 0 0 0 0 135.1151599132242 -34.160261320031623 0 -34.160261320031623 -1334.1838110505278 0 0 0 0 102.21535918862936 -116.82909968560853 0 -116.82909968560853 -1337.7183653008303 0 0 0 0 119.73748159284766 -148.22205761092778 0 -148.22205761092778 -1500.0089730642244 0 0 0 0 -39.173375319964165 -66.804832524212657 0 -66.804832524212657 -1420.2180570985338 0 0 0 0 -41.514794350553416 -35.328155124730074 0 -35.328155124730074 -1326.339845903638 0 0 0 0 111.61269798433557 -129.08915636528309 0 -129.08915636528309 -1430.7415940313294 0 0 0 0 17.661885028259782 -48.137673375238592 0 -48.137673375238592 -1500.051203009104 0 0 0 0 -97.790946331114242 -113.17981784022936 0 -113.17981784022936 -1397.5151372432565 0 0 0 0 -253.14587783604301 24.049015964965747 0 24.049015964965747 -1499.5709923436825 0 0 0 0 -129.48498765778587 169.65592085301705 0 169.65592085301705 -1378.2837753248587 0 0 0 0 -169.59543487740041 -63.120496556855869 0 -63.120496556855869 -1311.3220812935601 0 0 0 0 -13.012655673412286 89.906646217282287 0 89.906646217282287 -1500.6459887833407 0 0 0 0 56.236721485794078 228.1007602297542 0 228.1007602297542 -901.14079438218687 0 0 0 0 90.865745093972478 -3.4643540637325714 0 -3.4643540637325714 -989.48917949236238 0 0 0 0 55.283012886816763 245.23397197668714 0 245.23397197668714 -1183.701271767517 0 0 0 0 99.735656432456949 -34.946703599800458 0 -34.946703599800458 -1244.8239850576288 0 0 0 0 -50.008213344498131 -346.96321355102373 0 -346.96321355102373 -1100.3255308578246 0 0 0 0 -62.200085958371261 4.8651242447826917 0 4.8651242447826917 -1326.7056681931663 0 0 0 0 15.221047516990808 -147.32182430862485 0 -147.32182430862485 -1078.2503368530342 0 0 0 0 93.374759470277539 -0.023914297380542848 0 -0.023914297380542848 -1020.3620183654748 0 0 0 0 -1.1822418351848114 -85.447167633465142 0 -85.447167633465142 -908.81401091897987 0 0 0 0 65.738738102578566 -156.10981862088465 0 -156.10981862088465 -940.05088978299682 0 0 0 0 34.906236694566331 -195.93055652855264 0 -195.93055652855264 -664.99305615262347 0 0 0 0 -138.86857419180802 -175.84983298793122 0 -175.84983298793122 -484.66271721843975 0 0 0 0 -79.361788194208913 -341.07778203844828 0 -341.07778203844828 -598.42455891573809 0 0 0 0 -61.364007950909766 -190.44475825164773 0 -190.44475825164773 -680.76337744440934 0 0 0 0 -19.354456164484759 -242.88457302904681 0 -242.88457302904681 -1023.1295279275237 0 0 0 0 -405.04268999970702 -758.0460202388158 0 -758.0460202388158 -1460.1367232835173 0 0 0 0 -395.84957215575741 -738.09294272617626 0 -738.09294272617626 -543.11820526853808 0 0 0 0 -116.45475156355531 -197.83266806742995 0 -197.83266806742995 -788.51010060157205 0 0 0 0 -0.42517168499619684 1.233187486131385 0 1.233187486131385 -3.7317116444713676 0 0 0 0 -3.4254212263275594 3.8042259926142847 0 3.8042259926142847 -6.55990694497115 0 0 0 0 -67.152190463664056 -179.66588582232089 0 -179.66588582232089 17.125273402294624 0 0 0 0 -258.36819938500878 213.70795130061742 0 213.70795130061742 4.0981468543144217 0 0 0 0 -238.8796566929268 168.41129445995011 0 168.41129445995011 -1711.6757496906193 0 0 0 0 -187.46308403509806 -469.31073820507663 0 -469.31073820507663 -1824.0421229350704 0 0 0 0 -170.58677303882126 -316.85112761961136 0 -316.85112761961136 -933.59876167929724 0 0 0 0 -114.25750999139443 603.78632363719407 0 603.78632363719407 -549.01596453619277 0 0 0 0 -155.20915774500475 383.13665686726927 0 383.13665686726927 -444.39604311851872 0 0 0 0 170.33355832066695 385.50343006404182 0 385.50343006404182 -1500.5440062731759 0 0 0 0 155.8984910450479 132.02136758591223 0 132.02136758591223 -1033.4606547287058 0 0 0 0 202.3229352822899 -89.625493789277243 0 -89.625493789277243 -286.13856986974133 0 0 0 0 425.84678912631495 -331.66481597857864 0 -331.66481597857864 -1496.8351608861685 0 0 0 0 54.160910196205009 640.95231453058022 0 640.95231453058022 -320.88083638075449 0 0 0 0 48.59867431062267 -257.78157731368992 0 -257.78157731368992 -230.53650567456066 0 0 0 0 52.54355218352994 638.05554792920839 0 638.05554792920839 -439.10594257938646 0 0 0 0 -0.22301002403321896 1.9488930232145236 0 1.9488930232145236 -5.5658825484962406 0 0 0 0 149.8707572522533 473.20745231329875 0 473.20745231329875 -1496.6864570402136 0 0 0 0 119.65563085231652 -198.45990936452745 0 -198.45990936452745 -804.69902456655109 0 0 0 0 -9.2461076672115183 -50.578256664603032 0 -50.578256664603032 -852.27049196393818 0 0 0 0 141.59762127773061 -124.34762934653099 0 -124.34762934653099 -717.43588445505702 0 0 0 0 52.343812347274309 -124.97012833397639 0 -124.97012833397639 -586.5082423455533 0 0 0 0 150.12531770371879 -93.176973494661979 0 -93.176973494661979 -765.89437317180455 0 0 0 0 -0.43702865735718399 2.0761620898818602 0 2.0761620898818602 -5.3469436637412997 0 0 0 0 258.35913667127932 -279.20019596937027 0 -279.20019596937027 -998.46060700351518 0 0 0 0 -34.567959324830781 143.43825979742542 0 143.43825979742542 -1067.7530441236738 0 0 0 0 -418.86411230803134 40.55990225433743 0 40.55990225433743 -617.37724736767268 0 0 0 0 -408.52319829542387 5.6648949788532263 0 5.6648949788532263 -516.9099993275704 0 0 0 0 -118.80637546872082 232.74830721832222 0 232.74830721832222 -903.40989076193364 0 0 0 0 9.6316919424008898 511.91753255978665 0 511.91753255978665 -670.82061509816776 0 0 0 0 -0.23493556595763304 -0.034013258535897428 0 -0.034013258535897428 -3.5595690328499643 0 0 0 0 -525.70729494426496 -343.2698642194764 0 -343.2698642194764 -230.03432555882682 0 0 0 0 -211.21520597023522 34.434721471096054 0 34.434721471096054 -648.96165863356509 0 0 0 0 -81.886139819162196 -92.023470206041566 0 -92.023470206041566 -574.22507282169499 0 0 0 0 -133.68492821099636 -45.204556539685655 0 -45.204556539685655 35.160880690567865 0 0 0 0 -42.242454164467574 142.62649754170525 0 142.62649754170525 -223.39387889772752 0 0 0 0 -160.24804752971676 0.99974846009354223 0 0.99974846009354223 8.2985425237784511 0 0 0 0 -29.525178075729404 -76.20502422443586 0 -76.20502422443586 -27.592444109053758 0 0 0 0 -76.518465301729805 51.145329478582426 0 51.145329478582426 -255.40810513146084 0 0 0 0 -73.068747271132324 124.86663585548825 0 124.86663585548825 -624.88897938716036 0 0 0 0 -19.779452809244901 -76.53333970929998 0 -76.53333970929998 -263.60451488264516 0 0 0 0 37.897836253218543 -58.707728026764926 0 -58.707728026764926 -608.76489889116829 0 0 0 0 -4.9924148235778674 8.2270126824552356 0 8.2270126824552356 -10.104134309090426 0 0 0 0 -30.112817032661507 83.926160979684965 0 83.926160979684965 -143.09613615948911 0 0 0 0 -9.1605757031918529 -12.537949531134018 0 -12.537949531134018 -24.74392262078436 0 0 0 0 -1.2178204359606752 26.702475690330175 0 26.702475690330175 -9.6186742770187266 0 0 0 0 -0.20929944669043721 3.2837068556227678 0 3.2837068556227678 -18.736313116784004 0 0 0 0 -2.2351333862427332 1.0747389519334973 0 1.0747389519334973 -3.5594759989502478 0 0 0 0 1.6462653893140669 14.800854502734182 0 14.800854502734182 -10.121475560119507 0 0 0 0 0.11893005716842708 -5.6102769027493196 0 -5.6102769027493196 -11.675609881460332 0 0 0 0 -7.4790156121894142 -20.822413014951962 0 -20.822413014951962 -37.544284507701377 0 0 0 0 -2.5095861155485042 -2.5692030675008759 0 -2.5692030675008759 -5.1825425039994899 0 0 0 0 -0.15050946913034249 0.5608134834680385 0 0.5608134834680385 -1.452648754613687 0 0 0 0 -103.57020523983898 39.893081050739056 0 39.893081050739056 -5.221217907324899 0 0 0 0 -46.655801598872443 -108.22173456934979 0 -108.22173456934979 -25.874463440020918 0 0 0 0 -2.9503282862853202 6.0105215349095893 0 6.0105215349095893 -9.0600899561799153 0 0 0 0 -107.68771937691352 -33.780092935584889 0 -33.780092935584889 8.9685234884964302 0 0 0 0 -115.32104418229088 -42.330465932236621 0 -42.330465932236621 14.11418022616931 0 0 0 0 -1.6659277201769311 0.39911709549883412 0 0.39911709549883412 -2.3765866103694009 0 0 0 0 -15.501747770090176 9.7311189823308268 0 9.7311189823308268 -73.397061234583816 0 0 0 0 -161.24290383403735 -136.63596872048947 0 -136.63596872048947 -127.00295090758982 0 0 0 0 -260.98867784262541 -129.38307126257314 0 -129.38307126257314 -12.308256498652099 0 0 0 0 -177.71967448995883 91.186294858828205 0 91.186294858828205 36.374744772227132 0 0 0 0 0.54015926596665342 -0.043138061359858426 0 -0.043138061359858426 -9.7057218953014939 0 0 0 0 90.206637031195413 80.580910493895317 0 80.580910493895317 -43.835146947521935 0 0 0 0 -52.181106730603858 -73.230665475126443 0 -73.230665475126443 12.296631174751383 0 0 0 0 0.56701463803915431 7.3985510031925514 0 7.3985510031925514 -33.456404815432506 0 0 0 0 6.9226677301228392 -7.718588532047761 0 -7.718588532047761 -13.04545392808086 0 0 0 0 20.46497974531394 -34.388627411521156 0 -34.388627411521156 -112.18697413985683 0 0 0 0 -1.3084926855720695 0.39944928602569085 0 0.39944928602569085 -0.15415558056611189 0 0 0 0 -9.3905045292976865 -10.709914191147618 0 -10.709914191147618 -47.724505334175774 0 0 0 0 -1.6085943103722613 -4.48818723362713 0 -4.48818723362713 -8.9966768014756155 0 0 0 0 2.8147062405237193 37.974481581319196 0 37.974481581319196 -4.2055602825566893 0 0 0 0 -8.2611534747379665 1.8394291612448797 0 1.8394291612448797 21.812200183925597 0 0 0 0 -4.633078885009529 5.7175813325045581 0 5.7175813325045581 -9.5459203301681157 0 0 0 0 -6.6631265050745583 6.3526967016983917 0 6.3526967016983917 -1.0913739295901905 0 0 0 0 -48.398082979592431 -164.85614866865762 0 -164.85614866865762 -239.5719018462205 0 0 0 0 -5.9352600758646243 8.2370923466559294 0 8.2370923466559294 -9.690124640955581 0 0 0 0 -50.14930663092359 -65.80023710088517 0 -65.80023710088517 -294.86190845765213 0 0 0 0 77.226142544147251 -147.6885959066567 0 -147.6885959066567 -138.20244437441943 0 0 0 0 -172.9784476177856 74.447444346640623 0 74.447444346640623 90.626873983430414 0 0 0 0 -39.742091353201431 33.208738030012682 0 33.208738030012682 -37.414419164177161 0 0 0 0 7.1893741273247542 13.206309282304574 0 13.206309282304574 -61.69397727388241 0 0 0 0 12.063695396873982 -5.2270424680086762 0 -5.2270424680086762 -35.045231750362291 0 0 0 0 -9.4883812353082249 22.203902959490733 0 22.203902959490733 -45.548002442491452 0 0 0 0 4.4950489836401175 2.6126318236947554 0 2.6126318236947554 -21.48085246014125 0 0 0 0 -29.492564623153612 10.179229647670581 0 10.179229647670581 -0.53087925948966586 0 0 0 0 -6.6105075575082992 14.697644965996005 0 14.697644965996005 -27.072035121975205 0 0 0 0 -0.024019573817728901 0.34173390606665244 0 0.34173390606665244 -1.3909025532613342 0 0 0 0 -43.558911253367569 2.4206078312736281 0 2.4206078312736281 -3.6164530128426122 0 0 0 0 -52.486170067755324 8.2070089315411678 0 8.2070089315411678 -7.3655537438316969 0 0 0 0 -9.9187406233768343 -0.47573372587794438 0 -0.47573372587794438 -3.3681062862106046 0 0 0 0 -26.200383266186691 16.628852196328808 0 16.628852196328808 1.8959999678963868 0 0 0 0 -11.771719190245221 -1.7627943559436972 0 -1.7627943559436972 -2.1657403218086984 0 0 0 0 -9.0364630726556392 5.9525794194268737 0 5.9525794194268737 -3.1964409516038268 0 0 0 0 -10.988772558961955 -0.8469630941071955 0 -0.8469630941071955 -3.2399622898319649 0 0 0 0 24.329714229539604 39.219637170344868 0 39.219637170344868 -7.3171887176231394 0 0 0 0 -2.3480003701853427 -1.0340603383801437 0 -1.0340603383801437 3.1565681038353439 0 0 0 0 -11.036362627812998 10.095547028919583 0 10.095547028919583 -0.54018906974488345 0 0 0 0 -7.325622921052716 2.7303023460121505 0 2.7303023460121505 0.094111433123048371 0 0 0 0 -6.3396696639657133 2.8366203866341984 0 2.8366203866341984 -0.19328708402861849 0 0 0 0 -174.15939488878939 -12.751759918806783 0 -12.751759918806783 0.47890493741215323 0 0 0 0 -19.272140003002278 -12.594336780875892 0 -12.594336780875892 -6.5959942893887273 0 0 0 0 -8.4402289477266095 3.4630963252729998 0 3.4630963252729998 2.9140123810209388 0 0 0 0 -9.9613304450812166 0.21912867207970521 0 0.21912867207970521 1.430721376915244 0 0 0 0 -3.2140501872754994 1.8210741526841048 0 1.8210741526841048 -1.1780556149590531 0 0 0 0 -20.155393360459129 -8.2281741606157084 0 -8.2281741606157084 -1.7665490601611964 0 0 0 0 4.4896954226268315 3.4715019649451619 0 3.4715019649451619 -37.545294631976503 0 0 0 0 -21.780399585660689 -0.19896948513633106 0 -0.19896948513633106 17.748117794285463 0 0 0 0 -16.066737034405833 3.3059063872333354 0 3.3059063872333354 0.21339226975214842 0 0 0 0 -10.970745136516143 10.880754436365351 0 10.880754436365351 11.365985514205477 0 0 0 0 -10.702063500133681 0.22625228681567577 0 0.22625228681567577 -5.7052097209236461 0 0 0 0 -6.6902244654643326 -2.326770039398768 0 -2.326770039398768 -2.6597200135401877 0 0 0 0 -21.869933192172539 -3.2711373561687651 0 -3.2711373561687651 4.7055596980944756 0 0 0 0 -11.084767882232882 1.2486096555817312 0 1.2486096555817312 -4.1339520035289752 0 0 0 0 -11.022065829596613 1.5543175013283417 0 1.5543175013283417 -2.7729088473897718 0 0 0 0 -10.467862719178811 1.8662528429103986 0 1.8662528429103986 -4.7928973511743607 0 0 0 0 -6.2796410751616349 -4.5870787831008784 0 -4.5870787831008784 -12.231841614757286 0 0 0 0 -10.40624379957535 2.0977434730921232 0 2.0977434730921232 -3.9359176883954206 0 0 0 0 -7.3687510873041617 -0.91413969598119138 0 -0.91413969598119138 -7.8839822900810539 0 0 0 0 162.30469075932069 151.09394640807159 0 151.09394640807159 -131.77639224911945 0 0 0 0 0.34670191251461802 -2.9446856162485346 0 -2.9446856162485346 -22.222185604863625 0 0 0 0 -10.568068130612582 2.9240002004650041 0 2.9240002004650041 -15.42241447812961 0 0 0 0 -14.593163408106193 6.7947950041075273 0 6.7947950041075273 263.57929931528997 0 0 0 0 0.17302283779621064 0.027316813514688398 0 0.027316813514688398 -6.5219030230712818 0 0 0 0 -10.890613507187936 -7.609264971041739 0 -7.609264971041739 -12.987399949976862 0 0 0 0 -18.613205456491414 6.6281477140564675 0 6.6281477140564675 -8.5474513424433098 0 0 0 0 -0.92716533964088832 1.0261559909505129 0 1.0261559909505129 -4.2389427718389499 0 0 0 0 -23.70776909536653 -8.3045982995788563 0 -8.3045982995788563 -1.5777754230221035 0 0 0 0 -34.796842130512232 -2.4161784685204566 0 -2.4161784685204566 0.11456691032071831 0 0 0 0 -36.205661090298236 -4.3438182257959852 0 -4.3438182257959852 -1.8165537845470681 0 0 0 0 -38.618861488943367 12.409894628230177 0 12.409894628230177 -8.5005475163161464 0 0 0 0 -1.1669600350582527 0.70819625242424777 0 0.70819625242424777 -0.87104501798132894 0 0 0 0 -14.08616801486354 0.54672411971012025 0 0.54672411971012025 -0.39549029216030807 0 0 0 0 -30.971039876663781 9.9717662072471285 0 9.9717662072471285 -9.4460354797711261 0 0 0 0 122.21367483956055 25.634978310098631 0 25.634978310098631 -17.915212334845137 0 0 0 0 -56.507998223380127 2.010949432513371 0 2.010949432513371 1.846593888134521 0 0 0 0 -45.910556262067985 1.3644373907627596 0 1.3644373907627596 -0.98050123603752581 0 0 0 0 -31.732044013955601 -7.7071374536990334 0 -7.7071374536990334 -1.6768463061325747 0 0 0 0 -52.191736298441811 -11.200003456288869 0 -11.200003456288869 0.75797883113409625 0 0 0 0 -38.32754979146921 -12.077206812689838 0 -12.077206812689838 -1.271033377148342 0 0 0 0 2.367874334428052 -8.4832674113677058 0 -8.4832674113677058 -9.6710579181362846 0 0 0 0 -24.562067146755453 -7.2387264117508039 0 -7.2387264117508039 -2.0438814761655522 0 0 0 0 -35.829716754617039 -7.6278693072099486 0 -7.6278693072099486 1.7502964551567857 0 0 0 0 -18.136698988376338 21.138906143195527 0 21.138906143195527 4.5620554880806594 0 0 0 0 -12.63555223651565 29.960437314616684 0 29.960437314616684 -3.8317079214102705 0 0 0 0 26.714996564183821 10.918608334208329 0 10.918608334208329 -14.014249869451305 0 0 0 0 1.5332278118421527 9.2497373632049857 0 9.2497373632049857 -10.866637178894052 0 0 0 0 -18.769109852463089 5.0591914902481676 0 5.0591914902481676 1.9138604398831376 0 0 0 0 -5.3950176538392043 22.151181600061136 0 22.151181600061136 2.5477167182916673 0 0 0 0 -25.919498126484541 18.501072692605248 0 18.501072692605248 11.836199235156528 0 0 0 0 -31.945661373913026 1.6545025221548713 0 1.6545025221548713 1.0832340035367451 0 0 0 0 -20.211748535230072 12.151957758570916 0 12.151957758570916 7.5874994481982867 0 0 0 0 -51.414985504625292 3.0395301666794694 0 3.0395301666794694 16.10030925474166 0 0 0 0 -33.733685245118977 -14.260811612501129 0 -14.260811612501129 -4.7689473562149942 0 0 0 0 -28.314885151161434 -3.3718368078734784 0 -3.3718368078734784 3.795916134644358 0 0 0 0 -39.005013942321057 -9.3590336254437716 0 -9.3590336254437716 -0.41316316320808255 0 0 0 0 -39.901492371212953 -7.5764693616183649 0 -7.5764693616183649 5.9219264791204296 0 0 0 0 -46.792112853879189 -19.322198441390356 0 -19.322198441390356 -2.3964070002784865 0 0 0 0 -43.875068578590799 -10.044976482759921 0 -10.044976482759921 1.0424651132334475 0 0 0 0 -58.156405536069769 -27.919032650972781 0 -27.919032650972781 -16.225396212990745 0 0 0 0 -28.403962032740765 17.570291012174948 0 17.570291012174948 10.431554188693553 0 0 0 0 -68.869039322397271 11.735989364486159 0 11.735989364486159 17.451062096306487 0 0 0 0 -71.231749135738028 7.3542704570809292 0 7.3542704570809292 -49.660732351858314 0 0 0 0 -13.588236756081187 -42.91511066204589 0 -42.91511066204589 -105.64612081843734 0 0 0 0 -96.791535017326169 -31.358772741324174 0 -31.358772741324174 -13.35812446974569 0 0 0 0 0.64559960471370736 -0.080192611928527668 0 -0.080192611928527668 -1.5348974334538994 0 0 0 0 0.94940589862754798 0.025835398223842176 0 0.025835398223842176 -2.2931708540119544 0 0 0 0 -4.4219815584283424 49.928215689370063 0 49.928215689370063 4.5562565619711677 0 0 0 0 0.27229993628571769 5.1510561599139884 0 5.1510561599139884 -25.584638470288205 0 0 0 0 222.23786184926917 247.26632015588874 0 247.26632015588874 -30.55035078513356 0 0 0 0 5.0679384031445807 11.868835668887186 0 11.868835668887186 -24.109393844143142 0 0 0 0 74.278414368546237 -130.27061430389358 0 -130.27061430389358 -121.42536708962143 0 0 0 0 196.44050512292051 -36.811949390241125 0 -36.811949390241125 -214.40497291075189 0 0 0 0 18.840243750522859 -41.633620875597217 0 -41.633620875597217 -242.01585932959824 0 0 0 0 55.359584906098462 -136.26720252725522 0 -136.26720252725522 -5.5585099510071814 0 0 0 0 -0.89226790818569235 3.931687226952425 0 3.931687226952425 -16.751176280194301 0 0 0 0 -23.731508605496856 144.59136440788598 0 144.59136440788598 128.48273112941229 0 0 0 0 19.144906919387722 -36.58636851063784 0 -36.58636851063784 -63.801452580817568 0 0 0 0 -56.839123690300767 12.700113075846502 0 12.700113075846502 -75.18121540496395 0 0 0 0 -69.173497361569389 3.78649507028058 0 3.78649507028058 224.52406702972803 0 0 0 0 -21.954322137944473 -27.777586166972469 0 -27.777586166972469 1.065175866782738 0 0 0 0 0.29466090216198637 0.69933285555530578 0 0.69933285555530578 -2.6552813591443041 0 0 0 0 -60.289551024396452 -48.200041961465558 0 -48.200041961465558 10.283121032216513 0 0 0 0 -34.226900358932824 -19.949591732109184 0 -19.949591732109184 9.3118161356342171 0 0 0 0 -177.62709939829165 -104.85099141129194 0 -104.85099141129194 -27.935381207480532 0 0 0 0 49.02519606784881 -100.6093390438391 0 -100.6093390438391 -157.01644229716294 0 0 0 0 -74.787859852084694 4.287577636120659 0 4.287577636120659 -7.2768438542316289 0 0 0 0 -180.17645681135167 78.36984853246031 0 78.36984853246031 -39.565796674350167 0 0 0 0 -36.110344021887613 13.665074474909488 0 13.665074474909488 -12.533765211755963 0 0 0 0 54.238242948403808 64.69914030882137 0 64.69914030882137 11.009183789182316 0 0 0 0 -2.107858401756352 7.7298122485088774 0 7.7298122485088774 -20.108533483131751 0 0 0 0 21.736997593354999 7.1388033644598181 0 7.1388033644598181 -72.283659125363556 0 0 0 0 -6.9978537298056835 25.024049781146459 0 25.024049781146459 8.7759614829647035 0 0 0 0 10.604998019291997 30.770203776454764 0 30.770203776454764 -1.1414629705177504 0 0 0 0 -3.3341061433888863 8.7183040208423712 0 8.7183040208423712 -21.2870163744381 0 0 0 0 22.943558002217742 15.161409857388207 0 15.161409857388207 -37.08965151047596 0 0 0 0 6.4607236363926859 22.020282491865146 0 22.020282491865146 7.3288777277566624 0 0 0 0 -9.471748008342729 31.263969117921988 0 31.263969117921988 15.587809974282209 0 0 0 0 -26.687606268389573 12.662826977469194 0 12.662826977469194 21.695032028120522 0 0 0 0 -61.071062661884298 -18.192914707869932 0 -18.192914707869932 -16.112188081983732 0 0 0 0 -60.578903363207246 55.831441777659165 0 55.831441777659165 17.159315669432544 0 0 0 0 40.962645791599698 21.901524551976763 0 21.901524551976763 14.705514609521742 0 0 0 0 -8.3393228018864534 56.187293138417886 0 56.187293138417886 31.50489765788916 0 0 0 0 -83.035707006281314 -18.829391135803235 0 -18.829391135803235 -14.377152424713131 0 0 0 0 97.694145750112966 118.60062082941636 0 118.60062082941636 10.070289577050062 0 0 0 0 -0.93730464006149994 6.1432686479907836 0 6.1432686479907836 -18.269075400696202 0 0 0 0 -55.629788445754031 -28.140844782589284 0 -28.140844782589284 -12.136085110190834 0 0 0 0 -53.235556791050314 -32.835093880109071 0 -32.835093880109071 -37.81972919425607 0 0 0 0 0.75817517787649091 4.0772864694693212 0 4.0772864694693212 -15.532760577387883 0 0 0 0 -31.082575798448147 -26.740399158406944 0 -26.740399158406944 -41.233138940180652 0 0 0 0 -14.931033200390175 41.009041230138791 0 41.009041230138791 56.995168921222557 0 0 0 0 137.15225083004157 99.351421583741285 0 99.351421583741285 -47.162281220635123 0 0 0 0 -6.8073004190330266 -40.828603893997752 0 -40.828603893997752 -7.9269566345649309 0 0 0 0 -112.65034172467267 -174.36994315621632 0 -174.36994315621632 -214.834321964222 0 0 0 0 3.4704684302246278 -12.661816331951627 0 -12.661816331951627 -55.333960900394231 0 0 0 0 -88.763121616333137 53.466097727020497 0 53.466097727020497 -102.73149220765754 0 0 0 0 -42.201280243827512 157.28424205822864 0 157.28424205822864 84.812118905647367 0 0 0 0 -28.991399011391309 90.887878761740694 0 90.887878761740694 -34.573715977014217 0 0 0 0 1.0788209114043585 0.60177403051312162 0 0.60177403051312162 -2.8413853102498479 0 0 0 0 -18.788506864225383 -19.67988035678809 0 -19.67988035678809 -245.23582137352787 0 0 0 0 -18.772892274922469 -49.050270829628971 0 -49.050270829628971 -13.111058113081981 0 0 0 0 76.929166722858326 73.99599966466667 0 73.99599966466667 -32.290380266735156 0 0 0 0 -33.455151450995857 2.8703381708073721 0 2.8703381708073721 -79.09922863398242 0 0 0 0 1.5044687069018039 1.7908723936744551 0 1.7908723936744551 -6.0462881603496754 0 0 0 0 -107.47487649636014 -170.78944499822319 0 -170.78944499822319 -153.44022728352184 0 0 0 0 -83.473825736660956 -33.729541326042636 0 -33.729541326042636 -30.617049994822082 0 0 0 0 11.647690074419529 -10.111010811105189 0 -10.111010811105189 -95.77579190830329 0 0 0 0 137.30030493611645 39.429610836711618 0 39.429610836711618 -66.570726868252677 0 0 0 0 59.567763828177476 40.307730320042538 0 40.307730320042538 42.941389220257406 0 0 0 0 14.266131380025882 -54.481292429984023 0 -54.481292429984023 -72.992263307976827 0 0 0 0 0.7021558667727632 3.9056439311172229 0 3.9056439311172229 -24.450392827279749 0 0 0 0 170.36203313036503 43.135632078820549 0 43.135632078820549 -440.23570266040588 0 0 0 0 26.156918477327963 -371.24968975820616 0 -371.24968975820616 -148.29299903445826 0 0 0 0 -99.291781288899074 -207.01108765022764 0 -207.01108765022764 -347.48775895398853 0 0 0 0 -469.85913438937678 -302.62848111003905 0 -302.62848111003905 -319.48233637076555 0 0 0 0 -210.60537698816188 -219.6552845776605 0 -219.6552845776605 -691.29135042926828 0 0 0 0 -545.79219250974711 -145.639737983136 0 -145.639737983136 -583.84623559479223 0 0 0 0 -499.7383342575248 -644.58074395068172 0 -644.58074395068172 -497.87773330561413 0 0 0 0 -1.0515834115668632 5.4272261916317701 0 5.4272261916317701 -16.823500816402635 0 0 0 0 -238.61681122688515 -510.73672878645561 0 -510.73672878645561 -599.54004297986012 0 0 0 0 -429.02909508941002 -539.63735296463517 0 -539.63735296463517 -706.72034774176018 0 0 0 0 -407.7784194741489 -439.22288882047678 0 -439.22288882047678 -136.67711093517755 0 0 0 0 -273.56150600212095 -254.53266562666568 0 -254.53266562666568 -153.07384502998957 0 0 0 0 -209.64795696681813 -207.74384244260455 0 -207.74384244260455 -535.34194536342056 0 0 0 0 -181.72899341263383 -128.79901094145453 0 -128.79901094145453 -130.75543257344907 0 0 0 0 -97.02477308034122 75.192008207681511 0 75.192008207681511 5.4143724211862718 0 0 0 0 -246.99653349667005 -231.6477393100655 0 -231.6477393100655 -211.97004677631776 0 0 0 0 -238.81111596700066 -132.17973219250416 0 -132.17973219250416 366.78730567130242 0 0 0 0 -154.75414005823859 65.376103440272345 0 65.376103440272345 57.983036395183262 0 0 0 0 4.5222387100493506 1.7351078794581554 0 1.7351078794581554 -101.50990954364624 0 0 0 0 -126.50605747843997 -64.392583120990253 0 -64.392583120990253 -68.898398881086905 0 0 0 0 -90.64949095917018 -82.349787402036782 0 -82.349787402036782 -72.6616396480822 0 0 0 0 -16.011938755502342 -1.8028525634981634 0 -1.8028525634981634 -101.76339016047041 0 0 0 0 138.43052749311846 73.206807815062348 0 73.206807815062348 -54.176778268009912 0 0 0 0 -3.7327059043182089 -46.472467587705069 0 -46.472467587705069 36.891559158673772 0 0 0 0 -63.94731086228694 49.324740799105712 0 49.324740799105712 74.188998388579421 0 0 0 0 -60.826756097059842 64.42081889315341 0 64.42081889315341 -26.334011288246984 0 0 0 0 -61.939011724384272 54.285008129261541 0 54.285008129261541 0.34554868907434866 0 0 0 0 -93.936570367325658 -11.033802518293669 0 -11.033802518293669 -192.36541993671563 0 0 0 0 -116.70247895554803 33.889411164534977 0 33.889411164534977 20.533212927552086 0 0 0 0 11.665433561805003 61.534361650168648 0 61.534361650168648 -253.86866113401265 0 0 0 0 -73.525452359779592 62.805475612853115 0 62.805475612853115 4.8925535986827526 0 0 0 0 21.825732106211035 33.97047422050673 0 33.97047422050673 -354.15724411010888 0 0 0 0 21.741319688846488 109.16731945050105 0 109.16731945050105 -69.794431621570766 0 0 0 0 0.79879793605053351 0.014118091782064468 0 0.014118091782064468 -11.260841368577019 0 0 0 0 -572.10443643847566 -808.8411609277814 0 -808.8411609277814 -472.57128156124963 0 0 0 0 -34.628519130696077 -56.765852425000048 0 -56.765852425000048 7.0420814943681762 0 0 0 0 -601.57776939393352 -620.74977690719152 0 -620.74977690719152 -538.2503501052106 0 0 0 0 -34.747942271560078 -53.150739634023182 0 -53.150739634023182 116.9110906535534 0 0 0 0 1.758365540460769 -2.0059702448045007 0 -2.0059702448045007 0.62374575101905805 0 0 0 0 -653.19868895703803 -486.18925234406925 0 -486.18925234406925 -89.589003815890464 0 0 0 0 4.5153301537843014 -7.2201354052207041 0 -7.2201354052207041 -1.9710856440977835 0 0 0 0 -626.68085122491198 -642.40888143244922 0 -642.40888143244922 -378.64508460290745 0 0 0 0 -699.23137748024601 -388.84601757996825 0 -388.84601757996825 -355.65249345105258 0 0 0 0 -334.18461696034865 -156.32911293492907 0 -156.32911293492907 -625.3763979309515 0 0 0 0 -291.85143175135636 82.355007997594839 0 82.355007997594839 -60.727406020932904 0 0 0 0 -373.45139725413219 -361.40945703903913 0 -361.40945703903913 -928.99935407312296 0 0 0 0 -1220.7370340360139 -764.598257363421 0 -764.598257363421 -609.38517633640731 0 0 0 0 -0.38730209378733171 2.2286867970782467 0 2.2286867970782467 -1.5937788902962282 0 0 0 0 54.701852390083332 -54.570445573282996 0 -54.570445573282996 -44.664454448637116 0 0 0 0 165.07887694694364 39.472624205068911 0 39.472624205068911 -55.182599326570369 0 0 0 0 0.66856195752917724 -2.6839918263409466 0 -2.6839918263409466 -48.124465221232001 0 0 0 0 173.11992693986758 51.255209806231846 0 51.255209806231846 -76.8821332182915 0 0 0 0 166.88405451802828 46.294293242790246 0 46.294293242790246 -72.594455827801937 0 0 0 0 168.23746009239767 80.978349852640918 0 80.978349852640918 -201.2697120311401 0 0 0 0 120.15257907851083 125.41107062843139 0 125.41107062843139 -17.517359187880515 0 0 0 0 139.85865067321538 90.797423556088688 0 90.797423556088688 -91.328916529870469 0 0 0 0 151.03736579551878 61.342437448761359 0 61.342437448761359 -14.109370968360281 0 0 0 0 110.59710080488912 84.894429560200777 0 84.894429560200777 25.508671227334844 0 0 0 0 109.32122317206813 76.902199290242038 0 76.902199290242038 -16.775597024786862 0 0 0 0 176.88966022175009 145.22073007121298 0 145.22073007121298 68.962111315457832 0 0 0 0 239.5224829861927 104.29302808132343 0 104.29302808132343 85.367633379035624 0 0 0 0 -0.3526288145727392 1.5516616913198851 0 1.5516616913198851 -3.8357293524293441 0 0 0 0 -304.80911471532363 -704.87410438459585 0 -704.87410438459585 -849.84492072431294 0 0 0 0 -539.40397700057019 -431.65374155331699 0 -431.65374155331699 -273.71746829684162 0 0 0 0 -395.4100926527608 -110.79245852058648 0 -110.79245852058648 -227.37734214997499 0 0 0 0 -70.510877361563871 12.402472369868008 0 12.402472369868008 93.073319356125239 0 0 0 0 -74.379093551496226 -96.9728024929002 0 -96.9728024929002 -145.55835012072203 0 0 0 0 258.86571453824763 5.1093413573141788 0 5.1093413573141788 134.35108644490492 0 0 0 0 137.21133477479816 111.07472247808437 0 111.07472247808437 -216.27941047841114 0 0 0 0 158.84157010404215 51.715821200546173 0 51.715821200546173 121.39157744375416 0 0 0 0 0.82516311304064693 -0.28592605769312129 0 -0.28592605769312129 -5.6873314762423002 0 0 0 0 183.43672968146893 90.541007441855328 0 90.541007441855328 -7.5437265360975516 0 0 0 0 127.77923041278427 -123.50957305474222 0 -123.50957305474222 44.363865423297298 0 0 0 0 169.19814854575611 35.143839005137593 0 35.143839005137593 -57.215301271175747 0 0 0 0 14.355055629524031 59.483112404541203 0 59.483112404541203 -58.794827334161567 0 0 0 0 0.47232246688208868 0.23837779182395913 0 0.23837779182395913 -2.5548409624283126 0 0 0 0 -18.728355405498405 138.73184949206308 0 138.73184949206308 -240.15774118318518 0 0 0 0 -26.207631319498432 -178.50675517645243 0 -178.50675517645243 -109.15238840967123 0 0 0 0 -27.789736013687616 -101.31953937877854 0 -101.31953937877854 -197.03060998232081 0 0 0 0 -32.10045647575771 -26.706990219804112 0 -26.706990219804112 11.874511964437971 0 0 0 0 24.336825053845132 -10.991019060225879 0 -10.991019060225879 -405.68027468791684 0 0 0 0 -87.369488627436112 -199.10424828857907 0 -199.10424828857907 -340.97712691169988 0 0 0 0 7.9558009414413391 -122.11475053552726 0 -122.11475053552726 -278.79730479003433 0 0 0 0 6.4840749396553292 -112.95725749905068 0 -112.95725749905068 -193.82529303976924 0 0 0 0 -20.238857891560428 -4.2563245542117478 0 -4.2563245542117478 -62.422337963673954 0 0 0 0 -1.4353550846635983 -1.962848450181887 0 -1.962848450181887 -2.0209190391524192 0 0 0 0 57.874590505901097 87.057743363841709 0 87.057743363841709 -581.66442356035168 0 0 0 0 12.659908085978714 -96.429343725298139 0 -96.429343725298139 -401.77356627980328 0 0 0 0 -2.510927618551932 -3.5583845059305816 0 -3.5583845059305816 -3.4585593491729294 0 0 0 0 -18.131150102719403 3.1799817858702681 0 3.1799817858702681 -21.901345931823698 0 0 0 0 26.716352282904154 12.678084081955205 0 12.678084081955205 -16.851743408803841 0 0 0 0 -29.887014125732094 8.100812615999132 0 8.100812615999132 9.5830665880439483 0 0 0 0 -10.369075452138532 -29.803632512426361 0 -29.803632512426361 -55.543787836659853 0 0 0 0 -58.155566214016289 30.060570360251745 0 30.060570360251745 3.68264662512928 0 0 0 0 -0.47550158381620378 -1.8247779172362719 0 -1.8247779172362719 -2.395877944679544 0 0 0 0 -0.38031321582121436 -1.3276903686480708 0 -1.3276903686480708 -1.0696227799444409 0 0 0 0 -25.158571212346942 57.556682792223 0 57.556682792223 -531.31336906482875 0 0 0 0 -108.75085348311404 -88.02190260721818 0 -88.02190260721818 -69.110006561925729 0 0 0 0 -60.339305003079971 -1.4073119747988585 0 -1.4073119747988585 -499.14787873518299 0 0 0 0 33.054121810450397 98.918378677867054 0 98.918378677867054 -547.65477736205821 0 0 0 0 44.654730071197264 96.00307814845246 0 96.00307814845246 -551.84273580686522 0 0 0 0 2.2863030552477994 -3.3151451059337944 0 -3.3151451059337944 -24.885689452769952 0 0 0 0 1.6231661567064748 -1.4231720518733084 0 -1.4231720518733084 -29.405847989864185 0 0 0 0 2.378787023323639 2.2047185391781738 0 2.2047185391781738 -29.821240187780788 0 0 0 0 -3.6021583834281046 0.78175590099834835 0 0.78175590099834835 -26.138640556226889 0 0 0 0 -8.3538305523834424 -1.0075067696415658 0 -1.0075067696415658 -21.578272930416546 0 0 0 0 -2.2657222895568339 -1.713448470907796 0 -1.713448470907796 -21.595946200114803 0 0 0 0 -9.4106734648667043 -3.8356921511884252 0 -3.8356921511884252 -19.65285797573182 0 0 0 0 -5.0340006953242664 -5.5298444756177503 0 -5.5298444756177503 -19.191922026215991 0 0 0 0 -5.4224505946282697 -6.1785268570855285 0 -6.1785268570855285 -4.3720210881343586 0 0 0 0 -185.37254412336006 -41.453588521012932 0 -41.453588521012932 109.0127673007095 0 0 0 0 -0.90573030485991524 -1.7029501617782601 0 -1.7029501617782601 -1.2473857720580637 0 0 0 0 -3.3312262935297561 -4.2414528740020412 0 -4.2414528740020412 -2.2857722587337674 0 0 0 0 155.13033099215227 154.81874060932944 0 154.81874060932944 -536.8199219792491 0 0 0 0 83.186040826496537 -22.214182193691215 0 -22.214182193691215 -99.368823942163203 0 0 0 0 35.617775305296618 -35.485393230385256 0 -35.485393230385256 3.4318417574859481 0 0 0 0 55.193006809042345 34.909611519578462 0 34.909611519578462 -45.621693233311007 0 0 0 0 81.706698754290016 -12.14009756959414 0 -12.14009756959414 -156.39979579907867 0 0 0 0 52.599189139785892 51.737982963015391 0 51.737982963015391 -141.21385330509008 0 0 0 0 -28.817501114402148 46.426586767820311 0 46.426586767820311 -66.948473806940143 0 0 0 0 -19.697799306927664 32.935573712845382 0 32.935573712845382 -346.87847109386303 0 0 0 0 -174.04210530680575 360.62041491740456 0 360.62041491740456 -747.21613796345628 0 0 0 0 -176.76343017646332 -60.575543606657618 0 -60.575543606657618 260.81691921864495 0 0 0 0 -28.290680664545107 277.99089518256551 0 277.99089518256551 -358.60837724733574 0 0 0 0 65.413466016748316 40.776499202491777 0 40.776499202491777 -66.780591618072407 0 0 0 0 -85.557493994793731 105.3677525230255 0 105.3677525230255 -2.5484670670883816 0 0 0 0 0.32457524738647692 -0.20759466843671248 0 -0.20759466843671248 -0.059544720666530715 0 0 0 0 24.409502671935797 60.288305539706769 0 60.288305539706769 18.319443467881456 0 0 0 0 10.077272144457311 10.148873892152551 0 10.148873892152551 -35.134969452125233 0 0 0 0 18.567283851448337 30.373730531335269 0 30.373730531335269 -37.2373356261281 0 0 0 0 -0.10058454925733074 4.0852657351564314 0 4.0852657351564314 1.4139753881243515 0 0 0 0 3.809438119642806 -1.7929230822684152 0 -1.7929230822684152 -3.8310000546302856 0 0 0 0 4.0466199525462798 -32.202897090768374 0 -32.202897090768374 -36.658613309876728 0 0 0 0 14.236724383353931 39.701438359400555 0 39.701438359400555 -18.834804339951006 0 0 0 0 -255.88429064568527 159.82910613223726 0 159.82910613223726 -76.10821741394102 0 0 0 0 -53.965232426091461 -13.666853758890738 0 -13.666853758890738 -27.825957361937526 0 0 0 0 -241.31218906141703 196.09809158621692 0 196.09809158621692 13.526270293268908 0 0 0 0 -242.08656564227431 215.77348498530478 0 215.77348498530478 -135.84868224608636 0 0 0 0 -702.52651434872223 213.06249601190166 0 213.06249601190166 -114.97054715845934 0 0 0 0 -7.7830492508110183 4.5589391292842265 0 4.5589391292842265 -10.937553013343972 0 0 0 0 -13.107625572052541 1.0618232070135809 0 1.0618232070135809 -20.531908999307234 0 0 0 0 -6.4244159040290949 7.3781481085502687 0 7.3781481085502687 -6.4494677308484816 0 0 0 0 -8.2022417851594582 -1.409987363667824 0 -1.409987363667824 -20.509740169255792 0 0 0 0 -8.828698727779738 -0.83904125953768016 0 -0.83904125953768016 -20.026864125160557 0 0 0 0 -9.1577636024985622 -0.24511135833782305 0 -0.24511135833782305 -20.861442025313465 0 0 0 0 16.221093274820248 8.1289651367650606 0 8.1289651367650606 -31.915364083751683 0 0 0 0 -6.0014518714913265 6.8527409825172469 0 6.8527409825172469 -23.133605167931478 0 0 0 0 2.3563611871268222 3.6894470140825888 0 3.6894470140825888 -25.192466928406247 0 0 0 0 -1.0781856921930739 12.086380002390968 0 12.086380002390968 -29.828964570865423 0 0 0 0 -13.550034036174111 7.9122573778666947 0 7.9122573778666947 -22.882288052324327 0 0 0 0 -8.7102718128188155 10.579874332433825 0 10.579874332433825 -5.1610736963030188 0 0 0 0 -0.040710337389100459 10.297217809493077 0 10.297217809493077 -17.306410146765302 0 0 0 0 -3.092824095927007 5.4825454093511574 0 5.4825454093511574 -2.5670386577666191 0 0 0 0 -13.11509030509751 5.9154193393071637 0 5.9154193393071637 -13.256825475954884 0 0 0 0 7.908652887982754 4.8090201936272283 0 4.8090201936272283 -4.9973871999513948 0 0 0 0 -12.009892509401082 11.710482138156449 0 11.710482138156449 -6.9260018743444363 0 0 0 0 -19.970197099893028 15.188009465750838 0 15.188009465750838 138.01424369621782 0 0 0 0 -50.695833753059333 19.726005260637976 0 19.726005260637976 23.761415755776397 0 0 0 0 0.54169754437616413 5.2089626109900173 0 5.2089626109900173 -3.0386177258340936 0 0 0 0 -9.7221712524656461 3.3484306560439929 0 3.3484306560439929 -2.3780408136616504 0 0 0 0 1.4645491265691817 28.517942974836842 0 28.517942974836842 -22.785705689526367 0 0 0 0 -17.14785079638375 2.9140121589721275 0 2.9140121589721275 -15.212906202157683 0 0 0 0 18.50229984158068 14.573690636213541 0 14.573690636213541 -7.2733337368963475 0 0 0 0 -10.412469565740821 2.5695713842978876 0 2.5695713842978876 -10.085541331443892 0 0 0 0 -10.137680581753557 4.8780230089514589 0 4.8780230089514589 -9.3595231974159105 0 0 0 0 -10.376504192911852 2.8197924368762415 0 2.8197924368762415 -11.527356251391211 0 0 0 0 -12.455873515182248 3.7062636662958539 0 3.7062636662958539 -10.576136133611271 0 0 0 0 -20.698604221746677 -16.472220788913319 0 -16.472220788913319 34.891344396463865 0 0 0 0 -14.382079912059453 2.4849354386387859 0 2.4849354386387859 18.92660044325612 0 0 0 0 -11.663545420798073 3.4797464553266764 0 3.4797464553266764 -11.860550732425054 0 0 0 0 -10.902455106199913 1.4743203575507184 0 1.4743203575507184 1.1226293108101055 0 0 0 0 -12.169479203793799 -11.668217808023655 0 -11.668217808023655 12.251170432885374 0 0 0 0 -12.05051840571651 1.371409521822498 0 1.371409521822498 -0.3749461170661017 0 0 0 0 -12.042706837146397 3.6719127525907425 0 3.6719127525907425 -11.804757661691383 0 0 0 0 -11.973011121817763 3.1714048063695373 0 3.1714048063695373 -11.436605785261463 0 0 0 0 -15.929860852114871 -4.0039733715057082 0 -4.0039733715057082 -1.5274533897536458 0 0 0 0 -9.352503404963814 -2.7512528780931085 0 -2.7512528780931085 -6.3476901456160295 0 0 0 0 -11.572202929569357 3.1746553521306851 0 3.1746553521306851 -12.503683094660119 0 0 0 0 -7.1141268994420681 1.5938527453447291 0 1.5938527453447291 -1.7504541035303305 0 0 0 0 -7.934915432041139 1.4347426938039129 0 1.4347426938039129 -3.5415410539180989 0 0 0 0 -9.2815477439648539 0.18064536652961394 0 0.18064536652961394 -2.1305951671309566 0 0 0 0 -11.637777529429513 3.7409599699722094 0 3.7409599699722094 -12.585949301809706 0 0 0 0 -56.947947965999901 -145.81129089787964 0 -145.81129089787964 45.37085025829083 0 0 0 0 -10.186069012662024 -1.9706621916265838 0 -1.9706621916265838 0.49051438566005423 0 0 0 0 85.925926290594361 18.607258857137367 0 18.607258857137367 -60.31345305451805 0 0 0 0 -11.762238414821695 3.4361620022586976 0 3.4361620022586976 -11.744064024152067 0 0 0 0 -96.262638422798773 -44.52584901968703 0 -44.52584901968703 23.117517506809236 0 0 0 0 -12.426977787930809 4.4453577776771454 0 4.4453577776771454 -12.166045795040191 0 0 0 0 -116.77884941531011 181.80738016163968 0 181.80738016163968 133.15227559296727 0 0 0 0 5.6238727245072369 21.981010689065442 0 21.981010689065442 -133.86244279564701 0 0 0 0 88.623700137862215 -81.389258817922382 0 -81.389258817922382 -450.94964730819629 0 0 0 0 207.17469220125531 141.39071154515364 0 141.39071154515364 -325.06481930457267 0 0 0 0 119.9592256948672 238.92256599922257 0 238.92256599922257 -144.54716225693301 0 0 0 0 -1.6651822520276482 -0.88748256120683955 0 -0.88748256120683955 -0.10619144288790627 0 0 0 0 -153.74760956970567 20.316463967635173 0 20.316463967635173 207.1868400842834 0 0 0 0 8.9474167700163889 65.871323839375123 0 65.871323839375123 55.785524024283404 0 0 0 0 -136.76155365824161 -53.475013923403822 0 -53.475013923403822 -60.56285679068651 0 0 0 0 -123.32144927664558 0.68953321322806005 0 0.68953321322806005 78.241266327232779 0 0 0 0 -119.81335803288312 66.743052405647177 0 66.743052405647177 -74.983850813452591 0 0 0 0 -150.38496742489406 -27.586266987436375 0 -27.586266987436375 3.4445361897251132 0 0 0 0 -161.25686103015505 -118.15278941768383 0 -118.15278941768383 -98.520782391506827 0 0 0 0 -167.24790230011422 -13.412883803909608 0 -13.412883803909608 -95.107718492904496 0 0 0 0 -94.164958698806913 -56.963180673976922 0 -56.963180673976922 -437.82668671211195 0 0 0 0 44.556281811783265 -79.929677276314578 0 -79.929677276314578 -437.37584078635155 0 0 0 0 -80.753615730851379 -131.55073447552923 0 -131.55073447552923 -377.21815570473518 0 0 0 0 60.704598534928664 -79.961592122940147 0 -79.961592122940147 -568.44042119936739 0 0 0 0 193.0344168084921 -360.35374375124252 0 -360.35374375124252 -522.23487054818133 0 0 0 0 155.53776983163425 87.564498461990411 0 87.564498461990411 -367.71614885879353 0 0 0 0 110.58246838759169 98.499504642915781 0 98.499504642915781 -334.24248242778322 0 0 0 0 0.89482082424481924 0.12620368856556041 0 0.12620368856556041 -3.6581470349800274 0 0 0 0 134.55679187031637 32.766516294343887 0 32.766516294343887 -506.95400231343365 0 0 0 0 37.672659748426668 184.76274395331734 0 184.76274395331734 -436.25746361418896 0 0 0 0 -12.54660763604079 -3.3724749784838934 0 -3.3724749784838934 -18.797017510688249 0 0 0 0 -12.308011534965317 -3.8930449149284314 0 -3.8930449149284314 -17.832819487168166 0 0 0 0 -9.79773169144738 -5.0860957976020806 0 -5.0860957976020806 -4.8002813884388154 0 0 0 0 -5.0865252590007479 5.9533194142426034 0 5.9533194142426034 -8.5939461563419943 0 0 0 0 -1.2777568811103883 -2.4315394199921574 0 -2.4315394199921574 -2.3262540801968354 0 0 0 0 -68.096086601763091 -300.85335554850917 0 -300.85335554850917 -241.956769766241 0 0 0 0 66.075923380187305 7.6333614954819495 0 7.6333614954819495 -19.972367456833126 0 0 0 0 8.2028883451785077 4.1280715525608684 0 4.1280715525608684 -19.898592788779752 0 0 0 0 -10.021703213335911 3.323243282247347 0 3.323243282247347 -12.022686105301545 0 0 0 0 -9.7235153285117484 -2.5499089770801557 0 -2.5499089770801557 -3.5012025849084072 0 0 0 0 101.23814578795061 86.142834501235484 0 86.142834501235484 -257.29141753282602 0 0 0 0 12.298319491006168 112.44696931406725 0 112.44696931406725 -231.45398314115846 0 0 0 0 26.657272263140172 82.985292570971069 0 82.985292570971069 -176.11134291044436 0 0 0 0 13.974063513337398 100.47813562558076 0 100.47813562558076 -227.65652513332316 0 0 0 0 -0.027512175239368466 -15.825617759453962 0 -15.825617759453962 17.18690963818517 0 0 0 0 -54.257079035380876 170.4286770671024 0 170.4286770671024 -183.05325695854117 0 0 0 0 -0.01681512894859934 0.20143141520866337 0 0.20143141520866337 -1.0322396459691845 0 0 0 0 -62.969533275375454 132.42979331731294 0 132.42979331731294 33.775838189918431 0 0 0 0 -52.252012666378235 158.53834079791523 0 158.53834079791523 -55.834472324699163 0 0 0 0 -62.501623939172127 39.216398160608151 0 39.216398160608151 126.10434545225871 0 0 0 0 -5.5396267526391743 19.701186169018911 0 19.701186169018911 -27.267795736155676 0 0 0 0 -42.325738456950731 42.277830689647089 0 42.277830689647089 -82.38482465755078 0 0 0 0 37.061821578011916 -120.67456930331537 0 -120.67456930331537 -76.198469642084092 0 0 0 0 -17.990283930152202 -59.624764539051284 0 -59.624764539051284 -118.84298074516119 0 0 0 0 -15.802499448112343 -90.235020441781671 0 -90.235020441781671 65.88885928842501 0 0 0 0 -25.305506593772151 -4.7514076452243899 0 -4.7514076452243899 -134.59919394792814 0 0 0 0 -2.9901812426014089 -61.05716064031003 0 -61.05716064031003 -122.56588839185861 0 0 0 0 -3.8901046325426876 -67.185422588176152 0 -67.185422588176152 -157.9493300167851 0 0 0 0 -26.475588097861845 -8.1300085569018847 0 -8.1300085569018847 -16.710999956012529 0 0 0 0 14.323957751573388 12.385743414932222 0 12.385743414932222 -159.2060856518292 0 0 0 0 46.312180523665177 -30.319365487586765 0 -30.319365487586765 -199.50406423075037 0 0 0 0 51.146209693489766 -26.800291943072807 0 -26.800291943072807 -233.74348750430909 0 0 0 0 52.956611072452972 -3.3567747960260022 0 -3.3567747960260022 -242.89352564722867 0 0 0 0 47.094064936398695 -6.8132113594620023 0 -6.8132113594620023 -214.74936157577758 0 0 0 0 82.310784099279857 -41.238162851252127 0 -41.238162851252127 -263.87682511710227 0 0 0 0 70.447329203804856 -53.880675703585439 0 -53.880675703585439 -270.95360940270257 0 0 0 0 75.340777369240527 -41.080756557217683 0 -41.080756557217683 -237.48593848921155 0 0 0 0 165.92184395503318 -21.489925030015002 0 -21.489925030015002 -285.1314832329299 0 0 0 0 103.99718548442287 -25.508344032855803 0 -25.508344032855803 -290.04489278313849 0 0 0 0 93.303609764867986 -22.873870068604447 0 -22.873870068604447 -280.03399987098965 0 0 0 0 109.70232084507211 29.871519557640568 0 29.871519557640568 -265.11097834062457 0 0 0 0 95.271104631875389 9.6531615009353118 0 9.6531615009353118 -241.20684264329611 0 0 0 0 244.86696524364299 -11.661158304061246 0 -11.661158304061246 -266.04266104784801 0 0 0 0 133.87307605315846 35.499430904281326 0 35.499430904281326 -275.03180137612071 0 0 0 0 81.426617338038795 -16.314074082663865 0 -16.314074082663865 -202.28569817469997 0 0 0 0 94.85190187747844 -38.444430859817658 0 -38.444430859817658 -63.561371052725008 0 0 0 0 -2.7004462832731617 -6.0326357637561898 0 -6.0326357637561898 -5.8994911335036306 0 0 0 0 262.62425754205378 -198.57225133194001 0 -198.57225133194001 -36.902390922779887 0 0 0 0 117.76877463563429 34.134571097147273 0 34.134571097147273 -186.27667416670374 0 0 0 0 257.18524488936123 13.367233555320126 0 13.367233555320126 -216.51687215274251 0 0 0 0 56.506331639366259 91.37707256496833 0 91.37707256496833 -449.08275489700463 0 0 0 0 -3.9791970837475219 -230.7572980740988 0 -230.7572980740988 -248.75003020804979 0 0 0 0 54.626070664352298 126.98149832636045 0 126.98149832636045 -293.06887021003058 0 0 0 0 115.45183611336353 -0.95707907135874848 0 -0.95707907135874848 -323.9958494026796 0 0 0 0 -39.58775282647094 -12.482809084587643 0 -12.482809084587643 -369.27445892985997 0 0 0 0 34.372208881327239 140.39992702685413 0 140.39992702685413 -428.55024619377946 0 0 0 0 -2.8205305645074459 21.865386739013047 0 21.865386739013047 -546.33479085486761 0 0 0 0 -399.68707472394675 -926.63390745604192 0 -926.63390745604192 -971.43793337159332 0 0 0 0 -0.27811780012703924 0.0034807581250788644 0 0.0034807581250788644 -58.868250035273377 0 0 0 0 0.022768739262113181 -0.830056042128966 0 -0.830056042128966 -4.9161549972869523 0 0 0 0 37.342252856233515 -290.41857947852986 0 -290.41857947852986 -1232.764408253046 0 0 0 0 57.166321449365398 -561.49915403566774 0 -561.49915403566774 -896.43310117268993 0 0 0 0 -182.91048369807751 -408.21770837698477 0 -408.21770837698477 -1158.0219835899406 0 0 0 0 -284.08993515406331 -328.71109169686679 0 -328.71109169686679 -276.14596504092333 0 0 0 0 -151.55814160584708 -578.46897764756795 0 -578.46897764756795 -562.42282820208857 0 0 0 0 21.936552219109785 -59.62923726768895 0 -59.62923726768895 -274.09936724135332 0 0 0 0 0.35234729422838945 0.97047190663781535 0 0.97047190663781535 -9.8838357088490909 0 0 0 0 463.71166427081823 -17.312229740258772 0 -17.312229740258772 -457.55171392292687 0 0 0 0 1.3495911542338648 -0.97355274986784934 0 -0.97355274986784934 -160.41224222171149 0 0 0 0 216.14357953895009 -271.98097453716946 0 -271.98097453716946 -433.32132309597364 0 0 0 0 -249.89421728823868 48.252639181086124 0 48.252639181086124 -36.782474952127814 0 0 0 0 117.32612124195936 484.00449955150361 0 484.00449955150361 -1497.0946585962229 0 0 0 0 -151.66385595629561 764.30334642365233 0 764.30334642365233 -528.29393445091409 0 0 0 0 -0.24405013942767251 1.1384443316957125 0 1.1384443316957125 -5.3107364323632567 0 0 0 0 -4.8553638595112396 -370.5700087158466 0 -370.5700087158466 -1492.519919408478 0 0 0 0 227.66665520869472 -35.703894080710597 0 -35.703894080710597 -1500.3552801739679 0 0 0 0 52.322662104420168 80.350679494660653 0 80.350679494660653 -1141.5038751009124 0 0 0 0 43.351085726817011 188.02040990076421 0 188.02040990076421 -911.54347793859415 0 0 0 0 -121.37845738787917 -144.83395187504721 0 -144.83395187504721 -651.95169945439557 0 0 0 0 -252.2492947164493 144.15578542708226 0 144.15578542708226 -876.93870930776757 0 0 0 0 87.254057370807232 -127.46130890847417 0 -127.46130890847417 -997.68228800964062 0 0 0 0 -107.182142742385 -196.80852784244962 0 -196.80852784244962 -1012.1818248378368 0 0 0 0 90.654811989858729 -5.644893351562132 0 -5.644893351562132 -1223.3952534933997 0 0 0 0 112.42101194206577 -140.96112210998763 0 -140.96112210998763 -1258.4180789817674 0 0 0 0 -1.2627474985177405 -2.6805185009886188 0 -2.6805185009886188 -2.7769757187751054 0 0 0 0 51.872845710315623 -541.09513887294133 0 -541.09513887294133 285.54776976428548 0 0 0 0 50.101233917450031 -126.98736120789908 0 -126.98736120789908 27.902351715922123 0 0 0 0 22.232997094775413 -78.026500301171836 0 -78.026500301171836 10.45727223589347 0 0 0 0 0.68740519376623876 -1.5021563702131715 0 -1.5021563702131715 -2.4010803903010682 0 0 0 0 36.559649992330037 62.227075618622621 0 62.227075618622621 -411.73463507689667 0 0 0 0 0.47355885152739585 -2.6207352814494556 0 -2.6207352814494556 -2.7522753149150532 0 0 0 0 97.457205425834672 -253.4638731606974 0 -253.4638731606974 -154.07532241670197 0 0 0 0 185.72188664600719 -222.25936238686336 0 -222.25936238686336 -711.5735467756931 0 0 0 0 212.24897082259713 -125.55858632154923 0 -125.55858632154923 -764.96031419713836 0 0 0 0 247.72988501526532 -155.53981222958282 0 -155.53981222958282 -1091.9684728485154 0 0 0 0 98.821450569734111 72.022950428442527 0 72.022950428442527 -723.22712070389389 0 0 0 0 86.145322683060215 -137.81022503665326 0 -137.81022503665326 -1084.6429745306814 0 0 0 0 344.46851846321437 -231.18162814182961 0 -231.18162814182961 -1499.5601022031187 0 0 0 0 298.61615152088535 -202.61330617053136 0 -202.61330617053136 -1177.4479438522158 0 0 0 0 261.92020388492398 -466.57747305553585 0 -466.57747305553585 -1499.7110962220686 0 0 0 0 -8.1469389597033359 -526.78526980352399 0 -526.78526980352399 -1014.8744791556724 0 0 0 0 300.03160426131126 -323.10869012785588 0 -323.10869012785588 -1101.9952874447263 0 0 0 0 243.76808454046164 -341.84876867327694 0 -341.84876867327694 -1091.8857587136536 0 0 0 0 73.971115611130898 -345.87630321817687 0 -345.87630321817687 -648.45046856820409 0 0 0 0 51.659459765209917 -454.92873372048325 0 -454.92873372048325 -1028.4554663687559 0 0 0 0 96.268910204459985 -272.24319397807994 0 -272.24319397807994 -474.45718040115389 0 0 0 0 137.71422625563957 -185.04099226961625 0 -185.04099226961625 -637.22529128140172 0 0 0 0 248.1299584605016 -72.151281747544999 0 -72.151281747544999 -360.16595379922546 0 0 0 0 3.5172044645264577 24.110257857784745 0 24.110257857784745 37.066383852166837 0 0 0 0 -92.602808866670927 -286.19805757577888 0 -286.19805757577888 -235.26111353718079 0 0 0 0 -94.493030930304414 -167.80938721154564 0 -167.80938721154564 -217.01532482851326 0 0 0 0 -140.59973128066531 -360.80546792327141 0 -360.80546792327141 319.42329517873441 0 0 0 0 -194.50663040994289 -328.34807902874672 0 -328.34807902874672 -355.64991155280586 0 0 0 0 -169.87263315959092 -433.4419479622884 0 -433.4419479622884 63.876298042710914 0 0 0 0 -2.0883500504566568 -2.1870467940565632 0 -2.1870467940565632 -2.1236000669720596 0 0 0 0 -0.4984267154884785 -0.79582986338974848 0 -0.79582986338974848 -0.45694442835632998 0 0 0 0 12.53234370552957 194.8183647469159 0 194.8183647469159 -205.7117655116981 0 0 0 0 123.66960141353275 -263.96772245163447 0 -263.96772245163447 41.209638572308904 0 0 0 0 86.605586628016681 82.646315413887351 0 82.646315413887351 -95.807552441721782 0 0 0 0 74.743658703322481 44.77762067214644 0 44.77762067214644 -242.97386354654736 0 0 0 0 73.402881338286591 45.08071043261225 0 45.08071043261225 -198.23754325778282 0 0 0 0 81.319521088282102 -20.169533852058521 0 -20.169533852058521 -282.01165821241011 0 0 0 0 -3.3676022272364823 -5.61198392875135 0 -5.61198392875135 -5.4391457209538316 0 0 0 0 -7.2867649924364457 -26.26602403367724 0 -26.26602403367724 -271.58054291477492 0 0 0 0 49.806486400838935 7.4130024189271353 0 7.4130024189271353 -286.48075125534524 0 0 0 0 32.215123970457967 -57.779833869437425 0 -57.779833869437425 -304.87836210770183 0 0 0 0 -43.716927457453266 28.090815641309746 0 28.090815641309746 -346.38040435334915 0 0 0 0 73.08497691937049 -52.498345552441606 0 -52.498345552441606 -338.81651748817603 0 0 0 0 36.347163333714036 9.0997779363679001 0 9.0997779363679001 -299.05015039817954 0 0 0 0 96.860558184362844 -21.288669690949973 0 -21.288669690949973 -305.96770774253673 0 0 0 0 63.054444313296045 -51.771147028461201 0 -51.771147028461201 -321.55032455161563 0 0 0 0 70.991636698232867 -63.872100800734188 0 -63.872100800734188 -305.65294622387961 0 0 0 0 32.543792001380069 -62.454357273749679 0 -62.454357273749679 -479.76399274411961 0 0 0 0 -60.525044554005461 -191.08428012616787 0 -191.08428012616787 -373.92825627915954 0 0 0 0 -143.57736224058777 -82.172587131335604 0 -82.172587131335604 -184.02820719629017 0 0 0 0 -164.85488055743113 -154.45986958392223 0 -154.45986958392223 -199.84911639832717 0 0 0 0 -266.09576846638572 -235.95875836698542 0 -235.95875836698542 -337.54564506515817 0 0 0 0 -279.47849912242378 -40.387199835749129 0 -40.387199835749129 -170.75533115553117 0 0 0 0 -77.115801149000504 -32.82411937766301 0 -32.82411937766301 -201.10142708361673 0 0 0 0 -69.275860746200351 -22.917880931123364 0 -22.917880931123364 -433.51158072651106 0 0 0 0 -14.957510466750307 -27.43750132900368 0 -27.43750132900368 -924.14105121156172 0 0 0 0 35.102905068724112 -126.09069545407328 0 -126.09069545407328 -168.2052262348152 0 0 0 0 43.285987029232501 -115.94535248613465 0 -115.94535248613465 -26.331503735869774 0 0 0 0 77.173888961277498 -95.242549122525816 0 -95.242549122525816 -246.337294295432 0 0 0 0 79.054925964616359 -131.47198236031909 0 -131.47198236031909 -259.22781517175645 0 0 0 0 -59.97330070252292 -76.859239736440941 0 -76.859239736440941 -175.69469401018432 0 0 0 0 19.254977767825949 -75.650800476003496 0 -75.650800476003496 -301.80287342867609 0 0 0 0 0.86477962041658429 -83.762257062884601 0 -83.762257062884601 -197.41797910483729 0 0 0 0 -7.428439225946704 37.210284906199377 0 37.210284906199377 -131.1693920198104 0 0 0 0 106.0804932252986 60.984351085782691 0 60.984351085782691 -54.95810568401248 0 0 0 0 66.137394197461617 -45.170743048161967 0 -45.170743048161967 -99.280769368371693 0 0 0 0 36.426935356178546 -15.357449363142223 0 -15.357449363142223 -128.31431245942076 0 0 0 0 115.7407763678475 75.246258791833498 0 75.246258791833498 31.294529837803566 0 0 0 0 -4.0572135799247917 50.827987247927013 0 50.827987247927013 -21.383431675261818 0 0 0 0 274.80546965458939 69.260202449429926 0 69.260202449429926 -84.304877264487004 0 0 0 0 109.61709570772109 94.499282937613316 0 94.499282937613316 -97.95032789394827 0 0 0 0 -0.52706294345195159 2.5675279869178143 0 2.5675279869178143 -13.999546826215052 0 0 0 0 83.856771597959209 -54.718636310043621 0 -54.718636310043621 -86.520903670803818 0 0 0 0 156.22036447862718 21.837595510573919 0 21.837595510573919 -87.46514582594682 0 0 0 0 3.8307120037996087 -5.4921096824913409 0 -5.4921096824913409 -65.941011204672918 0 0 0 0 7.6514956562424725 -11.019804564578561 0 -11.019804564578561 -3.7237761010487915 0 0 0 0 -23.752713904783377 -80.781552679245578 0 -80.781552679245578 -26.556401523406748 0 0 0 0 38.671133939491142 -45.259056608381798 0 -45.259056608381798 -20.493256708694389 0 0 0 0 -0.1463906677622957 0.79281102522678371 0 0.79281102522678371 -4.8323309543034725 0 0 0 0 80.074745398905861 -150.75483401029487 0 -150.75483401029487 -236.25001814281859 0 0 0 0 -166.21310261134477 -15.899132798454957 0 -15.899132798454957 270.33266088102755 0 0 0 0 -70.777033509104058 171.17601014179581 0 171.17601014179581 110.37355533947994 0 0 0 0 107.62012639911063 -93.83266324147553 0 -93.83266324147553 -359.15477300297789 0 0 0 0 333.19337168922812 -146.36922173781022 0 -146.36922173781022 -711.19396777484508 0 0 0 0 33.036036964575032 36.482486171033088 0 36.482486171033088 -341.01278258157254 0 0 0 0 155.25107126926025 0.54259774097795344 0 0.54259774097795344 -128.46326792121545 0 0 0 0 35.949419693906634 -40.49145360609873 0 -40.49145360609873 -79.670346458632594 0 0 0 0 -0.50145853690854847 -6.9373407835110079 0 -6.9373407835110079 -62.149132005493129 0 0 0 0 5.3072584890348935 70.981151312576912 0 70.981151312576912 -37.045889361142144 0 0 0 0 -52.353808089965639 2.7897840455843834 0 2.7897840455843834 -51.462793381764641 0 0 0 0 -17.624181811013386 -115.4899247047324 0 -115.4899247047324 134.57852427631587 0 0 0 0 -87.001110828111905 -46.093656233331785 0 -46.093656233331785 83.941772177284292 0 0 0 0 -131.26569252121612 -103.38301878856146 0 -103.38301878856146 21.925600178496097 0 0 0 0 -78.953285564158705 14.967957235494396 0 14.967957235494396 134.09132626433347 0 0 0 0 39.197970705614182 1.6350338206575543 0 1.6350338206575543 -157.89362562659517 0 0 0 0 22.636458865239547 -111.61804068749916 0 -111.61804068749916 -226.49182974868017 0 0 0 0 -116.58437491273617 -190.55255203436354 0 -190.55255203436354 -112.24757162765309 0 0 0 0 -20.468302217155269 -189.66141996800434 0 -189.66141996800434 -297.73456122563834 0 0 0 0 -135.36150869917878 -159.92290972061164 0 -159.92290972061164 -98.755764379200627 0 0 0 0 -106.07443929062759 -217.85572438177542 0 -217.85572438177542 -30.540006959970924 0 0 0 0 -315.55988924795804 -283.45328156699543 0 -283.45328156699543 -50.798106492791703 0 0 0 0 -265.41089050740743 -211.27021586451701 0 -211.27021586451701 -86.279218475625385 0 0 0 0 -358.49313223464026 -271.74327618240204 0 -271.74327618240204 -114.14029975568337 0 0 0 0 0.092081996911536734 -0.084637401100636112 0 -0.084637401100636112 -0.076642577494368425 0 0 0 0 -189.31100824219345 -126.6028864214918 0 -126.6028864214918 -114.3767827740885 0 0 0 0 -198.5599645219072 -351.09530841105698 0 -351.09530841105698 -456.99096365059813 0 0 0 0 -306.48966968295031 -490.0550652983402 0 -490.0550652983402 -440.86995781065161 0 0 0 0 -758.31700492707967 -496.51065744315565 0 -496.51065744315565 -209.25975507701332 0 0 0 0 -371.11143241399441 -661.56643706979594 0 -661.56643706979594 -895.51754804718439 0 0 0 0 -846.43316917064135 -872.27941375279988 0 -872.27941375279988 -844.6841306520264 0 0 0 0 -816.77245606666577 -839.87976634577808 0 -839.87976634577808 -2199.468564345967 0 0 0 0 -135.67762654374772 -780.54366407167436 0 -780.54366407167436 -1500.1464310486917 0 0 0 0 105.59450843563202 190.86276082965014 0 190.86276082965014 -1062.900102603624 0 0 0 0 127.69278423491062 412.44351583920979 0 412.44351583920979 -1653.1740911929155 0 0 0 0 77.893143738955047 102.63611659840171 0 102.63611659840171 -1068.4370665557326 0 0 0 0 -1571.2627336661578 -800.96653579637496 0 -800.96653579637496 -607.98131044003821 0 0 0 0 -1899.3521598832219 -179.24966891034273 0 -179.24966891034273 -1500.8179317742533 0 0 0 0 -409.80379090529908 607.03542439200828 0 607.03542439200828 -1020.9227047011118 0 0 0 0 -1.8563515097937988 -3.06613199441591 0 -3.06613199441591 -11.111663700485437 0 0 0 0 -577.86386308390718 76.195461947828335 0 76.195461947828335 156.05597915052203 0 0 0 0 -148.24703661278551 295.23146838035427 0 295.23146838035427 -663.63848268059519 0 0 0 0 -80.527617366393088 3.7835925363942806 0 3.7835925363942806 47.522366997141944 0 0 0 0 -147.59140752492141 271.83928437636268 0 271.83928437636268 -234.10240814596182 0 0 0 0 -0.33188823848128063 2.5721791015696205 0 2.5721791015696205 -1.8643213702850261 0 0 0 0 3.3490346454296969 -24.611613615066744 0 -24.611613615066744 -28.831127119032317 0 0 0 0 -7.046551143627144 0.060456683085931218 0 0.060456683085931218 -12.414778009608881 0 0 0 0 -2.4647616586323529 -6.260919999584786 0 -6.260919999584786 -29.116554837019393 0 0 0 0 -134.76064226077051 -135.33281127468581 0 -135.33281127468581 -223.79274744234863 0 0 0 0 94.83827358082408 -112.37066115416019 0 -112.37066115416019 19.319272149128665 0 0 0 0 -0.95315637120511143 -5.3819321335505634 0 -5.3819321335505634 -51.450557674628442 0 0 0 0 58.481010170843547 -58.539582189334396 0 -58.539582189334396 -12.903224471574504 0 0 0 0 -225.18909942503251 -7.7242777184151237 0 -7.7242777184151237 33.161301689098764 0 0 0 0 0.5004734006012983 -3.8340360907495352 0 -3.8340360907495352 -10.84727891423406 0 0 0 0 -5.5649868653483736 5.72157711091495 0 5.72157711091495 -26.156098794926947 0 0 0 0 -18.08496450805967 38.896411019532025 0 38.896411019532025 -33.371486202609958 0 0 0 0 59.711459888875083 21.173425405913804 0 21.173425405913804 -68.681696864310652 0 0 0 0 10.556814052392696 1.6362773078299142 0 1.6362773078299142 -11.101232886288471 0 0 0 0 0.16555259638453701 0.86848864262996273 0 0.86848864262996273 -5.9095664241750114 0 0 0 0 9.0888102506037853 8.2431696439070947 0 8.2431696439070947 -19.443474906325719 0 0 0 0 287.68071622212574 -64.806132274236006 0 -64.806132274236006 142.11854914972719 0 0 0 0 543.83497315784075 -25.751196735072881 0 -25.751196735072881 -116.25348170158395 0 0 0 0 248.78593303413419 59.239669373591823 0 59.239669373591823 -77.041082224972342 0 0 0 0 313.71332120777834 151.50409663372739 0 151.50409663372739 -44.639428121405217 0 0 0 0 -1.7815831190840949 4.9484086690027169 0 4.9484086690027169 -7.5945817751373355 0 0 0 0 1.421820593077487 6.9446152533819259 0 6.9446152533819259 -7.0657920243502303 0 0 0 0 2.134692294655185 5.9823115021445119 0 5.9823115021445119 -9.3264661552366306 0 0 0 0 1.0710952281555559 6.0148945853992526 0 6.0148945853992526 -9.5892837348800839 0 0 0 0 -175.41684262097647 228.66849327881209 0 228.66849327881209 -20.007899312971858 0 0 0 0 105.52221162071396 -3.9175685962509306 0 -3.9175685962509306 -775.92050822643796 0 0 0 0 -0.21123503881796069 12.67427772659812 0 12.67427772659812 -277.24049264474161 0 0 0 0 19.802155031449956 21.430895825986227 0 21.430895825986227 -782.9389831707158 0 0 0 0 186.31058159473287 30.929314554607117 0 30.929314554607117 -1125.3659812051337 0 0 0 0 -461.93632374795578 -415.36816190007903 0 -415.36816190007903 -361.44040945314191 0 0 0 0 345.84612820319171 -294.78926458753631 0 -294.78926458753631 -1423.9783109876953 0 0 0 0 193.42954860561747 -365.12193174954155 0 -365.12193174954155 -676.09663737285882 0 0 0 0 352.17080570947041 -232.42083930836088 0 -232.42083930836088 -151.23257592571463 0 0 0 0 0.024971175097778853 5.5815227200784783 0 5.5815227200784783 -1.0187126746005362 0 0 0 0 196.75985673478635 -18.831665765837897 0 -18.831665765837897 114.62163836118998 0 0 0 0 -100.80648876812603 -407.88354149600855 0 -407.88354149600855 -1711.4379611814729 0 0 0 0 -164.03326277547262 391.04856412488698 0 391.04856412488698 109.52952132658538 0 0 0 0 -4.4952406806738727 5.8217002625502587 0 5.8217002625502587 -5.5776827327371663 0 0 0 0 -98.691643004708141 353.49837255551802 0 353.49837255551802 -2106.7884385907782 0 0 0 0 -15.506097892835669 96.195777419307888 0 96.195777419307888 -1346.7836655956344 0 0 0 0 207.93344241441918 99.533000297666149 0 99.533000297666149 -1500.1626546241753 0 0 0 0 220.14226502554436 201.10572443512683 0 201.10572443512683 -1386.5024231283314 0 0 0 0 257.17608886228629 -50.68192271908265 0 -50.68192271908265 -1221.1766675136787 0 0 0 0 177.93485139157752 156.59504175087932 0 156.59504175087932 -1411.0016153237912 0 0 0 0 -117.89932847395801 485.66726324786305 0 485.66726324786305 -932.20551101712226 0 0 0 0 -741.64915733633552 500.58499714032223 0 500.58499714032223 -1499.7287403195401 0 0 0 0 -81.144261018994058 420.68488955782595 0 420.68488955782595 -1868.2312315521194 0 0 0 0 -414.65054034610836 850.13983688483768 0 850.13983688483768 -505.14357136869512 0 0 0 0 -91.926820148764591 314.57515048091227 0 314.57515048091227 -216.25873959506862 0 0 0 0 -189.69548916478283 594.02720274567946 0 594.02720274567946 -660.1867119410972 0 0 0 0 -147.88622875468695 367.87324086429908 0 367.87324086429908 -793.91131844672236 0 0 0 0 -166.67587408725109 543.46043573366751 0 543.46043573366751 -549.12353769098627 0 0 0 0 -151.35173850876947 273.35191130726571 0 273.35191130726571 -363.2322800875445 0 0 0 0 46.81052760957482 281.41560581604244 0 281.41560581604244 -379.32985963381543 0 0 0 0 -313.54121700494596 452.80782634174284 0 452.80782634174284 -173.85610927854577 0 0 0 0 -142.75740672061499 297.60529601112103 0 297.60529601112103 -79.141565564787015 0 0 0 0 -4.6608128210743871 181.14550070084624 0 181.14550070084624 -21.352403719072754 0 0 0 0 -3.1495862626542248 67.975839826314768 0 67.975839826314768 -178.80414494440083 0 0 0 0 313.86976080427866 28.929630089783814 0 28.929630089783814 -173.5920589912057 0 0 0 0 63.485176799432793 157.14624549536893 0 157.14624549536893 -98.447075141262758 0 0 0 0 -99.429632962709377 254.20685572033108 0 254.20685572033108 -484.11320064287975 0 0 0 0 20.203687757770922 -24.064399271645016 0 -24.064399271645016 -295.30303468347211 0 0 0 0 -188.32616988390564 -69.615869002860109 0 -69.615869002860109 -184.98719970567254 0 0 0 0 -183.13099459936734 -275.62967007807129 0 -275.62967007807129 -99.114895116498701 0 0 0 0 -285.81961448138657 -95.859729210131263 0 -95.859729210131263 -76.577367533369397 0 0 0 0 105.34461840094548 -241.56746222503534 0 -241.56746222503534 -50.725373421272707 0 0 0 0 49.358674289406963 -146.49993691511099 0 -146.49993691511099 -116.41190742388426 0 0 0 0 290.92910365788623 -98.995681334681649 0 -98.995681334681649 -165.23620147128349 0 0 0 0 36.877959802029352 -101.84039166423554 0 -101.84039166423554 19.020167911188764 0 0 0 0 306.02297986711744 -79.207813693618846 0 -79.207813693618846 -186.5924139795934 0 0 0 0 724.56619642601572 -96.569398683893269 0 -96.569398683893269 -148.06762046088988 0 0 0 0 375.85103272892741 83.678188685213627 0 83.678188685213627 72.402912985133298 0 0 0 0 1.922685317917697 2.4265789286233339 0 2.4265789286233339 -8.7533605752513495 0 0 0 0 314.25844887616313 -205.60127854904567 0 -205.60127854904567 149.42929352808278 0 0 0 0 -44.163094028325645 -37.634633222112825 0 -37.634633222112825 -35.077880943761556 0 0 0 0 0.64273620760253147 0.42234029319388 0 0.42234029319388 -2.1272494599046752 0 0 0 0 -8.1479775750775048 5.6125851282263284 0 5.6125851282263284 11.128315501769976 0 0 0 0 -142.59281601346416 79.442733829915596 0 79.442733829915596 -30.801498710574378 0 0 0 0 -134.44507717080705 217.88973816624366 0 217.88973816624366 -159.50671291750041 0 0 0 0 73.134629956880644 57.863040819269372 0 57.863040819269372 -247.12320606665889 0 0 0 0 162.26264652781691 114.95524597501208 0 114.95524597501208 -401.83723421012473 0 0 0 0 82.146523168569999 12.433704256791316 0 12.433704256791316 -118.62452779091473 0 0 0 0 -249.92771996196586 345.04741875901709 0 345.04741875901709 -188.48056619446288 0 0 0 0 655.78220067921802 -240.35093102621067 0 -240.35093102621067 -178.88150290886915 0 0 0 0 0.70761425477374129 0.87071812254392711 0 0.87071812254392711 -3.8375615964372969 0 0 0 0 61.33649097534061 461.03357880291696 0 461.03357880291696 -368.01864200287673 0 0 0 0 9.1320240597942757 -173.87794915758059 0 -173.87794915758059 -133.07364785499703 0 0 0 0 91.103255090754573 -45.326021158161893 0 -45.326021158161893 49.150704967345519 0 0 0 0 -124.84137104155936 30.409464816669242 0 30.409464816669242 -2.2213027346115268 0 0 0 0 37.486100593996525 -58.58438032578124 0 -58.58438032578124 -167.93583050846973 0 0 0 0 -0.69395483809096348 50.338956314700454 0 50.338956314700454 -159.33366816166381 0 0 0 0 186.28088114940482 -184.21847220749987 0 -184.21847220749987 -61.900595609709853 0 0 0 0 521.7173817073791 287.22568848555602 0 287.22568848555602 -93.338462017825805 0 0 0 0 558.7380560861393 141.93787294378126 0 141.93787294378126 -581.18431357234658 0 0 0 0 0.65441681373808969 -1.8508935176539403 0 -1.8508935176539403 2.9622976219641686 0 0 0 0 228.79612913302131 -354.79860299618849 0 -354.79860299618849 404.73674148484133 0 0 0 0 788.54551959294315 -193.87333339868928 0 -193.87333339868928 -177.38743345998955 0 0 0 0 375.26132425171716 -53.322879185372585 0 -53.322879185372585 -186.59653200467756 0 0 0 0 -26.97881336776652 -156.1755932184642 0 -156.1755932184642 -54.190778217401203 0 0 0 0 1.1237808371557034 -0.72706575776489224 0 -0.72706575776489224 -1.9653136792696415 0 0 0 0 496.56885235110656 185.78065591867971 0 185.78065591867971 -116.99729591315554 0 0 0 0 22.939276282173751 36.620390341535312 0 36.620390341535312 171.0561161433252 0 0 0 0 429.44952104197438 -27.875085840148131 0 -27.875085840148131 -196.4437588883884 0 0 0 0 22.032528193099324 22.204778169955148 0 22.204778169955148 -23.787321987103496 0 0 0 0 36.903314448058325 -50.511542687637473 0 -50.511542687637473 -45.127382785001828 0 0 0 0 36.882808637486647 -50.809869316803088 0 -50.809869316803088 -36.416897974579115 0 0 0 0 380.36462898183174 -112.36655712956053 0 -112.36655712956053 -69.075712324935012 0 0 0 0 204.11099271739067 -17.367528411519743 0 -17.367528411519743 -128.4979113360605 0 0 0 0 260.31071443726194 107.77672406264992 0 107.77672406264992 -55.135557853252976 0 0 0 0 -139.02704594521754 36.428051531327583 0 36.428051531327583 -67.091775652916112 0 0 0 0 -225.16064165623914 -108.11327245200664 0 -108.11327245200664 -2.3489194229932764 0 0 0 0 -115.93131464544228 -122.83974607837081 0 -122.83974607837081 -51.587728419812265 0 0 0 0 -121.61202819392031 -178.94392074715688 0 -178.94392074715688 -106.42404975557361 0 0 0 0 -163.04800431189497 -182.21727109719677 0 -182.21727109719677 -77.993869952239038 0 0 0 0 -148.32837308257837 -155.80428096712603 0 -155.80428096712603 -53.107195441491058 0 0 0 0 -89.38942256147925 -203.4100580482318 0 -203.4100580482318 -94.598857860845783 0 0 0 0 -16.877808832945277 41.054299093843838 0 41.054299093843838 -174.73614011021346 0 0 0 0 51.889310164101062 -105.95927885233141 0 -105.95927885233141 -84.565580337708525 0 0 0 0 404.90689018319733 2.5917481633769057 0 2.5917481633769057 -178.07283275104419 0 0 0 0 60.646059401877437 -2.7827462779478083 0 -2.7827462779478083 18.876944913106854 0 0 0 0 0.30386050199087811 -0.49541272888763821 0 -0.49541272888763821 -3.5066917017886681 0 0 0 0 9.3482411011601698 -180.87884527919505 0 -180.87884527919505 -276.44828856309323 0 0 0 0 1.0333385387733636 0.051798263089795071 0 0.051798263089795071 -12.454029304159789 0 0 0 0 99.03832267667417 -4.0324299882458945 0 -4.0324299882458945 -90.436990684216653 0 0 0 0 116.76218421157577 -5.2823889747919566 0 -5.2823889747919566 -112.47562623147314 0 0 0 0 -29.720067408337002 -41.617582484602053 0 -41.617582484602053 48.797091059437662 0 0 0 0 -6.4757089968692298 -167.11786585899063 0 -167.11786585899063 -297.14401140977134 0 0 0 0 328.81558054317247 58.157758843781266 0 58.157758843781266 -94.015432998996403 0 0 0 0 2.8421070329392299 -1.5104713378584549 0 -1.5104713378584549 -4.000888272832114 0 0 0 0 230.13672252954541 157.27737839744805 0 157.27737839744805 144.10906931861246 0 0 0 0 198.78145329465247 -62.698537260395824 0 -62.698537260395824 54.421937657302806 0 0 0 0 143.43349576651622 37.198838722573782 0 37.198838722573782 -115.01932179113646 0 0 0 0 141.3655026240574 -112.84083608256333 0 -112.84083608256333 -74.970395929907681 0 0 0 0 115.24433143878463 26.312829673553551 0 26.312829673553551 40.700351155290264 0 0 0 0 93.334486048294821 -143.10664167664254 0 -143.10664167664254 -148.94774309696095 0 0 0 0 -81.897976197676485 -124.64686966893532 0 -124.64686966893532 -168.8666298270582 0 0 0 0 -84.357977130231887 -94.416713790615177 0 -94.416713790615177 -42.492897300671757 0 0 0 0 -497.77624071499326 -274.21887222323357 0 -274.21887222323357 -54.037691479567002 0 0 0 0 0.35417873843615066 0.65387024090350288 0 0.65387024090350288 -10.597654519706595 0 0 0 0 -238.25188187201763 -214.29715588123872 0 -214.29715588123872 -68.211335559626605 0 0 0 0 -160.04235353126825 -87.198947242024587 0 -87.198947242024587 -65.621566962247016 0 0 0 0 47.777000788256828 -53.273491008157634 0 -53.273491008157634 -71.577367332378344 0 0 0 0 1.9650147285619823 -171.87730588930026 0 -171.87730588930026 -126.3654713235901 0 0 0 0 15.181434139581143 -140.58399266468768 0 -140.58399266468768 -151.00944378540589 0 0 0 0 -13.867576769065181 -137.22678849165459 0 -137.22678849165459 -88.672403273212694 0 0 0 0 -2.6602983943876097 -91.793917940205574 0 -91.793917940205574 -155.34518095467865 0 0 0 0 2.6580027412588834 -99.639403683766886 0 -99.639403683766886 -168.39666744368151 0 0 0 0 3.8161743482469319 -106.90132621574958 0 -106.90132621574958 -130.63303685883875 0 0 0 0 -25.974912603189296 -111.97726056332976 0 -111.97726056332976 -122.06102848242153 0 0 0 0 10.263914612229655 -72.552736178255145 0 -72.552736178255145 -145.48605082437462 0 0 0 0 -9.4790013447793626 -58.008373371236303 0 -58.008373371236303 -84.802718227620062 0 0 0 0 9.8648911222580864 -80.337799842436652 0 -80.337799842436652 -177.99325194787525 0 0 0 0 -20.691159115761252 -75.148181333908724 0 -75.148181333908724 -108.04491856497953 0 0 0 0 0.72389672320580756 2.8299136081018244 0 2.8299136081018244 -19.569959149990552 0 0 0 0 -13.678065502923232 -33.209881321495232 0 -33.209881321495232 30.210412388838449 0 0 0 0 -73.065873435388653 -35.572348117995716 0 -35.572348117995716 -50.007559247751487 0 0 0 0 -28.182692503968234 -86.22341523068701 0 -86.22341523068701 -98.614049218624132 0 0 0 0 89.242924422140106 80.315764885167937 0 80.315764885167937 2.8920258448997629 0 0 0 0 0.63287183352046572 0.10988694822973955 0 0.10988694822973955 -7.8307237575404542 0 0 0 0 234.32567369371256 40.775424314948395 0 40.775424314948395 -37.491233884167741 0 0 0 0 182.87584364637149 56.578235548159682 0 56.578235548159682 -19.496670961985728 0 0 0 0 47.425657899189758 -14.350683845809726 0 -14.350683845809726 12.756630885296545 0 0 0 0 0.91025775845354284 0.13028890595276188 0 0.13028890595276188 -11.268356803195509 0 0 0 0 -24.768284262128994 -32.022105134082267 0 -32.022105134082267 -22.355688796451432 0 0 0 0 -59.669973467751333 -28.49866185240171 0 -28.49866185240171 -22.049256169803812 0 0 0 0 -80.940691393602748 -47.898296464346458 0 -47.898296464346458 -27.051410486257737 0 0 0 0 -79.367230255262001 -26.864559735649891 0 -26.864559735649891 -45.002871529971344 0 0 0 0 80.647954373794391 10.96691823238325 0 10.96691823238325 67.635003773302742 0 0 0 0 229.7220628699626 77.563615757465413 0 77.563615757465413 -66.41571995744016 0 0 0 0 -197.76399231164027 -132.18967424226048 0 -132.18967424226048 -49.20520820287129 0 0 0 0 0.169972813806886 0.087369371966353526 0 0.087369371966353526 -2.8587120739798024 0 0 0 0 120.94689646527763 108.99399184242066 0 108.99399184242066 18.500949965662585 0 0 0 0 -57.445091441738292 -58.114456901085305 0 -58.114456901085305 -22.411632796018239 0 0 0 0 3.9584007602332179 15.909480731008443 0 15.909480731008443 -59.82181208742486 0 0 0 0 2.7210886652341735 0.1051384010659504 0 0.1051384010659504 -12.514197004545835 0 0 0 0 -23.886380009783711 -64.671165903485416 0 -64.671165903485416 -56.31861045077676 0 0 0 0 129.81668770438947 92.245056812012763 0 92.245056812012763 -18.589594046854472 0 0 0 0 173.81479495131498 14.762095223588403 0 14.762095223588403 37.786206470336765 0 0 0 0 0.17370846258492545 -1.3241045351894023 0 -1.3241045351894023 -2.1924973379599195 0 0 0 0 -45.747905491178884 16.040575449576863 0 16.040575449576863 114.21314922747115 0 0 0 0 4.2427323487598949 -4.6201902033486562 0 -4.6201902033486562 -3.8303631677797592 0 0 0 0 38.492326777898221 -105.45478308813472 0 -105.45478308813472 -202.60068360399964 0 0 0 0 91.26892404916002 120.63042838930778 0 120.63042838930778 -178.40675457413317 0 0 0 0 6.0221548722278158 -0.22853624788967863 0 -0.22853624788967863 -21.027416520890256 0 0 0 0 7.106798737283043 0.12837718132141163 0 0.12837718132141163 -28.994129028936186 0 0 0 0 11.808594954166352 3.0131762034766325 0 3.0131762034766325 -19.271310695417924 0 0 0 0 94.56404633931777 61.934071586787468 0 61.934071586787468 15.679879851272062 0 0 0 0 91.578047913346381 47.435136787411921 0 47.435136787411921 -41.544314883129118 0 0 0 0 47.114228133415963 -54.02622871690437 0 -54.02622871690437 -41.399715278384974 0 0 0 0 4.6540557252042234 1.8140246133615783 0 1.8140246133615783 -18.656144514144515 0 0 0 0 11.105017806918113 -6.9896781399711472 0 -6.9896781399711472 -28.680432302262489 0 0 0 0 5.8683076500406059 -5.1956138480072696 0 -5.1956138480072696 -28.199379528985446 0 0 0 0 4.927389588390362 3.8039248916621915 0 3.8039248916621915 -39.126555798909749 0 0 0 0 22.121457550491868 -6.413503339736053 0 -6.413503339736053 -33.659291961281269 0 0 0 0 13.044703271625167 -4.7307619204511866 0 -4.7307619204511866 -33.310136479893117 0 0 0 0 15.780168552838859 0.2510691226052586 0 0.2510691226052586 -25.840346497898281 0 0 0 0 4.2241553424863723 -2.4907107867673726 0 -2.4907107867673726 -25.562320623523831 0 0 0 0 13.019882826108187 -4.1736891496984754 0 -4.1736891496984754 -21.411849843199889 0 0 0 0 4.4135734802339357 -2.2336520119650034 0 -2.2336520119650034 -25.973076579993787 0 0 0 0 97.724320299702129 18.648848557128076 0 18.648848557128076 -45.436400682650856 0 0 0 0 9.2165500182779851 -5.2784724132707197 0 -5.2784724132707197 -25.713805367660825 0 0 0 0 141.88199638238117 -15.595617865768872 0 -15.595617865768872 -108.93544419638783 0 0 0 0 10.871804681232458 -3.4346999748651541 0 -3.4346999748651541 -9.7320098482045285 0 0 0 0 -108.27466456848508 -133.759951800218 0 -133.759951800218 79.222339391686546 0 0 0 0 13.735116353866488 -6.9686248482066731 0 -6.9686248482066731 -28.392140367657703 0 0 0 0 26.443480397632129 8.6748243870661099 0 8.6748243870661099 -5.4772850546360132 0 0 0 0 3.3914217506173081 -4.7278745834972753 0 -4.7278745834972753 -13.670318774473685 0 0 0 0 13.628292090445484 -4.3679933056791924 0 -4.3679933056791924 -33.034974657079147 0 0 0 0 13.909175783052888 -1.7161907028894348 0 -1.7161907028894348 -35.105899548645539 0 0 0 0 10.136203640820913 -2.9708421430155454 0 -2.9708421430155454 -18.818151644706774 0 0 0 0 -16.371710485723725 -0.0047651285312895197 0 -0.0047651285312895197 14.92677846530205 0 0 0 0 2.4018473618351504 -1.2254499988152503 0 -1.2254499988152503 -13.844663199345007 0 0 0 0 10.626247642985959 -9.450471837339137 0 -9.450471837339137 -14.41482453399658 0 0 0 0 18.299844928521566 8.1711288827045792 0 8.1711288827045792 -13.080545738820774 0 0 0 0 -0.026346579498710776 3.7325152884357973 0 3.7325152884357973 -16.144917374566035 0 0 0 0 107.51015173870223 7.7456700654511224 0 7.7456700654511224 -46.943212783236277 0 0 0 0 -1.8228534987561034 55.340880264964653 0 55.340880264964653 20.26113172771511 0 0 0 0 0.52428351225157921 5.5702239398925073 0 5.5702239398925073 -0.84659189436071358 0 0 0 0 82.036862271623789 21.47146772538099 0 21.47146772538099 -61.368723761446745 0 0 0 0 40.775715209959003 19.192581812696517 0 19.192581812696517 -53.699894555291394 0 0 0 0 59.063286443098207 -23.59068771149623 0 -23.59068771149623 -80.362242802773835 0 0 0 0 -9.2627486399078407 0.71678469356629648 0 0.71678469356629648 -20.305787409757613 0 0 0 0 -0.54574118220648415 -1.4446647876702627 0 -1.4446647876702627 -110.03110382018349 0 0 0 0 -11.875429863331192 -5.3777678681617544 0 -5.3777678681617544 -101.99747722097891 0 0 0 0 -107.08661307638295 60.279699510376304 0 60.279699510376304 -128.83571001656492 0 0 0 0 -50.584299674932481 -24.277633809437248 0 -24.277633809437248 -38.988002973557741 0 0 0 0 -161.76427276074764 -11.93885662626235 0 -11.93885662626235 -22.683036704383085 0 0 0 0 -21.257891659075995 -176.75408026944024 0 -176.75408026944024 -144.4513619588688 0 0 0 0 -31.726505823013895 -55.60559676802859 0 -55.60559676802859 -14.751896586094517 0 0 0 0 0.87977526241775195 -80.584666520565406 0 -80.584666520565406 -54.241122667033778 0 0 0 0 -25.459032745278819 -42.954542585454874 0 -42.954542585454874 -5.6694628141558496 0 0 0 0 -9.8473856482461315 -14.997260944942354 0 -14.997260944942354 -13.325042613323603 0 0 0 0 -49.318695741946613 11.737809848364122 0 11.737809848364122 -31.233174622517254 0 0 0 0 -72.451562472559999 -62.176161249084544 0 -62.176161249084544 -10.160962405843748 0 0 0 0 -42.931528749817517 -38.516267054936179 0 -38.516267054936179 -4.5348265354805335 0 0 0 0 -37.891289239300022 -7.6872458889847621 0 -7.6872458889847621 8.3150338154810015 0 0 0 0 3.1399066242981348 -18.89706968582577 0 -18.89706968582577 -6.5631954986626564 0 0 0 0 9.6702110740484386 -14.049616955369856 0 -14.049616955369856 6.3312381473006099 0 0 0 0 -21.518651165294614 -18.542512360621913 0 -18.542512360621913 14.757010827204795 0 0 0 0 5.3518328267782636 7.0046586191456299 0 7.0046586191456299 -91.021447973479553 0 0 0 0 -9.5739241959827268 -17.447744070977933 0 -17.447744070977933 6.5307638125486847 0 0 0 0 -7.8462851420126754 -41.262382439101202 0 -41.262382439101202 -18.091711176877652 0 0 0 0 -7.9249947672649341 -21.550600927137651 0 -21.550600927137651 -4.590175338414495 0 0 0 0 5.1137889714063931 -42.784515746423494 0 -42.784515746423494 -31.822261477376742 0 0 0 0 21.426197789141156 72.266808716071864 0 72.266808716071864 -209.52413696925214 0 0 0 0 -0.23853613959307118 -0.063376885475420863 0 -0.063376885475420863 0.014950418493910433 0 0 0 0 14.645154972091859 -82.877718045929214 0 -82.877718045929214 40.755049473616964 0 0 0 0 43.007510401327636 -7.6716265031063813 0 -7.6716265031063813 -43.728526281091035 0 0 0 0 33.352671513136556 -0.011644072714261711 0 -0.011644072714261711 -32.264778848286369 0 0 0 0 12.086778321394377 5.4377118423071806 0 5.4377118423071806 -91.513724671476666 0 0 0 0 34.58823174585541 -20.857636749889934 0 -20.857636749889934 -27.36223916507879 0 0 0 0 2.5086124945601096 -0.10614935182360341 0 -0.10614935182360341 -10.968622862337753 0 0 0 0 6.7916347210493768 1.3975268818430777 0 1.3975268818430777 -85.931253152768477 0 0 0 0 -8.2645085016536086 5.387795340876437 0 5.387795340876437 -86.846301774858148 0 0 0 0 30.072992901505586 19.462252156256 0 19.462252156256 -90.595246079254139 0 0 0 0 23.918840512697443 -19.368207435742079 0 -19.368207435742079 -115.20500378729048 0 0 0 0 20.033815966865404 -54.274243196137832 0 -54.274243196137832 -160.18773027686257 0 0 0 0 -0.14169071143520573 -5.0328933259326227 0 -5.0328933259326227 -2.269910623824245 0 0 0 0 1.2738688979520703 -19.21620919452107 0 -19.21620919452107 -173.77227303177278 0 0 0 0 -39.781723728799534 -99.546080688396614 0 -99.546080688396614 -116.61756545007302 0 0 0 0 0.35067915835452368 -20.208926956282085 0 -20.208926956282085 -34.155188868826372 0 0 0 0 -5.8859513759566653 -66.844506084791647 0 -66.844506084791647 -116.80571086084819 0 0 0 0 22.152765786425334 -88.418815611923492 0 -88.418815611923492 -137.09331801832741 0 0 0 0 -56.737852290050796 -87.419474439520855 0 -87.419474439520855 -125.11894538090019 0 0 0 0 -13.25636242857297 -22.054848827312526 0 -22.054848827312526 0.32633934664045228 0 0 0 0 -21.262054556711405 -20.781976512394976 0 -20.781976512394976 -38.521594813591946 0 0 0 0 11.023283559279477 -2.3614486208925598 0 -2.3614486208925598 -5.6787077239457311 0 0 0 0 -15.57476889044915 21.974279513691727 0 21.974279513691727 -60.168248320205748 0 0 0 0 64.053805137840982 0.97254386246095237 0 0.97254386246095237 -67.25191639527111 0 0 0 0 5.6853177776532586 -13.646912449383521 0 -13.646912449383521 -43.739438004885258 0 0 0 0 36.707202543177118 -49.477548928156466 0 -49.477548928156466 -40.848205095375306 0 0 0 0 4.4987957021587324 -11.498644660431925 0 -11.498644660431925 -46.511928980457512 0 0 0 0 160.69168396249916 -22.033812815663623 0 -22.033812815663623 -85.430955607488613 0 0 0 0 35.018742430542034 10.344370181715931 0 10.344370181715931 -57.594985579838976 0 0 0 0 79.349361662861838 85.300132941451011 0 85.300132941451011 43.037438385306814 0 0 0 0 -0.099750635472059201 2.6912716682052178 0 2.6912716682052178 -4.767246882711504 0 0 0 0 -32.277514086076025 -81.207421876930312 0 -81.207421876930312 -87.891712812750484 0 0 0 0 31.348142045814939 46.960003925298224 0 46.960003925298224 55.704687892794027 0 0 0 0 94.827515637900433 43.672677590893727 0 43.672677590893727 7.6809481399614015 0 0 0 0 79.246064531449974 63.814203338803054 0 63.814203338803054 -16.26503924865392 0 0 0 0 43.337586327746351 45.320005879733799 0 45.320005879733799 -15.351001309769345 0 0 0 0 29.769526756335381 58.216024236178782 0 58.216024236178782 9.0405959747731686 0 0 0 0 -1.6983467125223002 0.83040937297525375 0 0.83040937297525375 -13.34956321791671 0 0 0 0 77.469717261582446 64.505847976473888 0 64.505847976473888 16.299034221174225 0 0 0 0 91.758535958871434 82.28553526895405 0 82.28553526895405 3.5141660223380313 0 0 0 0 8.1914992620368565 -7.1210920549639969 0 -7.1210920549639969 -46.155246342152495 0 0 0 0 -1.5754279695424884 -49.830886313255178 0 -49.830886313255178 -73.267744338299963 0 0 0 0 41.622784298911938 168.24805339007435 0 168.24805339007435 -114.94543394642346 0 0 0 0 -162.73721152657299 35.500264531324319 0 35.500264531324319 0.24975068704225123 0 0 0 0 -114.20854844282076 -162.09911202619151 0 -162.09911202619151 -162.3727503377122 0 0 0 0 0.29829943387106361 -0.20269734058302546 0 -0.20269734058302546 -3.205910513189437 0 0 0 0 -10.86474846010077 -6.7802440316061166 0 -6.7802440316061166 -264.8424280941872 0 0 0 0 -4.0140692462846346 -106.79901917521056 0 -106.79901917521056 -277.63000157567785 0 0 0 0 -0.50905178108769178 19.857551401111778 0 19.857551401111778 -39.579056299371132 0 0 0 0 -0.53483172744609453 -0.66037122415840699 0 -0.66037122415840699 0.430305369155775 0 0 0 0 0.96342962100903851 0.58899833171776095 0 0.58899833171776095 -8.5032229129457022 0 0 0 0 -34.593181761945289 -64.442445926189976 0 -64.442445926189976 -48.066795400998672 0 0 0 0 4.4888776555126242 44.415574245213065 0 44.415574245213065 -4.1452824019597756 0 0 0 0 220.37935756342767 89.280743755800813 0 89.280743755800813 -120.59952121796232 0 0 0 0 9.9775685344684462 32.709875928369001 0 32.709875928369001 18.029860580561945 0 0 0 0 20.518882204398324 24.766299521816109 0 24.766299521816109 -17.765777399567014 0 0 0 0 24.323111998809509 14.83651320980789 0 14.83651320980789 7.954794556091656 0 0 0 0 1.6496068962344914 7.7400509626422398 0 7.7400509626422398 -20.702026084629694 0 0 0 0 14.717719806575134 -3.7951803214330475 0 -3.7951803214330475 -34.293897667757008 0 0 0 0 51.125187528232345 7.9417489583465795 0 7.9417489583465795 -31.192550303654571 0 0 0 0 63.705220511141761 56.593291228247836 0 56.593291228247836 0.80309322640459868 0 0 0 0 15.452852866665125 6.5172580665930582 0 6.5172580665930582 -11.859738371873391 0 0 0 0 -29.843307224291266 2.4695631482118188 0 2.4695631482118188 9.2671022567810724 0 0 0 0 13.747977391805813 1.2851486443720148 0 1.2851486443720148 -37.465698404057989 0 0 0 0 15.132413312825065 -14.263190522037803 0 -14.263190522037803 -27.252300282969372 0 0 0 0 19.96468060968391 24.93930283397458 0 24.93930283397458 -1.731875585650414 0 0 0 0 20.633868144091139 4.4204230152681703 0 4.4204230152681703 -36.626103371352656 0 0 0 0 3.566904355183147 4.7560506011542731 0 4.7560506011542731 -8.8242970997769561 0 0 0 0 32.200634111991349 23.245681648626487 0 23.245681648626487 -53.091209796726616 0 0 0 0 18.766896322933462 8.311782420900272 0 8.311782420900272 -8.8735000294836937 0 0 0 0 32.307593818501118 29.055591669144633 0 29.055591669144633 -26.869238248167676 0 0 0 0 171.16369818623002 -17.960340282654215 0 -17.960340282654215 -25.571862213051645 0 0 0 0 104.61231725673588 67.777269776277535 0 67.777269776277535 47.529217208371847 0 0 0 0 100.32184716673845 42.164176161716568 0 42.164176161716568 -32.678742598043755 0 0 0 0 56.346311741322097 77.026011854242824 0 77.026011854242824 -42.26979485999891 0 0 0 0 25.778974528434901 -14.347561218512055 0 -14.347561218512055 -53.270937454522937 0 0 0 0 -90.131839287704395 -29.574147481875116 0 -29.574147481875116 -82.478170159556612 0 0 0 0 -21.727744974213579 50.870581470413526 0 50.870581470413526 -78.570485816169821 0 0 0 0 -10.406435243466603 23.958325229141337 0 23.958325229141337 -18.290738580035395 0 0 0 0 59.295715020241005 48.583026589774818 0 48.583026589774818 -39.82061272412102 0 0 0 0 -14.734048709139415 26.272745748319721 0 26.272745748319721 -1.0675187998494948 0 0 0 0 16.261359573619757 73.141003363916752 0 73.141003363916752 -7.4517418852410628 0 0 0 0 135.96012685581672 47.952966874163394 0 47.952966874163394 -15.323561594734201 0 0 0 0 171.57074155056461 87.241255026888211 0 87.241255026888211 -27.711667586176191 0 0 0 0 62.461085005204495 81.787511365186219 0 81.787511365186219 -0.13298490569286514 0 0 0 0 -67.410678348059832 -62.528513445733552 0 -62.528513445733552 -77.319114145975618 0 0 0 0 -51.050324786112185 -3.870820291693235 0 -3.870820291693235 -42.572495191117923 0 0 0 0 -71.469079276757043 -46.765817472169147 0 -46.765817472169147 -90.341080745543877 0 0 0 0 -2.3931047304748745 25.483281629236444 0 25.483281629236444 -42.51729340048405 0 0 0 0 -70.105592261350921 20.175450702005037 0 20.175450702005037 -31.909544828624348 0 0 0 0 -140.89270492746414 -5.9513883556919609 0 -5.9513883556919609 -83.476787434905418 0 0 0 0 -65.413144040477164 -28.384462754871493 0 -28.384462754871493 -85.70732640913775 0 0 0 0 -128.81551272123369 -98.060086675979619 0 -98.060086675979619 -167.9463765227265 0 0 0 0 -108.42122005728828 -43.976244263452827 0 -43.976244263452827 -87.892704418482026 0 0 0 0 -70.195129165411885 -99.007800983508787 0 -99.007800983508787 -188.91117399205541 0 0 0 0 -90.00004248791393 -103.99296445323671 0 -103.99296445323671 -152.44594791065174 0 0 0 0 0.38353598775040609 -97.594139309516322 0 -97.594139309516322 -237.49705922588328 0 0 0 0 36.201094771593006 -66.265767564553244 0 -66.265767564553244 -205.65535073263527 0 0 0 0 3.6138943771455558 -118.71224340702611 0 -118.71224340702611 -273.56207934686063 0 0 0 0 23.928668061330512 -34.951050436622609 0 -34.951050436622609 -123.931246464992 0 0 0 0 -2.9950719829924424 -85.071843939116661 0 -85.071843939116661 -192.60151702419716 0 0 0 0 -15.510856100668434 -48.746924435428809 0 -48.746924435428809 -108.59783832647372 0 0 0 0 -28.190625558107968 -56.885606651441776 0 -56.885606651441776 -129.29297337836761 0 0 0 0 -38.663060605923818 -56.797700954230095 0 -56.797700954230095 -107.03490404869081 0 0 0 0 -55.485618773783159 -35.555336656781947 0 -35.555336656781947 -37.657479377994605 0 0 0 0 -19.218134075086482 -13.399862663856766 0 -13.399862663856766 -38.162006958213169 0 0 0 0 -23.336863155780975 -32.98893821929596 0 -32.98893821929596 -49.000642046670691 0 0 0 0 -32.898275253552754 -10.758206859136408 0 -10.758206859136408 -14.589099215030728 0 0 0 0 -0.46763339665592341 -42.642367555959027 0 -42.642367555959027 -118.73023610848031 0 0 0 0 -17.199384177240049 -23.258472634886857 0 -23.258472634886857 -59.158545974707522 0 0 0 0 -17.990595124705102 -27.065513711057065 0 -27.065513711057065 -19.037320829884266 0 0 0 0 0.90215227416711397 -15.99275749753906 0 -15.99275749753906 -12.964514571889595 0 0 0 0 -11.05253241296505 -9.9047484102693488 0 -9.9047484102693488 -23.164490719485912 0 0 0 0 -14.421130353661624 -11.689219771073112 0 -11.689219771073112 -19.266402126067987 0 0 0 0 -24.32858091779832 1.8967610260278889 0 1.8967610260278889 13.057796518842224 0 0 0 0 -24.911846600956096 -15.813591141177312 0 -15.813591141177312 0.50030653782596346 0 0 0 0 -8.2280728110089285 -4.0692908339842688 0 -4.0692908339842688 13.703061334579616 0 0 0 0 8.0250318923015413 21.203423488732369 0 21.203423488732369 2.0624443332417286 0 0 0 0 -31.120124794343546 10.02473853349602 0 10.02473853349602 15.5622825792816 0 0 0 0 -27.409907389739999 -18.915908422375651 0 -18.915908422375651 -20.93766653957573 0 0 0 0 -56.761680209966698 -13.419217315447895 0 -13.419217315447895 -18.201385487460357 0 0 0 0 2.3779706174171906 19.784014767927147 0 19.784014767927147 -14.551368597176406 0 0 0 0 -13.160452538361142 22.215667132310045 0 22.215667132310045 17.274757828105066 0 0 0 0 47.38033903346286 43.176732860199991 0 43.176732860199991 11.011841543618175 0 0 0 0 2.1973285623277548 20.028815019592002 0 20.028815019592002 32.9544770251523 0 0 0 0 70.532670981229671 31.857057630546478 0 31.857057630546478 20.889092493160206 0 0 0 0 19.168077332015457 22.782820593246015 0 22.782820593246015 3.548687601047277 0 0 0 0 17.103024841189097 27.987678421191958 0 27.987678421191958 53.843701897247229 0 0 0 0 -1.3905106637123481 20.331884487088246 0 20.331884487088246 20.846550097259751 0 0 0 0 46.551450425154428 92.242900242759788 0 92.242900242759788 35.229760967079528 0 0 0 0 44.154485071850331 74.311325995447987 0 74.311325995447987 -55.512138956939452 0 0 0 0 23.247773605432769 38.986738441872149 0 38.986738441872149 19.971850664034719 0 0 0 0 -74.154157220896025 -10.190831748031997 0 -10.190831748031997 -24.029459387602401 0 0 0 0 0.29406384418843579 0.49631432037356404 0 0.49631432037356404 -2.2757549253508813 0 0 0 0 5.2665425522096427 -226.94823539213667 0 -226.94823539213667 -240.19283722871478 0 0 0 0 -45.292239515647339 -6.7668734487560869 0 -6.7668734487560869 59.359320494899293 0 0 0 0 -211.52276355211978 -20.486516825418221 0 -20.486516825418221 -70.440791545162938 0 0 0 0 4.6256558273739774 -0.31410233822137457 0 -0.31410233822137457 0.6687646115464343 0 0 0 0 72.465665733162552 49.073362317769352 0 49.073362317769352 -116.54393531188725 0 0 0 0 -14.718103856751441 35.422316511227109 0 35.422316511227109 6.6118454332390684 0 0 0 0 -52.945222797673011 -31.880273269904137 0 -31.880273269904137 -36.886110654115328 0 0 0 0 -30.117660632940471 18.972662487320122 0 18.972662487320122 -39.011204850277863 0 0 0 0 -7.5011780371999066 -8.4171013619707082 0 -8.4171013619707082 -136.354629739144 0 0 0 0 49.669512466614265 -3.5771656071028701 0 -3.5771656071028701 -79.180849645024864 0 0 0 0 -19.000071968192742 -53.795645962614799 0 -53.795645962614799 -111.28332512685301 0 0 0 0 23.103892558074449 -58.743117977170186 0 -58.743117977170186 -81.05932288486656 0 0 0 0 15.693406798051569 -49.609108010149612 0 -49.609108010149612 -151.70947097231692 0 0 0 0 21.800560482976493 -25.036830161541729 0 -25.036830161541729 -178.55135317140957 0 0 0 0 7.7370044180723081 17.845059380922521 0 17.845059380922521 -73.290268990560435 0 0 0 0 0.72858282624353177 -0.27563202738608084 0 -0.27563202738608084 -0.14713605343292002 0 0 0 0 42.551132371924723 -9.5688878029686748 0 -9.5688878029686748 -95.651089878625044 0 0 0 0 0.29523466643513263 -0.30650112100315141 0 -0.30650112100315141 -0.13878470298489276 0 0 0 0 -21.565712018365957 -27.657264088738884 0 -27.657264088738884 -23.279384232126176 0 0 0 0 40.573723466482186 29.04787438692847 0 29.04787438692847 1.8362146280705929 0 0 0 0 36.737437318724687 -32.743568152924126 0 -32.743568152924126 -21.71299649600769 0 0 0 0 82.659709069650432 20.676750479364273 0 20.676750479364273 -67.525042883302376 0 0 0 0 30.163179222676234 2.6893059256399283 0 2.6893059256399283 -60.303116088802199 0 0 0 0 -26.232669511153063 31.170819821556506 0 31.170819821556506 -74.551455412320138 0 0 0 0 -36.381905571273734 4.5460843890759861 0 4.5460843890759861 47.490590913308552 0 0 0 0 1.6639323151188574 -0.59081479884950738 0 -0.59081479884950738 -0.15584208582684145 0 0 0 0 13.48213087679207 -36.256399844758562 0 -36.256399844758562 -43.484228108201933 0 0 0 0 34.780796631778514 -19.573602945274615 0 -19.573602945274615 -83.89291959179991 0 0 0 0 38.65941230557857 -5.4384024283226609 0 -5.4384024283226609 -37.280316420408781 0 0 0 0 32.667993749883522 5.8585042624399648 0 5.8585042624399648 -58.100755732768448 0 0 0 0 3.9653273175246113 -9.0265044305051561 0 -9.0265044305051561 -37.38072976689034 0 0 0 0 21.030755128484486 19.170681888546824 0 19.170681888546824 -37.004726330287667 0 0 0 0 9.0945743235733971 6.3602656852344808 0 6.3602656852344808 8.4642090751003707 0 0 0 0 -8.4698357591324509 -1.8124090072597028 0 -1.8124090072597028 5.1451708977620001 0 0 0 0 -10.126054558423874 -1.2420131753942769 0 -1.2420131753942769 6.4242391439620405 0 0 0 0 5.8813456871398344 -23.642571201840838 0 -23.642571201840838 12.496959426927788 0 0 0 0 -13.93532041566133 -7.7139695216246764 0 -7.7139695216246764 11.178547125447949 0 0 0 0 4.595583664983808 -0.7915946146058559 0 -0.7915946146058559 34.209697217455869 0 0 0 0 18.00731545301991 -54.971250722688183 0 -54.971250722688183 10.11347958647093 0 0 0 0 20.999658030013983 -0.61301256371370982 0 -0.61301256371370982 -19.790725853268668 0 0 0 0 -4.395009786769851 27.516381446294872 0 27.516381446294872 -39.737002187794133 0 0 0 0 13.167682905625972 -5.2797471734484134 0 -5.2797471734484134 -69.821517671178299 0 0 0 0 -0.11025731029743668 -0.30477727040710079 0 -0.30477727040710079 -0.62169991860343998 0 0 0 0 1.5976670818043743 -21.025003512775584 0 -21.025003512775584 -113.43820974461414 0 0 0 0 -5.6202260980761203 36.29478603618918 0 36.29478603618918 -92.596652606240241 0 0 0 0 0.34410106097467996 -0.16451570782335523 0 -0.16451570782335523 -0.023362920418755984 0 0 0 0 4.1786273171600197 1.852985089763024 0 1.852985089763024 -75.243070196578628 0 0 0 0 -21.867320132597101 -11.98907778314242 0 -11.98907778314242 42.542875087949142 0 0 0 0 16.825335952005151 -18.679751271953137 0 -18.679751271953137 -34.9783279670919 0 0 0 0 0.63149506069488481 -0.18212009200922807 0 -0.18212009200922807 -0.1234588528619911 0 0 0 0 20.715336559867147 10.35154275836976 0 10.35154275836976 -79.051939800192486 0 0 0 0 -17.28914773594434 18.118885059549939 0 18.118885059549939 2.8162480104219867 0 0 0 0 23.634432152534664 -28.34760213561276 0 -28.34760213561276 -21.179935247804679 0 0 0 0 3.4216735254402604 10.150963321471863 0 10.150963321471863 -45.929151998967427 0 0 0 0 -0.0075505684036460598 6.0323790108632238 0 6.0323790108632238 -33.317791214936733 0 0 0 0 0.20887220471364848 -0.064493547166648568 0 -0.064493547166648568 -0.076581891189145601 0 0 0 0 -0.26211377298249472 10.757003546186752 0 10.757003546186752 -33.832168381828524 0 0 0 0 7.901778415009133 -1.494704950862797 0 -1.494704950862797 -23.587124403256894 0 0 0 0 3.6746455468436352 7.738576115179967 0 7.738576115179967 -32.610498219615693 0 0 0 0 0.0071238377025859599 8.6682864357044309 0 8.6682864357044309 -31.635464693710674 0 0 0 0 4.8666060158477329 10.539148327239673 0 10.539148327239673 -30.949391068126715 0 0 0 0 10.847774783164446 20.011984765905254 0 20.011984765905254 -19.961296578090696 0 0 0 0 0.0044413579219353197 12.064533430722804 0 12.064533430722804 -28.600580680551502 0 0 0 0 -0.067281334344362356 11.094010327724391 0 11.094010327724391 -83.202282580625251 0 0 0 0 -1.2682169382027801 -13.491495020880393 0 -13.491495020880393 -68.322856177233916 0 0 0 0 50.600568839031666 -55.275231835286831 0 -55.275231835286831 -21.406820920372411 0 0 0 0 -0.0043482492761513225 -0.30216234059685831 0 -0.30216234059685831 -0.92810436657765649 0 0 0 0 -3.2730871761111642 -8.9578350689839681 0 -8.9578350689839681 19.562750141732977 0 0 0 0 -0.074110807652872604 -0.64123656786770766 0 -0.64123656786770766 -1.5217990192227546 0 0 0 0 52.442960941710233 -47.017068230426048 0 -47.017068230426048 -20.051664070146217 0 0 0 0 23.828763165110473 -22.564570658907542 0 -22.564570658907542 -121.29240186617244 0 0 0 0 15.884950941520117 -0.63996523165405961 0 -0.63996523165405961 -55.177119890387985 0 0 0 0 -2.7621888559675618 0.34753175040532369 0 0.34753175040532369 -0.85278735441534081 0 0 0 0 25.96928022014583 50.39993197288095 0 50.39993197288095 -134.13142977557072 0 0 0 0 53.584510443187462 -20.590812178711246 0 -20.590812178711246 -250.58962034057913 0 0 0 0 44.517052181193392 -48.297162589671643 0 -48.297162589671643 -228.05110780066752 0 0 0 0 41.486538519687194 -44.976994031356298 0 -44.976994031356298 -203.44569917219906 0 0 0 0 52.92365770751455 -0.38412666160564868 0 -0.38412666160564868 -130.76146376968245 0 0 0 0 40.079066079296936 -74.67327722081518 0 -74.67327722081518 -237.62821443219582 0 0 0 0 48.04569508912337 -53.09312089974992 0 -53.09312089974992 -202.10321338147878 0 0 0 0 58.167489738658837 -47.962881544541233 0 -47.962881544541233 -231.94649321406177 0 0 0 0 59.64402408471917 -46.645584945923474 0 -46.645584945923474 -239.04371260979678 0 0 0 0 31.809675403961762 -52.696215498071979 0 -52.696215498071979 -216.5854703573641 0 0 0 0 31.487861148371309 -51.746094981338501 0 -51.746094981338501 -197.50783414316538 0 0 0 0 45.041863893759455 -40.860104946139472 0 -40.860104946139472 -256.11693277517588 0 0 0 0 27.128824181707955 -86.649870292043488 0 -86.649870292043488 -237.83950895378075 0 0 0 0 0.032058799365565639 -0.097537654872144941 0 -0.097537654872144941 -0.96822098623715647 0 0 0 0 36.284114258185468 -109.60951288491924 0 -109.60951288491924 -189.0900588738732 0 0 0 0 66.269250382239562 -111.89777299369598 0 -111.89777299369598 -185.60821715653583 0 0 0 0 14.986496778811318 -57.416381261924471 0 -57.416381261924471 -224.44553277925297 0 0 0 0 0.068809063918354119 -1.8369976615431369 0 -1.8369976615431369 -308.92090564029058 0 0 0 0 71.51649898071166 -80.02982872532084 0 -80.02982872532084 -296.11111362604424 0 0 0 0 13.43629753409121 4.4816361828561639 0 4.4816361828561639 -326.47444016218469 0 0 0 0 -81.557812665625107 -1.3739661488980346 0 -1.3739661488980346 -274.04183962146635 0 0 0 0 50.070569683505724 -37.774398116289376 0 -37.774398116289376 -310.12342147646996 0 0 0 0 27.993836159153808 52.588113672728923 0 52.588113672728923 -279.5774573501476 0 0 0 0 23.590628725434144 -67.19744556747537 0 -67.19744556747537 -286.45263872293435 0 0 0 0 -12.908981844912155 47.514790637358601 0 47.514790637358601 -136.16067141368148 0 0 0 0 -21.303596170671867 -19.334697707510713 0 -19.334697707510713 -25.383685339475051 0 0 0 0 0.39629360449171175 -0.2828145276069165 0 -0.2828145276069165 -1.1665185472851647 0 0 0 0 -0.01982872294013887 -4.445197671861024 0 -4.445197671861024 -183.63005500148392 0 0 0 0 16.255843360645741 44.33038044398927 0 44.33038044398927 -166.58080124831122 0 0 0 0 -51.249161571727385 43.911055736221897 0 43.911055736221897 -165.71897361038373 0 0 0 0 -20.812512226058459 68.398079225742549 0 68.398079225742549 -159.08655839479616 0 0 0 0 2.8811265569470788 -7.1506910440011708 0 -7.1506910440011708 -6.3605710093025465 0 0 0 0 0.23629668913015678 10.564208781084744 0 10.564208781084744 -37.25266969441509 0 0 0 0 -18.596521098114508 -33.229075035778351 0 -33.229075035778351 -28.047246534370061 0 0 0 0 3.9679992530912127 -5.6714697719886544 0 -5.6714697719886544 -7.5459542714044758 0 0 0 0 1.6326832121678194 10.275142960624635 0 10.275142960624635 -28.032806831404741 0 0 0 0 -0.36488027554974245 6.7776477345694275 0 6.7776477345694275 -9.7923788813305066 0 0 0 0 -4.1327865270311577 -1.1682118667758914 0 -1.1682118667758914 -16.968239058802283 0 0 0 0 6.5996614451923392 6.6253532331820679 0 6.6253532331820679 -12.681737518767477 0 0 0 0 58.083788209800559 37.500707929593773 0 37.500707929593773 -40.65980365584619 0 0 0 0 3.0489497721093652 3.8111028388245458 0 3.8111028388245458 -6.6436245022019165 0 0 0 0 92.404503925936694 30.139533278681483 0 30.139533278681483 -369.9268430266311 0 0 0 0 -3.6642834030006952 -0.85890545232905424 0 -0.85890545232905424 10.613355861507443 0 0 0 0 28.746805628003131 10.809936878591543 0 10.809936878591543 -224.0507237883794 0 0 0 0 -98.263075232808376 119.51015088992426 0 119.51015088992426 7.4311440895107808 0 0 0 0 -13.103960204776115 125.61953263308897 0 125.61953263308897 123.37059031763783 0 0 0 0 45.468616261373825 7.4221754118552781 0 7.4221754118552781 87.031691510470409 0 0 0 0 0.39201930687087871 1.0366780262520336 0 1.0366780262520336 -1.521675769059506 0 0 0 0 -73.507972176514514 -64.506991768756052 0 -64.506991768756052 230.83519699465978 0 0 0 0 -2.6235882911135477 2.4319472630140808 0 2.4319472630140808 -6.5832122102256108 0 0 0 0 -14.794091231594507 25.027283834999253 0 25.027283834999253 -303.87782933551352 0 0 0 0 5.649525557526589 103.01012947410891 0 103.01012947410891 -29.371062190712109 0 0 0 0 -62.772199259249014 -10.212119018229714 0 -10.212119018229714 115.33864171494497 0 0 0 0 -161.67253201636305 60.368577674817061 0 60.368577674817061 191.79690999977538 0 0 0 0 -64.705497580493812 133.15918549274284 0 133.15918549274284 -113.68285836363793 0 0 0 0 -63.73583073855319 -74.293838508707267 0 -74.293838508707267 -426.99880046857288 0 0 0 0 -173.43011168555802 -7.5093839915389253 0 -7.5093839915389253 -248.90579891260859 0 0 0 0 -95.231217866717174 210.76178131219331 0 210.76178131219331 -367.58893461200205 0 0 0 0 152.93905415380812 -12.490436274765671 0 -12.490436274765671 -725.2830194705748 0 0 0 0 -38.930644616769442 6.9732585018264217 0 6.9732585018264217 -50.107913552048558 0 0 0 0 -2.8275327048775405 2.1028928556200697 0 2.1028928556200697 -1.6332587452647331 0 0 0 0 -78.170719483593075 74.566530430160128 0 74.566530430160128 -129.22885346187832 0 0 0 0 0.046333330005480691 24.929415439921286 0 24.929415439921286 -461.27187700388185 0 0 0 0 13.428157204950551 -6.368024241488456 0 -6.368024241488456 -138.035422619369 0 0 0 0 -5.3792610769268112 5.4590892533781243 0 5.4590892533781243 -79.403447822012822 0 0 0 0 -1.8655300189010848 -21.407004150979446 0 -21.407004150979446 -84.184516738227103 0 0 0 0 -20.461238134241228 -10.500115560418635 0 -10.500115560418635 -28.627837498021108 0 0 0 0 -0.11125338724274322 -25.318511470279191 0 -25.318511470279191 -83.250068239201937 0 0 0 0 3.8971947108668843 -11.554632871711874 0 -11.554632871711874 -89.507305519728106 0 0 0 0 2.3677041289550402 -13.911803825618335 0 -13.911803825618335 -92.432721901874174 0 0 0 0 -1.9127922956962493 -11.944788408120075 0 -11.944788408120075 -63.441335219150915 0 0 0 0 5.209170045681077 -13.033053917753932 0 -13.033053917753932 -95.943083616530203 0 0 0 0 4.8552456509603417 -15.401722872175014 0 -15.401722872175014 -88.776366887952463 0 0 0 0 1.7443945176837019 -16.101173802660924 0 -16.101173802660924 -88.004012109338873 0 0 0 0 1.5547592874936811 -15.257042934041237 0 -15.257042934041237 -91.667090452610864 0 0 0 0 -193.76066627910632 565.74568180817732 0 565.74568180817732 -256.65494796134954 0 0 0 0 -0.10873094204742983 -14.208853760939746 0 -14.208853760939746 -84.844322769160499 0 0 0 0 -8.8050620083325857 4.7486733460923176 0 4.7486733460923176 -2.2400225001959129 0 0 0 0 100.37303299410178 -158.1908932834267 0 -158.1908932834267 -490.54057980884681 0 0 0 0 89.3714999348947 -98.902457259996481 0 -98.902457259996481 -284.55249254740193 0 0 0 0 98.104623547550432 -78.022803014209785 0 -78.022803014209785 -356.97355181010789 0 0 0 0 21.546341507397756 -118.99147210357478 0 -118.99147210357478 -328.6676051662289 0 0 0 0 1.6974787025050091 -22.306105070202648 0 -22.306105070202648 -131.06674774233397 0 0 0 0 8.8846707627910284 -0.090727992011366609 0 -0.090727992011366609 -6.2627521032340212 0 0 0 0 2.7575654513945249 -0.69197994539021579 0 -0.69197994539021579 -5.0346566366410741 0 0 0 0 -212.69537192838197 458.06667606382689 0 458.06667606382689 -1026.1977533744139 0 0 0 0 -302.7154016638633 707.65826312633726 0 707.65826312633726 -1278.3914949134924 0 0 0 0 1.6906893010844222 1.6718954346735231 0 1.6718954346735231 -2.9694723072758364 0 0 0 0 -199.349583667964 -273.44296976274927 0 -273.44296976274927 -190.25585872884949 0 0 0 0 -188.98849682930722 130.70861206991685 0 130.70861206991685 -160.60284073312323 0 0 0 0 -17.414141580483374 180.53381566102325 0 180.53381566102325 -376.69197857625113 0 0 0 0 -32.405126404388739 228.10434356037513 0 228.10434356037513 -885.74525644768437 0 0 0 0 -708.16962348906782 395.57576040569984 0 395.57576040569984 -3.6100324288854608 0 0 0 0 51.545321707079552 56.922277260848205 0 56.922277260848205 -424.5616129224436 0 0 0 0 -4.0552438740450611 97.482817226593397 0 97.482817226593397 -320.04634196453844 0 0 0 0 -196.91623285483638 -480.04803965834071 0 -480.04803965834071 147.22835960652446 0 0 0 0 -10.435415680936444 -144.23290933092721 0 -144.23290933092721 -225.86162654285727 0 0 0 0 -175.87206627685646 -177.22529249370564 0 -177.22529249370564 -428.57962856165977 0 0 0 0 -64.960890958945583 -16.032628983619361 0 -16.032628983619361 -238.30478680747183 0 0 0 0 271.43720793254079 -82.856508028151438 0 -82.856508028151438 -1311.1593667937159 0 0 0 0 -267.16458742009672 304.00351482745828 0 304.00351482745828 -1410.6204565164517 0 0 0 0 72.012619205230749 -440.03240013614777 0 -440.03240013614777 -131.62275344843511 0 0 0 0 -8.0365144945814109 -17.506229100596101 0 -17.506229100596101 -86.004335545436334 0 0 0 0 -16.045541850713562 -31.913688518105118 0 -31.913688518105118 -93.501855695387349 0 0 0 0 -27.674648363598124 -35.114148712304086 0 -35.114148712304086 -64.620494167262223 0 0 0 0 -38.378731401677328 -63.910902482984966 0 -63.910902482984966 -81.032950282042293 0 0 0 0 -193.35933833668139 -0.01549044021521695 0 -0.01549044021521695 399.70930098986355 0 0 0 0 -7.7445265243955657 2.205179397991671 0 2.205179397991671 -0.23616653488053174 0 0 0 0 -3.7786183001095708 -42.573105394347294 0 -42.573105394347294 -116.89858719551557 0 0 0 0 -37.294246114127645 -22.884753690894286 0 -22.884753690894286 -112.79439810151871 0 0 0 0 18.948719916107336 -7.9313405068132852 0 -7.9313405068132852 -127.80577986874414 0 0 0 0 -5.757148907046485 -41.87149972980842 0 -41.87149972980842 -110.57080923161993 0 0 0 0 -13.524709202358281 -63.351462056212767 0 -63.351462056212767 -156.45713401850662 0 0 0 0 3.8299969452787082 -5.0334596032043919 0 -5.0334596032043919 -83.23848657784356 0 0 0 0 -2.5186741617955022 -15.120853258649731 0 -15.120853258649731 -90.309613327870466 0 0 0 0 2.8251693614922715 -25.612479228999291 0 -25.612479228999291 -96.59134114356857 0 0 0 0 4.609696567460901 -16.432986252257251 0 -16.432986252257251 -16.85043485420465 0 0 0 0 14.8678508055159 -21.499271860022418 0 -21.499271860022418 -191.10781634430168 0 0 0 0 -1.533930242146448 -2.9357439854056508 0 -2.9357439854056508 -0.37299419034599168 0 0 0 0 -8.6366254811468934 -22.212944428018091 0 -22.212944428018091 -172.68334098535706 0 0 0 0 -39.754788961635882 -75.704825443830487 0 -75.704825443830487 -107.30940179277241 0 0 0 0 32.998533389435522 30.853539156165425 0 30.853539156165425 -386.56404610331811 0 0 0 0 -29.37781325008325 -18.584397838658333 0 -18.584397838658333 18.025973634443289 0 0 0 0 40.616111199058196 -116.56980040627241 0 -116.56980040627241 -245.08957048264347 0 0 0 0 -105.53422088967568 34.738072890861076 0 34.738072890861076 -159.28026034723734 0 0 0 0 -0.67791790220101511 -0.49384908976313113 0 -0.49384908976313113 -0.35032033674799834 0 0 0 0 83.581264704000091 -84.619435580767458 0 -84.619435580767458 -34.388103623616189 0 0 0 0 82.013708008989752 25.002806274365867 0 25.002806274365867 -41.348281526574283 0 0 0 0 3.3399740424985653 -2.4521288607692782 0 -2.4521288607692782 0.38656559194749462 0 0 0 0 2.546328516282756 -20.244580514008703 0 -20.244580514008703 32.744115648802108 0 0 0 0 35.970800681552134 -34.673816644274098 0 -34.673816644274098 -48.736930403574661 0 0 0 0 37.466134098946938 -13.856087269773411 0 -13.856087269773411 -124.25272622769262 0 0 0 0 28.485169630535893 -44.684091067709232 0 -44.684091067709232 -48.564684647049944 0 0 0 0 -9.2754983683817045 -34.55780380484066 0 -34.55780380484066 -12.706291104972479 0 0 0 0 78.54560172906406 -49.787976407453243 0 -49.787976407453243 -200.36423158901744 0 0 0 0 49.828608539375296 0.045563433559436817 0 0.045563433559436817 -191.9420830043282 0 0 0 0 1.1771137392220226 114.80326440413046 0 114.80326440413046 -217.07259123665972 0 0 0 0 64.240151331510106 27.27978762373823 0 27.27978762373823 -255.65915877866792 0 0 0 0 16.304748150454998 83.020839657405304 0 83.020839657405304 -150.39849754310853 0 0 0 0 46.708895830181973 12.205421652615769 0 12.205421652615769 -137.29199117368989 0 0 0 0 44.828645599238826 6.9555208331730682 0 6.9555208331730682 -121.1105510699208 0 0 0 0 28.773572119638288 90.356194198366211 0 90.356194198366211 -154.31693343101506 0 0 0 0 24.001675026256009 115.69174300816121 0 115.69174300816121 -162.94380101317074 0 0 0 0 21.007288006318504 119.7525828178841 0 119.7525828178841 -167.99559645553381 0 0 0 0 66.867292255961729 84.388921547944847 0 84.388921547944847 -158.73318580141495 0 0 0 0 -46.368781565940708 82.534863001658778 0 82.534863001658778 -91.774153730821126 0 0 0 0 8.5870832146963494 30.412742856693512 0 30.412742856693512 -63.356431772026554 0 0 0 0 11.160364748098118 127.56334769015484 0 127.56334769015484 -232.66223562713276 0 0 0 0 -123.40172264239618 131.34961866999765 0 131.34961866999765 -87.716753349795908 0 0 0 0 6.9863659020050024 4.7062048126920786 0 4.7062048126920786 -10.609557861552133 0 0 0 0 -212.73095685735871 215.49929353685729 0 215.49929353685729 -165.43321649520294 0 0 0 0 1.3896350630350582 -3.4264798087992858 0 -3.4264798087992858 -6.6064603354607243 0 0 0 0 15.445976273488782 -1.8670994907934073 0 -1.8670994907934073 -6.8135832993975782 0 0 0 0 13.011522658511126 2.4225964524557639 0 2.4225964524557639 -17.245041124766431 0 0 0 0 -53.448711363024245 88.280320156847665 0 88.280320156847665 -87.497766848215619 0 0 0 0 22.612555963675732 -13.840517765879667 0 -13.840517765879667 -16.24310330094886 0 0 0 0 5.1728208410702532 1.1298986532531821 0 1.1298986532531821 -17.515449961008827 0 0 0 0 25.238941616168177 -7.9920254638927872 0 -7.9920254638927872 -28.664223756757565 0 0 0 0 2.3221297239865635 15.411408599240531 0 15.411408599240531 -44.588730622552248 0 0 0 0 7.2860049103464917 -1.9508038882995606 0 -1.9508038882995606 -16.48778301134837 0 0 0 0 9.2779603917449833 -5.3930880023435748 0 -5.3930880023435748 -35.354854797544249 0 0 0 0 -5.9771271075690464 -1.848847178498545 0 -1.848847178498545 -17.458933712989165 0 0 0 0 1.9140128880995868 -7.3452821056264597 0 -7.3452821056264597 -6.2873932992183228 0 0 0 0 -9.4268481974601173 -32.012973424732991 0 -32.012973424732991 -124.5090303499419 0 0 0 0 -15.758836698789992 -6.3971490745534538 0 -6.3971490745534538 -6.1808069493126823 0 0 0 0 2.5570348493524113 -7.4743769057196943 0 -7.4743769057196943 -10.473517179943542 0 0 0 0 11.74374390083085 -8.1962492416350869 0 -8.1962492416350869 -27.689334243139456 0 0 0 0 0.77475609490347264 -1.656636509034854 0 -1.656636509034854 -7.2730573842834829 0 0 0 0 26.056946657867229 -32.799797694991867 0 -32.799797694991867 -12.055564030226378 0 0 0 0 -2.6511369400704927 -9.626388195288321 0 -9.626388195288321 -8.8287207914778776 0 0 0 0 18.42887848627015 -8.0815538421011297 0 -8.0815538421011297 -33.452587049282556 0 0 0 0 4.1683947962862664 -7.16681232082626 0 -7.16681232082626 -7.1366082227594845 0 0 0 0 40.51319677466654 -53.402065490365203 0 -53.402065490365203 -5.1160259475109342 0 0 0 0 8.1706124762221179 36.973411256205509 0 36.973411256205509 -88.617171993457305 0 0 0 0 25.226257658588636 -6.7715015355080936 0 -6.7715015355080936 -29.669065631387639 0 0 0 0 17.74260173462676 13.957734451803844 0 13.957734451803844 -79.330850336671574 0 0 0 0 5.9504713139127308 -3.2998356006013019 0 -3.2998356006013019 -23.489824537098215 0 0 0 0 18.030725242728295 15.302730972987774 0 15.302730972987774 -96.987263458671805 0 0 0 0 -39.727726120469015 254.33130693915882 0 254.33130693915882 -333.17219281180223 0 0 0 0 156.81985505606917 -38.084171142301784 0 -38.084171142301784 -199.30491890922667 0 0 0 0 39.20838314730463 133.80986696566833 0 133.80986696566833 -243.65624506342647 0 0 0 0 110.83296989513246 70.581856182070624 0 70.581856182070624 -449.69078567458018 0 0 0 0 -16.61488412559213 -9.5532727208224699 0 -9.5532727208224699 -1.7443124463612758 0 0 0 0 -46.373731910485731 -33.553550039199763 0 -33.553550039199763 -84.602949958023601 0 0 0 0 -90.292034559165131 356.64251340169767 0 356.64251340169767 -297.5955351060984 0 0 0 0 -224.72365742645616 -383.74405528287389 0 -383.74405528287389 118.91433114348547 0 0 0 0 -58.133962429594249 -83.479839084524428 0 -83.479839084524428 670.77179934289597 0 0 0 0 -30.524682941597359 -10.764745991631266 0 -10.764745991631266 -2.8095024911860591 0 0 0 0 -108.7018714029864 4.0521847329873708 0 4.0521847329873708 -68.251791611237422 0 0 0 0 7.6822540435041446 -151.3843090630653 0 -151.3843090630653 -448.53621305370325 0 0 0 0 -167.0753964136311 -29.060951933097385 0 -29.060951933097385 680.70175975888151 0 0 0 0 -282.18590966240299 12.951790664639702 0 12.951790664639702 486.78454855799828 0 0 0 0 -25.518226456458251 280.17488406021403 0 280.17488406021403 -439.21328573228311 0 0 0 0 -2.3684733908697346 6.5200692087246921 0 6.5200692087246921 5.187893160251825 0 0 0 0 106.68142655029897 96.185716461155607 0 96.185716461155607 -405.3905167968187 0 0 0 0 101.31885456525742 2.9170560788843432 0 2.9170560788843432 -732.3054666351527 0 0 0 0 -0.56274604521676608 2.6033655686042962 0 2.6033655686042962 -5.4891766054921334 0 0 0 0 -103.78022811823212 -304.99105010163112 0 -304.99105010163112 -568.04167517607129 0 0 0 0 218.77073656664834 33.172957416822101 0 33.172957416822101 -829.16665484509213 0 0 0 0 175.89190228578445 100.94484885451311 0 100.94484885451311 -570.24573456887447 0 0 0 0 8.2627102822889356 -165.96741359375847 0 -165.96741359375847 -475.96902793342451 0 0 0 0 -1.6186844850567041 3.4972586060089341 0 3.4972586060089341 -6.9665865842787582 0 0 0 0 4.2057737518662179 -128.41610025536284 0 -128.41610025536284 -193.02750398702119 0 0 0 0 -188.44989388393105 445.7586513730057 0 445.7586513730057 -121.80241393340839 0 0 0 0 -8.327049227498037 67.453812758163167 0 67.453812758163167 0.84743773958325619 0 0 0 0 -34.670613040905437 11.872417697601577 0 11.872417697601577 7.4105856016285543 0 0 0 0 -3.439880857801672 7.8482145567114578 0 7.8482145567114578 -19.850081116016582 0 0 0 0 68.491250702382786 66.654745451683993 0 66.654745451683993 -14.936174034504802 0 0 0 0 -77.211002612323682 63.210440518894757 0 63.210440518894757 18.644195592223696 0 0 0 0 43.336289131628291 -0.41443224575778004 0 -0.41443224575778004 -42.396338475982702 0 0 0 0 -181.83614234000424 190.46004842512411 0 190.46004842512411 -85.026301742000214 0 0 0 0 -36.368497365090661 155.0254677009616 0 155.0254677009616 -148.72910348930964 0 0 0 0 29.120712494803229 141.23917002736016 0 141.23917002736016 -154.77900235877314 0 0 0 0 26.410358784334676 60.847947705318802 0 60.847947705318802 -103.36116559710445 0 0 0 0 -3.8672015773718158 118.0563885139436 0 118.0563885139436 -106.95573779469487 0 0 0 0 -3.6460761872208423 52.419430856325562 0 52.419430856325562 -71.325426783059811 0 0 0 0 25.440538442148863 -5.4970745633399929 0 -5.4970745633399929 -50.911853296063782 0 0 0 0 26.983448464491403 -2.8283792239740251 0 -2.8283792239740251 -47.515342642109317 0 0 0 0 27.977667792766397 2.7374407883244203 0 2.7374407883244203 -34.881713600465446 0 0 0 0 17.585186656313908 14.660047747320277 0 14.660047747320277 -94.34631540087139 0 0 0 0 17.548887420722167 -14.766096674859 0 -14.766096674859 -41.56581867708519 0 0 0 0 14.48469998849032 -12.156413904631336 0 -12.156413904631336 -25.904917244039098 0 0 0 0 14.294813440590588 -15.065372903671232 0 -15.065372903671232 -24.049762172777264 0 0 0 0 14.581930298925727 -11.472501614247449 0 -11.472501614247449 -28.300817368727621 0 0 0 0 14.748591311853033 -14.905592025439546 0 -14.905592025439546 -27.632392993866233 0 0 0 0 17.933171026768377 -3.312150033269063 0 -3.312150033269063 -35.585242745772121 0 0 0 0 19.884954505428141 -6.9903964901859581 0 -6.9903964901859581 -29.550652011406783 0 0 0 0 13.662761974880596 -10.763201242916693 0 -10.763201242916693 -24.833812471188139 0 0 0 0 12.574478671642256 -3.3549715006863892 0 -3.3549715006863892 -1.0043488203276993 0 0 0 0 1.6697140733929245 -4.1651043579531688 0 -4.1651043579531688 -67.459975764897536 0 0 0 0 4.4709512458002791 17.148974452014954 0 17.148974452014954 -39.280319859455631 0 0 0 0 14.975863067549199 19.250238754148086 0 19.250238754148086 -64.815987007663352 0 0 0 0 27.288236734330894 -7.6697230685895192 0 -7.6697230685895192 -77.437793594748655 0 0 0 0 -32.934040040050149 2.0061102963154553 0 2.0061102963154553 -64.069930646524881 0 0 0 0 -22.419569069290901 -54.024061736505246 0 -54.024061736505246 -142.28807667094952 0 0 0 0 0.37457896892237841 -19.689703279564128 0 -19.689703279564128 -165.15280696993068 0 0 0 0 2.9157296591411068 -30.657609705669529 0 -30.657609705669529 -120.74890567531111 0 0 0 0 0.4084887314909933 0.30727609332895156 0 0.30727609332895156 -1.3977516886645986 0 0 0 0 23.998440346691496 5.4816272137377382 0 5.4816272137377382 -50.045794601570378 0 0 0 0 24.78687841788178 22.118089955059986 0 22.118089955059986 -38.86404372787365 0 0 0 0 19.013508585402178 -6.6046859396519721 0 -6.6046859396519721 -36.133084243581834 0 0 0 0 5.820006893557256 -0.22536317109007342 0 -0.22536317109007342 -34.356908581605339 0 0 0 0 31.933465194125347 -4.3147858391675982 0 -4.3147858391675982 -39.515472203871468 0 0 0 0 32.650737689319612 3.8392176839915919 0 3.8392176839915919 -61.905625861334556 0 0 0 0 27.111487327510986 -9.1849683302789344 0 -9.1849683302789344 -41.210965314625355 0 0 0 0 20.235046324641189 10.116745335646556 0 10.116745335646556 -51.066769522818504 0 0 0 0 35.788086961614681 12.290663413677976 0 12.290663413677976 -39.025140713087239 0 0 0 0 20.79551992555259 0.42575754897774232 0 0.42575754897774232 -8.0664393523173672 0 0 0 0 24.993084170594557 6.6680202820571139 0 6.6680202820571139 -48.631473310728325 0 0 0 0 25.671569884943892 16.603478314369568 0 16.603478314369568 -31.657754808824393 0 0 0 0 36.918401190188888 14.009277867169658 0 14.009277867169658 -30.437667150443303 0 0 0 0 29.192805526938173 12.810763479385059 0 12.810763479385059 -30.510887864318647 0 0 0 0 29.10775084992747 27.757192772791313 0 27.757192772791313 -4.46255251175171 0 0 0 0 -0.89399974481847622 12.448944706052732 0 12.448944706052732 -29.92367531713343 0 0 0 0 46.677996573876044 27.592338914535503 0 27.592338914535503 -21.532171627932257 0 0 0 0 55.380272093429085 10.542698067401943 0 10.542698067401943 -44.941678240153124 0 0 0 0 40.555101449696849 -5.1419194004847668 0 -5.1419194004847668 -34.891775207848696 0 0 0 0 77.494045145028394 42.854950909858417 0 42.854950909858417 -31.517847579103545 0 0 0 0 24.835030324288255 17.981989490697742 0 17.981989490697742 -2.0974825400444388 0 0 0 0 20.330385691325318 23.000231805126532 0 23.000231805126532 -4.8848003551756847 0 0 0 0 -2.3347597919611367 5.3927187726131223 0 5.3927187726131223 -13.669116861075892 0 0 0 0 12.687154898747394 14.029927490842965 0 14.029927490842965 -6.3877714046975598 0 0 0 0 -3.0096721786071612 14.24709977060229 0 14.24709977060229 -69.656929927701185 0 0 0 0 -81.545071159057443 -185.71037899104385 0 -185.71037899104385 -89.172108649316215 0 0 0 0 22.006401404800727 15.356161058723956 0 15.356161058723956 -16.040849495897419 0 0 0 0 17.798167480072152 19.835212113179296 0 19.835212113179296 -11.998079025801417 0 0 0 0 10.317475864567314 13.313598008968256 0 13.313598008968256 -17.264481472142506 0 0 0 0 28.104260034491745 20.509454007595195 0 20.509454007595195 -21.378039738570806 0 0 0 0 21.791528978317729 13.836811106102687 0 13.836811106102687 -28.38621736215282 0 0 0 0 25.333853880370043 19.322411143048157 0 19.322411143048157 -33.312204301852034 0 0 0 0 21.462733824551833 16.027404552485677 0 16.027404552485677 -35.021438131196192 0 0 0 0 25.286775524044856 21.098925670690733 0 21.098925670690733 -40.35137833369663 0 0 0 0 22.511285594151559 18.3562905745639 0 18.3562905745639 -42.19096359944524 0 0 0 0 17.868014001716801 15.054835337301483 0 15.054835337301483 -41.601929397373169 0 0 0 0 22.061033532543661 19.856241769659391 0 19.856241769659391 -46.003677589746076 0 0 0 0 19.269623405376478 16.380217030076892 0 16.380217030076892 -50.313608078318794 0 0 0 0 20.430787260440411 18.142724732577335 0 18.142724732577335 -38.142265283342567 0 0 0 0 15.287952762755594 13.59859193745433 0 13.59859193745433 -38.308657840185333 0 0 0 0 16.273757149932862 16.843284423590376 0 16.843284423590376 -40.249743340304121 0 0 0 0 20.752758591806924 16.77104022972344 0 16.77104022972344 -31.647991404053755 0 0 0 0 15.659955557859575 15.212617134733591 0 15.212617134733591 -32.122640501766 0 0 0 0 -56.401694856791437 -35.550667672276177 0 -35.550667672276177 -62.246163760457421 0 0 0 0 8.7172551048862488 21.834076159041615 0 21.834076159041615 -32.483076325290313 0 0 0 0 10.216542409481917 11.269789280260738 0 11.269789280260738 -27.561975249263924 0 0 0 0 -2.2908659035167052 11.432664125975489 0 11.432664125975489 -25.38188630231943 0 0 0 0 13.453090258246423 1.403057512341519 0 1.403057512341519 -16.776207396634973 0 0 0 0 -10.216977062160367 25.399597359721156 0 25.399597359721156 -32.589627313631354 0 0 0 0 2.5865853509203589 15.282120189418492 0 15.282120189418492 -36.690579275789787 0 0 0 0 10.902310635801769 18.600793355366477 0 18.600793355366477 -35.374240675635519 0 0 0 0 1.2154174209026678 10.818957254701672 0 10.818957254701672 -50.487705350198667 0 0 0 0 10.921888259828847 10.823115745311952 0 10.823115745311952 -46.895764542932739 0 0 0 0 5.3743316916261392 19.807235323220084 0 19.807235323220084 -46.700465253132279 0 0 0 0 4.6380737702339871 -0.70305306030096837 0 -0.70305306030096837 -19.605346246344226 0 0 0 0 19.917938135661984 -0.51775909947673426 0 -0.51775909947673426 -20.032229908138106 0 0 0 0 -35.014422107182327 50.614004316128558 0 50.614004316128558 -70.006999785488006 0 0 0 0 14.957248527093725 0.14176611039874842 0 0.14176611039874842 -14.751102023830754 0 0 0 0 14.523790578410626 1.5692440218672346 0 1.5692440218672346 -51.949079932142922 0 0 0 0 0.98746252746213692 -2.967446183991715 0 -2.967446183991715 0.45306580702386157 0 0 0 0 14.954293688333564 4.5720778472568782 0 4.5720778472568782 -31.602384033742965 0 0 0 0 26.110875498640326 24.273108743760531 0 24.273108743760531 -45.610977032163646 0 0 0 0 21.371594021220517 20.948693497586646 0 20.948693497586646 -46.914452896606235 0 0 0 0 10.760932479505421 3.717745143869692 0 3.717745143869692 -10.059966418239711 0 0 0 0 -28.550631742501508 -12.665169473997594 0 -12.665169473997594 -51.846357925714983 0 0 0 0 1.3728442196015749 -41.08335707916558 0 -41.08335707916558 -30.682823156330414 0 0 0 0 17.807869285414199 7.5995241636373976 0 7.5995241636373976 -26.610581542394357 0 0 0 0 45.84055532925322 -21.886821190659248 0 -21.886821190659248 -79.38934575600797 0 0 0 0 15.245204419572019 0.8869802218159748 0 0.8869802218159748 -18.25146246251461 0 0 0 0 6.410888339334571 0.20876432468525508 0 0.20876432468525508 -19.731937593376536 0 0 0 0 1.3735547701164688 0.32933604906334679 0 0.32933604906334679 -5.9023755417991524 0 0 0 0 -18.06494018878027 -58.930815173668179 0 -58.930815173668179 -101.49038893150282 0 0 0 0 16.217770769224956 -7.636727248045645 0 -7.636727248045645 -86.062680020939297 0 0 0 0 -27.885387973990717 -25.27660654684405 0 -25.27660654684405 -44.915338201801205 0 0 0 0 0.74279893251609241 4.3587876288229879 0 4.3587876288229879 -10.639378147270975 0 0 0 0 -14.962291854505111 -52.059982252297232 0 -52.059982252297232 -89.598303158476483 0 0 0 0 -44.270090916273489 -26.120648471645382 0 -26.120648471645382 -66.706509468996956 0 0 0 0 -0.47903970731329526 5.7499427187534096 0 5.7499427187534096 -12.057090343294121 0 0 0 0 -41.61242492659494 -67.367949955370932 0 -67.367949955370932 -98.451435153661805 0 0 0 0 -61.411805967324597 -102.43253990338053 0 -102.43253990338053 -120.1956320391364 0 0 0 0 -83.835925917788472 -69.99114254203505 0 -69.99114254203505 -84.955754876296851 0 0 0 0 -122.52314495118313 -116.59154071543163 0 -116.59154071543163 -107.16732356711873 0 0 0 0 -121.41152159663761 -36.439516200654907 0 -36.439516200654907 -147.30335128354272 0 0 0 0 -69.333020658593085 -46.249314734692859 0 -46.249314734692859 -156.59456408788537 0 0 0 0 -70.027256318648597 -75.183400983785759 0 -75.183400983785759 -119.57694642297793 0 0 0 0 -77.747699652983556 -66.54700250397309 0 -66.54700250397309 -59.819867855847406 0 0 0 0 -59.409607406878422 -63.33223385886231 0 -63.33223385886231 -117.17981002489205 0 0 0 0 -57.386422976698213 -83.235322815929976 0 -83.235322815929976 -109.06715366120261 0 0 0 0 -0.39148530187007857 1.2019013557191229 0 1.2019013557191229 -4.329792003691864 0 0 0 0 -1.213096293341648 5.8746844061836399 0 5.8746844061836399 -11.491906681336822 0 0 0 0 -107.46496473827847 151.61153175456275 0 151.61153175456275 -38.697555389634317 0 0 0 0 -33.640483097169636 -524.62012157384379 0 -524.62012157384379 36.127999113523401 0 0 0 0 -79.743061577254593 -65.33304350709659 0 -65.33304350709659 -139.49207769113764 0 0 0 0 -58.808002771424981 -52.14551542303343 0 -52.14551542303343 -142.29532248040414 0 0 0 0 -53.171466530095131 -68.169988129286139 0 -68.169988129286139 -198.73507927995524 0 0 0 0 -21.114433473331246 -14.906157169791186 0 -14.906157169791186 -227.36673138769402 0 0 0 0 -25.062316514879058 -15.446487001019705 0 -15.446487001019705 -217.32731422102461 0 0 0 0 -136.92076985011045 -146.16844775097707 0 -146.16844775097707 -239.55052066776261 0 0 0 0 7.9549864080963744 -26.807509852827934 0 -26.807509852827934 -386.37754367934031 0 0 0 0 -26.664096560828966 42.184696207117668 0 42.184696207117668 -223.81010279773909 0 0 0 0 7.3506254421363337 -4.4142468393438321 0 -4.4142468393438321 -202.7681399610492 0 0 0 0 -151.55260742653763 106.13336771882314 0 106.13336771882314 253.44856540004548 0 0 0 0 20.427297440765869 60.526626049530023 0 60.526626049530023 -201.59256211458796 0 0 0 0 -112.26495503520187 -4.339440377201754 0 -4.339440377201754 -133.53464001523798 0 0 0 0 -109.05030341192651 -9.3428914174419333 0 -9.3428914174419333 -142.45605413003659 0 0 0 0 -173.38608600908208 -0.8808042345517606 0 -0.8808042345517606 -130.20060948603987 0 0 0 0 -278.59602190978421 -93.318023618519874 0 -93.318023618519874 -101.09348075420712 0 0 0 0 -98.10555346752875 -40.742471161551293 0 -40.742471161551293 -150.72844838493984 0 0 0 0 -64.538113773762234 4.4990167811865831 0 4.4990167811865831 -146.77618418864586 0 0 0 0 56.942113673050812 77.917686909916256 0 77.917686909916256 -807.2033601962903 0 0 0 0 23.998295588278097 -114.95296284645701 0 -114.95296284645701 -1128.8477586738736 0 0 0 0 -690.85326591567491 -309.86344801521045 0 -309.86344801521045 -547.76781430626943 0 0 0 0 -8.2401443137560406 -2.4026313279584741 0 -2.4026313279584741 -1.4655618587554819 0 0 0 0 -587.21987063384267 116.47681239192229 0 116.47681239192229 -6.3929431502692751 0 0 0 0 -21.639129144030662 -7.3254682524444874 0 -7.3254682524444874 -2.775074188918591 0 0 0 0 -78.38021617786444 56.551382404333708 0 56.551382404333708 -1.1988983504597854 0 0 0 0 -241.79837504458146 -153.24302203747357 0 -153.24302203747357 -338.12991980057268 0 0 0 0 134.52758776101314 111.6542765782433 0 111.6542765782433 -554.40527476661373 0 0 0 0 -258.84151863524448 -69.698166906120605 0 -69.698166906120605 -72.917030883021653 0 0 0 0 -30.530803356061 -8.7117132900349716 0 -8.7117132900349716 -1.8476454189620881 0 0 0 0 -637.96770254729927 -104.4920321176196 0 -104.4920321176196 -607.92162758534323 0 0 0 0 117.40335131548682 73.498493200053417 0 73.498493200053417 -1555.3134677695271 0 0 0 0 185.65995000265002 165.1996630487829 0 165.1996630487829 -748.10038521739989 0 0 0 0 181.75892375855051 107.22638966180966 0 107.22638966180966 -1511.4817479633857 0 0 0 0 204.36853007084846 746.93388614297146 0 746.93388614297146 -697.29995057209453 0 0 0 0 136.17378134461069 726.89534582269698 0 726.89534582269698 -690.87662505007756 0 0 0 0 -116.18698633548411 346.63570830692333 0 346.63570830692333 -93.713104233938793 0 0 0 0 -140.82539363493169 506.32905240441301 0 506.32905240441301 -255.12579273327719 0 0 0 0 -271.93163417861393 -472.11224514355672 0 -472.11224514355672 -758.79924571688025 0 0 0 0 2.362139663984637 0.11115392770415511 0 0.11115392770415511 -9.8768488408243229 0 0 0 0 15.76834083551239 598.39144592141929 0 598.39144592141929 -360.85296901020774 0 0 0 0 327.05638554129246 191.47283836249517 0 191.47283836249517 168.40851704585657 0 0 0 0 1.3989640645543044 1.3917073530264616 0 1.3917073530264616 -2.652430709945147 0 0 0 0 932.07215695102423 5.8358979790282319 0 5.8358979790282319 328.52511764373048 0 0 0 0 467.58329069310093 -3.0189740972273285 0 -3.0189740972273285 390.45396854830324 0 0 0 0 963.08081490374843 -231.13643910714745 0 -231.13643910714745 419.21859367043362 0 0 0 0 1756.3084552615583 740.35004137334181 0 740.35004137334181 982.22113754972816 0 0 0 0 225.93760000873772 61.487100891812588 0 61.487100891812588 672.927822385318 0 0 0 0 1485.4123188267986 -60.261960501549765 0 -60.261960501549765 -69.932444227393717 0 0 0 0 90.286282243901042 403.3886835060639 0 403.3886835060639 401.5302059763635 0 0 0 0 479.4152346000069 2.7209190966677852 0 2.7209190966677852 227.21711937378859 0 0 0 0 594.04150857036075 137.17204601018602 0 137.17204601018602 -105.65748854033154 0 0 0 0 262.36641224864979 129.43175582239201 0 129.43175582239201 200.1123624283573 0 0 0 0 941.06137778657285 -117.08110336180835 0 -117.08110336180835 70.821860450567328 0 0 0 0 -341.89395476563368 234.10140046822926 0 234.10140046822926 -68.371334063529503 0 0 0 0 236.37779870867962 470.10421970112657 0 470.10421970112657 -57.280142628202157 0 0 0 0 269.09576049553743 118.39296245733567 0 118.39296245733567 15.584148409414411 0 0 0 0 -117.78333613707855 424.40874530079418 0 424.40874530079418 -48.937895626069803 0 0 0 0 -391.3163966075083 320.44284033155054 0 320.44284033155054 -211.37426321840758 0 0 0 0 -294.52299795784751 153.11551044108032 0 153.11551044108032 -184.47287432486337 0 0 0 0 -294.59791289518193 215.57094546117332 0 215.57094546117332 -552.70814344208702 0 0 0 0 -632.10054540521924 235.5480769301812 0 235.5480769301812 -177.66797695451714 0 0 0 0 -598.73349825648006 85.843698356637333 0 85.843698356637333 236.22697549113218 0 0 0 0 -400.3752148207243 366.07262905177686 0 366.07262905177686 -969.17324257615473 0 0 0 0 -494.8864467006606 121.89254613469348 0 121.89254613469348 -152.90359003916092 0 0 0 0 -416.38709111668368 -139.99072807704397 0 -139.99072807704397 -838.6984388860019 0 0 0 0 -474.4365276303638 -31.553148551402046 0 -31.553148551402046 -156.54083807915595 0 0 0 0 -37.870868447232851 308.88618157310339 0 308.88618157310339 5.8302796187381318 0 0 0 0 -65.362561273062511 184.15091053135802 0 184.15091053135802 -555.58899179673972 0 0 0 0 -217.94800441970483 -40.411392060646904 0 -40.411392060646904 -49.195329475071048 0 0 0 0 -314.70849015316264 -73.330088504137962 0 -73.330088504137962 -143.10639859861112 0 0 0 0 -213.95063370720618 -41.884083806500712 0 -41.884083806500712 -213.53904393262383 0 0 0 0 208.95107092976653 157.97739160574591 0 157.97739160574591 -22.246451091054041 0 0 0 0 -97.682498221418058 777.78417879758308 0 777.78417879758308 -555.767892999379 0 0 0 0 -1.8675083781893864 7.1168988131008746 0 7.1168988131008746 -13.519033900656083 0 0 0 0 215.84193593305326 -40.944191067270367 0 -40.944191067270367 -135.27178507123244 0 0 0 0 -13.367459385819529 -130.1849458134111 0 -130.1849458134111 -61.178419121322804 0 0 0 0 362.36595345152216 -294.95084084888003 0 -294.95084084888003 -387.26603939655251 0 0 0 0 -0.019132882017270238 1.6641350070203558 0 1.6641350070203558 -10.822491740285457 0 0 0 0 187.66936233106549 -390.23134177545217 0 -390.23134177545217 -233.38454508792347 0 0 0 0 486.93834753479234 -384.13597190425389 0 -384.13597190425389 -368.47140852444136 0 0 0 0 324.61720945856212 -509.29272774438505 0 -509.29272774438505 -195.16347994622629 0 0 0 0 209.91327679258256 -645.98118222703852 0 -645.98118222703852 -989.43293835204531 0 0 0 0 -0.52878241923145275 2.8713512556042176 0 2.8713512556042176 -7.358396393182133 0 0 0 0 -217.5335016006411 521.16186995903263 0 521.16186995903263 -638.5223083613655 0 0 0 0 235.13654593443073 62.108144095970601 0 62.108144095970601 -226.90539831411297 0 0 0 0 256.29354158629144 307.76925647198914 0 307.76925647198914 -16.950155294573051 0 0 0 0 1126.1965532905942 148.96336497283846 0 148.96336497283846 -254.00049941470934 0 0 0 0 0.74242106457017476 5.9943588859698318 0 5.9943588859698318 -21.80204134104487 0 0 0 0 954.19412942467829 425.26146269489254 0 425.26146269489254 -300.44505265097541 0 0 0 0 116.02790237383807 -44.476100756064625 0 -44.476100756064625 -24.980452310919645 0 0 0 0 584.4714426579626 533.22137857830603 0 533.22137857830603 -146.09177981710195 0 0 0 0 708.63270431778483 -42.327451330398617 0 -42.327451330398617 -195.90248456427616 0 0 0 0 -121.49480696655556 -6.3072387431566312 0 -6.3072387431566312 43.869221362190729 0 0 0 0 33.121058846862368 -120.08541717598564 0 -120.08541717598564 45.671721634796995 0 0 0 0 -7.5211525878922352 97.181073647538142 0 97.181073647538142 -214.14076406069307 0 0 0 0 115.15079347483618 137.06431494131903 0 137.06431494131903 -570.69399543281907 0 0 0 0 21.628960982176629 232.205635226288 0 232.205635226288 -243.01162392026799 0 0 0 0 -123.25901069320854 239.99160834850227 0 239.99160834850227 -584.55838590828353 0 0 0 0 -522.50789203496811 320.50590338452821 0 320.50590338452821 197.75215983711587 0 0 0 0 -89.398959349021595 470.22266463805681 0 470.22266463805681 -729.43720543803647 0 0 0 0 133.68989497595032 -137.36036060954211 0 -137.36036060954211 -542.50574287348718 0 0 0 0 88.675170086558282 636.50875288243287 0 636.50875288243287 -926.51411708801606 0 0 0 0 182.01649758342623 98.138270982952235 0 98.138270982952235 -836.23644080573013 0 0 0 0 -0.16894800530160953 1.6896651638958815 0 1.6896651638958815 -4.8596215703156105 0 0 0 0 145.28485117395979 -2.0831766039445938 0 -2.0831766039445938 -396.56405586357869 0 0 0 0 209.17663806398585 -16.694728332867271 0 -16.694728332867271 -443.82580718344252 0 0 0 0 84.124713523499153 -164.45222545932393 0 -164.45222545932393 -68.690999400467263 0 0 0 0 139.41058215037845 145.60853558365852 0 145.60853558365852 82.264471263653832 0 0 0 0 -69.979903978554233 -170.70038852614562 0 -170.70038852614562 273.13181010793414 0 0 0 0 -63.376039018516224 2.078477505203864 0 2.078477505203864 -201.9748894744771 0 0 0 0 -62.994581358627499 6.365298542790697 0 6.365298542790697 -179.44270976471307 0 0 0 0 -68.261268192165289 -15.57516526881227 0 -15.57516526881227 -124.84714362832892 0 0 0 0 12.869474500672368 -6.2148164931350038 0 -6.2148164931350038 -188.88367849964561 0 0 0 0 93.968880254429678 -60.913735320651995 0 -60.913735320651995 -61.797819096209423 0 0 0 0 14.032037321712608 22.868379611129058 0 22.868379611129058 -149.58033074724199 0 0 0 0 53.075939938044598 -73.703493578399502 0 -73.703493578399502 -157.55590595254307 0 0 0 0 83.618993888582565 45.320004378892918 0 45.320004378892918 -411.35269160233656 0 0 0 0 163.45007636475424 -50.686956557692611 0 -50.686956557692611 -325.99666374226217 0 0 0 0 34.732576523096213 -8.6055043848027708 0 -8.6055043848027708 -287.45765502575068 0 0 0 0 9.5725767023799904 32.744849194075869 0 32.744849194075869 -347.65020320429176 0 0 0 0 25.248350938922016 -14.099049817332343 0 -14.099049817332343 -285.10484860393626 0 0 0 0 128.72687199652975 75.908326348466744 0 75.908326348466744 -391.30354120748962 0 0 0 0 42.223293902897439 15.670243656313687 0 15.670243656313687 -341.56452929961415 0 0 0 0 -4.4604577405240686 88.029783798245262 0 88.029783798245262 -189.91683016828028 0 0 0 0 63.652658346365513 -15.82447173005221 0 -15.82447173005221 -538.46249445615831 0 0 0 0 1.1424858026806213 0.53679998821516506 0 0.53679998821516506 -0.91144318998811258 0 0 0 0 -60.28668898161331 7.4928295527843147 0 7.4928295527843147 -82.381947052890609 0 0 0 0 -801.74147803437199 312.08632504753405 0 312.08632504753405 -713.34680236885288 0 0 0 0 -5.4109257273323683 3.3604931250434618 0 3.3604931250434618 -2.4923758711777566 0 0 0 0 115.76137841563383 -123.54658469981223 0 -123.54658469981223 -652.09268023853292 0 0 0 0 -115.5573651292359 -52.82064252030068 0 -52.82064252030068 -456.17597840241797 0 0 0 0 75.269212895505063 -23.258793318716016 0 -23.258793318716016 -477.86949304957307 0 0 0 0 3.7676816936244282 0.33698442495906988 0 0.33698442495906988 -0.43640556418647236 0 0 0 0 8.8732402467185238 -71.698827006799547 0 -71.698827006799547 -231.19730929132129 0 0 0 0 8.9902032925067807 -1.3946079477638449 0 -1.3946079477638449 -3.6745106307693618 0 0 0 0 -185.73834901957616 -143.4332209776876 0 -143.4332209776876 -136.28261379654032 0 0 0 0 32.668282735128386 -12.625098431706647 0 -12.625098431706647 18.341498490874073 0 0 0 0 108.87942163815251 86.91160984688031 0 86.91160984688031 -713.50479403629834 0 0 0 0 119.81871474092986 -15.622614766860352 0 -15.622614766860352 -498.22219415111795 0 0 0 0 79.663135686577789 -138.3168337845018 0 -138.3168337845018 -628.80572987163032 0 0 0 0 -1.3692605324529512 2.1715464754276468 0 2.1715464754276468 -2.0941941551183625 0 0 0 0 52.461497485848575 121.99331833500764 0 121.99331833500764 -654.12150703545922 0 0 0 0 15.932711976174232 -39.557065754968789 0 -39.557065754968789 -705.8027705766217 0 0 0 0 120.60937544981994 10.50074131218571 0 10.50074131218571 -880.1117121007992 0 0 0 0 53.787524695551156 160.09181438704218 0 160.09181438704218 -593.22611067968683 0 0 0 0 4.9753105833963218 225.9741748955812 0 225.9741748955812 -346.59039213457436 0 0 0 0 -23.630952206654115 37.411502476978967 0 37.411502476978967 -530.92801972848247 0 0 0 0 -19.315116144141427 20.006791215591875 0 20.006791215591875 -158.02515355676587 0 0 0 0 31.259213082262448 -91.206629826880089 0 -91.206629826880089 -423.69835844993213 0 0 0 0 11.554981007665901 1.2941608869332413 0 1.2941608869332413 -258.07914439002889 0 0 0 0 -17.06676233497592 -368.93647339085874 0 -368.93647339085874 -437.05475497033694 0 0 0 0 -5.9716385711171824 -55.555405462072486 0 -55.555405462072486 -159.80002307585528 0 0 0 0 -16.500941657758858 -463.88989447780114 0 -463.88989447780114 -818.58003691124759 0 0 0 0 180.98653394496091 -238.18355462085856 0 -238.18355462085856 -1082.2706013596107 0 0 0 0 175.08110847033834 -148.78715183811619 0 -148.78715183811619 -734.86340124476556 0 0 0 0 212.96348669673174 -154.9273019718421 0 -154.9273019718421 -1044.5781447816562 0 0 0 0 58.359107657140214 104.83510632437446 0 104.83510632437446 -463.70236683579424 0 0 0 0 58.338771573610984 112.23465985807343 0 112.23465985807343 -401.31762493938004 0 0 0 0 -293.23432453477335 681.37635171932197 0 681.37635171932197 -1205.4821207233135 0 0 0 0 -399.87446262759386 -195.39420879379031 0 -195.39420879379031 -3.8868855031032581 0 0 0 0 -1.717802141000047 -2.7076825492766154 0 -2.7076825492766154 -6.365665299418751 0 0 0 0 18.340550627164703 -21.201828352492157 0 -21.201828352492157 -156.04957327439115 0 0 0 0 1.2951466035679022 1.2091115400636028 0 1.2091115400636028 -2.8469670002064973 0 0 0 0 -4.0960259734328019 -36.550674480169619 0 -36.550674480169619 4.1777116162083985 0 0 0 0 -2.6226297407129464 -9.0810714816135345 0 -9.0810714816135345 -16.23241812641507 0 0 0 0 -40.655002396068085 32.733687379801268 0 32.733687379801268 -114.22317111067969 0 0 0 0 -62.574555947063573 156.93118816438437 0 156.93118816438437 -370.1298356917905 0 0 0 0 6.6828954544345152 76.364213533839575 0 76.364213533839575 -267.45651188928969 0 0 0 0 15.883994639561251 -0.86741748523854767 0 -0.86741748523854767 -326.89018232146191 0 0 0 0 -6.6898523434049366 -56.433558278247801 0 -56.433558278247801 -421.95832859081929 0 0 0 0 15.282711273048903 -14.233020140860049 0 -14.233020140860049 -461.9664494158169 0 0 0 0 20.208394518465525 -102.34248461661446 0 -102.34248461661446 -626.20298531644221 0 0 0 0 -64.732561494425738 -82.081526090387342 0 -82.081526090387342 -517.55929262275549 0 0 0 0 -54.015049867037973 -34.973547462009265 0 -34.973547462009265 -859.50288908329458 0 0 0 0 -1.6140843115308543 0.28944860927285276 0 0.28944860927285276 -1.2244634005652806 0 0 0 0 -62.869618844787865 -91.06757404079508 0 -91.06757404079508 -640.6043953188564 0 0 0 0 -19.385627287033856 -18.882864935978432 0 -18.882864935978432 -593.4103284956982 0 0 0 0 -5.5264781537953009 1.7828014548955906 0 1.7828014548955906 -1.8644692037096355 0 0 0 0 94.164729915327598 -205.51043910402404 0 -205.51043910402404 -495.45998036746823 0 0 0 0 14.428859130457568 -136.02108767865138 0 -136.02108767865138 -719.63082937655417 0 0 0 0 495.11218463443993 -283.24856574111254 0 -283.24856574111254 -1388.564971023281 0 0 0 0 101.10320937711367 31.515830162574275 0 31.515830162574275 -529.21147459986605 0 0 0 0 -113.03423772837084 -30.555054064294382 0 -30.555054064294382 -472.37460458015084 0 0 0 0 -1.7711293656253133 94.595275311481601 0 94.595275311481601 -409.23616043181028 0 0 0 0 -34.810197012258811 -84.902313518774463 0 -84.902313518774463 -490.90886745429452 0 0 0 0 -5.0884850538765818 126.24847394063545 0 126.24847394063545 -390.45335590932518 0 0 0 0 -4.6918425385169371 77.691662106450167 0 77.691662106450167 -374.41785047795202 0 0 0 0 -2.7732894459326189 91.814904142192972 0 91.814904142192972 -390.06114499876276 0 0 0 0 -67.162299872543201 54.024636979851493 0 54.024636979851493 -225.06910824362421 0 0 0 0 -129.88556971138428 45.900764374513528 0 45.900764374513528 -223.48716967373639 0 0 0 0 -73.932761723425614 89.666183231691775 0 89.666183231691775 -238.21939888678753 0 0 0 0 -2.7167640088002827 115.14677077218221 0 115.14677077218221 -220.15453841029375 0 0 0 0 -63.280513729501706 133.16726968193325 0 133.16726968193325 -214.71116845267534 0 0 0 0 -33.100037406216359 112.03569762500047 0 112.03569762500047 -310.16478535073111 0 0 0 0 -32.707761723866213 127.27091227332494 0 127.27091227332494 -317.33865769896875 0 0 0 0 -51.73932632286818 98.799055977306125 0 98.799055977306125 -161.35134894723888 0 0 0 0 -76.717200389258664 111.65856442919176 0 111.65856442919176 -232.08296322400747 0 0 0 0 -68.375941590997058 134.18735868730801 0 134.18735868730801 -174.38972629870113 0 0 0 0 -18.908361700787395 110.78202147614502 0 110.78202147614502 -187.8503551515314 0 0 0 0 -40.463925820071609 72.484715114689607 0 72.484715114689607 -110.40423814099631 0 0 0 0 -5.9588418137821293 70.810902747444743 0 70.810902747444743 -165.11650638423453 0 0 0 0 75.468010462655911 50.437206773276557 0 50.437206773276557 -128.15167178049523 0 0 0 0 -7.8758131509761142 51.079380421455426 0 51.079380421455426 1.006043946443242 0 0 0 0 21.349882625511555 48.207861155518913 0 48.207861155518913 -216.23538024922891 0 0 0 0 -96.446536015594916 118.72417644484813 0 118.72417644484813 -160.36061643743597 0 0 0 0 -280.02175833442095 147.49152422499901 0 147.49152422499901 -176.60148763498 0 0 0 0 -100.19802181762056 95.302387304076092 0 95.302387304076092 -180.52719691446691 0 0 0 0 -130.99798512253096 54.771761667325336 0 54.771761667325336 -183.46099404082997 0 0 0 0 -187.2714894782344 -22.190028577981138 0 -22.190028577981138 -288.71651691604347 0 0 0 0 -115.34528962600604 99.117862070299452 0 99.117862070299452 -177.90102945742547 0 0 0 0 159.79690176556528 -192.82349585880002 0 -192.82349585880002 46.926538140123739 0 0 0 0 106.21512342510931 -91.445557061953878 0 -91.445557061953878 19.972224919780274 0 0 0 0 112.78572128359811 -49.394115979679555 0 -49.394115979679555 -32.1155620667123 0 0 0 0 122.84221428829278 -36.52052608026861 0 -36.52052608026861 0.68843557480431627 0 0 0 0 110.0724832578033 -65.081570906992965 0 -65.081570906992965 67.249130017822608 0 0 0 0 92.824622289536876 -57.081358914270822 0 -57.081358914270822 110.47209148679394 0 0 0 0 114.08926369669194 -27.54726376405597 0 -27.54726376405597 77.188778003910556 0 0 0 0 -0.61948142578265986 -2.4717418350576281 0 -2.4717418350576281 -6.103836341058269 0 0 0 0 128.48215281931502 -25.510563502350124 0 -25.510563502350124 17.734313943015877 0 0 0 0 -302.47990099761671 232.81236380282644 0 232.81236380282644 -341.82167301177105 0 0 0 0 47.532611293711511 -16.939120269948035 0 -16.939120269948035 -94.954786442656768 0 0 0 0 13.366965252627438 -1.5834774699687841 0 -1.5834774699687841 -68.935651039239019 0 0 0 0 -62.042036881320854 160.5719008089618 0 160.5719008089618 -189.34514647097967 0 0 0 0 -90.499129742298123 98.94374529596098 0 98.94374529596098 -50.643536485327786 0 0 0 0 -40.940460126275866 178.82687824839741 0 178.82687824839741 -315.0353432271877 0 0 0 0 -53.70582413189095 115.63319058896013 0 115.63319058896013 -249.51569686979929 0 0 0 0 -318.29826705799701 303.22100103102639 0 303.22100103102639 14.851894602077664 0 0 0 0 -0.6693396360448618 -3.3377227439520425 0 -3.3377227439520425 -8.0891514478100248 0 0 0 0 0.069124408158201422 -0.93262528751655793 0 -0.93262528751655793 -2.6995706939110704 0 0 0 0 190.68528200406794 -160.71947141649252 0 -160.71947141649252 -145.41021047979302 0 0 0 0 39.328582985689081 47.46008521260228 0 47.46008521260228 -785.56641538304393 0 0 0 0 -69.573118865719266 73.79812892150926 0 73.79812892150926 -195.28396711759706 0 0 0 0 -212.01435327371775 372.1049237632833 0 372.1049237632833 -513.53664024350292 0 0 0 0 -167.47750366096122 151.24795845590779 0 151.24795845590779 -163.16542170631692 0 0 0 0 -62.918790560378838 68.371642183454242 0 68.371642183454242 -723.82467124988034 0 0 0 0 -29.399989763190888 157.58838630167884 0 157.58838630167884 -403.32170120571936 0 0 0 0 -89.675975362595182 223.36808215604287 0 223.36808215604287 -397.3815289930717 0 0 0 0 -51.34282531824374 89.609281481771177 0 89.609281481771177 -509.07353346795571 0 0 0 0 -42.56996210283728 28.743532026684989 0 28.743532026684989 -512.24507372805238 0 0 0 0 36.465712446506274 70.461561120500846 0 70.461561120500846 -699.47592410051584 0 0 0 0 -34.466966054080217 151.61644222011091 0 151.61644222011091 -602.2406225204868 0 0 0 0 -152.34543742810064 -101.71249024780991 0 -101.71249024780991 -853.19067989750147 0 0 0 0 -82.695665144717253 184.04393577532028 0 184.04393577532028 -986.97109681941947 0 0 0 0 34.359314020801662 22.542426783857081 0 22.542426783857081 -757.3710740288825 0 0 0 0 52.45455103880451 -347.33997524403549 0 -347.33997524403549 -572.00478058658337 0 0 0 0 -17.846258410522637 -293.33277623880713 0 -293.33277623880713 231.50053389417008 0 0 0 0 -211.51410875707148 384.7835088355896 0 384.7835088355896 -840.85441830086347 0 0 0 0 -0.58095352315772519 -1.7552734207121077 0 -1.7552734207121077 -4.1393671760572488 0 0 0 0 -24.94699873824112 -354.01918812470467 0 -354.01918812470467 -88.200872792731388 0 0 0 0 75.28016397949159 215.86466066112916 0 215.86466066112916 344.33412052149288 0 0 0 0 245.24611562955272 360.90672847879614 0 360.90672847879614 -364.0114349987125 0 0 0 0 212.57995454670242 -96.492000252641446 0 -96.492000252641446 -420.32697903140706 0 0 0 0 102.76644925158007 -52.837378068776161 0 -52.837378068776161 -120.87372082892398 0 0 0 0 238.81869682718298 -1.4622531425957277 0 -1.4622531425957277 -119.67229678570584 0 0 0 0 107.58006955197487 -36.760852287487069 0 -36.760852287487069 -118.95718317337742 0 0 0 0 51.745563067033117 -3.3574907204965712 0 -3.3574907204965712 -53.127978435873956 0 0 0 0 51.634682620286242 -0.61886715460423147 0 -0.61886715460423147 -86.845071293850197 0 0 0 0 -12.119795896883375 -33.936549590816867 0 -33.936549590816867 -58.010007967641286 0 0 0 0 -33.265847844075992 -118.9212542418868 0 -118.9212542418868 -163.24388239176187 0 0 0 0 6.9802488356888297 -14.439702040506745 0 -14.439702040506745 -132.04865084742778 0 0 0 0 16.133198702825993 -39.148484443960115 0 -39.148484443960115 -71.582410868883017 0 0 0 0 37.49653236888895 -3.4393995623249793 0 -3.4393995623249793 -71.489491956375119 0 0 0 0 80.502802319555485 -8.6217535654868698 0 -8.6217535654868698 -45.871293229315597 0 0 0 0 71.30278250211353 -58.486724100293941 0 -58.486724100293941 -34.131526328939799 0 0 0 0 112.92550520981905 -72.790575559327408 0 -72.790575559327408 -100.01387811574386 0 0 0 0 51.410186834847963 -17.769327496989717 0 -17.769327496989717 -99.980192068062024 0 0 0 0 -28.543026554133977 -64.506030155985627 0 -64.506030155985627 -112.47107389346638 0 0 0 0 -42.061640653203554 -27.309207954873273 0 -27.309207954873273 -79.11299403123121 0 0 0 0 -25.366173963598108 -151.13112684399675 0 -151.13112684399675 -295.16554420996727 0 0 0 0 -0.073833916894642776 -17.112300975803009 0 -17.112300975803009 -209.04547759106026 0 0 0 0 0.029963799105911022 -29.231132698867441 0 -29.231132698867441 -456.64617471678139 0 0 0 0 -14.616399181470705 -72.178273034176527 0 -72.178273034176527 -255.61230291397806 0 0 0 0 59.80248913979046 -80.896043214646852 0 -80.896043214646852 -541.09203201184755 0 0 0 0 0.11554932650432104 1.8450137985024115 0 1.8450137985024115 -601.25799684827507 0 0 0 0 -14.468291000840983 13.514681061822557 0 13.514681061822557 -526.47834633562161 0 0 0 0 6.5640581890822443 74.682301671717141 0 74.682301671717141 -512.3785009036219 0 0 0 0 -2.1942796667882618 66.482625571865356 0 66.482625571865356 -694.69670568296078 0 0 0 0 -214.37626148425977 -45.351902348447766 0 -45.351902348447766 -649.18488957078443 0 0 0 0 -162.16837950392107 91.309622165479595 0 91.309622165479595 -477.36294834026921 0 0 0 0 -23.995924570422233 101.58716922705094 0 101.58716922705094 -475.53115482149587 0 0 0 0 -34.570352098829339 65.229875087634355 0 65.229875087634355 -327.90602911460155 0 0 0 0 -39.281883650060387 -6.592663854782586 0 -6.592663854782586 -424.31212031001451 0 0 0 0 9.5389613041505896 -6.7567141580802854 0 -6.7567141580802854 -285.61146698822267 0 0 0 0 19.904706161659394 40.517543099023897 0 40.517543099023897 -322.72968217345624 0 0 0 0 3.9584264771776017 80.481498364400522 0 80.481498364400522 -313.74169032333157 0 0 0 0 0.00064504073767594761 5.1160648577060783 0 5.1160648577060783 -463.77783278940115 0 0 0 0 -25.862575910688591 74.76850298923091 0 74.76850298923091 -314.31773032443789 0 0 0 0 -36.573586941582981 29.657972585635434 0 29.657972585635434 -324.7605492583034 0 0 0 0 -23.094435011028509 -4.9127529802019581 0 -4.9127529802019581 0.11709236031424552 0 0 0 0 -2.7854715169578412 -127.03216140310326 0 -127.03216140310326 -94.626915118764373 0 0 0 0 -50.15347266248682 -71.763287502407479 0 -71.763287502407479 19.625892663481864 0 0 0 0 -86.919367848816364 -55.380795537297786 0 -55.380795537297786 16.249131452495391 0 0 0 0 186.67439432370247 43.249181549189188 0 43.249181549189188 -23.717918609975925 0 0 0 0 11.240061198623607 -163.23630829352561 0 -163.23630829352561 54.053648694105277 0 0 0 0 -132.15210390423363 -204.97645380099334 0 -204.97645380099334 -49.356940205858791 0 0 0 0 -0.2001070863734391 0.27765585058710762 0 0.27765585058710762 2.2403058098840427 0 0 0 0 211.57388130007894 -91.128172245549109 0 -91.128172245549109 -99.005355330258681 0 0 0 0 -0.0527072297776634 -7.8446758855286554 0 -7.8446758855286554 -80.390148189565892 0 0 0 0 8.7454682193802 7.4766875659854577 0 7.4766875659854577 -54.230676489263146 0 0 0 0 1.6808147365235406 -5.6616101810892694 0 -5.6616101810892694 -83.963227050062358 0 0 0 0 47.930533727495458 -113.54947545488301 0 -113.54947545488301 -112.77808728128201 0 0 0 0 55.714505573116412 -29.115819453699174 0 -29.115819453699174 -84.738983699111941 0 0 0 0 65.627197108159066 10.961269037325167 0 10.961269037325167 -67.032430131724141 0 0 0 0 3.2820971244269757 -7.7361655971539314 0 -7.7361655971539314 -8.6728897444151283 0 0 0 0 24.130237842016868 -14.226986844461294 0 -14.226986844461294 -55.651332962390654 0 0 0 0 20.080883039295713 -30.183725256051275 0 -30.183725256051275 -41.8697398207878 0 0 0 0 2.5466836760706535 -1.9350947440981408 0 -1.9350947440981408 -45.935023390368961 0 0 0 0 18.457165792906835 -25.876303521454247 0 -25.876303521454247 -49.765391685210489 0 0 0 0 6.1769404863132635 1.8868282303535677 0 1.8868282303535677 -39.961610704366137 0 0 0 0 5.5076029047331758 -13.714584177951792 0 -13.714584177951792 -48.195508726600679 0 0 0 0 -27.873459572234424 -15.458316330553203 0 -15.458316330553203 -0.14517292388808301 0 0 0 0 -32.141654371508139 -53.234540255920535 0 -53.234540255920535 -23.992184119560306 0 0 0 0 0.22665953889145385 -57.784620804735823 0 -57.784620804735823 -78.361836455073899 0 0 0 0 8.9837331677836119 -26.768866023397095 0 -26.768866023397095 -173.93373652538537 0 0 0 0 -1.0419503119507887 -0.60575081567957889 0 -0.60575081567957889 -0.36084016329759683 0 0 0 0 -36.05590402983762 -40.063555617548047 0 -40.063555617548047 71.738406248355204 0 0 0 0 17.099246255596881 -53.050384066688821 0 -53.050384066688821 51.356676466054289 0 0 0 0 -29.677524709972204 -2.4022931997212709 0 -2.4022931997212709 141.60752123206203 0 0 0 0 0.9636890844776147 -0.88758514317811077 0 -0.88758514317811077 -0.5959773363763019 0 0 0 0 29.867085257905387 -16.864938842807732 0 -16.864938842807732 -1.0594906089040705 0 0 0 0 -3.1025099536826559 -1.796898655934813 0 -1.796898655934813 -0.70283423439414117 0 0 0 0 -2.5021600015734293 -0.19045880182488872 0 -0.19045880182488872 -28.726347834189028 0 0 0 0 -9.5585649374515924 -11.299289910111156 0 -11.299289910111156 -22.788793167862423 0 0 0 0 -9.830774709158959 -1.8474709806303053 0 -1.8474709806303053 -50.382850845069015 0 0 0 0 -1.9174712088955701 -3.4111478413785905 0 -3.4111478413785905 -1.6692609302990153 0 0 0 0 -1.8390391197003737 -5.8901200820066038 0 -5.8901200820066038 -5.9134049666004103 0 0 0 0 -0.0081519824813298669 -1.8558472738694949 0 -1.8558472738694949 -2.2093111582214164 0 0 0 0 -10.178977411560481 -37.230006819593882 0 -37.230006819593882 64.932553715318704 0 0 0 0 21.894077073614881 -4.4971583835647948 0 -4.4971583835647948 31.501659588807343 0 0 0 0 11.059088726648042 -6.6063770676807962 0 -6.6063770676807962 -18.314141126896175 0 0 0 0 -4.493786244115654 -1.4258613086831247 0 -1.4258613086831247 -15.201958944840044 0 0 0 0 -6.1522264927990484 -7.9425871187471611 0 -7.9425871187471611 -9.1894630235467307 0 0 0 0 5.3115608944845007 -8.5045235244742798 0 -8.5045235244742798 -11.592341159961506 0 0 0 0 11.223007567017703 -12.896235286510318 0 -12.896235286510318 -14.967121705019281 0 0 0 0 -13.588033644982033 -31.243810435900343 0 -31.243810435900343 28.090210537317034 0 0 0 0 -6.2531365320764962 -26.035735290016419 0 -26.035735290016419 27.165530565926929 0 0 0 0 2.6007081863926942 -28.577171502227998 0 -28.577171502227998 -13.091100394335626 0 0 0 0 -3.1490243422194908 -3.6540720184709699 0 -3.6540720184709699 -13.827314581132214 0 0 0 0 44.083843710428937 -68.601001128592998 0 -68.601001128592998 30.207567686659786 0 0 0 0 -4.8268321441569029 -6.3951392763907258 0 -6.3951392763907258 -8.1974920958058295 0 0 0 0 -16.799861045805301 -52.883649248042275 0 -52.883649248042275 44.61655708873036 0 0 0 0 -52.570969873568174 -56.264740446233645 0 -56.264740446233645 -42.185233811633424 0 0 0 0 -14.214748382964899 -16.873120229450478 0 -16.873120229450478 -3.0796341180268882 0 0 0 0 -63.868442757402136 -33.815162744739553 0 -33.815162744739553 14.723392229271212 0 0 0 0 -65.434518913211832 -30.460079643990184 0 -30.460079643990184 7.5403934406676285 0 0 0 0 -3.4343158520501138 -4.6490605391553963 0 -4.6490605391553963 -6.0822818511777648 0 0 0 0 25.867527734141731 37.358111834769488 0 37.358111834769488 -109.52556615052754 0 0 0 0 108.65746814998056 -39.99572525446149 0 -39.99572525446149 -323.8421074654957 0 0 0 0 -1.0670895742924689 -1.621797048623856 0 -1.621797048623856 -2.800381044597037 0 0 0 0 -321.77607094232008 -6.9558844652587482 0 -6.9558844652587482 22.577546031241582 0 0 0 0 -18.020752465748046 -4.8555101680306052 0 -4.8555101680306052 6.2891031827967936 0 0 0 0 -4.8201796923199254 -15.677178788912556 0 -15.677178788912556 -70.534212000879052 0 0 0 0 42.463551232113105 -89.008428527763954 0 -89.008428527763954 -0.35875207036406209 0 0 0 0 -87.457231115286504 -52.212474986795996 0 -52.212474986795996 -81.084412973298981 0 0 0 0 21.108934570379006 -65.432986169576452 0 -65.432986169576452 -187.13361364091361 0 0 0 0 11.968014699373498 -95.872274579590623 0 -95.872274579590623 -219.2794005069245 0 0 0 0 -93.979065335251022 -148.29808732053203 0 -148.29808732053203 -242.99225289854076 0 0 0 0 -48.946436926559727 -192.50690700667087 0 -192.50690700667087 -334.48588085686453 0 0 0 0 -10.926959774428724 -165.32447465627877 0 -165.32447465627877 -267.48193528218144 0 0 0 0 45.611158694414371 -91.714970993971519 0 -91.714970993971519 -299.07189439991998 0 0 0 0 -17.35815959977765 -79.712620459634692 0 -79.712620459634692 -273.82690141784815 0 0 0 0 -292.53023365053014 -93.210299995871196 0 -93.210299995871196 -251.57273183315192 0 0 0 0 -236.26639021169422 20.332615229572554 0 20.332615229572554 -255.93295497807958 0 0 0 0 -41.977839076878809 -76.510039792951147 0 -76.510039792951147 -293.80538635775605 0 0 0 0 80.188649181124674 28.246254776159446 0 28.246254776159446 -270.61181284298118 0 0 0 0 -12.238779465713378 -142.88321501575643 0 -142.88321501575643 -193.83331469944278 0 0 0 0 -26.369693994651243 -79.202554418387649 0 -79.202554418387649 -379.64328510507573 0 0 0 0 -162.83151802601787 -214.00246276712551 0 -214.00246276712551 -168.63276433225565 0 0 0 0 80.233405447601399 -66.188774370695683 0 -66.188774370695683 -135.38289100936692 0 0 0 0 43.452127894275236 -179.88111836649182 0 -179.88111836649182 -117.00522666137408 0 0 0 0 -41.053880844281139 -69.380378536005992 0 -69.380378536005992 -4.8761582291112973 0 0 0 0 70.524379803572629 -76.725061302172321 0 -76.725061302172321 -24.622691749554974 0 0 0 0 79.281096703613002 -134.36214444661789 0 -134.36214444661789 -61.468053735011338 0 0 0 0 294.8019233522009 -79.764641432498024 0 -79.764641432498024 -105.97602746002394 0 0 0 0 156.85209509756623 -80.046664280373108 0 -80.046664280373108 -51.622050952747031 0 0 0 0 189.95648419341586 15.165002401206813 0 15.165002401206813 -77.43774985416303 0 0 0 0 147.82294260846083 -110.75990023128813 0 -110.75990023128813 -154.66707055298934 0 0 0 0 189.40282010666124 -2.888734904710418 0 -2.888734904710418 -178.83851704667251 0 0 0 0 103.2251376885888 -26.563640269667118 0 -26.563640269667118 -148.33439805005196 0 0 0 0 298.37205835331315 -26.422230866419909 0 -26.422230866419909 -119.20174886915288 0 0 0 0 0.41332716600174191 -5.2867107082362423 0 -5.2867107082362423 -62.308130721153589 0 0 0 0 226.56312271653951 -101.9949102387734 0 -101.9949102387734 -87.790744853442447 0 0 0 0 25.794368370789016 0.66794305542316579 0 0.66794305542316579 -9.3768206768245363 0 0 0 0 7.9696873132434121 -125.23381250027705 0 -125.23381250027705 5.5356373824820366 0 0 0 0 -22.177264877200059 -10.98143982930651 0 -10.98143982930651 -110.12696252104797 0 0 0 0 -93.165234523699837 -87.111714209246202 0 -87.111714209246202 -67.362264795618103 0 0 0 0 29.587580619710934 -64.764842945804048 0 -64.764842945804048 7.4615509041468613 0 0 0 0 -70.51980245919367 -200.94175585654557 0 -200.94175585654557 103.61523313921134 0 0 0 0 12.299781123936555 -114.24606972300899 0 -114.24606972300899 -119.37222770967855 0 0 0 0 47.597966692044793 -229.84955681410429 0 -229.84955681410429 -245.5788199625531 0 0 0 0 -1014.9061199847283 11.245628985581789 0 11.245628985581789 -148.45708394747999 0 0 0 0 -244.20761808238967 193.50026260782215 0 193.50026260782215 -762.88096091977059 0 0 0 0 -365.09348908082757 -103.21538399169731 0 -103.21538399169731 -131.04436393757805 0 0 0 0 -303.61524552083029 114.35618994737342 0 114.35618994737342 -222.31192550775131 0 0 0 0 -160.73211378514679 -186.64044081231577 0 -186.64044081231577 -353.03629692099639 0 0 0 0 -634.18058361432668 -182.86720070137562 0 -182.86720070137562 -96.9537991078505 0 0 0 0 -515.22160583140248 -418.79725466632954 0 -418.79725466632954 -487.01503770163526 0 0 0 0 -241.80114878825498 -82.943300091201309 0 -82.943300091201309 -82.716390688210367 0 0 0 0 -262.80532839256233 -196.39528244096073 0 -196.39528244096073 -165.00416181516266 0 0 0 0 -286.0596321987249 -67.267712061617203 0 -67.267712061617203 -66.9709186996879 0 0 0 0 -272.32814224040612 -14.979001093428451 0 -14.979001093428451 -2.7384802094165934 0 0 0 0 -129.92552128525449 -59.591590737328261 0 -59.591590737328261 -404.42363141993064 0 0 0 0 -236.53731532530219 -40.523047822172884 0 -40.523047822172884 -56.873510795906441 0 0 0 0 -244.49549660437822 -69.103994964024423 0 -69.103994964024423 -153.9324054547069 0 0 0 0 -113.26374765536093 -125.03747889485203 0 -125.03747889485203 -214.51030686452305 0 0 0 0 -229.99108092009919 73.158508201610857 0 73.158508201610857 -242.08250955968106 0 0 0 0 -278.92721933312851 23.338625213243631 0 23.338625213243631 -21.629133408998314 0 0 0 0 -56.558361413572129 -194.69508049460455 0 -194.69508049460455 -73.465207768293112 0 0 0 0 220.21514003279117 126.75768682979651 0 126.75768682979651 -379.73303992623551 0 0 0 0 0.44195896077161922 -6.7363687941749575 0 -6.7363687941749575 -73.754749393152949 0 0 0 0 395.50814063994108 -136.68658977302925 0 -136.68658977302925 -157.11695160083036 0 0 0 0 -45.086063244945763 -97.596211258487529 0 -97.596211258487529 -58.307622753185569 0 0 0 0 -59.832317156984544 -132.40046810312947 0 -132.40046810312947 -138.5973490633005 0 0 0 0 1.5144209028689313 2.9170319490695391 0 2.9170319490695391 -8.5174015214333707 0 0 0 0 42.132887808460737 9.06668764191636 0 9.06668764191636 -54.763586212962764 0 0 0 0 -86.661360960774829 -66.884915049141796 0 -66.884915049141796 -110.512052999773 0 0 0 0 -24.353036408430853 -97.957541515062076 0 -97.957541515062076 -114.47013593854626 0 0 0 0 -118.60603731493734 -64.305109706713893 0 -64.305109706713893 -119.89825709738216 0 0 0 0 -91.679708339433091 -102.51631395956792 0 -102.51631395956792 -153.43613543286301 0 0 0 0 -102.6078996197657 -104.1322420344959 0 -104.1322420344959 -174.10494579221449 0 0 0 0 -58.191030921052061 -133.80142628511294 0 -133.80142628511294 -172.64027906742012 0 0 0 0 -16.518380916107077 -68.510454009161322 0 -68.510454009161322 -109.12487938928098 0 0 0 0 -43.144216168839534 -91.687095353406221 0 -91.687095353406221 -104.78427379406003 0 0 0 0 -35.106997089946674 -90.503820580553565 0 -90.503820580553565 -138.35344755226834 0 0 0 0 -78.488811943815222 -112.70096549055597 0 -112.70096549055597 -106.62849501947767 0 0 0 0 -110.7994572262462 -156.42607019997195 0 -156.42607019997195 -143.38925235195711 0 0 0 0 -96.853868293438609 -110.30047883932275 0 -110.30047883932275 -109.60906582049211 0 0 0 0 -58.482685122070052 -120.51568195502296 0 -120.51568195502296 -126.3034872021999 0 0 0 0 -68.621876397466622 -146.79397529437119 0 -146.79397529437119 -162.43494498217024 0 0 0 0 -79.545928450302654 -175.80898197293027 0 -175.80898197293027 -171.08729477455199 0 0 0 0 -79.630045799023719 -172.12363731279765 0 -172.12363731279765 -142.26125582062014 0 0 0 0 -64.512122512682254 -151.84982742212014 0 -151.84982742212014 -156.30448415489082 0 0 0 0 -63.05236007447354 -151.91757358472637 0 -151.91757358472637 -216.51592669810816 0 0 0 0 -110.97174921835085 -171.00231831442579 0 -171.00231831442579 -179.1398238386646 0 0 0 0 -49.347797336163239 -150.15983743069592 0 -150.15983743069592 -172.1520326349164 0 0 0 0 -100.73729522294616 -145.73272721074682 0 -145.73272721074682 -149.18322587138209 0 0 0 0 86.406111075554691 -54.504939062211633 0 -54.504939062211633 -121.3977714715038 0 0 0 0 -2.6460298418611696 8.6004485411594285 0 8.6004485411594285 -18.90097565221798 0 0 0 0 13.873627126839438 -193.07242685031724 0 -193.07242685031724 -194.08052534473063 0 0 0 0 -47.170301832654687 -198.12193941944429 0 -198.12193941944429 -158.01969009233289 0 0 0 0 -92.857481845122948 -180.83915426802378 0 -180.83915426802378 -152.26119977026747 0 0 0 0 -82.948985095464195 -226.76150899774802 0 -226.76150899774802 -143.25519431639077 0 0 0 0 -461.23088378774946 -382.90206429285604 0 -382.90206429285604 -203.97605240080884 0 0 0 0 -174.51784355101495 -212.2551376333995 0 -212.2551376333995 -134.0702079769253 0 0 0 0 21.764419272726627 84.974273972760784 0 84.974273972760784 31.442648871684469 0 0 0 0 98.675155729531525 65.575669222178249 0 65.575669222178249 -52.835279785260354 0 0 0 0 18.317567717500424 136.76634435401684 0 136.76634435401684 -115.04810097178552 0 0 0 0 339.34489083630319 -41.025905658719694 0 -41.025905658719694 -150.25034189366124 0 0 0 0 -93.566584140879058 184.02339886253139 0 184.02339886253139 -27.276323017973482 0 0 0 0 -0.042809294972116163 1.5223190239282935 0 1.5223190239282935 -5.2583135388785109 0 0 0 0 -227.74914144270133 -253.43502270351019 0 -253.43502270351019 -301.94453163900471 0 0 0 0 -129.61842114264823 -132.36242068436468 0 -132.36242068436468 -161.86997773118492 0 0 0 0 87.874579196814011 104.95952692491301 0 104.95952692491301 42.139995763754996 0 0 0 0 45.405552170726878 38.036095306612879 0 38.036095306612879 -0.18204572046124667 0 0 0 0 -97.39558189147192 -140.93560148527285 0 -140.93560148527285 -159.66882004893978 0 0 0 0 -1.3355629040965269 5.2848125622668629 0 5.2848125622668629 -12.897100154306919 0 0 0 0 9.1411501147049421 35.803490707970923 0 35.803490707970923 45.880376622397364 0 0 0 0 123.63512575945106 116.95729690930148 0 116.95729690930148 21.716408935581057 0 0 0 0 39.392905464496835 24.903007561216327 0 24.903007561216327 -36.727360998640506 0 0 0 0 21.265571650143102 4.622194202403989 0 4.622194202403989 -30.958658685582122 0 0 0 0 21.468605390306948 41.382498038657104 0 41.382498038657104 5.876599249222636 0 0 0 0 14.091824375901524 16.912860090073991 0 16.912860090073991 -73.531346642733297 0 0 0 0 -30.089001052134051 -3.2745605572788463 0 -3.2745605572788463 -27.910061373015196 0 0 0 0 4.9441649883225551 5.8997583444928479 0 5.8997583444928479 -30.669190266763692 0 0 0 0 -7.9099038783151627 1.6947679996610532 0 1.6947679996610532 -49.492910234580009 0 0 0 0 -30.860906041236831 -16.164293334322366 0 -16.164293334322366 -45.001178775444714 0 0 0 0 -0.94339491459231795 -4.3537907785694188 0 -4.3537907785694188 -49.240907536972372 0 0 0 0 -18.197691903961868 -2.2105640800270976 0 -2.2105640800270976 -54.24370172674935 0 0 0 0 -16.85401627348574 -5.972328186894174 0 -5.972328186894174 -46.365610697084776 0 0 0 0 -17.265190452322713 -2.7725625274806589 0 -2.7725625274806589 -48.887156067223259 0 0 0 0 -9.767868593056857 -18.22886312157069 0 -18.22886312157069 -12.906097506339854 0 0 0 0 47.007687658826399 -1.8399596047129307 0 -1.8399596047129307 -34.690023292070691 0 0 0 0 -26.415975877587698 -44.423585342119623 0 -44.423585342119623 -18.200321489954149 0 0 0 0 -5.0411620894155931 -23.296143733758072 0 -23.296143733758072 -12.921908015783629 0 0 0 0 8.5326426623341831 29.695131239586772 0 29.695131239586772 -32.769459451992134 0 0 0 0 -7.6863598150957841 -18.5914074163023 0 -18.5914074163023 -21.391142010679452 0 0 0 0 2.622258385163093 -4.3576764920139972 0 -4.3576764920139972 -7.5096182510849445 0 0 0 0 -0.96069968310621334 2.7585967560544304 0 2.7585967560544304 -29.541624030003732 0 0 0 0 0.038110552121484176 1.0739610426241271 0 1.0739610426241271 -5.093462904044209 0 0 0 0 11.932563877924622 24.378088221585585 0 24.378088221585585 -35.221495960504399 0 0 0 0 -13.586965696722473 23.050732320662064 0 23.050732320662064 37.271496572677734 0 0 0 0 -118.3551247256537 16.483799945724968 0 16.483799945724968 -24.420675090947043 0 0 0 0 26.335817746002022 26.70420684827468 0 26.70420684827468 -25.080301539976062 0 0 0 0 -18.265461807033716 -30.788174244251422 0 -30.788174244251422 -10.075007500592619 0 0 0 0 -1.2505737980002571 1.238099776357835 0 1.238099776357835 0.17708847549745244 0 0 0 0 12.785085151892417 -16.117350817291481 0 -16.117350817291481 -108.75173287751204 0 0 0 0 96.617340153497935 54.118736371863633 0 54.118736371863633 -231.72697214898835 0 0 0 0 -17.991464100315625 9.9051621614789838 0 9.9051621614789838 -261.81943728986153 0 0 0 0 -23.733336051460356 7.809290043159308 0 7.809290043159308 -247.3824411315727 0 0 0 0 -37.164911492513056 -40.661099301247305 0 -40.661099301247305 -114.93832101452062 0 0 0 0 -4.2763095863374474 4.2545387371847028 0 4.2545387371847028 -249.18913674285977 0 0 0 0 54.564468103752006 -29.616303438175237 0 -29.616303438175237 -454.55242855551842 0 0 0 0 -2.1248029856973147 -1.8971591587559757 0 -1.8971591587559757 -2.3414339343581219 0 0 0 0 -45.271305913984747 -104.08484988618284 0 -104.08484988618284 -41.066414146993338 0 0 0 0 -63.886213407498872 -255.51461907393968 0 -255.51461907393968 -290.57142097013275 0 0 0 0 6.0701449775788205 -17.272034030393115 0 -17.272034030393115 -67.196427034639783 0 0 0 0 -457.94708632754009 141.01746148431084 0 141.01746148431084 -113.56708312053888 0 0 0 0 -2.892811746649592 -0.1289494897375647 0 -0.1289494897375647 -3.9243683148040898 0 0 0 0 -284.85471393523221 -30.887854677055657 0 -30.887854677055657 6.8763409022685664 0 0 0 0 92.530992766003067 -91.771629278928913 0 -91.771629278928913 -364.44296719070553 0 0 0 0 -21.844945567377408 184.24974110065159 0 184.24974110065159 -586.24609263740058 0 0 0 0 -811.35722733763475 138.47294280535925 0 138.47294280535925 -73.861546161948354 0 0 0 0 -5.5606051900465445 -352.60562404043958 0 -352.60562404043958 -572.96568063263476 0 0 0 0 60.191263596679164 -57.447521401333233 0 -57.447521401333233 -86.561987237393623 0 0 0 0 84.441558526718836 -87.507906380151326 0 -87.507906380151326 -32.005099513928144 0 0 0 0 451.07083883094492 131.58159798195447 0 131.58159798195447 -229.12640997437302 0 0 0 0 -3.9078264740658319 11.080754323026634 0 11.080754323026634 -22.255097783953431 0 0 0 0 172.90323314321586 118.85055566401661 0 118.85055566401661 -40.387764789958965 0 0 0 0 72.476576425155599 38.149842982905284 0 38.149842982905284 -221.1225598858673 0 0 0 0 10.579440976297519 29.959318447445185 0 29.959318447445185 5.6750108365922642 0 0 0 0 8.4979694757585094 -39.659485654749005 0 -39.659485654749005 -178.70374554857472 0 0 0 0 56.07285658613273 9.6983065869007987 0 9.6983065869007987 -266.84887231360153 0 0 0 0 60.382945405332975 -61.968058029661734 0 -61.968058029661734 -132.37215773536263 0 0 0 0 -4.5957962767003178 10.728658690167517 0 10.728658690167517 -19.630723471430386 0 0 0 0 219.85852242780311 512.63999083345698 0 512.63999083345698 43.135535507061149 0 0 0 0 106.99066032300482 65.344882334290105 0 65.344882334290105 -137.4996595290504 0 0 0 0 53.784323000412201 40.731403484171096 0 40.731403484171096 -146.44084798022232 0 0 0 0 -696.14939689885512 277.71690257261707 0 277.71690257261707 -374.22211564789905 0 0 0 0 -195.99012363697693 450.07223165842879 0 450.07223165842879 -954.62756047393179 0 0 0 0 -599.35943871317386 501.38492491265242 0 501.38492491265242 74.500590150507378 0 0 0 0 17.930019218681082 -173.11552844593916 0 -173.11552844593916 -979.91477109724292 0 0 0 0 -2.5276972775064026 4.5079523687267766 0 4.5079523687267766 -8.3796003604629874 0 0 0 0 -44.596616366510261 -81.506612148137719 0 -81.506612148137719 -165.5727087054438 0 0 0 0 -9.1867390265888389 143.40397159871827 0 143.40397159871827 -545.50282705148493 0 0 0 0 71.710730070811223 148.37117294870222 0 148.37117294870222 -584.69433794656743 0 0 0 0 69.135988817665293 -134.44128462875096 0 -134.44128462875096 -415.17100435771317 0 0 0 0 57.938414410292808 73.600922930684646 0 73.600922930684646 -245.47043586395739 0 0 0 0 0.27269966751761743 1.9046498410030424 0 1.9046498410030424 -0.93179126050964678 0 0 0 0 0.72313197469179613 169.67261805247358 0 169.67261805247358 -625.62124161954489 0 0 0 0 26.523241779976161 92.163143265885083 0 92.163143265885083 -624.21524993903176 0 0 0 0 -6.7664413371379624 137.83258980171809 0 137.83258980171809 -563.45558450945828 0 0 0 0 18.356838484669424 59.103865590217538 0 59.103865590217538 -522.27646439079217 0 0 0 0 -79.385998708687339 203.49478222127618 0 203.49478222127618 -570.79454405616343 0 0 0 0 -253.17138447054549 152.55226253702858 0 152.55226253702858 -417.55402841380055 0 0 0 0 -299.0834122732881 39.762990862502193 0 39.762990862502193 -315.2537285131275 0 0 0 0 -238.23846150278951 79.842282693305606 0 79.842282693305606 -289.52611926541795 0 0 0 0 -390.37949273336369 222.88530981571716 0 222.88530981571716 -415.44328357834456 0 0 0 0 -49.830471068243241 81.672019128052852 0 81.672019128052852 -283.08009918754396 0 0 0 0 80.543442477998724 132.2712343311232 0 132.2712343311232 -666.25549394372683 0 0 0 0 -50.591128976115215 3.7550320859263593 0 3.7550320859263593 -292.58592600713746 0 0 0 0 -0.13526961860248576 0.81747171153523368 0 0.81747171153523368 0.86503199516724294 0 0 0 0 -76.718323382915059 108.22164866597427 0 108.22164866597427 -161.67343485111269 0 0 0 0 21.834475448124977 -71.525399804015251 0 -71.525399804015251 -115.46668428224439 0 0 0 0 -89.657410806876214 -95.270546560730509 0 -95.270546560730509 163.45973380393843 0 0 0 0 -45.139363304487233 -24.685265519482527 0 -24.685265519482527 -68.800456095297704 0 0 0 0 -29.753404231061722 17.34992677057744 0 17.34992677057744 -231.68637041731927 0 0 0 0 -24.401070178068039 31.937602682106444 0 31.937602682106444 -275.19152515817223 0 0 0 0 5.9680833380489275 17.764253215553254 0 17.764253215553254 -289.91680484916833 0 0 0 0 2.4706008783887228 49.059817478955665 0 49.059817478955665 -373.40404652461621 0 0 0 0 0.016855606594297967 3.1391642910238815 0 3.1391642910238815 -1.026850167111014 0 0 0 0 26.448932038009843 123.75083979774354 0 123.75083979774354 -584.11884903346436 0 0 0 0 41.981369724664546 87.936840140626373 0 87.936840140626373 -846.30549864485943 0 0 0 0 25.960271407479013 115.30142460333809 0 115.30142460333809 -612.88621014235923 0 0 0 0 4.1618907995643895 92.419259463352319 0 92.419259463352319 -619.19451239207046 0 0 0 0 116.81302726843114 150.59946059758113 0 150.59946059758113 -683.66307955231787 0 0 0 0 131.91398293736438 65.935302600744762 0 65.935302600744762 -574.10449511940169 0 0 0 0 80.01916647591861 162.79557619387379 0 162.79557619387379 -556.40458973739624 0 0 0 0 -0.24163873023419313 1.7810478266037464 0 1.7810478266037464 -0.52639226125434502 0 0 0 0 -225.49377088080473 194.36702888270611 0 194.36702888270611 112.70329456851505 0 0 0 0 127.43364386441044 74.673606884790388 0 74.673606884790388 -880.28169611590783 0 0 0 0 56.897761904359868 141.97781105230752 0 141.97781105230752 -599.32431974816063 0 0 0 0 -217.56165078635513 59.064430004949827 0 59.064430004949827 -751.3239300498517 0 0 0 0 -4.3436281231549643 2.3987558911529021 0 2.3987558911529021 -1.1185104978735216 0 0 0 0 -52.431491677578379 227.85488864027138 0 227.85488864027138 -1553.2442166947244 0 0 0 0 -108.23910662852359 15.156683726796473 0 15.156683726796473 125.52910163224374 0 0 0 0 37.943789150527664 32.768137328021112 0 32.768137328021112 -42.964912515282776 0 0 0 0 4.7021563503585639 22.432361614479305 0 22.432361614479305 -40.617725425942808 0 0 0 0 -7.0003220119306206 59.20716638309932 0 59.20716638309932 -153.12002845914321 0 0 0 0 -276.3940010123697 603.76152915828425 0 603.76152915828425 -481.60348858704583 0 0 0 0 -189.79097247638674 108.29685494907244 0 108.29685494907244 24.733022441054345 0 0 0 0 -19.794566458077021 5.6035526574110932 0 5.6035526574110932 -3.334959060825887 0 0 0 0 47.093043126938937 96.298476282430784 0 96.298476282430784 -779.7883611672878 0 0 0 0 -155.97500844397655 264.25594787607588 0 264.25594787607588 -470.76642511585305 0 0 0 0 -12.462758576975489 5.9772709766703684 0 5.9772709766703684 -1.2672600562867333 0 0 0 0 -29.000392015135731 117.20102320656224 0 117.20102320656224 -1060.2206536267076 0 0 0 0 36.016895828912311 152.37508612237798 0 152.37508612237798 -1060.4921284693335 0 0 0 0 -8.6646175436053454 21.419873606620968 0 21.419873606620968 -10.037927208639303 0 0 0 0 6.8243982056446839 44.005035970254539 0 44.005035970254539 15.619297580459715 0 0 0 0 -9.7571603447941015 16.160584646056122 0 16.160584646056122 -29.177972018649598 0 0 0 0 -5.5681208838907672 -4.470874902815325 0 -4.470874902815325 -9.5255606137887412 0 0 0 0 -55.798120193849172 -46.846575823316016 0 -46.846575823316016 -27.724617664122206 0 0 0 0 -45.908214609969946 37.698252394464362 0 37.698252394464362 -27.041263776202868 0 0 0 0 24.477463487746263 51.124697167251725 0 51.124697167251725 -23.134868833920336 0 0 0 0 -0.79394543491472191 -0.2609835082007379 0 -0.2609835082007379 0.043158129633557252 0 0 0 0 -2.0962235613996896 -6.0314283808173101 0 -6.0314283808173101 -7.2109160635411982 0 0 0 0 -7.0862109126533142 -20.108982014102821 0 -20.108982014102821 -29.08030983910794 0 0 0 0 22.941607571916393 -42.50753949900718 0 -42.50753949900718 -38.441462277180108 0 0 0 0 25.618995666041883 12.911192002189637 0 12.911192002189637 -15.902945616198849 0 0 0 0 -61.78403272656351 -17.515394760936033 0 -17.515394760936033 3.5112170776883431 0 0 0 0 0.10908348222801578 70.333065607373101 0 70.333065607373101 -134.93724254272092 0 0 0 0 -0.96816513391510028 -1.2554109584078148 0 -1.2554109584078148 -3.13797789701486 0 0 0 0 21.546117794134261 11.238321533086491 0 11.238321533086491 -197.40936230048101 0 0 0 0 -29.250243937131017 60.350282852401506 0 60.350282852401506 -41.467421259614639 0 0 0 0 -9.9079395775179364 -3.3208757264565065 0 -3.3208757264565065 -103.40860067386529 0 0 0 0 -167.11538151780587 248.12615029660083 0 248.12615029660083 -204.55684165419694 0 0 0 0 -125.19262742918181 -47.774659966076797 0 -47.774659966076797 -100.00767141401593 0 0 0 0 37.665263411698106 34.503870286849633 0 34.503870286849633 -71.375284669134999 0 0 0 0 26.261325109227982 -47.726502467407045 0 -47.726502467407045 -66.43175814492497 0 0 0 0 26.86681744019188 6.6087759305164582 0 6.6087759305164582 -87.834115672347252 0 0 0 0 3.0663345820907963 0.56386626900093262 0 0.56386626900093262 -2.8763160219296608 0 0 0 0 5.9334912516569602 -51.426256054468467 0 -51.426256054468467 -245.46465344322496 0 0 0 0 -84.742225420250179 104.5009897489108 0 104.5009897489108 -94.698248167529528 0 0 0 0 -5.2813296823046265 -6.0138372388136645 0 -6.0138372388136645 -6.2494096144357911 0 0 0 0 41.009934431043803 38.800694860989097 0 38.800694860989097 -278.97896160894015 0 0 0 0 -42.116794805078825 -104.3443528839307 0 -104.3443528839307 92.98851013625972 0 0 0 0 12.122528102474462 -58.791423184440646 0 -58.791423184440646 -44.191137951173005 0 0 0 0 63.928223578435791 76.175405789597789 0 76.175405789597789 -108.29377089948684 0 0 0 0 70.426867252488591 11.045809387898771 0 11.045809387898771 -209.86563164641916 0 0 0 0 -17.645725988011691 76.455832528721658 0 76.455832528721658 82.077491711421317 0 0 0 0 32.845567381024011 101.93088114436978 0 101.93088114436978 -8.4098127839897643 0 0 0 0 -5.2656701283922303 360.11580465780935 0 360.11580465780935 -612.24930390785084 0 0 0 0 -23.709208864991524 101.65205209393935 0 101.65205209393935 -303.3223294165291 0 0 0 0 -65.597550814740316 132.05961062064307 0 132.05961062064307 -307.00433557621 0 0 0 0 1.7584498904307111 128.77184903256421 0 128.77184903256421 -339.27490214459249 0 0 0 0 -5.3120024195564071 -15.591044398899029 0 -15.591044398899029 -3.707050124065093 0 0 0 0 202.00653222314395 52.087650410512651 0 52.087650410512651 -629.1123462097728 0 0 0 0 -4.3220357956068511 -3.1988952371050416 0 -3.1988952371050416 0.7580592484598796 0 0 0 0 105.12472659297055 -146.98312868677931 0 -146.98312868677931 -176.97706166979333 0 0 0 0 -94.269510043677656 -70.577257443113922 0 -70.577257443113922 1.0906565945624607 0 0 0 0 -5.1603199193777982 -3.8995158179532154 0 -3.8995158179532154 20.903947657518074 0 0 0 0 44.69046497236377 -13.667096732786376 0 -13.667096732786376 -19.803520534551353 0 0 0 0 -0.66565899072693213 -1.3375092813155405 0 -1.3375092813155405 -1.68244892481259 0 0 0 0 46.654624783389181 105.300176656855 0 105.300176656855 -582.60914055243484 0 0 0 0 37.880636216077619 98.998399106292709 0 98.998399106292709 -337.39255088909704 0 0 0 0 -46.838170572200397 -102.01449148110805 0 -102.01449148110805 -407.43123137762814 0 0 0 0 -11.869512320074136 86.358566629009147 0 86.358566629009147 -351.94438340937995 0 0 0 0 -152.55500905998451 -22.001547166768432 0 -22.001547166768432 -178.89235297584128 0 0 0 0 -12.476365580052516 -121.38572126260988 0 -121.38572126260988 -230.48463968050237 0 0 0 0 16.475050140795247 20.163715614651665 0 20.163715614651665 -201.09077077774054 0 0 0 0 -21.995791011458095 1.8572701646689893 0 1.8572701646689893 -177.63415900467226 0 0 0 0 34.984595670224735 -61.037141103690828 0 -61.037141103690828 -153.74166989096193 0 0 0 0 -2.741744990355123 -14.910833530871592 0 -14.910833530871592 3.6222720058664475 0 0 0 0 -93.623451168026804 -33.292528427038633 0 -33.292528427038633 15.632161257860844 0 0 0 0 11.189521772963872 0.88156004543543531 0 0.88156004543543531 -71.259989133253839 0 0 0 0 15.607550824588543 -23.174144277127198 0 -23.174144277127198 -77.613899617218067 0 0 0 0 -6.3634980996030208 -38.186934480585478 0 -38.186934480585478 -22.63650617756457 0 0 0 0 -0.70000642234180788 -22.524710209289207 0 -22.524710209289207 -20.629048836901578 0 0 0 0 4.3765631627338735 -27.49822518469432 0 -27.49822518469432 -64.818009248168892 0 0 0 0 -13.38724203194397 1.96878108508281 0 1.96878108508281 -36.374866832929911 0 0 0 0 -27.007156405063597 32.849884582741055 0 32.849884582741055 -70.173907699679376 0 0 0 0 -32.138904642068155 -2.5526426331626197 0 -2.5526426331626197 -24.996578496532948 0 0 0 0 -0.17401743402500358 -20.336367902666506 0 -20.336367902666506 -20.870441291795458 0 0 0 0 -7.2417307960422477 -41.641099757513075 0 -41.641099757513075 -11.379307680406782 0 0 0 0 -7.6164493705346104 -27.27472512746499 0 -27.27472512746499 -9.4316668290985035 0 0 0 0 -22.234542064840525 0.093255393887204718 0 0.093255393887204718 -54.433984609403296 0 0 0 0 76.702384472004269 1.0922050524932274 0 1.0922050524932274 -40.146815736918143 0 0 0 0 -3.6433682656301096 -12.144153223176531 0 -12.144153223176531 3.9088283001203479 0 0 0 0 30.631364432920236 -3.0812442596215988 0 -3.0812442596215988 -21.531879293877864 0 0 0 0 47.81320569676609 -15.580488658444665 0 -15.580488658444665 -38.95463939180263 0 0 0 0 0.12097920448286459 -19.600770153187113 0 -19.600770153187113 -20.576811394654214 0 0 0 0 -6.7332627131909248 -10.976926702660421 0 -10.976926702660421 -35.933866771611065 0 0 0 0 9.3112871150997307 -15.963900454798932 0 -15.963900454798932 -50.956686284065654 0 0 0 0 -12.913472619819458 -19.197466783415621 0 -19.197466783415621 -51.413126471194118 0 0 0 0 15.610486783170018 -14.064790108217494 0 -14.064790108217494 -44.048988153133905 0 0 0 0 9.0112080745784624 -14.428507691536652 0 -14.428507691536652 -72.182313884105952 0 0 0 0 -24.167599223225807 -23.757161139707023 0 -23.757161139707023 -45.043183564472201 0 0 0 0 -15.956594437941021 -17.426326037367971 0 -17.426326037367971 -62.168571174111548 0 0 0 0 16.623993247340877 -26.340103681666392 0 -26.340103681666392 -110.27528317024826 0 0 0 0 7.3094028451941995 -7.43949493440482 0 -7.43949493440482 -58.24453306205487 0 0 0 0 20.348242523148656 -28.650220295361805 0 -28.650220295361805 -73.853227774790639 0 0 0 0 3.4252388168097241 -47.213129414052446 0 -47.213129414052446 -16.116711121372418 0 0 0 0 3.9264478504954354 -3.9570653931745383 0 -3.9570653931745383 25.094829219533949 0 0 0 0 7.6956565707387199 -20.740178788527317 0 -20.740178788527317 -61.894752942547711 0 0 0 0 -18.71644856511557 -46.885021055874859 0 -46.885021055874859 29.653521908615865 0 0 0 0 9.588103957778003 -77.982175378525199 0 -77.982175378525199 67.897686949266699 0 0 0 0 -0.59095098197394691 -0.97141132595368163 0 -0.97141132595368163 -29.375461078328271 0 0 0 0 -17.635063716408695 40.475945776755452 0 40.475945776755452 48.743265892638789 0 0 0 0 79.392223413884494 8.0525186505385591 0 8.0525186505385591 -42.09237373741189 0 0 0 0 -9.6404963643326482 7.9206561137809786 0 7.9206561137809786 -40.014083281025137 0 0 0 0 -2.4465614204096013 -24.421388130076924 0 -24.421388130076924 -16.756282860251183 0 0 0 0 9.2954177000810887 49.137634387039725 0 49.137634387039725 -148.23829126038197 0 0 0 0 26.330531854338915 10.906028536172585 0 10.906028536172585 -136.5644331863532 0 0 0 0 11.913286646597044 38.585154216526462 0 38.585154216526462 -105.31359932895384 0 0 0 0 -38.964930776081019 6.6556941168053072 0 6.6556941168053072 -120.42704302670063 0 0 0 0 -18.628393610220883 -48.463650312237405 0 -48.463650312237405 -72.589325503940472 0 0 0 0 -0.22722923271095752 -0.66661195276829766 0 -0.66661195276829766 -21.048263234862816 0 0 0 0 -13.236007455114304 10.282955814319962 0 10.282955814319962 -234.93970157272452 0 0 0 0 5.3337975636868578 -41.793751705234968 0 -41.793751705234968 -142.61334390519755 0 0 0 0 -67.088760163394909 -1.3398281678330477 0 -1.3398281678330477 -95.333858159653573 0 0 0 0 -0.80266175416165098 -39.189553500255549 0 -39.189553500255549 -32.114812400390434 0 0 0 0 -44.159653774348044 21.633485994308558 0 21.633485994308558 -157.6370384312022 0 0 0 0 -7.1299396166639326 -41.468790627838644 0 -41.468790627838644 -98.587851011056046 0 0 0 0 0.26312152647554399 -16.291304456179521 0 -16.291304456179521 -12.742578987685533 0 0 0 0 7.6278052081370333 -15.947945393127156 0 -15.947945393127156 -145.47325467140399 0 0 0 0 -16.400150281271635 -39.630147594125447 0 -39.630147594125447 -53.742147568406153 0 0 0 0 6.3451092321938631 -46.779472190085926 0 -46.779472190085926 -169.24110198118069 0 0 0 0 5.667615953015229 30.425326805845543 0 30.425326805845543 -243.78561104024811 0 0 0 0 0.0097665634839358972 2.9913479644201288 0 2.9913479644201288 -120.2095854480558 0 0 0 0 -0.55902970700162768 -4.754556695854717 0 -4.754556695854717 -119.12431097690569 0 0 0 0 0.18865549911970447 -6.9805588476629055 0 -6.9805588476629055 -132.48685678499169 0 0 0 0 1.9528297976030444 -4.4752937014454801 0 -4.4752937014454801 -119.96246401757526 0 0 0 0 -5.9245758195629605 26.49848151989795 0 26.49848151989795 -171.28307073017334 0 0 0 0 -10.352218724197883 -9.6208761198695356 0 -9.6208761198695356 -109.94793989546318 0 0 0 0 16.235026039707009 -11.828277203307152 0 -11.828277203307152 -136.98323594133626 0 0 0 0 13.080001771477328 -14.622074505523642 0 -14.622074505523642 -135.74605325306607 0 0 0 0 9.4111188326896809 -22.440359985617533 0 -22.440359985617533 -112.57687634291347 0 0 0 0 -0.96692807383755408 -37.625743216452321 0 -37.625743216452321 -41.447704619784425 0 0 0 0 2.1070905892756855 -4.2131893502883031 0 -4.2131893502883031 -125.3192152736483 0 0 0 0 -8.2234454396257206 -15.671424386844592 0 -15.671424386844592 -119.84989854084597 0 0 0 0 4.3171050305153855 19.049477434384055 0 19.049477434384055 -70.123680006936524 0 0 0 0 68.07839879148014 119.67059585855333 0 119.67059585855333 -126.70586191205939 0 0 0 0 73.94912773951728 -151.79849307473137 0 -151.79849307473137 -144.57521420451576 0 0 0 0 69.886121163161079 23.42651538419878 0 23.42651538419878 -377.15339304855002 0 0 0 0 -1.1302367889433107 0.561131459733619 0 0.561131459733619 -0.14469411246559399 0 0 0 0 -124.90374376202362 128.65229859858633 0 128.65229859858633 -130.27477523127345 0 0 0 0 2.6281486992393184 24.144591793990912 0 24.144591793990912 -87.539230587834851 0 0 0 0 4.2639998667534176 17.575748387913684 0 17.575748387913684 -66.118778137750922 0 0 0 0 -1.8894028838822123 0.29688630441705754 0 0.29688630441705754 -87.707542493379151 0 0 0 0 -0.0876423592087896 -0.20290749504445671 0 -0.20290749504445671 -11.8165059483715 0 0 0 0 4.5273061166790285 17.132947541722388 0 17.132947541722388 -102.81879144046798 0 0 0 0 1.4055542227965816 8.4008129177727824 0 8.4008129177727824 -125.98530155891785 0 0 0 0 6.4301517699459509 -7.2219410654979583 0 -7.2219410654979583 -49.657618376645587 0 0 0 0 -1.548212028265965 2.2941529923395745 0 2.2941529923395745 -21.652349113684707 0 0 0 0 -11.815000892858485 -9.0155646675088548 0 -9.0155646675088548 -18.326423598875408 0 0 0 0 -11.74123164401194 -24.14555077947233 0 -24.14555077947233 -30.307363204075955 0 0 0 0 -18.701197796313863 -47.262676254083999 0 -47.262676254083999 -11.047081930184504 0 0 0 0 -29.665199313843914 -34.57459505395309 0 -34.57459505395309 -22.735004042253422 0 0 0 0 -2.4320973971345197 -26.590658522838776 0 -26.590658522838776 -28.91468578420308 0 0 0 0 11.37148741709052 -38.100499425876905 0 -38.100499425876905 82.760661646358244 0 0 0 0 -7.3730876881418226 -31.096731565117807 0 -31.096731565117807 -47.643785584199577 0 0 0 0 -74.379605647567587 -88.893214357104739 0 -88.893214357104739 55.212406434130799 0 0 0 0 -6.7095250919483078 -48.135796727812703 0 -48.135796727812703 -38.265828580227208 0 0 0 0 -26.59422470328991 -23.85354376748046 0 -23.85354376748046 -8.9141755591626861 0 0 0 0 5.0918654440010869 12.803074568491866 0 12.803074568491866 -38.432487821661198 0 0 0 0 -0.56822987919696288 -0.25092193118489092 0 -0.25092193118489092 1.0574345552260453 0 0 0 0 7.9350048092255747 -9.974004230227365 0 -9.974004230227365 -48.404664664736629 0 0 0 0 7.8045994154394975 7.1224408550415319 0 7.1224408550415319 -28.115213860750373 0 0 0 0 10.930873248857097 5.4310445293631346 0 5.4310445293631346 -80.554340208978829 0 0 0 0 -62.342186375060919 -13.35666147307893 0 -13.35666147307893 -48.580624557718693 0 0 0 0 -14.561570627838591 46.819811511491935 0 46.819811511491935 -14.566963773479074 0 0 0 0 6.6195407802460977 35.571764861591873 0 35.571764861591873 -66.636064951177104 0 0 0 0 -19.60819685991919 28.89873874695877 0 28.89873874695877 33.117406908735575 0 0 0 0 -19.13972540141549 16.086778024374325 0 16.086778024374325 -43.31602954779737 0 0 0 0 3.703818538100677 21.931773614511258 0 21.931773614511258 -4.7215617207766627 0 0 0 0 5.2239464375738862 25.13586507338573 0 25.13586507338573 -30.928753427746415 0 0 0 0 -4.3969298587213217 8.9455027828651481 0 8.9455027828651481 -17.70071379492628 0 0 0 0 14.858246262077955 -15.792127097437515 0 -15.792127097437515 -53.055577597186129 0 0 0 0 -3.7684203504823017 -21.074903273972268 0 -21.074903273972268 -28.93218993886785 0 0 0 0 -10.156089200518018 -17.215847229287437 0 -17.215847229287437 -22.947066603753143 0 0 0 0 -275.77733731167973 -419.40197955004987 0 -419.40197955004987 -977.55807941709645 0 0 0 0 -0.35796241219937741 -1.4976187514799655 0 -1.4976187514799655 -7.4859748537255744 0 0 0 0 -8.6999910245451133 -2.4750858207316311 0 -2.4750858207316311 -19.436558103785494 0 0 0 0 -8.7180506846070784 -1.5440250619431026 0 -1.5440250619431026 -14.832648998926743 0 0 0 0 -11.541434368841429 0.82002482518011277 0 0.82002482518011277 -12.234691103555182 0 0 0 0 -17.150350847679292 -2.2384410310419298 0 -2.2384410310419298 -12.751150425350538 0 0 0 0 -74.925586478908372 -246.13828990689581 0 -246.13828990689581 81.170898611619123 0 0 0 0 -458.24201900181652 190.29627792853717 0 190.29627792853717 -110.98228788639062 0 0 0 0 554.05862595010331 1212.7766118584168 0 1212.7766118584168 -276.49181961266004 0 0 0 0 -5.1406229908618855 -6.3330762274737111 0 -6.3330762274737111 -1.6028294292773353 0 0 0 0 -473.32440879711066 639.02315343471855 0 639.02315343471855 -478.76126636550623 0 0 0 0 131.44102152933556 468.78422100499665 0 468.78422100499665 -1153.6741286917022 0 0 0 0 -94.777387713795179 256.03361055491041 0 256.03361055491041 -493.02927795648714 0 0 0 0 -22.141484227378896 -52.601499908038022 0 -52.601499908038022 1.1111386148331803 0 0 0 0 -21.993701175770184 -48.254510088658208 0 -48.254510088658208 -5.7338209645822644 0 0 0 0 -41.530663757712773 -22.600267581898152 0 -22.600267581898152 -14.064483292000659 0 0 0 0 -38.669941593601834 -39.348696594641297 0 -39.348696594641297 -9.5058356964109407 0 0 0 0 -23.162507527496928 -26.303829874430448 0 -26.303829874430448 -14.641366437390388 0 0 0 0 -32.568438820329902 -13.261193479044778 0 -13.261193479044778 -14.882094323253114 0 0 0 0 -41.351143245419735 -13.666178352508723 0 -13.666178352508723 -12.870908950428202 0 0 0 0 -36.841376901198601 -18.922517803468509 0 -18.922517803468509 -11.292616047552656 0 0 0 0 -72.307687046053616 30.711739990190836 0 30.711739990190836 -44.746778399050527 0 0 0 0 4.5105071078542096 56.800090112958969 0 56.800090112958969 -44.375701057977494 0 0 0 0 -72.454756994851778 -10.667671032437283 0 -10.667671032437283 40.715182945543347 0 0 0 0 -62.69395050628691 -29.485482345427499 0 -29.485482345427499 67.042087582372915 0 0 0 0 -199.55444620527305 70.596859181267064 0 70.596859181267064 90.848272116522367 0 0 0 0 -156.9085345532485 -160.8751793532947 0 -160.8751793532947 -60.862554094648544 0 0 0 0 -122.10621432248649 -310.73471252065428 0 -310.73471252065428 -1168.3748901876497 0 0 0 0 -61.665250572664263 122.6002246227963 0 122.6002246227963 -109.7518157402119 0 0 0 0 -1.8535846566407237 -6.6099365586318761 0 -6.6099365586318761 -11.956728198337075 0 0 0 0 -179.48545895516418 989.82862460230626 0 989.82862460230626 -1043.6023912247838 0 0 0 0 -128.40144441866028 991.09853107032063 0 991.09853107032063 -2326.4905872738873 0 0 0 0 -250.05943676803145 304.3838897364094 0 304.3838897364094 -1496.9532626687046 0 0 0 0 -448.54537876910399 -172.29953934144396 0 -172.29953934144396 -1799.9460768566305 0 0 0 0 522.84115745006784 865.87236696976106 0 865.87236696976106 -2817.4721105764838 0 0 0 0 331.9076551551625 429.08731631943374 0 429.08731631943374 -1148.0738760520235 0 0 0 0 -1873.5725593030438 167.41722625036709 0 167.41722625036709 -430.21375494498352 0 0 0 0 -376.48572370366674 -212.89868868908161 0 -212.89868868908161 -825.81190074563165 0 0 0 0 8.4835243025045202 871.3008413664993 0 871.3008413664993 -2357.9373663609194 0 0 0 0 -457.37849503024336 -837.62626598964562 0 -837.62626598964562 -2654.5961249646607 0 0 0 0 9.0129980345809599 959.4783917302484 0 959.4783917302484 -1384.6852839259782 0 0 0 0 -112.64254712542242 14.984422401642405 0 14.984422401642405 32.401323789032176 0 0 0 0 -2.4322862260006985 6.9690344746698969 0 6.9690344746698969 -19.69881863798993 0 0 0 0 -510.05238516908321 1239.3923989906752 0 1239.3923989906752 -789.62904056102343 0 0 0 0 35.396352732025662 -676.75161778125948 0 -676.75161778125948 -1737.0554204189284 0 0 0 0 122.9485548907378 41.182799354905001 0 41.182799354905001 7.6006904400928761 0 0 0 0 -4.2665770240017871 16.508628077229808 0 16.508628077229808 -51.434216045991022 0 0 0 0 396.41380243171989 186.56415531207131 0 186.56415531207131 -349.72388333289564 0 0 0 0 744.06636539549436 267.93815769600269 0 267.93815769600269 -218.57657939086494 0 0 0 0 562.53174531951481 -42.841707023473191 0 -42.841707023473191 -306.8414773200202 0 0 0 0 -373.91963577597107 402.40485293134429 0 402.40485293134429 -180.18887094874481 0 0 0 0 62.180613495915168 5.7507764556539769 0 5.7507764556539769 -66.790484395593012 0 0 0 0 59.581612764865213 41.292256130401313 0 41.292256130401313 -532.00105756033736 0 0 0 0 -225.80937091522537 -203.00009346966635 0 -203.00009346966635 -175.45665342591928 0 0 0 0 40.718300387070485 -29.325567649552568 0 -29.325567649552568 -157.3810976410623 0 0 0 0 448.3946469515613 47.603118269039669 0 47.603118269039669 -146.39976108855717 0 0 0 0 337.76659988565007 10.579576990645364 0 10.579576990645364 -248.79929894727138 0 0 0 0 293.79771220310431 75.793569458680849 0 75.793569458680849 114.6341177480117 0 0 0 0 117.24888117266528 -150.14296711163433 0 -150.14296711163433 -76.382309000807254 0 0 0 0 250.3708305838918 0.6923124741679203 0 0.6923124741679203 -112.19940669787593 0 0 0 0 359.15984253640272 -92.937166896403596 0 -92.937166896403596 -80.916294484810351 0 0 0 0 -824.18373298716051 -22.567287795040102 0 -22.567287795040102 -636.47228567051388 0 0 0 0 -637.16848141852461 -166.95625265924173 0 -166.95625265924173 -586.79781943055059 0 0 0 0 -431.47600380724907 250.8958088309073 0 250.8958088309073 -482.64464793068146 0 0 0 0 -459.89174693221685 -128.1923899414046 0 -128.1923899414046 -471.60773612294196 0 0 0 0 -372.61233142683614 42.480825268369472 0 42.480825268369472 -159.52142298304443 0 0 0 0 -238.67010902143011 -97.611623525484674 0 -97.611623525484674 -105.1245411380072 0 0 0 0 -454.9112685962973 151.90632632958341 0 151.90632632958341 -49.720325675609729 0 0 0 0 -725.97464785430157 132.33673820947752 0 132.33673820947752 -34.27182363556949 0 0 0 0 -339.41121778346496 351.35191623509706 0 351.35191623509706 84.359644968392786 0 0 0 0 -586.97970673815689 193.59476471728181 0 193.59476471728181 130.7811451171201 0 0 0 0 209.54598539513609 104.05079296870849 0 104.05079296870849 -165.62689738295322 0 0 0 0 -330.94005368365379 288.13717554781181 0 288.13717554781181 -174.71487288574133 0 0 0 0 -110.66758357749313 103.67790302443746 0 103.67790302443746 -37.493482756022786 0 0 0 0 -494.36574947510053 119.84089319810039 0 119.84089319810039 -36.463444725176487 0 0 0 0 -129.25156271518063 -16.378281609764826 0 -16.378281609764826 -86.887775588367276 0 0 0 0 -43.542114867601413 -146.34141948503338 0 -146.34141948503338 -82.348828450490146 0 0 0 0 -149.0019890045337 -59.99434420529721 0 -59.99434420529721 -53.458709998968516 0 0 0 0 280.49440685868251 72.283493480872124 0 72.283493480872124 -73.009973567444831 0 0 0 0 276.27049633552053 -60.396689746823057 0 -60.396689746823057 -152.21585818729545 0 0 0 0 134.30033956554325 -84.018810677721376 0 -84.018810677721376 -88.920156154333881 0 0 0 0 113.44074286419163 -54.620006971892906 0 -54.620006971892906 -115.84080123855279 0 0 0 0 180.80601739560007 15.701454305075686 0 15.701454305075686 -67.848143949856421 0 0 0 0 85.023725548402581 -71.518430539520978 0 -71.518430539520978 -90.628638702130047 0 0 0 0 104.35511060595945 -21.195437626418311 0 -21.195437626418311 -66.003606561622064 0 0 0 0 -13.31344583194732 -28.712564095000914 0 -28.712564095000914 -83.395321425440784 0 0 0 0 21.987438821495743 -64.824157675361221 0 -64.824157675361221 -73.70710569591165 0 0 0 0 28.874682951773138 -96.813520536506871 0 -96.813520536506871 -89.819569394009136 0 0 0 0 18.688830458831944 -55.532786075224521 0 -55.532786075224521 -38.901611730060267 0 0 0 0 34.115672182637354 -46.606538403513696 0 -46.606538403513696 -34.777381886329295 0 0 0 0 7.2916920851530449 -25.607762078515179 0 -25.607762078515179 8.9034151775576902 0 0 0 0 42.316472622893343 -38.918027354221294 0 -38.918027354221294 -37.952299291228883 0 0 0 0 19.671096144360924 -9.119194705568896 0 -9.119194705568896 -29.377307031644669 0 0 0 0 67.915563703678345 -28.870871874812451 0 -28.870871874812451 -65.877506261309804 0 0 0 0 19.607956945543265 -13.152127714083235 0 -13.152127714083235 -45.264810427791872 0 0 0 0 4.5521477392880936 -6.0995254929823943 0 -6.0995254929823943 -32.970577675320797 0 0 0 0 32.230428397087962 11.513065921301859 0 11.513065921301859 -90.40896882142988 0 0 0 0 4.0095132298101817 0.041046573642915973 0 0.041046573642915973 -52.978887810394099 0 0 0 0 2.44773188448562 -30.238129416691663 0 -30.238129416691663 10.208108819136896 0 0 0 0 14.97825883239021 -16.749753730825365 0 -16.749753730825365 -21.82470615897855 0 0 0 0 1.5064609921882948 -31.736666748302923 0 -31.736666748302923 7.9182914746761526 0 0 0 0 2.3300863775534388 -3.3973877238268457 0 -3.3973877238268457 2.1604989772257284 0 0 0 0 422.5098047238107 -210.24916387357348 0 -210.24916387357348 -143.16730553915204 0 0 0 0 509.82543335352966 -44.483766921989172 0 -44.483766921989172 -35.295780549002302 0 0 0 0 106.11900719562436 -75.594941932108213 0 -75.594941932108213 11.676154893866624 0 0 0 0 -59.521237516077235 -36.343611846153635 0 -36.343611846153635 -4.6979264404326386 0 0 0 0 -113.42734570568064 553.84867300481949 0 553.84867300481949 -575.15980717396178 0 0 0 0 -81.64563659805026 2.4173177401671637 0 2.4173177401671637 52.499047994585339 0 0 0 0 141.50664184186644 -270.58124077534694 0 -270.58124077534694 -22.522573993061997 0 0 0 0 5.1381996036097917 -29.053867379562462 0 -29.053867379562462 3.3941843455513663 0 0 0 0 -10.205383672761855 -56.933362388929481 0 -56.933362388929481 -9.3920623074977811 0 0 0 0 126.48776532363991 8.4061866568026744 0 8.4061866568026744 -72.272989098583821 0 0 0 0 59.114967078085101 16.147555592793651 0 16.147555592793651 -103.28040785996563 0 0 0 0 35.088760114773322 12.683681785878434 0 12.683681785878434 -68.698860003816662 0 0 0 0 58.610693320009887 18.287126177081518 0 18.287126177081518 -95.658443996337155 0 0 0 0 3.5789338850481727 53.379887006296485 0 53.379887006296485 -45.761622513637121 0 0 0 0 2.3490717859758661 37.548873498319153 0 37.548873498319153 -111.56509874942276 0 0 0 0 -12.781385094083817 94.674324417406751 0 94.674324417406751 -129.07937838985163 0 0 0 0 -0.19619330725539896 1.3579694517383558 0 1.3579694517383558 -4.0613366501774806 0 0 0 0 -24.271676428991213 -7.0692078323600072 0 -7.0692078323600072 -30.064431584862177 0 0 0 0 3.2824760289363155 9.3733156313077046 0 9.3733156313077046 -1.6861480735881944 0 0 0 0 -16.502485895010295 33.763841985824001 0 33.763841985824001 -109.38847417414217 0 0 0 0 23.812677767487912 26.829703762821737 0 26.829703762821737 -121.24063085050875 0 0 0 0 30.323131194429152 41.907715749639465 0 41.907715749639465 -113.87231183824406 0 0 0 0 41.737857853879177 6.0805600283420063 0 6.0805600283420063 -104.33392371450464 0 0 0 0 16.268491096379876 26.394613236912846 0 26.394613236912846 -114.4486222538053 0 0 0 0 18.406124016899412 -3.6722470473650901 0 -3.6722470473650901 -86.103631913163554 0 0 0 0 11.708676001842832 -6.8293107480712933 0 -6.8293107480712933 -78.999294386772817 0 0 0 0 14.11160524907973 -14.113051692347653 0 -14.113051692347653 -94.197652309096156 0 0 0 0 27.726907908281646 -3.2089408679166809 0 -3.2089408679166809 -94.862420679492061 0 0 0 0 17.443683918660099 -4.7936568235695631 0 -4.7936568235695631 -44.773024601610814 0 0 0 0 18.331821722246787 -6.5643966292864206 0 -6.5643966292864206 -42.31237835369393 0 0 0 0 5.573638027810695 -2.3421230623423988 0 -2.3421230623423988 -51.844219956459327 0 0 0 0 14.928940038375003 10.570500480829651 0 10.570500480829651 -102.63593313707679 0 0 0 0 10.154565802200601 -0.81778429898612615 0 -0.81778429898612615 -47.848956618096317 0 0 0 0 37.292721217334474 -18.177536506512297 0 -18.177536506512297 -31.952716589298689 0 0 0 0 15.112857736504743 11.292753784513664 0 11.292753784513664 -58.924347681893899 0 0 0 0 -20.31008644110625 -37.621084680056811 0 -37.621084680056811 -10.006107360855822 0 0 0 0 2.3074249241298546 -5.0118314465300724 0 -5.0118314465300724 -3.595270687423465 0 0 0 0 26.49914387530589 -2.5995602449129365 0 -2.5995602449129365 -32.767196930772116 0 0 0 0 2.2308290558431523 -4.2958255517087665 0 -4.2958255517087665 -38.475237069107592 0 0 0 0 5.3019631550019879 -14.008252696489931 0 -14.008252696489931 -31.105454561685733 0 0 0 0 59.647178787439771 -48.321216640570128 0 -48.321216640570128 -1.1745969108114878 0 0 0 0 14.62521598629246 24.535396708550252 0 24.535396708550252 -42.459435219283478 0 0 0 0 48.978245328172306 -22.165196222274972 0 -22.165196222274972 -94.815803487370431 0 0 0 0 21.872842111491991 37.104247383451366 0 37.104247383451366 -8.2830358185492514 0 0 0 0 0.39216022890828128 2.065492902801374 0 2.065492902801374 -3.531497853428661 0 0 0 0 42.607289988081902 41.935771433454647 0 41.935771433454647 -40.064796596747328 0 0 0 0 69.373769647934751 63.828337589055081 0 63.828337589055081 -13.320228632543149 0 0 0 0 31.769175013854692 1.5359634587821347 0 1.5359634587821347 -50.354038701814716 0 0 0 0 -11.946638895280557 6.6165873260088119 0 6.6165873260088119 -24.827451624954847 0 0 0 0 3.1165058687489875 2.3560940625578901 0 2.3560940625578901 -34.847043500833536 0 0 0 0 57.963567205250001 15.072529870710241 0 15.072529870710241 -29.34849557501002 0 0 0 0 2.6565781166045284 9.4633494193672689 0 9.4633494193672689 -6.5387405977687934 0 0 0 0 -1.8582145542033714 28.498095211693144 0 28.498095211693144 -32.298615524177613 0 0 0 0 155.69142242855742 -17.138750676908103 0 -17.138750676908103 -104.1846009503297 0 0 0 0 -0.64380300568103799 17.067366237209178 0 17.067366237209178 -50.583458028002212 0 0 0 0 44.171138606703607 31.622283982005683 0 31.622283982005683 -74.385565860509814 0 0 0 0 0.66551886963338447 3.6069831710442468 0 3.6069831710442468 -39.727108028567031 0 0 0 0 10.837652687197988 45.489020484186767 0 45.489020484186767 -21.553419397590915 0 0 0 0 -0.34806595289228426 9.661173511594825 0 9.661173511594825 -61.458468666860426 0 0 0 0 36.040853723559849 68.1387748532361 0 68.1387748532361 -44.990339660245809 0 0 0 0 41.059617209190037 78.989826656888908 0 78.989826656888908 1.578978856021422 0 0 0 0 46.509471726476477 51.881142333848402 0 51.881142333848402 -24.995265734281929 0 0 0 0 66.001348119356408 80.937825868375512 0 80.937825868375512 -1.5256717379907059 0 0 0 0 35.652139029198224 40.745223012674614 0 40.745223012674614 -16.072191430488601 0 0 0 0 46.342249403642199 75.451533467040917 0 75.451533467040917 5.7026473522710148 0 0 0 0 41.101781253943045 55.107070993180969 0 55.107070993180969 -22.697596825593791 0 0 0 0 17.563410105194635 15.800536798424218 0 15.800536798424218 16.559909427955063 0 0 0 0 104.15903040149169 14.114141304863097 0 14.114141304863097 14.666447487397818 0 0 0 0 73.483870769763598 78.968857497846329 0 78.968857497846329 -36.712035491049392 0 0 0 0 0.99740101485076593 20.320090725856062 0 20.320090725856062 43.538790847067503 0 0 0 0 4.5141692880920345 49.413710806426934 0 49.413710806426934 -44.043326806691766 0 0 0 0 15.879094005294064 14.113175169743045 0 14.113175169743045 25.436190773736598 0 0 0 0 2.7866267307461356 0.93063402120202454 0 0.93063402120202454 -0.14244034750702639 0 0 0 0 9.6609084136216552 -13.972842368253623 0 -13.972842368253623 -44.379554432940495 0 0 0 0 57.876076534681488 69.017253941872696 0 69.017253941872696 84.052643134797108 0 0 0 0 1.1168357471051635 0.93833050715277011 0 0.93833050715277011 -0.16520873593610119 0 0 0 0 -72.705479748503421 0.59951752725282859 0 0.59951752725282859 -19.115933096208209 0 0 0 0 14.924349817741131 -43.246251894257512 0 -43.246251894257512 -45.436410596532369 0 0 0 0 -3.3934553201874351 6.0046615470572213 0 6.0046615470572213 -7.3036677350429571 0 0 0 0 39.39585294046492 37.089094278196626 0 37.089094278196626 -7.7658048127450456 0 0 0 0 -11.4663562562273 25.651382682095573 0 25.651382682095573 -309.36007126317236 0 0 0 0 235.2408087486474 205.30788360362931 0 205.30788360362931 -120.09653807198629 0 0 0 0 -3.999856800562128 19.59625229539693 0 19.59625229539693 -72.492216643614569 0 0 0 0 37.965303567081719 222.4182667758032 0 222.4182667758032 201.7626053792701 0 0 0 0 61.707136771809019 220.21766542845944 0 220.21766542845944 -17.800572250671394 0 0 0 0 109.9522174680842 73.431173338928602 0 73.431173338928602 -37.669405275904865 0 0 0 0 -5.1306124797955892 15.965462678385194 0 15.965462678385194 1.6427912968612901 0 0 0 0 42.827858249580459 131.7298119060797 0 131.7298119060797 -85.141354344807041 0 0 0 0 -4.4624288227423676 193.93331873112402 0 193.93331873112402 73.533960523447604 0 0 0 0 -35.613240083665005 138.80191504991672 0 138.80191504991672 44.743966029982403 0 0 0 0 50.422403393960849 66.794389388980562 0 66.794389388980562 13.142425135047233 0 0 0 0 41.183600934142419 106.56080323862227 0 106.56080323862227 55.02134782817302 0 0 0 0 -58.315156601431227 -16.319554141518893 0 -16.319554141518893 -161.74568836935214 0 0 0 0 35.21140936078973 143.07203686025969 0 143.07203686025969 -75.977042009617435 0 0 0 0 -65.797883122413623 175.90075310903194 0 175.90075310903194 -84.893419820396957 0 0 0 0 135.84879484957492 97.608790617981867 0 97.608790617981867 -56.630312931560184 0 0 0 0 196.10553814818559 -16.208317313636144 0 -16.208317313636144 111.20463262855628 0 0 0 0 118.2981413710877 -137.86005173958074 0 -137.86005173958074 -734.09074672053248 0 0 0 0 167.78692090462391 -27.039491289213402 0 -27.039491289213402 -1061.8502405812442 0 0 0 0 -119.39662919327384 378.20652450825401 0 378.20652450825401 -716.7157382883197 0 0 0 0 -205.1473705614535 200.52022685991687 0 200.52022685991687 -1053.2738234281569 0 0 0 0 200.19515702825811 115.85876877978922 0 115.85876877978922 -1281.1726613748542 0 0 0 0 308.37399254018601 258.4122322021467 0 258.4122322021467 -1128.0038383120761 0 0 0 0 166.79466965633401 267.94506348207869 0 267.94506348207869 -1128.4498811154626 0 0 0 0 -79.421854669469212 -138.4086805949355 0 -138.4086805949355 -423.63915024999733 0 0 0 0 -107.34931794326076 139.0084711008767 0 139.0084711008767 39.444011286303066 0 0 0 0 -0.76867375971397678 2.5842953915183031 0 2.5842953915183031 -3.9824401699891538 0 0 0 0 -18.707048017053239 -86.301105046564771 0 -86.301105046564771 -1158.357910926341 0 0 0 0 -212.82173934235061 209.98071937024406 0 209.98071937024406 -944.19920862582512 0 0 0 0 -223.39246993645975 381.37576245765922 0 381.37576245765922 -1117.801855740192 0 0 0 0 97.171898682085157 63.227456112208529 0 63.227456112208529 -876.95207720507096 0 0 0 0 43.469443948468324 -151.37786310657975 0 -151.37786310657975 -737.22436753551301 0 0 0 0 48.20718862652393 -8.8324801653634495 0 -8.8324801653634495 -451.31242630403722 0 0 0 0 67.389777965792746 -1.0926171296996472 0 -1.0926171296996472 -659.04656084120143 0 0 0 0 32.319946110471847 -52.174163479162416 0 -52.174163479162416 -568.08894315801444 0 0 0 0 73.515342410766607 -84.050209057630127 0 -84.050209057630127 -546.28650937384009 0 0 0 0 85.23848690572413 5.8497534057994471 0 5.8497534057994471 -656.61713866062928 0 0 0 0 55.705422745260876 51.780772970265389 0 51.780772970265389 -717.15235720734745 0 0 0 0 56.516046399503466 81.407066323294202 0 81.407066323294202 -575.96679264685372 0 0 0 0 -16.70632041707222 80.06264865304729 0 80.06264865304729 -548.68519610566364 0 0 0 0 95.124406768264635 45.032958013452117 0 45.032958013452117 -553.90260307710923 0 0 0 0 -0.35449052510557522 103.65027543305587 0 103.65027543305587 -514.54144550666024 0 0 0 0 -65.346116997359786 27.202321784314336 0 27.202321784314336 -588.85731393264541 0 0 0 0 0.52226561776992142 -0.20519260452460131 0 -0.20519260452460131 -2.6034738611197383 0 0 0 0 -92.377530767613734 169.49328578670338 0 169.49328578670338 -148.72651753661921 0 0 0 0 99.650584371858713 -116.03711424240828 0 -116.03711424240828 -542.03476156858778 0 0 0 0 18.164566053762428 -0.26540259155081003 0 -0.26540259155081003 -110.00838369149278 0 0 0 0 90.101443796568674 47.419973865995416 0 47.419973865995416 -115.25956306693342 0 0 0 0 0.31423644363592373 1.7710260291216056 0 1.7710260291216056 -4.0032299410270866 0 0 0 0 -1.4052687076825485 7.6700620292732822 0 7.6700620292732822 -4.5430585085433357 0 0 0 0 9.9337917439124794 -36.095886935581802 0 -36.095886935581802 -66.975449468780425 0 0 0 0 29.576639445009278 6.2264650923552836 0 6.2264650923552836 -10.418494762707269 0 0 0 0 -17.317013332542956 -10.426482966002368 0 -10.426482966002368 34.79858765854442 0 0 0 0 -44.137243577162735 92.646145030672415 0 92.646145030672415 -29.096523544689262 0 0 0 0 -31.908335862917738 -47.922824619372477 0 -47.922824619372477 -9.4990311448091234 0 0 0 0 21.783297829457297 26.295304476570891 0 26.295304476570891 -19.742816909569228 0 0 0 0 -2.7473310192508507 5.2447088990265911 0 5.2447088990265911 20.723863385636832 0 0 0 0 -4.6119183777658499 7.766209117506186 0 7.766209117506186 -6.3395431024419651 0 0 0 0 4.2692810878021987 1.582033053216918 0 1.582033053216918 -1.6579946286741372 0 0 0 0 49.137433913288987 -77.293469272693983 0 -77.293469272693983 -404.51341916652018 0 0 0 0 -7.6532409118208307 -73.407900990453527 0 -73.407900990453527 -133.86625306078349 0 0 0 0 55.889411063393709 73.261934503334487 0 73.261934503334487 -414.80524498039995 0 0 0 0 55.387556597792354 14.459082813449641 0 14.459082813449641 -574.84283931311552 0 0 0 0 -220.36599216445393 -78.287607355379805 0 -78.287607355379805 -296.53776539749924 0 0 0 0 -89.540593635114305 -105.39225227296993 0 -105.39225227296993 -295.20981503883741 0 0 0 0 -208.33747169755384 -24.506834733385404 0 -24.506834733385404 -269.98424795675965 0 0 0 0 -100.92069421936685 44.117921092085453 0 44.117921092085453 -387.42496486876098 0 0 0 0 -128.77330808146371 -20.05127214993081 0 -20.05127214993081 -342.95559517239963 0 0 0 0 8.7681617105627083 -23.457051461877199 0 -23.457051461877199 -415.01022874339833 0 0 0 0 -114.23231994385287 73.057799193838036 0 73.057799193838036 -449.96309956845289 0 0 0 0 -27.018282758746864 18.938217569939297 0 18.938217569939297 -417.60654638845381 0 0 0 0 97.455958443568306 -53.377052157076832 0 -53.377052157076832 -404.5656107896707 0 0 0 0 5.2565283736089441 106.67313004557309 0 106.67313004557309 109.95397929131286 0 0 0 0 -52.871392546104289 -2.7171209725720473 0 -2.7171209725720473 57.694737846297357 0 0 0 0 155.07568863010056 79.23821490570117 0 79.23821490570117 -230.07408659598423 0 0 0 0 -31.617484302377761 -63.772667034450933 0 -63.772667034450933 -252.96500291097254 0 0 0 0 -6.9474454035716917 -64.094344251698203 0 -64.094344251698203 -329.47017832277561 0 0 0 0 -58.049252748388426 -50.076577738531341 0 -50.076577738531341 -291.94356568140392 0 0 0 0 0.18214659068176786 0.21822111266702038 0 0.21822111266702038 -1.6064611533087998 0 0 0 0 93.255933730250945 -88.948071515114862 0 -88.948071515114862 -283.96577296736541 0 0 0 0 -98.149857898923074 -132.98434623082358 0 -132.98434623082358 -317.67880795134624 0 0 0 0 9.902356229695215 -105.61817066749245 0 -105.61817066749245 -344.96698983703391 0 0 0 0 -0.21862558076417571 1.0371074386967436 0 1.0371074386967436 -2.3734684360085083 0 0 0 0 91.001336120078349 101.95247695200942 0 101.95247695200942 -68.659451592269761 0 0 0 0 -96.587993498136257 -38.366333917103475 0 -38.366333917103475 -6.1032558743463596 0 0 0 0 26.627798243434427 57.339175965442337 0 57.339175965442337 15.744815712918353 0 0 0 0 41.344956909419125 78.010884221680499 0 78.010884221680499 44.496638254997379 0 0 0 0 2.358125005618092 1.1350080982050841 0 1.1350080982050841 -2.6011334164486932 0 0 0 0 22.320865006358872 -4.0774263313669508 0 -4.0774263313669508 -13.843465373239269 0 0 0 0 93.826726696661353 33.412339179405535 0 33.412339179405535 -19.928765106364153 0 0 0 0 -0.66354404774775766 2.7528020797315129 0 2.7528020797315129 -9.7605627577637364 0 0 0 0 30.013882916643524 23.622329308136614 0 23.622329308136614 -15.18180294542617 0 0 0 0 16.986938243467193 -114.63781393461431 0 -114.63781393461431 -215.71006695963297 0 0 0 0 0.072950796270180973 0.59918968643498793 0 0.59918968643498793 -3.9431784226689786 0 0 0 0 -98.196717401971 78.52233285260445 0 78.52233285260445 -25.61585596513396 0 0 0 0 19.981519696145369 81.412566662546169 0 81.412566662546169 -41.073312589105626 0 0 0 0 17.053454633683941 25.161297202035712 0 25.161297202035712 -1.5718184306497278 0 0 0 0 37.355278083398844 43.494057176845672 0 43.494057176845672 16.441887002278463 0 0 0 0 88.414855964078924 66.831052219657067 0 66.831052219657067 -127.40944422431494 0 0 0 0 -56.81447881724489 65.718952135470317 0 65.718952135470317 -55.547205848994054 0 0 0 0 103.26933713552216 27.828594301599878 0 27.828594301599878 -91.697042079926177 0 0 0 0 66.936653601358103 7.0360177748534625 0 7.0360177748534625 -67.889743039459063 0 0 0 0 -0.13541676405427516 0.51829778506721169 0 0.51829778506721169 -1.1687877267761735 0 0 0 0 4.6115644463397985 -0.94230635899475601 0 -0.94230635899475601 -8.330186110935756 0 0 0 0 -6.5291506439161822 -21.416480920548565 0 -21.416480920548565 -45.942721225008427 0 0 0 0 17.055455115727455 24.279667414921278 0 24.279667414921278 -0.54592761832464021 0 0 0 0 16.415451543045492 10.314199950749753 0 10.314199950749753 -65.684685409145231 0 0 0 0 3.0212190284655662 3.0067965242524224 0 3.0067965242524224 11.923533513285292 0 0 0 0 9.0907007202758905 4.197186514367786 0 4.197186514367786 11.931340396105952 0 0 0 0 -0.50087257615450653 -1.9711796540777868 0 -1.9711796540777868 11.214590448853414 0 0 0 0 -6.3671718479847641 22.545755801168525 0 22.545755801168525 18.775310710087069 0 0 0 0 4.0373426441044558 8.0531507267885445 0 8.0531507267885445 -6.0889902607377735 0 0 0 0 0.89372873609953984 0.85150099905995091 0 0.85150099905995091 0.66731751556861241 0 0 0 0 -2.5346648405338783 14.82377232921317 0 14.82377232921317 7.129617355618393 0 0 0 0 -9.6137825634014007 11.819457354433325 0 11.819457354433325 12.304143383888004 0 0 0 0 -3.2758842911134707 14.111432838606561 0 14.111432838606561 13.005515290018593 0 0 0 0 -1.0081917560336215 5.6120523802772606 0 5.6120523802772606 -13.429180886929515 0 0 0 0 24.0219190817852 50.006109019165706 0 50.006109019165706 10.64882487453724 0 0 0 0 -28.486712071015063 10.883926485663324 0 10.883926485663324 29.639490791973003 0 0 0 0 -15.464582119770057 -4.2055568987434526 0 -4.2055568987434526 -32.667934798300848 0 0 0 0 -45.599632023946469 9.9737439986674872 0 9.9737439986674872 13.416668466465126 0 0 0 0 -69.928730542062112 -105.90337022641233 0 -105.90337022641233 -87.969772993426886 0 0 0 0 -108.85291357220399 25.287728534942744 0 25.287728534942744 -35.209883771734894 0 0 0 0 -161.00019954100026 -14.006652048992692 0 -14.006652048992692 -43.670256583918672 0 0 0 0 -262.22627333337573 -257.33939377323804 0 -257.33939377323804 -188.19124450337404 0 0 0 0 -300.16956270392075 50.26418640888005 0 50.26418640888005 -70.227509930606175 0 0 0 0 87.197993641329958 60.245026360745214 0 60.245026360745214 -75.30420100338597 0 0 0 0 11.733126323910255 3.1274236513127107 0 3.1274236513127107 -26.364216980702622 0 0 0 0 15.842994358999931 0.46891168292677321 0 0.46891168292677321 -175.1070875948717 0 0 0 0 27.058602121035619 -83.016874257133168 0 -83.016874257133168 -118.06920751812504 0 0 0 0 -403.39750460023879 53.704153922968544 0 53.704153922968544 250.41150728337925 0 0 0 0 50.713574716814037 -33.388608498295071 0 -33.388608498295071 -173.51572885597488 0 0 0 0 -87.601657834189609 64.976012777613505 0 64.976012777613505 -202.69603304252814 0 0 0 0 135.87571392448808 124.31567426339097 0 124.31567426339097 89.021930594219157 0 0 0 0 293.57720783358991 210.34639863206849 0 210.34639863206849 -58.318974900212197 0 0 0 0 484.82551875924219 -136.85009975287903 0 -136.85009975287903 -583.77118137447906 0 0 0 0 87.28646891466633 -111.83730147638926 0 -111.83730147638926 -131.88847446152067 0 0 0 0 173.67808633920868 11.594439826647431 0 11.594439826647431 -184.21721805924972 0 0 0 0 108.90119126263608 -17.233695367679957 0 -17.233695367679957 -133.99353271008295 0 0 0 0 39.704318929665533 -8.3063022626538441 0 -8.3063022626538441 -125.99728083770242 0 0 0 0 30.305009408333717 -34.512146247827332 0 -34.512146247827332 -43.185964534903178 0 0 0 0 41.262320560099397 31.500534167003934 0 31.500534167003934 -54.707851761817437 0 0 0 0 -48.8373540341845 128.63166711194572 0 128.63166711194572 -119.71817258867304 0 0 0 0 53.012478375883802 21.273751439672196 0 21.273751439672196 -65.163122687362375 0 0 0 0 167.43902218287803 30.106824793441774 0 30.106824793441774 -16.353552062813833 0 0 0 0 -1.1685492810466762 0.2590796055998652 0 0.2590796055998652 1.0938714499451123 0 0 0 0 5.9486882464719955 1.553561866239292 0 1.553561866239292 -1.9720765163346474 0 0 0 0 34.568976104244939 3.3726789755965001 0 3.3726789755965001 -25.748591907372429 0 0 0 0 30.960614110874303 15.391477570090501 0 15.391477570090501 -17.497614730371424 0 0 0 0 39.900592601843528 51.967196540223085 0 51.967196540223085 97.34373935768599 0 0 0 0 -23.834423952177531 0.68933095308057091 0 0.68933095308057091 59.74969156717998 0 0 0 0 -18.249832808302017 5.364783339198766 0 5.364783339198766 -10.853030901060265 0 0 0 0 -9.1965752890097292 -5.7129976078326195 0 -5.7129976078326195 -22.348056232265662 0 0 0 0 1.5017394003064233 1.1739430883987012 0 1.1739430883987012 -5.252710534636913 0 0 0 0 -9.4282847278213922 -0.92439079814664638 0 -0.92439079814664638 -11.079608761399868 0 0 0 0 11.847601784984818 0.13185283573238848 0 0.13185283573238848 -26.177132204713416 0 0 0 0 13.191445005561945 1.8237317216580777 0 1.8237317216580777 -28.796616434578027 0 0 0 0 60.316181926086756 -38.288752435106289 0 -38.288752435106289 -21.389874351982144 0 0 0 0 113.5712865800283 28.185652377128463 0 28.185652377128463 -48.831990190305078 0 0 0 0 0.46885337500218327 -1.1385059036129874 0 -1.1385059036129874 -0.037312597814253667 0 0 0 0 96.373738356807735 25.611319973810168 0 25.611319973810168 -19.033499189958093 0 0 0 0 125.28644022267054 35.055385957445196 0 35.055385957445196 -29.77250399019249 0 0 0 0 71.41400456883639 40.887684515022556 0 40.887684515022556 3.6935712136751135 0 0 0 0 122.89885862409506 26.184807079189341 0 26.184807079189341 -18.428118602838367 0 0 0 0 -2.3843686329627367 2.8019845678472421 0 2.8019845678472421 -4.9942755693599281 0 0 0 0 8.08978742596355 37.059932812762781 0 37.059932812762781 19.938933059023839 0 0 0 0 47.408190024915939 -62.902088853116084 0 -62.902088853116084 -167.0556042248063 0 0 0 0 41.050095409988899 96.941269923110667 0 96.941269923110667 -9.351233430146749 0 0 0 0 -3.2017645106736552 10.373314120650198 0 10.373314120650198 -13.444974359016385 0 0 0 0 -36.411145082231769 21.619396368650087 0 21.619396368650087 -16.816104880206694 0 0 0 0 -31.667368310039819 50.693583234104153 0 50.693583234104153 -10.440848140617163 0 0 0 0 30.358914006337727 81.760100729186888 0 81.760100729186888 -17.452494624174221 0 0 0 0 33.848340583886966 42.321835834890408 0 42.321835834890408 -25.786828786716796 0 0 0 0 -5.5899525395216187 32.920820370425645 0 32.920820370425645 -27.937132652548826 0 0 0 0 16.041435178012129 9.5764383409890854 0 9.5764383409890854 -5.3295232114051316 0 0 0 0 -5.5451397228495125 30.919751817678957 0 30.919751817678957 -16.087084789385699 0 0 0 0 22.599571631075378 31.873823522648308 0 31.873823522648308 -33.729360387202178 0 0 0 0 83.12538922665135 14.917477425988181 0 14.917477425988181 -35.450350221071858 0 0 0 0 16.104499095769988 4.8096863826050011 0 4.8096863826050011 -4.7576604870943413 0 0 0 0 20.712220959948354 25.631366394114593 0 25.631366394114593 -31.132899751693913 0 0 0 0 -24.459016321420222 26.22759792625402 0 26.22759792625402 12.962540196447662 0 0 0 0 7.0509870945224975 25.053837955894778 0 25.053837955894778 -30.941567488990586 0 0 0 0 16.754958248337971 19.553616766217601 0 19.553616766217601 -38.407420673556771 0 0 0 0 25.120296795612376 11.38066909200279 0 11.38066909200279 -31.374647344988261 0 0 0 0 18.314843245800603 3.1434782166934383 0 3.1434782166934383 -31.411789814494114 0 0 0 0 30.674785998198786 -6.795025128778434 0 -6.795025128778434 -26.623198885378429 0 0 0 0 16.351786818609071 4.7076346894573362 0 4.7076346894573362 -30.945541641398449 0 0 0 0 29.185714907713191 31.064723372346634 0 31.064723372346634 -48.927081895797528 0 0 0 0 47.402909621843719 17.07117943135745 0 17.07117943135745 -39.722104045093147 0 0 0 0 8.4355705195685005 28.887274926360988 0 28.887274926360988 -38.432822169233987 0 0 0 0 -4.4731016482401174 61.49271364465676 0 61.49271364465676 -16.286166855272313 0 0 0 0 -6.1388660944248841 5.3106879409660905 0 5.3106879409660905 22.124964328424539 0 0 0 0 117.32406639099418 95.78523690732618 0 95.78523690732618 -175.75405007234076 0 0 0 0 1.4440625317647573 -10.362967218046833 0 -10.362967218046833 -26.194863156768406 0 0 0 0 -16.604660523730672 60.619042991380411 0 60.619042991380411 -54.978925254448768 0 0 0 0 125.10704318043645 13.68871351670532 0 13.68871351670532 -82.926760762406047 0 0 0 0 0.32414783039089734 0.126143413540035 0 0.126143413540035 0.98866478006587499 0 0 0 0 135.34638186492811 -39.587608645605542 0 -39.587608645605542 -26.000529409349838 0 0 0 0 138.92060252652118 33.840688659245643 0 33.840688659245643 -82.108611774043311 0 0 0 0 0.42078856750231353 11.674958882122155 0 11.674958882122155 15.735511300830694 0 0 0 0 0.34296864056162235 -0.045125533995239664 0 -0.045125533995239664 0.61355162349463654 0 0 0 0 3.5712782793852966 45.247314564796397 0 45.247314564796397 24.981374255808078 0 0 0 0 61.427023813828782 49.039927670026373 0 49.039927670026373 -0.65423024164556409 0 0 0 0 25.639083852335489 -0.45177634382901033 0 -0.45177634382901033 -6.5899682420822501 0 0 0 0 54.443768636528148 -15.539727861189021 0 -15.539727861189021 -9.073651492864883 0 0 0 0 25.974750656653669 -5.9085826399932557 0 -5.9085826399932557 24.587215257408388 0 0 0 0 67.753926416129161 29.781927095260471 0 29.781927095260471 -104.00341271113484 0 0 0 0 79.248843535997594 76.878359179962445 0 76.878359179962445 -417.19556277235097 0 0 0 0 -308.31479852365192 100.71492347680396 0 100.71492347680396 144.72381560980284 0 0 0 0 1.6699401602800208 110.8691918323857 0 110.8691918323857 -332.88465520462705 0 0 0 0 1.5159369667513864 3.985669484268648 0 3.985669484268648 0.34050501150905177 0 0 0 0 -16.889366566882018 -68.381628982135226 0 -68.381628982135226 123.16373444821988 0 0 0 0 21.803952973255491 3.6336506014304177 0 3.6336506014304177 -13.690639585227473 0 0 0 0 15.92564326998513 0.45838473613957831 0 0.45838473613957831 -15.51401795912534 0 0 0 0 5.753137368440413 3.8642935749374701 0 3.8642935749374701 -11.398865926527776 0 0 0 0 20.806478483406863 -11.770900075385725 0 -11.770900075385725 20.965328945916553 0 0 0 0 9.5664039060548021 7.3094971470927703 0 7.3094971470927703 -10.576247907520155 0 0 0 0 3.1836762192274364 -0.31454789269628236 0 -0.31454789269628236 -12.049905868472706 0 0 0 0 20.124825778969353 19.914934036427439 0 19.914934036427439 -13.042309819866205 0 0 0 0 24.933873972570836 24.75663828904726 0 24.75663828904726 -33.49072591706863 0 0 0 0 -33.782459103306792 37.642218805227458 0 37.642218805227458 -7.8581202971836319 0 0 0 0 8.5821236726924912 4.4628966596989734 0 4.4628966596989734 -12.632764725829077 0 0 0 0 30.236701075247765 -5.9730096931198204 0 -5.9730096931198204 -11.432476852161926 0 0 0 0 27.963635353685277 11.052363543480169 0 11.052363543480169 -28.635194116803177 0 0 0 0 30.980400347350951 5.2980033483690931 0 5.2980033483690931 -19.77641912780382 0 0 0 0 31.313340782514501 3.3697557815110031 0 3.3697557815110031 -19.324322686668893 0 0 0 0 30.01006123714069 -1.5713267348910449 0 -1.5713267348910449 -24.839734267097811 0 0 0 0 33.979572900221683 9.4890862512002059 0 9.4890862512002059 -43.17203256652283 0 0 0 0 32.943468381596631 0.15566204092829139 0 0.15566204092829139 -39.21594562514656 0 0 0 0 -24.139223136481633 23.333036250634905 0 23.333036250634905 -5.8189649909472791 0 0 0 0 113.55931048942807 114.29681232711664 0 114.29681232711664 -56.806409615383018 0 0 0 0 18.310242072989002 9.7694047564056277 0 9.7694047564056277 -1.9120804363564616 0 0 0 0 67.444031505963721 18.846936799340256 0 18.846936799340256 -26.416498603495711 0 0 0 0 -6.318447781272198 102.25630046237347 0 102.25630046237347 -44.359134988859296 0 0 0 0 -3.2767724945543932 236.21595784330202 0 236.21595784330202 66.461026295204647 0 0 0 0 -143.92295542397565 27.714231003044915 0 27.714231003044915 -45.976215138733096 0 0 0 0 -0.9797013625621972 2.1618361469781568 0 2.1618361469781568 -2.3737958459918502 0 0 0 0 -2.0881779286459619 -83.424029630970836 0 -83.424029630970836 -112.01327066200611 0 0 0 0 -313.16618285657773 -59.925151880495832 0 -59.925151880495832 -16.689828832546482 0 0 0 0 -22.548918494303507 82.402748082091421 0 82.402748082091421 -28.680022582688252 0 0 0 0 -28.938017267659461 95.962959610722464 0 95.962959610722464 -54.470688046429132 0 0 0 0 -114.10500080705231 89.171219875926909 0 89.171219875926909 24.969344108668338 0 0 0 0 0.98105529956406246 -0.095724584551355463 0 -0.095724584551355463 -0.82258550227130911 0 0 0 0 -213.89402414620781 -176.71467634949659 0 -176.71467634949659 -205.45275557087734 0 0 0 0 61.254240621304916 -68.187250013703306 0 -68.187250013703306 -206.86590193006123 0 0 0 0 13.753253742226558 5.1659244195705867 0 5.1659244195705867 -3.0444968651055859 0 0 0 0 -370.58475058044195 58.979489276665845 0 58.979489276665845 167.00147295132047 0 0 0 0 -277.05876129102489 213.47811550557162 0 213.47811550557162 207.02315717202873 0 0 0 0 108.8058443704187 -4.3969041536547593 0 -4.3969041536547593 -250.51521430131834 0 0 0 0 -1.0488400829583782 -16.577393755333105 0 -16.577393755333105 -72.689886514046975 0 0 0 0 -12.256155418471451 -3.1378210489347111 0 -3.1378210489347111 7.1436349373470875 0 0 0 0 24.490202478114611 36.688277098178332 0 36.688277098178332 -28.038089644280262 0 0 0 0 4.3591197384793645 18.226969203558838 0 18.226969203558838 -18.026622771008988 0 0 0 0 -26.298021792433531 72.159427588007929 0 72.159427588007929 -38.281935012055328 0 0 0 0 -38.828344608515749 37.730415336263832 0 37.730415336263832 26.15517306618699 0 0 0 0 -0.92844759696617984 35.162864515641559 0 35.162864515641559 -58.983775742482976 0 0 0 0 18.153466456381921 30.153205533872097 0 30.153205533872097 -61.557966625478002 0 0 0 0 12.795793004827829 58.361208934773458 0 58.361208934773458 -33.53145093609055 0 0 0 0 12.418238266049912 62.891254641058822 0 62.891254641058822 -87.676820885710185 0 0 0 0 34.576945281296958 79.82740543753971 0 79.82740543753971 -62.273316437975154 0 0 0 0 11.555161658608995 75.011194430822798 0 75.011194430822798 -62.99306971903934 0 0 0 0 -12.454089302110788 107.70488952603409 0 107.70488952603409 -106.78496524537331 0 0 0 0 44.331432266777085 60.550814422408621 0 60.550814422408621 -142.78241030854406 0 0 0 0 38.793201099605085 33.893119305157597 0 33.893119305157597 -77.21556658424015 0 0 0 0 24.203327099699109 129.06428454964112 0 129.06428454964112 159.45197642776111 0 0 0 0 43.159957143683187 16.647161341385072 0 16.647161341385072 16.35891943887691 0 0 0 0 -0.29781202836243725 -0.65001021753033683 0 -0.65001021753033683 1.3141179895524502 0 0 0 0 4.6729446418426051 -13.455933521050611 0 -13.455933521050611 33.046874660358299 0 0 0 0 -11.1460807671574 34.934407576276499 0 34.934407576276499 2.8002153333327442 0 0 0 0 -20.950487601905479 15.331267887842841 0 15.331267887842841 44.215830109093076 0 0 0 0 -40.081899643831093 48.041182310778822 0 48.041182310778822 28.191445759228372 0 0 0 0 -18.454469613653259 65.108113634634265 0 65.108113634634265 -34.554536524570722 0 0 0 0 -14.734395237770514 49.910113952239044 0 49.910113952239044 8.9299250465774094 0 0 0 0 -94.448998651480906 16.369193622740568 0 16.369193622740568 46.084646662940941 0 0 0 0 -83.388609928025517 117.19347460247468 0 117.19347460247468 -49.537301609074348 0 0 0 0 -101.89605874676727 69.659867518043029 0 69.659867518043029 -19.470792781845375 0 0 0 0 7.2294256700217341 1.9306873087275491 0 1.9306873087275491 -1.8277572163372184 0 0 0 0 19.829626749368515 10.823388658462818 0 10.823388658462818 -37.243263369869965 0 0 0 0 23.810992722175797 40.017797915206756 0 40.017797915206756 -131.01353080719127 0 0 0 0 19.001791483104654 6.5441577833556153 0 6.5441577833556153 -7.5077908741754555 0 0 0 0 8.175577235810124 30.309960152011627 0 30.309960152011627 -14.194804360647822 0 0 0 0 8.4318082307267375 11.17671035161564 0 11.17671035161564 -12.777785092963313 0 0 0 0 -8.5726197979010976 32.615547934914503 0 32.615547934914503 0.76459732044531847 0 0 0 0 -3.8267234798379741 3.7767953798624561 0 3.7767953798624561 -2.7763348886164039 0 0 0 0 64.757147300573706 -30.584060908789979 0 -30.584060908789979 -38.596768196136509 0 0 0 0 10.921840705760928 33.915839422818863 0 33.915839422818863 -18.308135998795478 0 0 0 0 66.14530716711397 -12.398217820040372 0 -12.398217820040372 -63.792073372715095 0 0 0 0 24.552222051070657 8.2192353215323237 0 8.2192353215323237 -44.586845699712285 0 0 0 0 -46.827039248882784 32.038990449076664 0 32.038990449076664 -103.69988114851185 0 0 0 0 -36.927386952015013 -10.170956868493704 0 -10.170956868493704 -33.467283139638312 0 0 0 0 -8.7094608696268097 28.555072872921301 0 28.555072872921301 58.495773658636608 0 0 0 0 -91.188319741880548 23.288859831795889 0 23.288859831795889 130.19291843030078 0 0 0 0 -2.7884553562778036 -0.19254592598542075 0 -0.19254592598542075 0.64363521833404036 0 0 0 0 -18.286703802857801 -33.076345179661075 0 -33.076345179661075 21.531651956689529 0 0 0 0 -45.157876356331826 53.823987176522223 0 53.823987176522223 -77.116677740479645 0 0 0 0 36.631192793971422 -39.234180988010849 0 -39.234180988010849 -108.73926468555055 0 0 0 0 87.673277057132168 132.21686475353454 0 132.21686475353454 -42.727173283148659 0 0 0 0 8.1582349163541039 15.38278699608054 0 15.38278699608054 -12.897517616534969 0 0 0 0 9.1609577277398824 6.6296314888872772 0 6.6296314888872772 -4.5332960173844796 0 0 0 0 10.283175743742504 9.5942490844172426 0 9.5942490844172426 -21.483891312018386 0 0 0 0 7.8435002980099853 7.7742856016484438 0 7.7742856016484438 -17.4052948044191 0 0 0 0 0.68705915164264297 15.911407300478459 0 15.911407300478459 -14.431004838344052 0 0 0 0 8.0740034417958668 14.762143975774961 0 14.762143975774961 -31.704157754234984 0 0 0 0 7.4550928375647345 15.814544189561275 0 15.814544189561275 -23.981175319871909 0 0 0 0 13.38001493093746 5.7104147200726274 0 5.7104147200726274 -5.6549135326755646 0 0 0 0 4.0764038408606211 4.0082061716748285 0 4.0082061716748285 -26.950105087780685 0 0 0 0 3.8441676233762543 7.9833761393837834 0 7.9833761393837834 -15.245626052227564 0 0 0 0 13.334294165647862 10.480731447017206 0 10.480731447017206 -21.877705058923311 0 0 0 0 13.702909454580094 10.603898191113331 0 10.603898191113331 -25.019901208303054 0 0 0 0 14.506873584492496 12.330331325660154 0 12.330331325660154 -27.004289514545235 0 0 0 0 11.296878504281267 14.478975660993456 0 14.478975660993456 -30.303034779196423 0 0 0 0 9.5533969275828987 6.633597965684686 0 6.633597965684686 -1.9971946234235389 0 0 0 0 13.920239177619806 17.55329056013943 0 17.55329056013943 -28.900557319611835 0 0 0 0 1.6931026938909781 26.602277111323929 0 26.602277111323929 -33.908180641692525 0 0 0 0 3.2221511255157758 2.9737336630488755 0 2.9737336630488755 -3.6096398453232581 0 0 0 0 5.1058655330543843 16.662791474322148 0 16.662791474322148 -46.42269186948397 0 0 0 0 11.798927759413409 -1.8212197279620241 0 -1.8212197279620241 -13.801162213217587 0 0 0 0 23.697963686001458 0.37372795926421531 0 0.37372795926421531 -15.806501104123527 0 0 0 0 -0.47631817188480241 2.162353634715096 0 2.162353634715096 -1.654330132254735 0 0 0 0 5.3422296079179432 2.5990314666414633 0 2.5990314666414633 -15.349480979657528 0 0 0 0 38.480234003359328 9.4870321933012747 0 9.4870321933012747 -22.91381470260967 0 0 0 0 37.642464517965891 36.651963884974975 0 36.651963884974975 9.0523724384202069 0 0 0 0 28.651696226634613 19.205180757848211 0 19.205180757848211 -24.322019245419142 0 0 0 0 24.217150378343831 8.4294883740349178 0 8.4294883740349178 -21.714463032943968 0 0 0 0 20.430132855364583 9.1928058002660116 0 9.1928058002660116 -6.4062153676985076 0 0 0 0 22.287893112670645 9.9338121210184909 0 9.9338121210184909 -17.099664038389164 0 0 0 0 7.675264018896037 9.7960975716450136 0 9.7960975716450136 -9.9567092624968723 0 0 0 0 5.5985816224627225 6.8688578662690958 0 6.8688578662690958 -7.0782447678156331 0 0 0 0 1.7357940487231645 7.2082977823192778 0 7.2082977823192778 -20.087456158369605 0 0 0 0 3.0489355103218259 9.1983865466741008 0 9.1983865466741008 -19.498219403503754 0 0 0 0 11.870833418585505 1.0026459966392736 0 1.0026459966392736 -14.601389321535152 0 0 0 0 5.1702711510047266 16.307998889449664 0 16.307998889449664 -29.876890418122457 0 0 0 0 -16.668171117464908 20.960726702605825 0 20.960726702605825 -32.974811974221666 0 0 0 0 -19.345706744238669 16.214794576289933 0 16.214794576289933 -28.792446577725059 0 0 0 0 1.2606546577964206 -0.28771306710300593 0 -0.28771306710300593 0.02702379519770659 0 0 0 0 33.123176708134906 -32.441348010872389 0 -32.441348010872389 -4.8617289931207779 0 0 0 0 -15.549544945234175 14.284044803262077 0 14.284044803262077 -29.036271818768 0 0 0 0 54.087548426974081 -31.520517019951512 0 -31.520517019951512 -31.293799499995657 0 0 0 0 11.51510242205859 -7.7497540582626243 0 -7.7497540582626243 -14.17086385780749 0 0 0 0 35.167483389764129 -2.4745862881027278 0 -2.4745862881027278 -40.404084244935802 0 0 0 0 -11.472993845411793 24.120188932499332 0 24.120188932499332 -37.0010172586517 0 0 0 0 -3.5016345919557352 18.709249473111413 0 18.709249473111413 -35.571446070152888 0 0 0 0 1.0476438656649751 2.3887181295104583 0 2.3887181295104583 -2.6100489017964605 0 0 0 0 12.835383613679141 -1.2997769637695527 0 -1.2997769637695527 -12.50151085406263 0 0 0 0 8.8993613919967629 9.4075051593954413 0 9.4075051593954413 -28.965246980359098 0 0 0 0 8.1011053325078137 7.4366010242501943 0 7.4366010242501943 -28.258800654319202 0 0 0 0 8.1521952724647235 8.8977529056537605 0 8.8977529056537605 -26.941335283670924 0 0 0 0 7.7784548678724832 9.4670643954655134 0 9.4670643954655134 -21.488211609044811 0 0 0 0 3.1267886041912334 9.9161698221760162 0 9.9161698221760162 -29.286175519002427 0 0 0 0 6.5992076478669333 8.4275710650181281 0 8.4275710650181281 -23.967731656810429 0 0 0 0 4.6075858151107241 22.723031562200049 0 22.723031562200049 -18.264432936288358 0 0 0 0 3.3834528298380842 -1.7252988095104058 0 -1.7252988095104058 -2.8623227006373639 0 0 0 0 5.7080176277895021 9.8527296151260089 0 9.8527296151260089 -25.83432874600112 0 0 0 0 7.8608671957072147 9.6975366888291319 0 9.6975366888291319 -28.318334304814925 0 0 0 0 5.6130109350512214 10.936602519771782 0 10.936602519771782 -29.280385940095584 0 0 0 0 10.134522714011506 -1.2217811140121668 0 -1.2217811140121668 -14.866960058154675 0 0 0 0 8.8865473925739025 9.2915776211157208 0 9.2915776211157208 -29.038345543129253 0 0 0 0 6.7587458392526401 9.0822313902936003 0 9.0822313902936003 -30.111947613338998 0 0 0 0 2.1045298433600692 8.1029679301045689 0 8.1029679301045689 -28.76860109248446 0 0 0 0 6.7486327741703462 9.0288404168313718 0 9.0288404168313718 -28.068073496748184 0 0 0 0 7.2423347396240842 9.9818407365055464 0 9.9818407365055464 -25.434574925639026 0 0 0 0 7.4446190595167536 10.294044429876521 0 10.294044429876521 -28.909826702918508 0 0 0 0 -1.7734228278525279 13.201418893879236 0 13.201418893879236 -28.605466186322701 0 0 0 0 -1.2823915010185374 13.896625048069836 0 13.896625048069836 -32.299458282272781 0 0 0 0 9.5579568208515493 -1.2016635902138262 0 -1.2016635902138262 -17.259799834274865 0 0 0 0 13.576915955662116 -5.2232857289172898 0 -5.2232857289172898 -5.8095613261211838 0 0 0 0 5.9320016173278418 5.3200837859512831 0 5.3200837859512831 -27.821128605421563 0 0 0 0 4.9031682092033915 -0.76799006980182938 0 -0.76799006980182938 -14.898171701319242 0 0 0 0 1.2577853199236415 12.266603591772764 0 12.266603591772764 -28.265668630061555 0 0 0 0 -0.26178835580833493 12.178511256457114 0 12.178511256457114 -26.796105368204735 0 0 0 0 1.1144905986502636 12.200823751112694 0 12.200823751112694 -32.784390770950267 0 0 0 0 0.11348706525905072 11.110957658047482 0 11.110957658047482 -28.122726431614865 0 0 0 0 -0.38503308476720122 13.085634591492635 0 13.085634591492635 -28.308758345785463 0 0 0 0 19.355795730505633 -21.71909304475048 0 -21.71909304475048 -17.610761443876982 0 0 0 0 1.2715886302792914 0.93672427072028697 0 0.93672427072028697 -4.1364002369890187 0 0 0 0 12.217097710778035 18.780129224480334 0 18.780129224480334 -9.0489394118376367 0 0 0 0 0.84810217495669349 8.6710749885824043 0 8.6710749885824043 -30.863643623146345 0 0 0 0 13.22269225942 14.666448199095612 0 14.666448199095612 -29.166885879662914 0 0 0 0 11.072733653938485 -0.1548863999923924 0 -0.1548863999923924 -25.488487404360058 0 0 0 0 18.974169363592409 5.5495979887964495 0 5.5495979887964495 -32.101542239259288 0 0 0 0 8.2983444428118673 11.950608166398524 0 11.950608166398524 -25.422210062693011 0 0 0 0 6.9153759919436197 10.304441826157017 0 10.304441826157017 -32.323384526753216 0 0 0 0 10.878759681888369 11.609201824066986 0 11.609201824066986 -35.007685304390179 0 0 0 0 7.8898296199042051 1.5230860130077701 0 1.5230860130077701 -5.1391302472246103 0 0 0 0 6.8418082407858947 7.641230840119988 0 7.641230840119988 -28.088844173062171 0 0 0 0 3.7885417582562315 1.2578533294231349 0 1.2578533294231349 -6.0878960057710891 0 0 0 0 3.2170701051068136 7.1386532029891896 0 7.1386532029891896 -13.835924657449141 0 0 0 0 1.5121223569039852 7.4977956395810184 0 7.4977956395810184 -17.898341382660405 0 0 0 0 14.041014701372205 12.429802112852485 0 12.429802112852485 -23.831012276168622 0 0 0 0 17.519963930481026 9.2472101600724272 0 9.2472101600724272 -18.714819923619871 0 0 0 0 3.9643824139378516 3.5814349865828286 0 3.5814349865828286 -18.765647265281348 0 0 0 0 -0.96530914376236332 8.8828919835474647 0 8.8828919835474647 -16.779335606261895 0 0 0 0 5.0531098808000934 8.0067833298189726 0 8.0067833298189726 -16.309661780653187 0 0 0 0 12.181884409365921 5.7984163751498272 0 5.7984163751498272 -24.801866502502889 0 0 0 0 6.1562038874148621 3.8264528739312524 0 3.8264528739312524 -17.002947630123145 0 0 0 0 10.26989152454189 -1.4974415291362675 0 -1.4974415291362675 -9.9972438008117024 0 0 0 0 5.1339440855927183 0.4523278448498278 0 0.4523278448498278 -14.117073737486013 0 0 0 0 5.2561747234784715 2.6616445127355295 0 2.6616445127355295 -21.344573114353448 0 0 0 0 6.284759415656481 3.5680332818051284 0 3.5680332818051284 -30.764595765090235 0 0 0 0 8.1366725046154897 6.2101662065415439 0 6.2101662065415439 -31.481962786643635 0 0 0 0 9.1486006533668842 7.3218193165735102 0 7.3218193165735102 -31.525532945673149 0 0 0 0 6.8548812387907638 1.5617603547254859 0 1.5617603547254859 -9.8684515900506824 0 0 0 0 0.0015614796174645562 4.1873252828032719 0 4.1873252828032719 -28.869338541206162 0 0 0 0 -0.73657178989449079 7.2180406559140309 0 7.2180406559140309 -17.708199864592558 0 0 0 0 3.6546021409221794 10.312514576800822 0 10.312514576800822 -30.997056431697274 0 0 0 0 -0.40387694645323791 -1.522224411040952 0 -1.522224411040952 -23.840933921193937 0 0 0 0 8.7789562276393553 1.8328288361335581 0 1.8328288361335581 -10.909051531372825 0 0 0 0 8.2091406289437714 3.1798615476364773 0 3.1798615476364773 -18.86499763982215 0 0 0 0 9.3857355770790427 4.6938605021484605 0 4.6938605021484605 -27.334238622470355 0 0 0 0 8.7269362003757927 -0.56507999749376836 0 -0.56507999749376836 -13.676776974523321 0 0 0 0 11.335299838514175 3.2001978896580567 0 3.2001978896580567 -16.00223521832595 0 0 0 0 10.573861995449988 0.79513878746365663 0 0.79513878746365663 -12.395160748004855 0 0 0 0 7.2778375044300052 3.6997380233279067 0 3.6997380233279067 -23.075694191300592 0 0 0 0 1.7895389847623568 4.1543325037935634 0 4.1543325037935634 -23.023562819684706 0 0 0 0 22.358818721111675 5.7119809903142595 0 5.7119809903142595 -51.106301449504826 0 0 0 0 2.5553054227677041 3.6499179582635772 0 3.6499179582635772 -3.0923741635377411 0 0 0 0 15.484783928822253 0.11284102667559637 0 0.11284102667559637 -12.691947264467217 0 0 0 0 7.0108388966927322 -0.075586025441936044 0 -0.075586025441936044 -14.73518853108212 0 0 0 0 6.5904396112664472 8.1671330195304108 0 8.1671330195304108 -20.350850554703953 0 0 0 0 4.3375805522337032 -2.6885922404271696 0 -2.6885922404271696 -20.040136514879123 0 0 0 0 5.7538327494889927 5.2341663323743433 0 5.2341663323743433 -25.278831362564233 0 0 0 0 2.2228737885502667 2.6885686441116032 0 2.6885686441116032 -22.64831893824126 0 0 0 0 4.7203789534676162 6.1823147927115087 0 6.1823147927115087 -24.899713869905099 0 0 0 0 5.6192222233676148 1.7426061478790871 0 1.7426061478790871 -25.040929683446848 0 0 0 0 6.4264990146493801 2.0689639341094335 0 2.0689639341094335 -25.313368862152458 0 0 0 0 6.3454560622358258 2.1385983947570821 0 2.1385983947570821 -23.154103902076713 0 0 0 0 21.965956124069635 20.282464968118916 0 20.282464968118916 -24.383373750903047 0 0 0 0 3.9370377960051526 3.0860368032128536 0 3.0860368032128536 -25.249500243213674 0 0 0 0 9.6194879961894912 1.6857228639955792 0 1.6857228639955792 -28.107885065909386 0 0 0 0 17.414881300117486 16.111400249490771 0 16.111400249490771 -22.85052123542323 0 0 0 0 1.2702999424896007 0.40252038191908923 0 0.40252038191908923 -0.14931862403500418 0 0 0 0 12.94292456952885 3.554969611274069 0 3.554969611274069 -4.7082331275805274 0 0 0 0 40.964575576422249 26.191465713960497 0 26.191465713960497 -72.607485178387378 0 0 0 0 11.955203514006826 9.6268010640740158 0 9.6268010640740158 -31.01994230661694 0 0 0 0 1.2558885455398654 6.3756427873517758 0 6.3756427873517758 -24.432578335259549 0 0 0 0 9.8017675140679845 1.3890160823254933 0 1.3890160823254933 0.41605262783696073 0 0 0 0 -6.9144379960034712 30.690909348484638 0 30.690909348484638 -18.029934451989675 0 0 0 0 -8.8245002676528088 39.496873872169502 0 39.496873872169502 -31.635938626830921 0 0 0 0 -14.905883376020938 -26.738512888575087 0 -26.738512888575087 -44.360730519557364 0 0 0 0 -41.503576648632588 -3.555736297692647 0 -3.555736297692647 -64.951173275648898 0 0 0 0 -27.714503494820974 105.28528882037219 0 105.28528882037219 -60.36378434787548 0 0 0 0 -51.657887437164391 -73.628584564841049 0 -73.628584564841049 130.27932188170234 0 0 0 0 -0.95174747714595398 -1.1272484070846787 0 -1.1272484070846787 -0.99676294770752705 0 0 0 0 129.38233494164888 -44.562903903166898 0 -44.562903903166898 -125.48745370105303 0 0 0 0 -36.373626558261094 33.400370365480512 0 33.400370365480512 -24.913282626186174 0 0 0 0 -40.188889551322973 62.481060161630921 0 62.481060161630921 -63.634490977660846 0 0 0 0 22.22577112736144 -28.912985285712011 0 -28.912985285712011 -31.554081108738501 0 0 0 0 -0.089998626349581556 -0.32993248133493047 0 -0.32993248133493047 -0.23531861255229103 0 0 0 0 12.074643452202508 -3.5145478530180299 0 -3.5145478530180299 -75.601969076431715 0 0 0 0 18.330773748996762 6.1427430100410447 0 6.1427430100410447 -25.292486200416761 0 0 0 0 -35.09398932113163 10.911140969373946 0 10.911140969373946 23.347606154738287 0 0 0 0 -75.422091776685193 52.88324043166881 0 52.88324043166881 57.116990981799972 0 0 0 0 61.756054135987142 -26.902895223636733 0 -26.902895223636733 -39.775914799312432 0 0 0 0 54.838187587539778 -43.231062249757201 0 -43.231062249757201 41.429043137244662 0 0 0 0 173.63368666921997 -60.41754092641122 0 -60.41754092641122 8.6005754737552707 0 0 0 0 6.1766772292758105 4.4651050450479488 0 4.4651050450479488 -22.615495671435156 0 0 0 0 2.5856591085948821 -7.9574589001396134 0 -7.9574589001396134 8.759047403716977 0 0 0 0 7.3589281436024976 5.7819760015343036 0 5.7819760015343036 -21.159254154298651 0 0 0 0 -0.53363798572306642 2.6837105890714454 0 2.6837105890714454 -2.9189241054940283 0 0 0 0 11.984028106663573 34.560677725081746 0 34.560677725081746 -32.460699648133186 0 0 0 0 -1.3917267849792676 4.7666801516739135 0 4.7666801516739135 -23.333065438091587 0 0 0 0 2.5488217667982909 5.8839129354239228 0 5.8839129354239228 -20.154186122273472 0 0 0 0 7.549548966850125 1.9912563004500043 0 1.9912563004500043 -28.940796462704384 0 0 0 0 8.6683247098135325 9.0549172414148416 0 9.0549172414148416 -23.158074203795877 0 0 0 0 -0.09313239400302642 0.12946634693413195 0 0.12946634693413195 -14.129462708462816 0 0 0 0 14.796745462616855 4.6404225097460312 0 4.6404225097460312 -22.297967688588415 0 0 0 0 1.5033931319703395 7.2805481257120928 0 7.2805481257120928 -14.437259447813938 0 0 0 0 4.2983600236958726 2.1671952143762034 0 2.1671952143762034 -23.81674270134306 0 0 0 0 21.563825853191702 -3.2102429540154844 0 -3.2102429540154844 -20.114544667208065 0 0 0 0 8.183954358885785 -0.11619241408607195 0 -0.11619241408607195 -14.311146580906552 0 0 0 0 7.2644802994495166 -2.7468419694787976 0 -2.7468419694787976 -19.232382702205463 0 0 0 0 17.259791081425647 0.50128843086349661 0 0.50128843086349661 -23.037955739445351 0 0 0 0 6.7845654573433851 4.1563581945634223 0 4.1563581945634223 -17.509422527197678 0 0 0 0 3.4568360003953984 -6.5466103300806795 0 -6.5466103300806795 -14.292413163644127 0 0 0 0 4.1191328265722404 10.471670898909906 0 10.471670898909906 -29.817748944605455 0 0 0 0 10.55625941022015 4.5200666148175515 0 4.5200666148175515 -26.278378484954374 0 0 0 0 86.821297172162303 -22.616024113907542 0 -22.616024113907542 16.889968427752137 0 0 0 0 -9.2481440023693722 -53.952525337178486 0 -53.952525337178486 16.760110709281435 0 0 0 0 76.494906912745137 -55.393099070101016 0 -55.393099070101016 -15.65513005788398 0 0 0 0 -7.9581834292839631 12.823560983080597 0 12.823560983080597 -12.075136748654586 0 0 0 0 21.101595101097701 -15.371648733209895 0 -15.371648733209895 -25.65225538817549 0 0 0 0 -1.4212961124695642 -1.9736005046085401 0 -1.9736005046085401 -6.131012047427788 0 0 0 0 -25.438181287969201 -6.0307366262914002 0 -6.0307366262914002 5.4033399162162823 0 0 0 0 15.31722321023426 -7.8451385918988308 0 -7.8451385918988308 -23.092947544768322 0 0 0 0 60.793638164790536 -22.394143786360019 0 -22.394143786360019 -25.693786095285777 0 0 0 0 2.0197895976070273 -0.74520900472838036 0 -0.74520900472838036 -14.965430312937015 0 0 0 0 106.3946242549564 -68.584168912397899 0 -68.584168912397899 -17.400019766018886 0 0 0 0 71.001459223006805 -19.153382719678802 0 -19.153382719678802 -78.229450429402277 0 0 0 0 81.673048987466245 101.60739402850231 0 101.60739402850231 -93.512258355040103 0 0 0 0 69.816360595570586 79.493197632879856 0 79.493197632879856 7.526168926493483 0 0 0 0 103.59918886257765 14.830011163529889 0 14.830011163529889 -63.819342110683465 0 0 0 0 144.44577300078799 52.84401369976149 0 52.84401369976149 -87.589221479056505 0 0 0 0 56.863663782238291 23.928147096991779 0 23.928147096991779 -39.816012015109663 0 0 0 0 46.701968451998255 38.40755023280326 0 38.40755023280326 -32.822587197638313 0 0 0 0 44.742211104141461 31.708074878386469 0 31.708074878386469 -17.014356823821799 0 0 0 0 45.265352296944911 21.177472122183644 0 21.177472122183644 -23.040470382881267 0 0 0 0 13.708413598087873 17.05198906320733 0 17.05198906320733 -30.840364681565006 0 0 0 0 -0.32268220568991524 -3.0214040084323415 0 -3.0214040084323415 -4.9864771882731169 0 0 0 0 59.117039227913324 9.5649326467306537 0 9.5649326467306537 -16.215847523303637 0 0 0 0 12.192517734054945 -16.994686294980966 0 -16.994686294980966 -62.046849341228153 0 0 0 0 6.2252418997028416 -0.34659878725373794 0 -0.34659878725373794 -31.399138452378825 0 0 0 0 15.819674009753385 -27.786401118720931 0 -27.786401118720931 -7.7992417452733207 0 0 0 0 64.484691198673318 -17.856250248757078 0 -17.856250248757078 -89.305818284226007 0 0 0 0 28.618245173272953 5.2650717854803588 0 5.2650717854803588 -54.873675550637927 0 0 0 0 7.7160663695030962 -13.798496187083401 0 -13.798496187083401 -39.283178980627781 0 0 0 0 280.68311446824191 -243.90996032924249 0 -243.90996032924249 113.90255574077719 0 0 0 0 11.734975621385882 2.9725076031805662 0 2.9725076031805662 -6.1967919425302291 0 0 0 0 305.5063705458806 -235.46951526738462 0 -235.46951526738462 -106.73941237976214 0 0 0 0 4.435212064485313 35.507008946077804 0 35.507008946077804 0.017655450918027782 0 0 0 0 24.847330022850656 76.080884593805877 0 76.080884593805877 80.453800432727803 0 0 0 0 5.7006198075935917 -1.5283048972325091 0 -1.5283048972325091 -15.952251521352679 0 0 0 0 27.772467786016932 -12.207571529017514 0 -12.207571529017514 -8.5815537923863303 0 0 0 0 12.596324802767413 1.2921678735228852 0 1.2921678735228852 -28.016589828980159 0 0 0 0 4.6341820288522761 2.353789566238472 0 2.353789566238472 -19.586070426156297 0 0 0 0 20.001593454260728 -3.3408903239887877 0 -3.3408903239887877 -18.694160020888376 0 0 0 0 16.585488699704001 0.15155702874199051 0 0.15155702874199051 -36.935269303716041 0 0 0 0 9.6229433625521779 14.202773360123501 0 14.202773360123501 -30.851508857110503 0 0 0 0 6.7537161644724044 1.434899361876802 0 1.434899361876802 -16.841483462317008 0 0 0 0 -1.8387460433586966 16.896058530249775 0 16.896058530249775 -25.313673130192001 0 0 0 0 1.6733254138853226 14.490274552203118 0 14.490274552203118 -28.317097252853273 0 0 0 0 14.832215278349395 -18.086200442049403 0 -18.086200442049403 -39.734080316450672 0 0 0 0 3.3375519746550708 17.649751149838266 0 17.649751149838266 -25.552517405678827 0 0 0 0 14.24694031431136 -18.420256732272719 0 -18.420256732272719 -39.805046222743385 0 0 0 0 0.53797278013619376 0.18487256731189206 0 0.18487256731189206 -8.2535862983931487 0 0 0 0 10.564302530798159 17.700533381638252 0 17.700533381638252 -27.469062557043799 0 0 0 0 14.132607846014253 2.236977387033221 0 2.236977387033221 -35.008479717873342 0 0 0 0 4.5555498473499938 7.2765067298737449 0 7.2765067298737449 -58.017384779161148 0 0 0 0 12.600299753150466 -18.520946790314156 0 -18.520946790314156 -20.951931620674259 0 0 0 0 8.9211759903719035 3.1160392873052096 0 3.1160392873052096 -17.88195865965919 0 0 0 0 11.192564973757882 2.097718773590465 0 2.097718773590465 -40.935490960379312 0 0 0 0 -1.5464953018308734 13.02586376565705 0 13.02586376565705 -69.341534254247563 0 0 0 0 -0.062372068793933977 1.0081547203711754 0 1.0081547203711754 -11.857081016517327 0 0 0 0 9.7259463000193591 8.800604981213155 0 8.800604981213155 -47.755480437597726 0 0 0 0 7.135872074645782 1.9914402553222708 0 1.9914402553222708 -24.200981874071971 0 0 0 0 7.1725097654634737 9.0996395334077533 0 9.0996395334077533 -59.201578210954267 0 0 0 0 11.211219225956329 12.647380856854969 0 12.647380856854969 -31.410542984516056 0 0 0 0 2.4183362657446255 1.8410860904185373 0 1.8410860904185373 -22.679041187072229 0 0 0 0 14.99226256692873 4.728690370622644 0 4.728690370622644 -29.991479328515197 0 0 0 0 6.1424009543061402 1.8457724625732226 0 1.8457724625732226 -20.90881650699157 0 0 0 0 18.929476190278365 5.0006154761758808 0 5.0006154761758808 -32.498026889094035 0 0 0 0 32.824873115738228 10.985705529890765 0 10.985705529890765 -72.216695701816207 0 0 0 0 32.220487394393786 -11.491787178756567 0 -11.491787178756567 -31.736200836214266 0 0 0 0 8.0159721631244523 0.83330841342556994 0 0.83330841342556994 -15.119381546717463 0 0 0 0 9.6670414863884702 -2.3357247251728097 0 -2.3357247251728097 -13.522611060025504 0 0 0 0 4.9771489548365935 13.304392775637098 0 13.304392775637098 -42.966190693401586 0 0 0 0 11.465960656891255 10.817698412391124 0 10.817698412391124 -8.3575371343644331 0 0 0 0 5.9837290613226344 5.1924888113160463 0 5.1924888113160463 -8.5197459968597844 0 0 0 0 5.359234502659092 5.6764484714531136 0 5.6764484714531136 -26.572024363400487 0 0 0 0 2.5781726609872706 11.474624398947149 0 11.474624398947149 1.2315449676215273 0 0 0 0 -12.802951881312765 16.248048110956006 0 16.248048110956006 -11.516625004882371 0 0 0 0 7.9585877149984299 12.173000773189415 0 12.173000773189415 -45.929351466946173 0 0 0 0 5.3878662004553917 8.5173638592750649 0 8.5173638592750649 -21.596327574749012 0 0 0 0 2.45865240400407 5.051972328614255 0 5.051972328614255 -6.8171034967684498 0 0 0 0 8.5274823900047423 0.36386719575089899 0 0.36386719575089899 -13.561853812199949 0 0 0 0 3.5781530919830402 8.112146079318336 0 8.112146079318336 -14.745721794696692 0 0 0 0 6.1867811420524266 4.9739044597865529 0 4.9739044597865529 -12.167682213290959 0 0 0 0 27.080072701457539 14.706074554554107 0 14.706074554554107 -28.798682181302866 0 0 0 0 8.8511589975005336 4.616563401894382 0 4.616563401894382 -27.000267435945716 0 0 0 0 5.2511345043710946 3.026808545467734 0 3.026808545467734 -22.599420097407659 0 0 0 0 -63.277736548774556 2.8512613983548363 0 2.8512613983548363 -8.349096323331878 0 0 0 0 16.828339109528315 -7.0114878092463186 0 -7.0114878092463186 -9.2100721522110689 0 0 0 0 9.7090425967126066 32.629273369235307 0 32.629273369235307 -47.290601445463835 0 0 0 0 18.680585638670891 -33.477141367067816 0 -33.477141367067816 -53.213084483339458 0 0 0 0 5.356431835385191 2.3145814473108146 0 2.3145814473108146 -27.221829828425314 0 0 0 0 -14.498113377159825 10.287409986602142 0 10.287409986602142 -16.232798207618544 0 0 0 0 2.1585293524968581 -0.99428631834212489 0 -0.99428631834212489 -2.5240915138378313 0 0 0 0 -25.734619480032052 17.081059979624115 0 17.081059979624115 -20.13290686133405 0 0 0 0 13.184754820906164 0.6067085566555761 0 0.6067085566555761 -26.998939085029836 0 0 0 0 4.933562975105815 7.9493854118072704 0 7.9493854118072704 -30.471242320203601 0 0 0 0 2.3756973135558574 2.5645392534762497 0 2.5645392534762497 -19.156412767410131 0 0 0 0 10.142086539890443 0.7156041985945194 0 0.7156041985945194 -30.327312621790043 0 0 0 0 12.475078283145194 4.5714090078618028 0 4.5714090078618028 -24.808815686776143 0 0 0 0 5.5140797901110314 6.3062135436359057 0 6.3062135436359057 -14.681294894165006 0 0 0 0 3.9324897405999764 7.8525242926289138 0 7.8525242926289138 -17.948607880476629 0 0 0 0 16.042023969448564 6.2016401940982178 0 6.2016401940982178 -16.244766127009825 0 0 0 0 13.781272858534976 12.171170857598554 0 12.171170857598554 -27.287600473679049 0 0 0 0 1.4653854837310973 11.441968722717775 0 11.441968722717775 -18.706615336574032 0 0 0 0 -0.076859006066804625 7.0558246488779641 0 7.0558246488779641 -26.239757220641323 0 0 0 0 19.189540183206191 7.8398368759444566 0 7.8398368759444566 -29.726282090758104 0 0 0 0 7.7210855945187546 8.56047002542455 0 8.56047002542455 -18.4143285519458 0 0 0 0 10.961124910494277 6.8317480934570085 0 6.8317480934570085 -27.428585426587233 0 0 0 0 24.778752473373743 3.9378593286342038 0 3.9378593286342038 -36.810379965190805 0 0 0 0 3.8680055160035645 8.1538058718881814 0 8.1538058718881814 -31.399745803226025 0 0 0 0 8.4456547894733376 21.803548478404991 0 21.803548478404991 -34.359520300084114 0 0 0 0 10.656791979065019 16.326389790570829 0 16.326389790570829 -32.222027921099652 0 0 0 0 -15.402086377263458 38.416316230583561 0 38.416316230583561 -45.782488999895577 0 0 0 0 -0.4343530688243149 7.5821456386438513 0 7.5821456386438513 3.8846613477089704 0 0 0 0 -0.0062069691706662785 -14.063140355656287 0 -14.063140355656287 5.5943347631764482 0 0 0 0 9.5311557433707659 6.4537309769493731 0 6.4537309769493731 -68.413950104681135 0 0 0 0 -13.221881734748791 65.349903891576105 0 65.349903891576105 -57.553866186168307 0 0 0 0 22.195879186106922 -31.615192275970003 0 -31.615192275970003 -18.937857881632226 0 0 0 0 59.533026504796908 9.4217555231625738 0 9.4217555231625738 -43.087397763441913 0 0 0 0 74.805860163317561 -58.231189410762454 0 -58.231189410762454 -18.255912643236115 0 0 0 0 107.63368171812274 35.259333903237348 0 35.259333903237348 -35.108911009767326 0 0 0 0 17.835467716732303 3.9230676183433388 0 3.9230676183433388 -20.791850312270071 0 0 0 0 0.31586467075991342 -0.22453076082211965 0 -0.22453076082211965 -1.3883515964269719 0 0 0 0 49.551438223916008 22.318044562769501 0 22.318044562769501 -16.327982271373912 0 0 0 0 44.401360545382104 37.323393276092247 0 37.323393276092247 -4.4281939263892127 0 0 0 0 50.154766864572608 6.2260393350552476 0 6.2260393350552476 -21.559960213322483 0 0 0 0 74.491221030165292 29.296300900321512 0 29.296300900321512 -23.671982647683762 0 0 0 0 58.848975611861128 6.7398648282905924 0 6.7398648282905924 -28.387619411434571 0 0 0 0 14.603239540736034 23.689257649686624 0 23.689257649686624 -24.798763947004772 0 0 0 0 38.175322413906194 4.5190955760954239 0 4.5190955760954239 -39.190389774577852 0 0 0 0 8.362419009058101 9.9722133595796549 0 9.9722133595796549 -36.813612552585255 0 0 0 0 -24.403356788968388 16.853028263392844 0 16.853028263392844 -29.849559539041365 0 0 0 0 0.19707039818256072 -0.1091538806675203 0 -0.1091538806675203 -0.88939116424344888 0 0 0 0 12.541251398469351 -31.931734718051302 0 -31.931734718051302 11.30246628507166 0 0 0 0 -22.814027909787633 35.594827961425835 0 35.594827961425835 -24.137902170179586 0 0 0 0 6.8244486864382985 -7.2892354482828523 0 -7.2892354482828523 11.399190316835302 0 0 0 0 0.043456240031118351 0.017078381624209271 0 0.017078381624209271 -0.33574513692461494 0 0 0 0 -30.834448889042648 53.83019832111313 0 53.83019832111313 -95.192875592510973 0 0 0 0 0.016655100758535987 -7.4127713064044656 0 -7.4127713064044656 14.054253145834082 0 0 0 0 13.126972661351637 13.710291780906118 0 13.710291780906118 -65.113304077218345 0 0 0 0 -3.6078099581182927 -4.3952992285012442 0 -4.3952992285012442 -47.202590637203684 0 0 0 0 11.069144493825437 -1.1012891356440377 0 -1.1012891356440377 -55.380158199164725 0 0 0 0 -4.7670619391063314 -0.42412146123706407 0 -0.42412146123706407 -53.367563776220777 0 0 0 0 -0.12148753491777504 2.309194689602009 0 2.309194689602009 -55.431976396319442 0 0 0 0 -9.5685173779843957 -11.655372264453035 0 -11.655372264453035 -58.12455573319312 0 0 0 0 -6.4413253365845193 -1.0564827231391973 0 -1.0564827231391973 -48.753106051590294 0 0 0 0 5.1887425515964765 -9.190883067480172 0 -9.190883067480172 -66.985012650216959 0 0 0 0 -18.359239621769401 -16.628505816879624 0 -16.628505816879624 -60.564996559347492 0 0 0 0 5.6819731388658425 -18.853920882957027 0 -18.853920882957027 -88.144945154836023 0 0 0 0 0.009766739760336627 -6.3938887003150739 0 -6.3938887003150739 -77.206803847762785 0 0 0 0 0.85527439263229033 -26.324960883282984 0 -26.324960883282984 -115.61884795092919 0 0 0 0 52.477376498162144 11.219932942229207 0 11.219932942229207 -35.304000340966923 0 0 0 0 51.987911637011578 -25.628854400867567 0 -25.628854400867567 -47.015030807306175 0 0 0 0 -0.94596173883431511 -13.931808925241057 0 -13.931808925241057 -50.475843930573319 0 0 0 0 29.717615810294411 2.3393124523026927 0 2.3393124523026927 -62.707297281674983 0 0 0 0 30.097698250267925 -0.91127297764251125 0 -0.91127297764251125 -54.028944354766281 0 0 0 0 3.4382378246276692 -3.1472323139178116 0 -3.1472323139178116 -44.194064486015122 0 0 0 0 74.762034462330689 -6.2870756683732907 0 -6.2870756683732907 -48.512612858074135 0 0 0 0 34.969564211691882 12.034824451911845 0 12.034824451911845 -40.593381770704582 0 0 0 0 36.08049469187246 -9.4865409443063982 0 -9.4865409443063982 -48.949329263639811 0 0 0 0 67.026692615852795 11.478874480377272 0 11.478874480377272 -44.253031977568753 0 0 0 0 55.852049674309072 12.112054798730242 0 12.112054798730242 -46.334024561176193 0 0 0 0 54.816437295015987 -0.17523645207074878 0 -0.17523645207074878 -47.515264381683664 0 0 0 0 37.369858401660572 6.0424614494609159 0 6.0424614494609159 -37.203110560396453 0 0 0 0 67.233328253985718 2.5902276656379399 0 2.5902276656379399 -42.632092187097442 0 0 0 0 37.612925712424008 4.93987316548737 0 4.93987316548737 -54.853962190245511 0 0 0 0 10.982370540040195 2.3408612396112858 0 2.3408612396112858 -40.807671651018609 0 0 0 0 13.026506905612216 11.520824522531257 0 11.520824522531257 -34.333829003233404 0 0 0 0 45.73529444142342 17.721909357898767 0 17.721909357898767 -33.912128160016437 0 0 0 0 59.797622527262327 11.663176206432581 0 11.663176206432581 -38.12585798510554 0 0 0 0 56.577188286168742 3.7973655630303256 0 3.7973655630303256 -42.473538225523953 0 0 0 0 69.726324005770323 5.6058240399652277 0 5.6058240399652277 -35.31789365507575 0 0 0 0 71.978272321040663 14.851051648404791 0 14.851051648404791 -24.55183074172237 0 0 0 0 73.437692002600997 5.0710377655559569 0 5.0710377655559569 -37.130028576979385 0 0 0 0 55.386022302276075 11.113310807595553 0 11.113310807595553 -20.078871895639168 0 0 0 0 85.959380587074463 26.577973103281693 0 26.577973103281693 -13.855487737473595 0 0 0 0 73.437311761969454 12.68660178180653 0 12.68660178180653 -25.576933600816119 0 0 0 0 55.308270492071735 2.7584623999500764 0 2.7584623999500764 -30.592190722047235 0 0 0 0 72.719289309047866 -1.6318133288623358 0 -1.6318133288623358 -37.250062404404161 0 0 0 0 68.852825575106536 -0.81812554075804655 0 -0.81812554075804655 -29.872265279838757 0 0 0 0 77.456779884874848 1.4053435355126567 0 1.4053435355126567 -44.133816727226076 0 0 0 0 70.528659790405527 7.6967817207514599 0 7.6967817207514599 -39.204892507219483 0 0 0 0 74.609913532385974 -4.263831398820912 0 -4.263831398820912 -28.144656899967231 0 0 0 0 72.61185335222541 -1.1409642979961063 0 -1.1409642979961063 -40.869609348646918 0 0 0 0 90.512750947487973 -10.42819995998434 0 -10.42819995998434 -40.671834702085107 0 0 0 0 88.779941717833083 -7.6687216291991263 0 -7.6687216291991263 -33.215485797409201 0 0 0 0 77.464651170553935 0.1386803672357928 0 0.1386803672357928 -42.275990325171733 0 0 0 0 73.608385345670982 -11.620875214387297 0 -11.620875214387297 -31.100033224720391 0 0 0 0 85.023851314848571 -9.5062788904542685 0 -9.5062788904542685 -36.362659549990894 0 0 0 0 72.831018123153896 -19.771300679664591 0 -19.771300679664591 -19.163111678091809 0 0 0 0 38.563701342308363 -20.583008016550593 0 -20.583008016550593 -5.4458518208484747 0 0 0 0 89.35867506031866 -24.061086809677363 0 -24.061086809677363 -22.182800457900157 0 0 0 0 100.93005005056293 -23.913593649827817 0 -23.913593649827817 -24.894408827582083 0 0 0 0 -271.79565186401135 245.80141010375519 0 245.80141010375519 -343.32524939440191 0 0 0 0 120.86504117013291 -60.541061125222313 0 -60.541061125222313 7.9522077028886997 0 0 0 0 95.450995229659014 -21.632130529451388 0 -21.632130529451388 -12.057892329859897 0 0 0 0 -0.048824523381511609 -2.7545324053488542 0 -2.7545324053488542 -7.1581267535986086 0 0 0 0 75.500410016227931 -49.750766494951677 0 -49.750766494951677 17.479657284646237 0 0 0 0 103.55471855834571 -19.058644136101066 0 -19.058644136101066 6.269752711574256 0 0 0 0 123.13246828174647 -40.437995863307151 0 -40.437995863307151 -8.5133205216698116 0 0 0 0 80.761558638866262 -26.156066591200215 0 -26.156066591200215 7.3161723356424773 0 0 0 0 106.38299001846769 -23.224675952151301 0 -23.224675952151301 -28.833785550232278 0 0 0 0 93.093441960684686 0.14131360663304804 0 0.14131360663304804 -32.465066582416512 0 0 0 0 104.22839824717164 -21.097157737804082 0 -21.097157737804082 -27.881562871276401 0 0 0 0 -5.9309980584555149 -0.71511061002092902 0 -0.71511061002092902 -3.5914048434642609 0 0 0 0 0.086958278848831727 0.39144319029740871 0 0.39144319029740871 -0.3496826129300814 0 0 0 0 -25.412393515148665 -39.116631839591719 0 -39.116631839591719 263.14680935114211 0 0 0 0 292.34856595002429 -279.96358822143884 0 -279.96358822143884 297.84901981246367 0 0 0 0 -135.90160724661123 170.42876231921582 0 170.42876231921582 -104.52037885121536 0 0 0 0 -190.86478336702089 54.074967921209463 0 54.074967921209463 2.1841428529587574 0 0 0 0 -170.01960729251618 201.0580412137133 0 201.0580412137133 -295.080227070197 0 0 0 0 -122.48913322757258 113.45333821183885 0 113.45333821183885 -134.88393648121564 0 0 0 0 -0.26241756940325833 0.3568326860544726 0 0.3568326860544726 -1.6518652747855924 0 0 0 0 88.162691764376149 -169.98259131618761 0 -169.98259131618761 -153.12648291861115 0 0 0 0 -348.80951590475422 163.59743972243086 0 163.59743972243086 -73.026327124251111 0 0 0 0 -0.49435265348176927 65.545706206954492 0 65.545706206954492 -375.92583052566624 0 0 0 0 -0.30144367345556988 -0.88478252551792025 0 -0.88478252551792025 -2.3356884165417995 0 0 0 0 -16.250735987079224 -126.46408696729486 0 -126.46408696729486 -13.698586122511188 0 0 0 0 -324.73157590678943 286.50549864441564 0 286.50549864441564 51.893719900923315 0 0 0 0 -25.057204742303043 -49.813068644260056 0 -49.813068644260056 100.58079782382993 0 0 0 0 29.38942948152021 -57.720415088064328 0 -57.720415088064328 -75.050023561583657 0 0 0 0 -41.502928060341674 -35.956455961008032 0 -35.956455961008032 27.756973793992074 0 0 0 0 4.6746252583922114 -44.320039900761913 0 -44.320039900761913 130.43116307619493 0 0 0 0 4.1692774027567339 45.29045225372829 0 45.29045225372829 -602.07084630304598 0 0 0 0 -0.54672883724871191 -4.0425953922198516 0 -4.0425953922198516 -10.886713274135786 0 0 0 0 39.185687206168673 -11.645690978667062 0 -11.645690978667062 -11.079479460277071 0 0 0 0 47.965972281435342 -7.6942622302813106 0 -7.6942622302813106 -24.290671442831808 0 0 0 0 36.967440002606821 -15.411728961429617 0 -15.411728961429617 -12.808569980647007 0 0 0 0 0.32486120163882559 -5.5568538313937097 0 -5.5568538313937097 -6.1251526353589725 0 0 0 0 148.8712178987538 208.04218782602038 0 208.04218782602038 -550.88346903181809 0 0 0 0 -0.10692915300726116 -1.1879609515864527 0 -1.1879609515864527 -0.054182047174037962 0 0 0 0 -0.053470004116270481 -0.58473542403925194 0 -0.58473542403925194 -3.8426559981096489 0 0 0 0 -68.752419324420728 130.80871887020112 0 130.80871887020112 -53.474396123405313 0 0 0 0 -39.948791488466817 51.446806804167863 0 51.446806804167863 -47.4042225729645 0 0 0 0 3.0539605039723767 1.1347648990099515 0 1.1347648990099515 -9.5964625909909955 0 0 0 0 -0.17494179929098036 0.030638630651505849 0 0.030638630651505849 -4.3010307321260655 0 0 0 0 -0.16082314698883238 0.19847479501913767 0 0.19847479501913767 -6.6982263321988285 0 0 0 0 0.51878897064338325 -0.58677870162160417 0 -0.58677870162160417 -6.2606592910013319 0 0 0 0 1.7430624654047904 3.3859052184088796 0 3.3859052184088796 -6.8254114969374768 0 0 0 0 0.52234930609198782 -1.8140476030268555 0 -1.8140476030268555 -9.6231590231917039 0 0 0 0 54.217449360426109 5.9267223261267645 0 5.9267223261267645 -17.531390971496876 0 0 0 0 58.62738596713082 -6.125720949828974 0 -6.125720949828974 -24.258458235017315 0 0 0 0 9.1722137188799042 -8.2623702412902276 0 -8.2623702412902276 -9.5865868317778222 0 0 0 0 32.146829803630865 0.51109466060006525 0 0.51109466060006525 -18.781850278057391 0 0 0 0 52.349967959153709 18.174264952985141 0 18.174264952985141 -4.2454713193510543 0 0 0 0 21.967017123390089 5.4576629281255009 0 5.4576629281255009 -9.4737334275450849 0 0 0 0 0.74050061730728123 0.23880332002052462 0 0.23880332002052462 -7.7440200410811713 0 0 0 0 2.0927216836647862 0.51943925179019601 0 0.51943925179019601 -7.6303723541244324 0 0 0 0 2.6435487394973602 -2.5341305132033085 0 -2.5341305132033085 -10.064175069797784 0 0 0 0 -0.33051215512426779 -1.2336011551306001 0 -1.2336011551306001 -14.216843797068577 0 0 0 0 -2.4066546704145821 -2.7683751886870596 0 -2.7683751886870596 -12.868178649696347 0 0 0 0 -0.92358709123359972 -5.0371078156786098 0 -5.0371078156786098 -16.731513665014063 0 0 0 0 2.1311707504774517 2.45486492428563 0 2.45486492428563 -12.75515759132395 0 0 0 0 -3.2843066363894593 40.953605087029928 0 40.953605087029928 32.695907829518546 0 0 0 0 1.6082088290847816 1.0785441441174868 0 1.0785441441174868 -9.2093297777933572 0 0 0 0 0.76752380967627687 -3.8478273047221592 0 -3.8478273047221592 -13.830901574901873 0 0 0 0 -11.281269042311123 30.359123990609078 0 30.359123990609078 -52.315170585245141 0 0 0 0 -24.865867591496453 -14.32448371431019 0 -14.32448371431019 -61.039704925824481 0 0 0 0 5.477300895140786 -15.287734214709417 0 -15.287734214709417 -125.86080152310751 0 0 0 0 -3.4612763960525399 -20.737846499701845 0 -20.737846499701845 -19.993219722848153 0 0 0 0 41.548869507386371 -26.900236492876502 0 -26.900236492876502 -20.97789268462293 0 0 0 0 8.4314974232383975 7.9824960944097256 0 7.9824960944097256 -14.197446236947144 0 0 0 0 25.071499519508279 -14.93552611333871 0 -14.93552611333871 -105.76964325911104 0 0 0 0 3.1055616173602489 -3.7553438032269568 0 -3.7553438032269568 -1.4966510290359452 0 0 0 0 0.883377560362818 0.77249407195476039 0 0.77249407195476039 -15.885627795008219 0 0 0 0 31.228893332595966 10.145717356514069 0 10.145717356514069 -1.8285673771442816 0 0 0 0 -16.274713490160082 -2.1662532307964284 0 -2.1662532307964284 -5.7225922755205829 0 0 0 0 4.9793830015335132 -11.551872206309781 0 -11.551872206309781 -17.470825584925478 0 0 0 0 0.12295441389891809 -1.3066261329304822 0 -1.3066261329304822 -2.6386633259075722 0 0 0 0 2.6433535832996466 -1.1198803784319473 0 -1.1198803784319473 -10.20777215105764 0 0 0 0 49.85735251949292 32.298378410123405 0 32.298378410123405 20.875552342869923 0 0 0 0 74.891466892213401 20.187241925974376 0 20.187241925974376 -2.4526879264594754 0 0 0 0 104.73514841134454 30.78379265031981 0 30.78379265031981 -10.690695252429578 0 0 0 0 80.040159326863915 27.641994770563542 0 27.641994770563542 7.1278897113952553 0 0 0 0 -2.2927750897892807 -29.070375703580794 0 -29.070375703580794 -31.700032384440419 0 0 0 0 0.062784780122458222 -0.099070192462050954 0 -0.099070192462050954 -0.0075165927278675326 0 0 0 0 93.809272410074982 64.723777748884459 0 64.723777748884459 26.680236046206119 0 0 0 0 69.968960076168116 20.432901728629076 0 20.432901728629076 -26.875732945543859 0 0 0 0 69.616961134429033 16.388894866930059 0 16.388894866930059 -8.9182915918572689 0 0 0 0 80.546381436120413 15.681432521705574 0 15.681432521705574 -26.341772211064381 0 0 0 0 79.988091803326171 29.073396756004513 0 29.073396756004513 -14.556388139704723 0 0 0 0 79.237655959590967 38.86527261437368 0 38.86527261437368 -5.4703168393352826 0 0 0 0 69.873138134156264 32.14119799850414 0 32.14119799850414 0.85431927052559331 0 0 0 0 78.881009823029132 48.265811769815627 0 48.265811769815627 18.105329029052882 0 0 0 0 70.968059252852242 27.607488013072725 0 27.607488013072725 9.6349302887247177 0 0 0 0 1.6562837960525267 -1.0620644561563353 0 -1.0620644561563353 1.0812419148205663 0 0 0 0 31.025239849760453 -16.570958259304462 0 -16.570958259304462 -36.823862412189555 0 0 0 0 -36.516843020154099 9.914536340222412 0 9.914536340222412 -2.2919573560720892 0 0 0 0 -33.708183311442326 -28.126104866933019 0 -28.126104866933019 -16.936570273199322 0 0 0 0 0.51670510414654447 -0.26186109965230742 0 -0.26186109965230742 0.16106999403187672 0 0 0 0 107.58074810482385 97.602318944234881 0 97.602318944234881 61.736996368221298 0 0 0 0 12.148753200384022 2.0243779180236743 0 2.0243779180236743 -163.86164366266166 0 0 0 0 28.452427927073586 -54.40824359974431 0 -54.40824359974431 -165.40021922780443 0 0 0 0 58.824763327116443 -99.684823738021805 0 -99.684823738021805 -519.09725093323868 0 0 0 0 20.061947437269282 65.227321263089834 0 65.227321263089834 -311.64786778961206 0 0 0 0 -0.28317123013191781 -0.19330903367380614 0 -0.19330903367380614 -6.0914593676967854 0 0 0 0 -386.07561901828603 -291.52254866011208 0 -291.52254866011208 -169.4193301975356 0 0 0 0 -10.391241824002691 87.061549646919957 0 87.061549646919957 -75.074406289189028 0 0 0 0 -104.67303694375562 -347.38089685459545 0 -347.38089685459545 -454.93254910303949 0 0 0 0 -52.914186938056105 -18.779439146102959 0 -18.779439146102959 -17.046939944644691 0 0 0 0 -85.896324849550126 -115.36001762160504 0 -115.36001762160504 -142.33972204282327 0 0 0 0 -28.309004404702819 -52.103726021455941 0 -52.103726021455941 -0.57344595636823215 0 0 0 0 -225.98729026877933 -274.8052838084368 0 -274.8052838084368 -320.60176409402993 0 0 0 0 -189.76907041657637 -53.943565904046409 0 -53.943565904046409 -344.90786725808357 0 0 0 0 21.677573919339714 -183.08140220316818 0 -183.08140220316818 -602.93120699422434 0 0 0 0 -10.060606488509166 -142.59433510694726 0 -142.59433510694726 -299.29865724035142 0 0 0 0 -48.775773306018309 -212.02367191593839 0 -212.02367191593839 -328.73854860030406 0 0 0 0 -33.588599886888829 -233.75181236045501 0 -233.75181236045501 -298.09333875937591 0 0 0 0 -25.945929757055211 -167.89397680760158 0 -167.89397680760158 -266.06165657592464 0 0 0 0 -117.37091393679432 -83.80405134256398 0 -83.80405134256398 -115.92572998775177 0 0 0 0 -63.587993090346231 -181.28525781470671 0 -181.28525781470671 -220.0449221959534 0 0 0 0 2.9078415428168074 -1.8144129483539331 0 -1.8144129483539331 0.84032183289848916 0 0 0 0 14.754107592384969 -8.8508256322238594 0 -8.8508256322238594 -50.085270198644139 0 0 0 0 -82.363682701374955 -52.414923638501023 0 -52.414923638501023 -18.503161697139149 0 0 0 0 18.634274478971292 -0.63192337520740693 0 -0.63192337520740693 -50.730056631048228 0 0 0 0 7.7120824740625906 -3.7939105705539475 0 -3.7939105705539475 0.8904036928779604 0 0 0 0 21.232051739329222 -0.27577808863043174 0 -0.27577808863043174 -54.362222785857739 0 0 0 0 -0.46543376541669446 -1.2572442505143329 0 -1.2572442505143329 1.3590709716066982 0 0 0 0 -2.1257100009715941 0.7406459049670957 0 0.7406459049670957 -388.07864526416779 0 0 0 0 -85.531229692609031 -224.26175969986434 0 -224.26175969986434 -300.49946635559172 0 0 0 0 -13.14724177145672 -140.64092369669379 0 -140.64092369669379 -397.27811702947656 0 0 0 0 17.919929915228465 -92.136838406528113 0 -92.136838406528113 -367.00598811917007 0 0 0 0 -20.697022620419716 -156.89528743051778 0 -156.89528743051778 -353.48060026300936 0 0 0 0 -21.004948026146565 -134.88379384279688 0 -134.88379384279688 -569.51531906104356 0 0 0 0 -103.31697900301265 -395.9257242317326 0 -395.9257242317326 -337.21637752573224 0 0 0 0 -118.42124058848856 -253.18018825010586 0 -253.18018825010586 -169.29474017122266 0 0 0 0 -99.46141862143628 -182.86341248376539 0 -182.86341248376539 -18.946164194370795 0 0 0 0 -107.5400940669399 -189.24847495059657 0 -189.24847495059657 -285.75985149633198 0 0 0 0 -87.21622591873529 -229.78938168282548 0 -229.78938168282548 -279.88628720947963 0 0 0 0 -95.797673318216425 -209.31290419610559 0 -209.31290419610559 -210.17754151283589 0 0 0 0 -87.985888611277232 -216.82089858975451 0 -216.82089858975451 -242.06362683659972 0 0 0 0 -75.52773484150589 -106.98597369447634 0 -106.98597369447634 -280.8103626752345 0 0 0 0 -117.4873631281589 -173.89088499315403 0 -173.89088499315403 -232.70939828248083 0 0 0 0 -64.775382487255683 -152.60007641211996 0 -152.60007641211996 -224.54735992934002 0 0 0 0 118.13951179114723 -188.3486652749998 0 -188.3486652749998 -77.575982208170899 0 0 0 0 -126.42987511609073 -169.67785493152314 0 -169.67785493152314 -92.269291291544505 0 0 0 0 -79.857039754813286 -72.750372019541828 0 -72.750372019541828 -154.06377714756673 0 0 0 0 -76.173208790482477 -83.683608434812413 0 -83.683608434812413 -125.59164725439769 0 0 0 0 -123.23024107006646 -63.944450831644644 0 -63.944450831644644 65.424318916673656 0 0 0 0 -102.1137714943219 -135.37219240331251 0 -135.37219240331251 401.31017128803069 0 0 0 0 27.398631314098907 -146.88419638175401 0 -146.88419638175401 45.376469119029935 0 0 0 0 -10.820120326745553 117.52363247457924 0 117.52363247457924 69.714692878595088 0 0 0 0 -0.39269370651469448 0.15043659384694763 0 0.15043659384694763 1.6817414390395413 0 0 0 0 120.46703415982466 -400.20355147020018 0 -400.20355147020018 233.19963009235653 0 0 0 0 -1.8220869186432838 -2.3352144807184949 0 -2.3352144807184949 -2.4231929671875605 0 0 0 0 -15.305275951080656 38.369086841077205 0 38.369086841077205 -289.51435790844698 0 0 0 0 -186.36290361298759 -123.59394386519489 0 -123.59394386519489 -99.140175681666733 0 0 0 0 -13.280690711523761 -126.28080909636901 0 -126.28080909636901 -248.77378613354813 0 0 0 0 -2.8087303940014863 99.264780981713557 0 99.264780981713557 -116.29007482885208 0 0 0 0 -27.944027576017277 90.642231619959603 0 90.642231619959603 -42.734796780045144 0 0 0 0 23.281540038472485 -24.281698533719464 0 -24.281698533719464 -293.76518564213438 0 0 0 0 -54.812690977922557 11.226734845491592 0 11.226734845491592 7.6473405986907892 0 0 0 0 -1.6558789239824814 -4.2727958853758281 0 -4.2727958853758281 -8.1763700363816554 0 0 0 0 15.966382158208262 -44.386396609406802 0 -44.386396609406802 32.683167618401058 0 0 0 0 35.486367117798011 -34.227781759342179 0 -34.227781759342179 -64.445420459509478 0 0 0 0 -37.743566744197324 -37.981923989078496 0 -37.981923989078496 71.166995838551884 0 0 0 0 -48.695856766480347 46.845843226961733 0 46.845843226961733 63.156566602992825 0 0 0 0 -22.451310197370731 8.3705102753665415 0 8.3705102753665415 -87.279124502598279 0 0 0 0 -26.305636949359723 -1.764081491426623 0 -1.764081491426623 29.476817279239185 0 0 0 0 -14.804987155432855 7.3256591909885174 0 7.3256591909885174 2.0633773255030974 0 0 0 0 2.3978208719318932 0.41666699519377204 0 0.41666699519377204 -7.5529138102959905 0 0 0 0 11.309540049409975 -1.196457026515418 0 -1.196457026515418 27.536547052513924 0 0 0 0 3.9643607010860009 3.8261864619616262 0 3.8261864619616262 -0.42371299436413778 0 0 0 0 349.41279698934108 -485.96910223739724 0 -485.96910223739724 64.368422674990143 0 0 0 0 285.07595600973764 -162.85799741483061 0 -162.85799741483061 295.98599886658485 0 0 0 0 1088.2389170544188 -17.800963849353138 0 -17.800963849353138 28.423455630945682 0 0 0 0 486.89101793596819 42.897937743546208 0 42.897937743546208 251.77687437590794 0 0 0 0 205.42705731364299 -351.43246043425461 0 -351.43246043425461 72.110135093535064 0 0 0 0 265.65243623083603 -58.508881982794264 0 -58.508881982794264 71.560228792257305 0 0 0 0 303.47875723912045 3.8602953279041685 0 3.8602953279041685 -60.252858183230273 0 0 0 0 189.7194915074092 -210.97601641416259 0 -210.97601641416259 -142.92466743607656 0 0 0 0 258.80236040836616 85.295283909727004 0 85.295283909727004 -186.8707167310622 0 0 0 0 383.93862365706718 15.884510421965388 0 15.884510421965388 -38.581196210696362 0 0 0 0 436.26418274472258 -54.160546933890146 0 -54.160546933890146 41.685404256742913 0 0 0 0 395.34649084961598 55.031277938862331 0 55.031277938862331 -32.056988727010321 0 0 0 0 393.5066479427046 -102.5905403305951 0 -102.5905403305951 29.097549735743087 0 0 0 0 0.91952184162008321 0.068150283634757614 0 0.068150283634757614 -8.2640216957683492 0 0 0 0 2.236025095620505 -3.1456664233410265 0 -3.1456664233410265 -17.492438984862019 0 0 0 0 249.25652193366778 -143.47026644338894 0 -143.47026644338894 72.474685150140431 0 0 0 0 4.8300872136596418 1.2361891807309036 0 1.2361891807309036 -8.2737248922847186 0 0 0 0 1.046179921560541 -1.4711554264063125 0 -1.4711554264063125 -0.41680420017753761 0 0 0 0 -122.62896354678523 268.55971917039278 0 268.55971917039278 -363.84148067771457 0 0 0 0 -153.80478284770271 86.651653776018065 0 86.651653776018065 57.303619462534698 0 0 0 0 24.052958286192279 -62.656613191640645 0 -62.656613191640645 -68.651398003305076 0 0 0 0 -360.34916315991472 80.613636896530807 0 80.613636896530807 -43.317132884511921 0 0 0 0 502.74892947455976 -228.40084673172532 0 -228.40084673172532 -132.52787618065486 0 0 0 0 92.300198637450308 91.667463841280551 0 91.667463841280551 236.78947749203144 0 0 0 0 -95.394308113220291 -235.36558527546003 0 -235.36558527546003 -63.939220856984321 0 0 0 0 212.65933104418781 -262.38835601782557 0 -262.38835601782557 -218.84911273853504 0 0 0 0 58.742253942380898 -72.24004820540722 0 -72.24004820540722 -196.35621775394065 0 0 0 0 -123.05407906539426 -174.41586975741666 0 -174.41586975741666 -214.96279810086708 0 0 0 0 184.56831945243221 -62.097864016177482 0 -62.097864016177482 -470.38433214435645 0 0 0 0 -190.4093324059439 137.57463750680745 0 137.57463750680745 -555.84798069535464 0 0 0 0 -41.72320466021381 -259.73275991061018 0 -259.73275991061018 -347.87779260358366 0 0 0 0 135.4303437725402 152.97992000628437 0 152.97992000628437 -62.993267730649677 0 0 0 0 -0.85565152315458681 2.3193065076917279 0 2.3193065076917279 -3.2728066889712295 0 0 0 0 122.64997475168659 363.28226992867712 0 363.28226992867712 -68.12872697120838 0 0 0 0 257.26913167256771 296.95398316689534 0 296.95398316689534 -528.6118161055274 0 0 0 0 120.12367765347079 334.04826291137215 0 334.04826291137215 -224.67692837423238 0 0 0 0 158.14815391810862 274.54304189098912 0 274.54304189098912 70.417683276344178 0 0 0 0 -8.142452532432344 12.517514350216516 0 12.517514350216516 -257.87071501992614 0 0 0 0 -1.6731858001116664 1.385959398096702 0 1.385959398096702 -2.4531487546208695 0 0 0 0 4.6626984389329209 0.6930983307029237 0 0.6930983307029237 -5.8566404140146915 0 0 0 0 1.9186675585569302 -2.2606435662322184 0 -2.2606435662322184 -11.516653480664331 0 0 0 0 402.58814112870607 -25.141739018596127 0 -25.141739018596127 45.647130233395728 0 0 0 0 233.76931626256373 142.7874848065112 0 142.7874848065112 154.15692992676486 0 0 0 0 396.34815743936053 33.508589021532316 0 33.508589021532316 -118.82962360035162 0 0 0 0 142.94162094261739 259.47108737614326 0 259.47108737614326 13.02039965763106 0 0 0 0 9.4524452732835442 -42.295336014289205 0 -42.295336014289205 -90.564124117467145 0 0 0 0 -69.067237319835897 142.41655912331771 0 142.41655912331771 -72.35163826772623 0 0 0 0 -109.64807954763623 130.11540620985033 0 130.11540620985033 -43.824041962194315 0 0 0 0 -102.9783523899381 169.69788895073725 0 169.69788895073725 -50.755146799001523 0 0 0 0 -47.639844906326687 165.97170794265548 0 165.97170794265548 -55.954901053271897 0 0 0 0 -55.496175741793962 228.79400774929309 0 228.79400774929309 -303.25270249044843 0 0 0 0 16.452464306303455 480.37573360784518 0 480.37573360784518 -197.23401390397339 0 0 0 0 -159.46304686803089 18.989504062844389 0 18.989504062844389 464.69871749030426 0 0 0 0 -175.51374307502488 299.41569564188831 0 299.41569564188831 -49.245330654717691 0 0 0 0 305.79991043416794 -131.31531767856723 0 -131.31531767856723 46.25089918593585 0 0 0 0 -89.66625006137599 52.098541532086529 0 52.098541532086529 136.88662050147468 0 0 0 0 74.657338619497239 96.7302258492291 0 96.7302258492291 -31.95762622734037 0 0 0 0 -106.99325016854084 143.07487508188933 0 143.07487508188933 -99.722379500684838 0 0 0 0 -100.86574278286183 138.96475979182469 0 138.96475979182469 -97.025392855182872 0 0 0 0 192.06386198238323 10.087572712087422 0 10.087572712087422 198.89909609997994 0 0 0 0 182.74899441665747 -82.135458660781296 0 -82.135458660781296 282.78188114937075 0 0 0 0 -1.8197800060632654 5.91526537096928 0 5.91526537096928 -11.306222244730876 0 0 0 0 -0.52231634299646823 3.4423342864192072 0 3.4423342864192072 -8.7803435920110644 0 0 0 0 457.9935898983677 164.7686756039875 0 164.7686756039875 -57.643116414779797 0 0 0 0 186.96869464608369 -42.833694606174504 0 -42.833694606174504 172.36275922630011 0 0 0 0 173.94577412821772 76.689164277093369 0 76.689164277093369 7.2637783819736796 0 0 0 0 130.60054688895076 155.23790191442276 0 155.23790191442276 124.4252100143276 0 0 0 0 74.004813285289401 50.176795262885207 0 50.176795262885207 -92.100649638290633 0 0 0 0 -36.463800988567527 -26.938811390238698 0 -26.938811390238698 -45.485923280397401 0 0 0 0 -77.913292814074339 -174.36315658568492 0 -174.36315658568492 -195.80123792728409 0 0 0 0 6.2870949463863326 -68.551079874225252 0 -68.551079874225252 -236.02590460790816 0 0 0 0 -17.161744414004602 -128.10773551263719 0 -128.10773551263719 -354.20890610852075 0 0 0 0 23.342588880682115 -104.60596324699509 0 -104.60596324699509 -330.2231292813085 0 0 0 0 216.04998214141679 262.55258966354631 0 262.55258966354631 -61.373258661551517 0 0 0 0 6.5535381816112022 -145.93620316133456 0 -145.93620316133456 -529.89204605316627 0 0 0 0 -101.80978553372074 -239.25544313088903 0 -239.25544313088903 -371.99247813432157 0 0 0 0 -0.14552466346277709 1.9752300537583025 0 1.9752300537583025 -4.8723769777792398 0 0 0 0 48.1878438988997 46.521177721784625 0 46.521177721784625 -606.68317677694722 0 0 0 0 -26.33486541708622 -56.858803912658914 0 -56.858803912658914 -323.68013469036669 0 0 0 0 -81.340830645079905 81.550315430147748 0 81.550315430147748 -221.53554532237831 0 0 0 0 -40.220719519440763 -1.6883889656382962 0 -1.6883889656382962 -200.99698320949392 0 0 0 0 -11.675711029983404 -82.137342490694209 0 -82.137342490694209 -275.36063202791411 0 0 0 0 -32.605689164415253 -115.5901505342008 0 -115.5901505342008 -327.94936782206059 0 0 0 0 -23.516538016225695 -49.42538667496774 0 -49.42538667496774 -339.76983513103187 0 0 0 0 -20.106690844016157 -125.51593847957611 0 -125.51593847957611 -350.08252444550817 0 0 0 0 -68.951835574401684 -128.50498653644354 0 -128.50498653644354 -569.97784447455342 0 0 0 0 -66.9814802694832 -154.29928685908453 0 -154.29928685908453 -352.07679820094108 0 0 0 0 -102.55355794350308 -149.89300131187167 0 -149.89300131187167 -263.48611717181484 0 0 0 0 -105.78943799859371 -71.940296029397359 0 -71.940296029397359 -226.00898871858953 0 0 0 0 -6.3427538935679877 -92.565105437992315 0 -92.565105437992315 -363.55081967915203 0 0 0 0 -15.222118742653038 -81.084174585617802 0 -81.084174585617802 -241.59591900185842 0 0 0 0 23.979439780988514 -81.73384394311779 0 -81.73384394311779 -243.7653273547985 0 0 0 0 -13.758576827402976 -31.832847352017779 0 -31.832847352017779 -125.19447858802596 0 0 0 0 13.460065719626073 -103.91619905405605 0 -103.91619905405605 -223.95396372134564 0 0 0 0 -103.05024041115905 -73.694298117892686 0 -73.694298117892686 -99.032063951541204 0 0 0 0 66.946518426209423 -68.754550526904495 0 -68.754550526904495 -139.64911927123467 0 0 0 0 -61.301783201678518 -55.751368824407109 0 -55.751368824407109 -45.875078294066043 0 0 0 0 74.696051820451402 -67.435779653075684 0 -67.435779653075684 -114.18531062524562 0 0 0 0 -6.466851511306686 0.72120915156119736 0 0.72120915156119736 64.728154469086803 0 0 0 0 -196.07449803293048 -112.56117538226499 0 -112.56117538226499 -217.48906467913184 0 0 0 0 -196.25458985193791 -114.98667041346562 0 -114.98667041346562 -114.18720651279 0 0 0 0 -47.902902566267528 -109.06701953559377 0 -109.06701953559377 -150.87082906960131 0 0 0 0 -64.500570856147419 -135.84135077484461 0 -135.84135077484461 -186.48739733580442 0 0 0 0 -171.27889927622255 -170.57984050556843 0 -170.57984050556843 -234.54271206041267 0 0 0 0 -227.37202586965122 -120.44884437650035 0 -120.44884437650035 -173.46346877783435 0 0 0 0 -200.44712249276563 -142.88921152972762 0 -142.88921152972762 -193.70215921270756 0 0 0 0 -262.1498331904827 -163.66876757045702 0 -163.66876757045702 -230.81109174105586 0 0 0 0 -184.30948209456892 -224.29232452108226 0 -224.29232452108226 -325.63358117250755 0 0 0 0 -44.745148346248698 -188.83934129154204 0 -188.83934129154204 -340.68716263493843 0 0 0 0 -351.93856005971065 -203.28572299586813 0 -203.28572299586813 -244.91561407002155 0 0 0 0 -257.38637776779206 -21.771355061207942 0 -21.771355061207942 -365.23552178029422 0 0 0 0 16.11535412417561 -3.9942086200935591 0 -3.9942086200935591 -426.90394861252298 0 0 0 0 -204.38471839260274 -277.80884975404479 0 -277.80884975404479 -388.29837869254698 0 0 0 0 -68.052143985811199 -5.0920856569809985 0 -5.0920856569809985 -34.676270158979605 0 0 0 0 -98.557450864278508 5.2072690939367021 0 5.2072690939367021 60.561437763000868 0 0 0 0 -48.659183319776048 19.980931808177957 0 19.980931808177957 -2.5349379688050249 0 0 0 0 -0.51848423521360498 1.7898515591583948 0 1.7898515591583948 -11.208917269490939 0 0 0 0 -365.78958668382825 -399.150967858488 0 -399.150967858488 -404.64412094878571 0 0 0 0 -179.76349835358542 103.39653130183433 0 103.39653130183433 -65.491900659675593 0 0 0 0 0.0040503593532932314 -0.13645049731258929 0 -0.13645049731258929 -4.5356978796594376 0 0 0 0 -132.10239939357234 -238.0892784212374 0 -238.0892784212374 -261.00672996750291 0 0 0 0 -128.49980706532688 -150.94111906518447 0 -150.94111906518447 -154.55981668445384 0 0 0 0 -58.150492818132989 -212.82722963794731 0 -212.82722963794731 -362.25425674620874 0 0 0 0 -57.142397457261154 -175.4869844701343 0 -175.4869844701343 -273.82466401311831 0 0 0 0 -81.407832035033607 -222.86580395047349 0 -222.86580395047349 -266.0357935760112 0 0 0 0 -98.630219359419925 -185.84995836769849 0 -185.84995836769849 -201.43222241153853 0 0 0 0 -68.593005034889757 -166.72890751786326 0 -166.72890751786326 -194.42540199092036 0 0 0 0 -39.65938569865375 -157.90393218245299 0 -157.90393218245299 -215.18504460212898 0 0 0 0 -53.125702925738096 -185.85181055551948 0 -185.85181055551948 -257.97785677758657 0 0 0 0 -89.890607410700341 -130.19997188057096 0 -130.19997188057096 -167.09610607278591 0 0 0 0 -88.130489074517754 -102.48335144570774 0 -102.48335144570774 -85.657680548843928 0 0 0 0 3.5811550762099849 1.4751709883606861 0 1.4751709883606861 -17.849067004559387 0 0 0 0 11.792511637163443 18.098271496361122 0 18.098271496361122 -39.659007373840723 0 0 0 0 23.109737331869837 -3.8672838115744526 0 -3.8672838115744526 -61.092422765083029 0 0 0 0 -7.13363199642572 3.4485673629824305 0 3.4485673629824305 -54.597718085746237 0 0 0 0 -6.2982539410604659 -88.511824633838842 0 -88.511824633838842 -197.05641181062674 0 0 0 0 -42.683202239108141 -61.153251465120775 0 -61.153251465120775 -117.20228159826365 0 0 0 0 28.593359873339068 -76.618707792142231 0 -76.618707792142231 -199.86896928249507 0 0 0 0 1.3935093176978626 26.680534713319503 0 26.680534713319503 -33.356810787889117 0 0 0 0 73.782047118958417 -9.5240070009349438 0 -9.5240070009349438 -230.57899760012515 0 0 0 0 -10.387047908841851 24.738927806407446 0 24.738927806407446 5.7071013723616488 0 0 0 0 1.5806766263017114 1.1414644028931633 0 1.1414644028931633 -1.9997085200987712 0 0 0 0 4.8137938169808443 -8.6513625027928356 0 -8.6513625027928356 -11.018449459588737 0 0 0 0 11.05467510612516 -2.8955762487057655 0 -2.8955762487057655 2.4805251562465855 0 0 0 0 9.7843472562118059 -0.87535465365965592 0 -0.87535465365965592 -4.9864110551797225 0 0 0 0 10.672308265001334 -8.944225664879923 0 -8.944225664879923 -30.813855212953058 0 0 0 0 0.18838390989455434 12.933465855530812 0 12.933465855530812 -18.729356715513859 0 0 0 0 6.2192974827839063 1.6014392110027984 0 1.6014392110027984 -10.88713960210589 0 0 0 0 4.8164166151922032 9.1359431897562899 0 9.1359431897562899 -38.555625653738389 0 0 0 0 23.77267141380679 11.347445967752719 0 11.347445967752719 -40.485612958276761 0 0 0 0 -4.9349633060573979 -23.254767395901581 0 -23.254767395901581 -15.520945953850969 0 0 0 0 11.345485085847178 -5.7622664273461481 0 -5.7622664273461481 -13.842884224658334 0 0 0 0 -0.77211202793625944 11.36934304641909 0 11.36934304641909 -12.197887463655206 0 0 0 0 23.794982547924519 -12.001470987652283 0 -12.001470987652283 -26.553758843418564 0 0 0 0 15.708409792634484 8.6995023903800757 0 8.6995023903800757 -28.703867465564599 0 0 0 0 11.756800367269534 19.712855445894093 0 19.712855445894093 -42.899208884644395 0 0 0 0 21.146321489369257 26.159211455065815 0 26.159211455065815 -77.036751651590748 0 0 0 0 38.569685239974206 -7.8036869821153232 0 -7.8036869821153232 -59.272570013221412 0 0 0 0 34.249885344630457 34.940119122358738 0 34.940119122358738 -53.026212175398541 0 0 0 0 -100.29591836075997 10.451998251002806 0 10.451998251002806 -33.334995248187624 0 0 0 0 -32.574224574787877 7.5805627757181355 0 7.5805627757181355 -95.577198700077133 0 0 0 0 -22.533215890847714 30.238937845308101 0 30.238937845308101 -45.460213882404787 0 0 0 0 -81.196659511169401 78.262974776355804 0 78.262974776355804 34.369243737120996 0 0 0 0 -50.844047518336083 77.481360660722203 0 77.481360660722203 -74.548033168531219 0 0 0 0 -14.318378046770704 16.720029069554585 0 16.720029069554585 -2.2478029201092795 0 0 0 0 -44.200049576794299 44.23414870944498 0 44.23414870944498 -26.739628642193566 0 0 0 0 15.350139369161852 17.082419529524486 0 17.082419529524486 16.51315044958028 0 0 0 0 14.685531080025193 17.419106920908234 0 17.419106920908234 18.804684415095835 0 0 0 0 15.309729848163911 13.075410745906993 0 13.075410745906993 -1.6116525964273478 0 0 0 0 15.01865429793552 13.331362665856432 0 13.331362665856432 -1.2737860241468297 0 0 0 0 10.300178543637628 13.801822232162522 0 13.801822232162522 -11.821058488276321 0 0 0 0 13.178372960917216 9.7394195890883566 0 9.7394195890883566 -8.2260003594274167 0 0 0 0 19.434022662564601 21.43404505221406 0 21.43404505221406 -14.984765101955418 0 0 0 0 11.578324551331036 12.511911711400899 0 12.511911711400899 -24.121148500724303 0 0 0 0 14.770273381307277 14.832636817875027 0 14.832636817875027 -23.522975014173426 0 0 0 0 41.910009596309365 29.399641812473419 0 29.399641812473419 -30.312786809984573 0 0 0 0 27.557998874760948 29.313169607037707 0 29.313169607037707 -30.249056293905596 0 0 0 0 19.849271552730684 24.419204340672877 0 24.419204340672877 -2.0240397875056715 0 0 0 0 75.611519231584225 63.502275476363138 0 63.502275476363138 -32.316121337164077 0 0 0 0 32.414516670806279 53.906135937286308 0 53.906135937286308 -29.421187139370886 0 0 0 0 97.673915042279305 130.03163640942512 0 130.03163640942512 -13.047740163397975 0 0 0 0 36.451024179544788 91.742011088470463 0 91.742011088470463 81.787771659815917 0 0 0 0 14.479870873785814 27.917430622626853 0 27.917430622626853 77.110717342673979 0 0 0 0 31.105539227623538 43.878923014231987 0 43.878923014231987 14.678434447938344 0 0 0 0 13.26386749837792 18.153786696493626 0 18.153786696493626 20.545209070362034 0 0 0 0 16.543908698166646 -0.6279948705159768 0 -0.6279948705159768 45.02026056341856 0 0 0 0 -54.814120133693905 15.97483683228711 0 15.97483683228711 -28.711548168197623 0 0 0 0 -0.72766115758419758 2.9410163740316406 0 2.9410163740316406 -3.1016622026465726 0 0 0 0 11.801112856991411 4.0116330804636888 0 4.0116330804636888 -6.6406365180399263 0 0 0 0 -25.668646171795103 27.379531391212367 0 27.379531391212367 -23.374346605825849 0 0 0 0 -52.182733334663681 13.961251779714075 0 13.961251779714075 -34.29808914088062 0 0 0 0 15.045906879111598 -8.7676178578331019 0 -8.7676178578331019 10.002358238998568 0 0 0 0 11.42831002312721 -1.0691527632225188 0 -1.0691527632225188 -4.1331524677661946 0 0 0 0 15.279933300533955 -9.5356465646909783 0 -9.5356465646909783 11.096676873334218 0 0 0 0 4.1404576925704042 6.0264881368835148 0 6.0264881368835148 -15.167755686799808 0 0 0 0 15.173141238427778 -9.2818992740503745 0 -9.2818992740503745 17.083009049558314 0 0 0 0 12.662655714140215 -0.59740898994641611 0 -0.59740898994641611 16.755775485027698 0 0 0 0 12.72042752223482 0.80340666225310997 0 0.80340666225310997 5.4187803253880702 0 0 0 0 12.555562114183857 1.946290292795311 0 1.946290292795311 10.688475912422291 0 0 0 0 11.793900716181071 5.8765176631713985 0 5.8765176631713985 37.772007960797055 0 0 0 0 11.108036779728081 4.7704089319486229 0 4.7704089319486229 -3.9704605915321736 0 0 0 0 11.934296889819535 4.5749869622377446 0 4.5749869622377446 -5.8248077003227081 0 0 0 0 13.083523538928432 0.92072984590777196 0 0.92072984590777196 5.3458473543578293 0 0 0 0 12.91879363945668 0.93674214821658097 0 0.93674214821658097 5.4965283111159806 0 0 0 0 12.938822035949215 0.71777194793685339 0 0.71777194793685339 5.1829481197928544 0 0 0 0 13.737426161809992 -6.5368525104859145 0 -6.5368525104859145 6.429538487107493 0 0 0 0 -41.03249786357766 -75.846474470363319 0 -75.846474470363319 -29.286373158785864 0 0 0 0 -16.139401779158391 25.931015922276856 0 25.931015922276856 -27.295673435961362 0 0 0 0 3.2154881638184012 -1.3976154411425448 0 -1.3976154411425448 -3.9397661797300429 0 0 0 0 64.360584953737174 35.51933347623708 0 35.51933347623708 -39.570834492893482 0 0 0 0 251.55913510589687 -159.3480322619871 0 -159.3480322619871 -156.20647049433319 0 0 0 0 28.902278290527192 25.92909943102859 0 25.92909943102859 -50.767283328324993 0 0 0 0 12.577376937057835 22.102530436892266 0 22.102530436892266 -50.406646536721382 0 0 0 0 5.5811361488527851 45.224946454996825 0 45.224946454996825 -52.298230460975901 0 0 0 0 56.558485264393681 31.535151063410012 0 31.535151063410012 -66.588084742979845 0 0 0 0 72.955134785589991 29.679429374755273 0 29.679429374755273 -58.833386474248982 0 0 0 0 35.032632417417744 42.653391542415193 0 42.653391542415193 -62.710078371150303 0 0 0 0 -1.2949973922807192 8.3733136169744142 0 8.3733136169744142 -13.861947722727791 0 0 0 0 -176.00752414357942 144.72500020649568 0 144.72500020649568 97.317818960673321 0 0 0 0 -1.8118093691373875 15.102551303481278 0 15.102551303481278 -13.163775582081144 0 0 0 0 -1.6745862431001228 12.688733678343851 0 12.688733678343851 -13.556973386468599 0 0 0 0 8.3094272660237607 10.413914350276173 0 10.413914350276173 -15.052132643046207 0 0 0 0 4.4191461252339366 15.625056566699641 0 15.625056566699641 -14.432834884006297 0 0 0 0 7.984204180985671 11.536467771758907 0 11.536467771758907 -13.34806759885214 0 0 0 0 11.7239741079444 13.130001809244277 0 13.130001809244277 -21.96524316860814 0 0 0 0 5.9171694555722638 11.522516935372551 0 11.522516935372551 -21.155961952536018 0 0 0 0 10.653547297989803 17.353311437924276 0 17.353311437924276 -14.613880518621954 0 0 0 0 13.275649825381947 5.0407531053187995 0 5.0407531053187995 -34.858560612949077 0 0 0 0 -1.0087649790705768 2.3826013929028704 0 2.3826013929028704 -29.445896787416132 0 0 0 0 3.913400987274656 -4.7395363164287119 0 -4.7395363164287119 -45.434625506641169 0 0 0 0 15.182050852018193 -10.43233423935817 0 -10.43233423935817 -53.74275153275812 0 0 0 0 1.4722169243012218 -3.5933675152264186 0 -3.5933675152264186 -36.937008267457713 0 0 0 0 27.1355922501088 -8.3043525779576157 0 -8.3043525779576157 -56.922976911140722 0 0 0 0 -19.3980251142616 -6.4452336287940852 0 -6.4452336287940852 -14.578126398817403 0 0 0 0 4.6157628619933462 -9.1734358845533279 0 -9.1734358845533279 -45.480949507968035 0 0 0 0 -5.6576543198955278 11.580360820868464 0 11.580360820868464 -10.166171190474415 0 0 0 0 -17.765785131839266 6.4267670496847131 0 6.4267670496847131 -55.011487762472825 0 0 0 0 -6.0116019097201843 0.70119038663870015 0 0.70119038663870015 -77.256229294245713 0 0 0 0 -15.57328270697792 1.3390870356452069 0 1.3390870356452069 -112.79747860159841 0 0 0 0 -21.50012870859382 -9.7022990978366579 0 -9.7022990978366579 -80.394093156530289 0 0 0 0 -12.164189360985347 -11.67018536550313 0 -11.67018536550313 -71.490867230742879 0 0 0 0 -14.552920177573071 3.6000514942697919 0 3.6000514942697919 -94.412296672249795 0 0 0 0 8.5191662137179662 -21.172805575279199 0 -21.172805575279199 -70.802528879939928 0 0 0 0 10.217354095897363 -17.179149454907019 0 -17.179149454907019 -61.41312063994701 0 0 0 0 -11.989907331231223 -5.6286782762690564 0 -5.6286782762690564 -45.341483415018047 0 0 0 0 -14.248474797452118 -16.971316887402281 0 -16.971316887402281 -63.137829361061449 0 0 0 0 -9.0517014628031234 -22.673390848442068 0 -22.673390848442068 -92.252284672271344 0 0 0 0 -15.605563021091598 0.84992472081648884 0 0.84992472081648884 -79.415780743918731 0 0 0 0 -27.460217050979963 -12.774487437600328 0 -12.774487437600328 -91.399913961882703 0 0 0 0 -17.777108155570772 -2.5502032698059338 0 -2.5502032698059338 -126.35046881331073 0 0 0 0 -29.928073111970662 -12.604993587126955 0 -12.604993587126955 -89.457981315037614 0 0 0 0 -4.7852821423126102 -12.126758006299497 0 -12.126758006299497 -70.152077229773568 0 0 0 0 13.606564881917649 -31.555615275210585 0 -31.555615275210585 -88.856654786810395 0 0 0 0 9.5766056674839319 -13.538980928206001 0 -13.538980928206001 -89.946649081439318 0 0 0 0 43.262749035691328 -6.6614469787746202 0 -6.6614469787746202 -80.328397165521892 0 0 0 0 52.34940112142413 -12.280277789926913 0 -12.280277789926913 -74.627157087496016 0 0 0 0 39.9961159596931 -29.63979205564101 0 -29.63979205564101 -89.140697586379247 0 0 0 0 25.698671372005471 -16.392381868987286 0 -16.392381868987286 -73.946179515405674 0 0 0 0 67.378197837235746 -23.929711519209377 0 -23.929711519209377 -72.879613478704414 0 0 0 0 52.774586670543044 -18.118284873959055 0 -18.118284873959055 -56.478196072326682 0 0 0 0 69.073554769988363 -14.369007636756578 0 -14.369007636756578 -79.892178021851578 0 0 0 0 56.339404305569758 -15.9801248613403 0 -15.9801248613403 -78.362210341409082 0 0 0 0 31.198433270209989 -25.121553877426777 0 -25.121553877426777 -76.838994593366806 0 0 0 0 52.716913589915571 -24.198960407216873 0 -24.198960407216873 -79.153295005104155 0 0 0 0 37.229237481095637 -15.724874367879238 0 -15.724874367879238 -71.425388355390169 0 0 0 0 49.43441148479328 -2.6192652215213457 0 -2.6192652215213457 -64.150873791739286 0 0 0 0 30.1440128597051 -1.4493665782283642 0 -1.4493665782283642 -48.584614855739346 0 0 0 0 29.388540159498689 -16.073791221388092 0 -16.073791221388092 -71.338071704783033 0 0 0 0 50.587390679334341 -5.0678561657659884 0 -5.0678561657659884 -84.183506920875516 0 0 0 0 59.320718149139651 34.231909674967028 0 34.231909674967028 -84.516698235493095 0 0 0 0 65.764773328366033 5.542703109455033 0 5.542703109455033 -81.274630465901282 0 0 0 0 33.731276858986703 13.01568249486445 0 13.01568249486445 -56.517658370183199 0 0 0 0 28.589349938944395 16.847468356376339 0 16.847468356376339 -35.875399397664296 0 0 0 0 15.723628497562785 2.8997364080914849 0 2.8997364080914849 -49.781089425712707 0 0 0 0 30.000466462349891 0.32081758404092398 0 0.32081758404092398 -58.74762445873057 0 0 0 0 87.7717531815602 55.660536007802875 0 55.660536007802875 -134.35260940698936 0 0 0 0 104.15761045672969 35.05224508500396 0 35.05224508500396 -116.80260664626985 0 0 0 0 82.89075829419204 1.3115951450054126 0 1.3115951450054126 -95.718287207790127 0 0 0 0 80.897747802784181 -10.477062392561493 0 -10.477062392561493 -155.07813510410779 0 0 0 0 70.399300676153501 -26.21344540903101 0 -26.21344540903101 -109.77109619513794 0 0 0 0 11.910645845103829 -46.332895424387971 0 -46.332895424387971 -40.460277595673688 0 0 0 0 24.216221823736419 -15.597363430955738 0 -15.597363430955738 -2.3338617666304344 0 0 0 0 59.126604639085883 -37.313752124697203 0 -37.313752124697203 -111.64369250624441 0 0 0 0 69.657706953028139 -14.503796027136559 0 -14.503796027136559 -107.96230144331639 0 0 0 0 60.552883231788755 -30.200370828382802 0 -30.200370828382802 -76.171289396006614 0 0 0 0 70.106009289860765 -10.163766510762798 0 -10.163766510762798 -65.34802998370651 0 0 0 0 -0.37930885334523595 2.4222566487196744 0 2.4222566487196744 -5.4982815994635814 0 0 0 0 -2.0755219072705327 3.4988038986521115 0 3.4988038986521115 -1.7170438732826341 0 0 0 0 101.69248594260279 75.746687721899434 0 75.746687721899434 -3.2385357600061582 0 0 0 0 6.6237804828166844 14.308764113828147 0 14.308764113828147 -0.041205972986062989 0 0 0 0 89.773689337339022 9.6703065045858239 0 9.6703065045858239 -47.712765392399888 0 0 0 0 105.3120398163968 21.898839188668717 0 21.898839188668717 -71.204232355354179 0 0 0 0 37.859474279198764 6.2114071391551988 0 6.2114071391551988 -111.19540625631271 0 0 0 0 64.035817879683222 1.061860954061558 0 1.061860954061558 -139.7935820177081 0 0 0 0 39.316499673600006 -20.176965564121929 0 -20.176965564121929 -110.01554910931736 0 0 0 0 63.698063444992883 -6.5970244612544775 0 -6.5970244612544775 -106.46616625628667 0 0 0 0 73.320202409359638 33.272365375145455 0 33.272365375145455 -74.787895085559285 0 0 0 0 81.335197660501876 26.971139804161794 0 26.971139804161794 -57.502639022073822 0 0 0 0 49.608522539668371 63.380833927600179 0 63.380833927600179 -84.215498671896057 0 0 0 0 46.557918944254197 -5.2268984258698765 0 -5.2268984258698765 -133.5386014422329 0 0 0 0 62.217787587415103 68.241582230621134 0 68.241582230621134 -92.865260332313483 0 0 0 0 33.530211316598781 88.189154883169977 0 88.189154883169977 65.400599393517041 0 0 0 0 46.482699408234311 43.912526673901084 0 43.912526673901084 48.045345140220888 0 0 0 0 3.2660291438464668 -0.8112052857177332 0 -0.8112052857177332 -0.31245990130517498 0 0 0 0 2.8155983298799661 -1.4480531971248212 0 -1.4480531971248212 0.34717675139487625 0 0 0 0 27.800107375528114 -4.225878844890758 0 -4.225878844890758 -19.720820226837532 0 0 0 0 70.333687051418821 149.7672571132498 0 149.7672571132498 71.352507545896515 0 0 0 0 -1.3957602371600837 4.7733767247971013 0 4.7733767247971013 -5.855275673678662 0 0 0 0 85.515989961913391 92.037242326343403 0 92.037242326343403 56.422531631411402 0 0 0 0 -1.6057453676818771 3.1548755670335211 0 3.1548755670335211 -5.5225750088079621 0 0 0 0 4.4982358083450222 13.833111226724213 0 13.833111226724213 -4.953776987746096 0 0 0 0 0.30987476453752499 1.1783423385643967 0 1.1783423385643967 1.1579408297040175 0 0 0 0 5.0458647887775214 -3.3691941299184691 0 -3.3691941299184691 -5.2627403984624834 0 0 0 0 -5.1803828476437843 8.7434129272296559 0 8.7434129272296559 7.0506611380842514 0 0 0 0 0.35477345628883405 3.4411243848833095 0 3.4411243848833095 -5.2362758953018087 0 0 0 0 51.318275432547182 32.007022507046713 0 32.007022507046713 23.615528546884889 0 0 0 0 137.56971399874627 55.800538409784167 0 55.800538409784167 1.3407581439314527 0 0 0 0 87.716516053406579 8.1093107793822128 0 8.1093107793822128 22.355567796036667 0 0 0 0 60.936587980662296 54.712912222845262 0 54.712912222845262 26.175961863787961 0 0 0 0 63.190464554610344 57.528702472642181 0 57.528702472642181 48.179139292706168 0 0 0 0 58.116918952190872 52.899649352584674 0 52.899649352584674 46.565558286551095 0 0 0 0 59.176277884301157 58.523484166013077 0 58.523484166013077 39.541079852155235 0 0 0 0 -1.9992525839162405 3.8296568818937189 0 3.8296568818937189 -4.5535674806537685 0 0 0 0 6.2032800806976383 10.487241817558356 0 10.487241817558356 -4.7897760330415622 0 0 0 0 59.503016784615454 53.301174600503145 0 53.301174600503145 43.627651969063663 0 0 0 0 64.398448603677224 58.206728597444453 0 58.206728597444453 51.361911438061725 0 0 0 0 65.175059023697088 50.256241040264285 0 50.256241040264285 45.097824772099557 0 0 0 0 61.120458824293117 55.077496522162619 0 55.077496522162619 61.8325121731541 0 0 0 0 70.219515846678632 53.889324398536701 0 53.889324398536701 54.115139439862105 0 0 0 0 42.388653510284826 60.57856826063653 0 60.57856826063653 62.877998319363542 0 0 0 0 64.552570375231426 61.966622424140951 0 61.966622424140951 55.335285912027757 0 0 0 0 67.744637853759741 50.83452911041968 0 50.83452911041968 61.782428860926302 0 0 0 0 62.134756791874281 56.527798707436887 0 56.527798707436887 56.066556619800394 0 0 0 0 59.361509717913691 56.193475507498079 0 56.193475507498079 52.349377381891827 0 0 0 0 69.003190397101548 55.599300836849579 0 55.599300836849579 51.902457635849714 0 0 0 0 -0.23744721724903395 0.5288187642093618 0 0.5288187642093618 -0.8451645411217612 0 0 0 0 -59.437472563520714 -36.265639164004824 0 -36.265639164004824 -22.821405628557841 0 0 0 0 91.530098872051781 83.61440632843005 0 83.61440632843005 71.506081390883992 0 0 0 0 -64.207002949082607 -51.419231662126549 0 -51.419231662126549 -28.742822721134871 0 0 0 0 -88.750227345974963 -83.405360810276761 0 -83.405360810276761 -70.369335986790247 0 0 0 0 62.222946738036626 52.18289519901009 0 52.18289519901009 65.830252038234903 0 0 0 0 -57.196547656587541 -113.73929996240622 0 -113.73929996240622 -157.09683161439898 0 0 0 0 -30.875028906073339 -72.621809505479177 0 -72.621809505479177 -142.85496132314438 0 0 0 0 -85.872319463776421 -103.62295977767644 0 -103.62295977767644 -97.932084460975602 0 0 0 0 -39.529881805217201 -66.538745206482417 0 -66.538745206482417 -127.03235945029883 0 0 0 0 -24.786913161727171 -56.996197315194877 0 -56.996197315194877 -121.33793851664814 0 0 0 0 -59.519851402953918 -91.495977484388277 0 -91.495977484388277 -134.20894849405158 0 0 0 0 -53.310861492876484 -61.261836753081298 0 -61.261836753081298 -83.372868219972588 0 0 0 0 -23.784822863284035 -103.10504603286972 0 -103.10504603286972 -228.22833067976171 0 0 0 0 62.801299885601964 74.566900356003316 0 74.566900356003316 40.949230750484276 0 0 0 0 -0.5080523673267977 0.32463617358090602 0 0.32463617358090602 0.36406874281084356 0 0 0 0 126.2260131204614 107.57746269737254 0 107.57746269737254 -48.055960523022804 0 0 0 0 55.145699046909385 59.667193011839117 0 59.667193011839117 62.165502083234969 0 0 0 0 58.481276094597888 56.463069818695658 0 56.463069818695658 61.201872875310073 0 0 0 0 57.887409247951155 56.741899892855145 0 56.741899892855145 64.671071586362814 0 0 0 0 57.694466045721583 92.567908593264292 0 92.567908593264292 -18.159407587882015 0 0 0 0 64.731169110248487 67.892110627803049 0 67.892110627803049 39.66075906676997 0 0 0 0 29.397165704825341 78.402555322070839 0 78.402555322070839 36.629767121863551 0 0 0 0 42.524433491438202 58.078146822139388 0 58.078146822139388 -5.585156051107333 0 0 0 0 -6.5706456485258968 -14.235597765131388 0 -14.235597765131388 -156.6016580248106 0 0 0 0 48.558141000704353 26.298533407665673 0 26.298533407665673 -207.0684124729305 0 0 0 0 60.855307092456542 89.297493011043116 0 89.297493011043116 -117.17135525144113 0 0 0 0 -8.5950611316914092 -25.623303050235336 0 -25.623303050235336 -154.42504782049218 0 0 0 0 4.8792194138022751 -14.16634175919171 0 -14.16634175919171 -298.87818134554254 0 0 0 0 -0.97112347463041715 -26.019339881459018 0 -26.019339881459018 -201.09525921668683 0 0 0 0 -1.2908135251568638 -38.36533924160176 0 -38.36533924160176 -236.12514025624841 0 0 0 0 -19.488179025237969 4.6955880785571935 0 4.6955880785571935 -176.91057393859955 0 0 0 0 -9.1522951405488584 -27.047396717389347 0 -27.047396717389347 -197.46805217168003 0 0 0 0 -35.581407512276769 -3.1209137456316967 0 -3.1209137456316967 -125.52901966811623 0 0 0 0 -24.241868875625983 -2.0572247502932441 0 -2.0572247502932441 -176.9574722078396 0 0 0 0 -64.116993884714702 60.746736708082608 0 60.746736708082608 -202.89195061990176 0 0 0 0 -23.696747885522541 8.4432694782444742 0 8.4432694782444742 -144.88712430070154 0 0 0 0 -75.373466000444637 -17.642059017758584 0 -17.642059017758584 -139.78297457308508 0 0 0 0 -11.53908982188608 -23.268832842419215 0 -23.268832842419215 -148.41879319801228 0 0 0 0 -7.6806882267352421 -13.033219366174308 0 -13.033219366174308 -117.37087724392768 0 0 0 0 -43.588120984359819 -3.9181874610221712 0 -3.9181874610221712 -113.64728344252217 0 0 0 0 15.492773181123539 -14.111249648834928 0 -14.111249648834928 -122.19503654833534 0 0 0 0 17.964063509679477 -24.073388974953559 0 -24.073388974953559 -104.57124685577583 0 0 0 0 -8.6306464927921027 -26.151435238923568 0 -26.151435238923568 -98.345787021826254 0 0 0 0 19.554841589843932 -19.856291929150757 0 -19.856291929150757 -147.5492734973086 0 0 0 0 -7.330303827435273 -11.439464103852515 0 -11.439464103852515 -115.1851789780485 0 0 0 0 8.3585427451107535 -21.218928184593096 0 -21.218928184593096 -164.16844919086725 0 0 0 0 32.478009350118384 8.0117325219252962 0 8.0117325219252962 -137.68443194951396 0 0 0 0 -2.1970258083680392 -23.836736506134912 0 -23.836736506134912 -133.1321696623927 0 0 0 0 -12.501365711782455 -46.010328204960388 0 -46.010328204960388 -136.18350581396953 0 0 0 0 -13.68143963330931 -44.153785993868951 0 -44.153785993868951 -139.08172430933337 0 0 0 0 -22.306028363848782 -56.125660234800307 0 -56.125660234800307 -151.89045659443946 0 0 0 0 -14.280323477572438 -89.62767185588018 0 -89.62767185588018 -221.7953286904376 0 0 0 0 -37.836395770106719 -81.117900340737833 0 -81.117900340737833 -153.18088271796296 0 0 0 0 -32.283962908468311 -90.37275193538153 0 -90.37275193538153 -177.35311380718485 0 0 0 0 -16.217539510025745 -55.502293246187037 0 -55.502293246187037 -173.28599920906709 0 0 0 0 -9.243389325098633 -53.010096073470777 0 -53.010096073470777 -215.43246437082416 0 0 0 0 -6.6338128508148202 -23.204030927896383 0 -23.204030927896383 -196.84390824448928 0 0 0 0 -11.166611060073137 -50.516448102876893 0 -50.516448102876893 -184.76988086872734 0 0 0 0 -10.183542780434436 -28.556661700014956 0 -28.556661700014956 -149.84529133049909 0 0 0 0 -11.038438711123945 -38.996778380111209 0 -38.996778380111209 -178.11033459936152 0 0 0 0 -19.978482237009985 -54.256446823979786 0 -54.256446823979786 -164.16641841788078 0 0 0 0 -16.707092018336652 -23.846170045704639 0 -23.846170045704639 -151.31634258886334 0 0 0 0 -25.833886828017739 -6.2646564738315647 0 -6.2646564738315647 -114.56480562207435 0 0 0 0 -9.0820956929809142 -16.209920546768444 0 -16.209920546768444 -155.1704137645429 0 0 0 0 -8.2922200779339619 -15.717093474180729 0 -15.717093474180729 -111.58349344149246 0 0 0 0 -12.452966326688596 -5.9245688556984533 0 -5.9245688556984533 -122.01716569981363 0 0 0 0 -10.154042292471104 -33.343069076508982 0 -33.343069076508982 -138.6678215212014 0 0 0 0 0.92989057300439981 -24.913133827154525 0 -24.913133827154525 -113.69548314775966 0 0 0 0 -10.288865316912862 -8.4178154350524892 0 -8.4178154350524892 -88.331923820631346 0 0 0 0 3.3633427582318518 -20.221060555719305 0 -20.221060555719305 -112.46247996888815 0 0 0 0 -4.7407513726457182 -23.311026415474771 0 -23.311026415474771 -113.93521583335678 0 0 0 0 -2.4227555824696196 -21.946924119949472 0 -21.946924119949472 -87.330924929061439 0 0 0 0 -5.0003293180714081 -28.610610600202563 0 -28.610610600202563 -104.02665205221274 0 0 0 0 4.3089069928477102 -33.858714997822972 0 -33.858714997822972 -110.49533289125975 0 0 0 0 4.5147824315934031 -31.454983763389464 0 -31.454983763389464 -116.25684283280134 0 0 0 0 -7.0471560005380525 -34.229407225291652 0 -34.229407225291652 -118.3907623421328 0 0 0 0 1.4141211611458573 -29.132421923097354 0 -29.132421923097354 -127.38671977329068 0 0 0 0 1.2032141833819878 -29.44568114914 0 -29.44568114914 -110.47532105770551 0 0 0 0 -13.901494477638153 -35.925965313308552 0 -35.925965313308552 -96.711800327700985 0 0 0 0 -1.7723871341488575 -32.912514542949793 0 -32.912514542949793 -107.02575130590776 0 0 0 0 -5.7450757210066286 -40.027640530315693 0 -40.027640530315693 -109.62354858715844 0 0 0 0 -19.67826818618471 -35.220810027687548 0 -35.220810027687548 -96.755354899178201 0 0 0 0 -9.592705316636966 -41.889444261723838 0 -41.889444261723838 -111.74499141994602 0 0 0 0 -16.694909934354314 -54.444282058160752 0 -54.444282058160752 -110.24918207936571 0 0 0 0 -8.6876910190358103 -35.297887378124869 0 -35.297887378124869 -107.68298326178046 0 0 0 0 3.1532708679619645 -40.6641204057305 0 -40.6641204057305 -107.25273081865453 0 0 0 0 5.068344885878787 -30.225396061592619 0 -30.225396061592619 -100.34614383446024 0 0 0 0 6.4113181379100297 -35.948413607249677 0 -35.948413607249677 -91.462819602318632 0 0 0 0 -1.3041952329819537 -48.730670254092729 0 -48.730670254092729 -106.13617117305694 0 0 0 0 0.89335332293921965 -26.440075330894615 0 -26.440075330894615 -92.382574410876259 0 0 0 0 -12.800675161529398 -35.130758500112279 0 -35.130758500112279 -76.817229077933007 0 0 0 0 -13.357526665382693 -38.139420795225305 0 -38.139420795225305 -92.358308907569153 0 0 0 0 -24.720570818159416 -50.088370682029023 0 -50.088370682029023 -101.70845673223084 0 0 0 0 -1.675710268515104 -38.424521426015417 0 -38.424521426015417 -122.79180199820985 0 0 0 0 -1.5734403366557643 -37.112262383989673 0 -37.112262383989673 -106.02738903967838 0 0 0 0 2.6043892039467664 -34.553059101272083 0 -34.553059101272083 -104.7762640116598 0 0 0 0 5.950426350514789 -31.049391975745493 0 -31.049391975745493 -108.28067733084026 0 0 0 0 1.1916830106131329 -36.113972777315212 0 -36.113972777315212 -95.451647865353152 0 0 0 0 10.404605015047991 -21.877778804147965 0 -21.877778804147965 -86.472888354466704 0 0 0 0 -2.760219320466831 -26.632999793851923 0 -26.632999793851923 -73.546061915207247 0 0 0 0 -0.17269533793592018 -15.921779435935605 0 -15.921779435935605 -62.616171071720601 0 0 0 0 -34.553843478102635 -13.823429328331258 0 -13.823429328331258 -26.93665107796005 0 0 0 0 -14.550389768190144 -34.873582468004315 0 -34.873582468004315 -76.853413007025665 0 0 0 0 -43.133259920076398 -57.492839370926959 0 -57.492839370926959 -72.504807098084711 0 0 0 0 -13.242287109360859 -24.540819744841428 0 -24.540819744841428 -52.176212611375377 0 0 0 0 -0.70112714463584025 1.6952287045174472 0 1.6952287045174472 -2.3921408130499913 0 0 0 0 74.247900717961556 47.334419850216364 0 47.334419850216364 26.802247913379688 0 0 0 0 -0.79694263601297122 0.60570632064660401 0 0.60570632064660401 0.14669333486553171 0 0 0 0 -2.3102292280125312 -2.6621010090602795 0 -2.6621010090602795 -42.51653009938309 0 0 0 0 20.914678702275708 -20.838890572938908 0 -20.838890572938908 -52.980069983488647 0 0 0 0 13.731757981347911 -9.7302858048415146 0 -9.7302858048415146 -63.941473540762672 0 0 0 0 11.433144779933443 -25.591453276442735 0 -25.591453276442735 -62.041800975857768 0 0 0 0 17.746792763346548 -19.844286808212928 0 -19.844286808212928 -83.658375929568138 0 0 0 0 18.507161233053012 -15.658130410520243 0 -15.658130410520243 -57.429461638676003 0 0 0 0 4.4017463274201418 -38.336964281306791 0 -38.336964281306791 -73.069937320011377 0 0 0 0 22.053606812498174 -16.789401711030223 0 -16.789401711030223 -69.665200626828664 0 0 0 0 37.04190595323098 18.45655470955171 0 18.45655470955171 -43.13170604534389 0 0 0 0 3.4574429187787246 -12.760352640798374 0 -12.760352640798374 -38.606634117633803 0 0 0 0 5.5774638014968332 -34.494314482202753 0 -34.494314482202753 -1.862598225234251 0 0 0 0 19.69189595798413 -33.559087386412557 0 -33.559087386412557 -23.293255892436719 0 0 0 0 -3.0069003845371753 12.877401781792287 0 12.877401781792287 29.223741842492018 0 0 0 0 8.8386918402824222 -16.160274189343909 0 -16.160274189343909 -15.337704329314874 0 0 0 0 59.487617727721499 57.238573792803436 0 57.238573792803436 41.575596292612317 0 0 0 0 44.855242928328948 53.829945557768951 0 53.829945557768951 1.0308652840722061 0 0 0 0 -1.71608126595053 2.7393476740029996 0 2.7393476740029996 -3.2867668010570128 0 0 0 0 -0.818823129686995 0.58474523193759609 0 0.58474523193759609 0.11813819912291024 0 0 0 0 18.458234975776577 52.048169218047406 0 52.048169218047406 62.855055051710224 0 0 0 0 47.669306299808795 33.921561192146328 0 33.921561192146328 25.957259213922953 0 0 0 0 60.630220141753625 55.785436030972051 0 55.785436030972051 37.751022619951982 0 0 0 0 63.595379290555286 53.378348975104018 0 53.378348975104018 39.385256521280098 0 0 0 0 60.690636547667964 52.822381913858408 0 52.822381913858408 37.738209085826611 0 0 0 0 63.672811486841965 52.160158564205631 0 52.160158564205631 37.754264671941201 0 0 0 0 63.709584011899778 53.410162781849067 0 53.410162781849067 31.247547432838473 0 0 0 0 57.615215697635563 59.637614836978173 0 59.637614836978173 58.618795143112948 0 0 0 0 61.83530434568388 50.734796137774538 0 50.734796137774538 49.615390543229296 0 0 0 0 58.080926356346936 51.729165475648188 0 51.729165475648188 55.315813102221 0 0 0 0 60.831876108093638 57.640662693096601 0 57.640662693096601 46.868155172312981 0 0 0 0 -8.4477444993535755 -54.251115554401622 0 -54.251115554401622 -89.840932438062737 0 0 0 0 20.098743238861061 5.6926728409926 0 5.6926728409926 -57.911218375520548 0 0 0 0 -70.993015023807402 -102.13483137302683 0 -102.13483137302683 -134.35806225519627 0 0 0 0 7.3533145429491924 -33.267138197490567 0 -33.267138197490567 -136.39394858785818 0 0 0 0 -31.73991351581617 -22.374835832215467 0 -22.374835832215467 -85.974815904563002 0 0 0 0 -0.39627610889692733 -31.693580933926569 0 -31.693580933926569 -88.593547278374899 0 0 0 0 25.999893904443525 25.998626136388339 0 25.998626136388339 -38.258833486092044 0 0 0 0 -13.096931882024478 -35.180961359907087 0 -35.180961359907087 -62.102052293499582 0 0 0 0 44.0017914099476 59.592109007615363 0 59.592109007615363 -2.9027391055856242 0 0 0 0 38.501364713177963 17.062735912826611 0 17.062735912826611 -28.402726680375054 0 0 0 0 23.656656683956953 -17.388775530373096 0 -17.388775530373096 -1.6397741233631677 0 0 0 0 51.409712294586143 -21.609981624646025 0 -21.609981624646025 33.469577495285193 0 0 0 0 81.159320323864108 9.9211518196098041 0 9.9211518196098041 -32.241847658537154 0 0 0 0 44.117712498719584 24.7609842297461 0 24.7609842297461 -36.297323101520305 0 0 0 0 19.052511114597792 -6.5991865272771975 0 -6.5991865272771975 -73.472316481042071 0 0 0 0 33.921043370342204 -25.077668560153143 0 -25.077668560153143 -51.828081980987918 0 0 0 0 22.997250843392621 -38.427854125481872 0 -38.427854125481872 -114.29267241946945 0 0 0 0 19.303046850941655 -7.4014194453775417 0 -7.4014194453775417 -51.403627530296944 0 0 0 0 15.117411147433586 -34.392512835649541 0 -34.392512835649541 -89.259595635383448 0 0 0 0 20.209206302388239 -2.2280210417222861 0 -2.2280210417222861 -59.033918881745194 0 0 0 0 -7.9326476367575651 -29.375980406563031 0 -29.375980406563031 -86.184292384117725 0 0 0 0 -16.74070026974573 -70.052419800875214 0 -70.052419800875214 -101.62307066408721 0 0 0 0 -44.357783138606237 -42.498270705447794 0 -42.498270705447794 -126.63127000917302 0 0 0 0 -114.81562119830187 -109.94664133314291 0 -109.94664133314291 -116.52412437642397 0 0 0 0 -2.6684055016378352 -48.42673399220439 0 -48.42673399220439 -121.93270113894687 0 0 0 0 164.31170494056931 111.35063369374529 0 111.35063369374529 125.22859193818294 0 0 0 0 -67.465065617803475 -109.63241475849645 0 -109.63241475849645 -129.30690469048386 0 0 0 0 -19.570155271016802 -78.843671013855783 0 -78.843671013855783 -149.85489278855312 0 0 0 0 -2.3120726188662091 6.2366429938589718 0 6.2366429938589718 -9.1036239801750156 0 0 0 0 -2.6056567517634193 -56.563572452522294 0 -56.563572452522294 -113.62792474849266 0 0 0 0 -43.829216476302463 -55.978916066072998 0 -55.978916066072998 -98.155839960309095 0 0 0 0 96.710233641679906 211.74670751072699 0 211.74670751072699 237.86430764464603 0 0 0 0 -61.755401798561479 -43.483751332543761 0 -43.483751332543761 -95.82046485220053 0 0 0 0 -3.7567574624288 4.3784552832072876 0 4.3784552832072876 -4.2011310307903784 0 0 0 0 -14.597912434051182 -9.482838472154981 0 -9.482838472154981 -58.883893289144908 0 0 0 0 -5.3555973715805294 -3.3384857047130936 0 -3.3384857047130936 -62.226265303726905 0 0 0 0 6.4150982778704702 -20.87946142958026 0 -20.87946142958026 -128.06284013974437 0 0 0 0 -19.626651830668607 -44.947876498001278 0 -44.947876498001278 -80.681724012414634 0 0 0 0 -2.0694540046725933 -12.794736347830622 0 -12.794736347830622 -122.06477625419939 0 0 0 0 -1.4717022161162845 -17.173565997720289 0 -17.173565997720289 -118.60959082996851 0 0 0 0 -14.487490491461642 35.627553390917456 0 35.627553390917456 -139.4593574352366 0 0 0 0 3.502586110174768 -20.90661189786033 0 -20.90661189786033 -193.80450101070164 0 0 0 0 -28.829139560054834 -77.530753615988033 0 -77.530753615988033 -176.2321712743942 0 0 0 0 -1.1570940105435517 1.365534994824273 0 1.365534994824273 -1.3036471262970792 0 0 0 0 194.34435637317395 133.25580830797844 0 133.25580830797844 142.97492192129721 0 0 0 0 -2.8132730210931398 8.484299277280428 0 8.484299277280428 -12.53569166695155 0 0 0 0 59.969752594807829 304.55819480836544 0 304.55819480836544 214.9631326282979 0 0 0 0 -14.10720488536117 -36.664779843147699 0 -36.664779843147699 -89.202481268577685 0 0 0 0 -20.221790620737352 -9.9501432369906979 0 -9.9501432369906979 -36.481334941960995 0 0 0 0 -4.9779452980192218 -4.8791913295335689 0 -4.8791913295335689 -90.6636390170097 0 0 0 0 -13.097176812068369 -33.820434369836221 0 -33.820434369836221 -82.217372083017835 0 0 0 0 -5.5913360348721568 18.276285226555501 0 18.276285226555501 -42.610932017516461 0 0 0 0 164.90768720389656 127.09282443122356 0 127.09282443122356 12.434116990611074 0 0 0 0 -2.1551861668132934 9.213820173800201 0 9.213820173800201 -14.623853023568216 0 0 0 0 173.505556667549 -61.849279268801183 0 -61.849279268801183 -116.98419787571402 0 0 0 0 -44.947280298238098 17.566573501717357 0 17.566573501717357 -28.817354583312408 0 0 0 0 34.187727526169795 -47.272970354075369 0 -47.272970354075369 -57.623419203053345 0 0 0 0 76.113949585812406 10.555008109578921 0 10.555008109578921 -53.141666519321006 0 0 0 0 62.380140171833474 -19.845871065741903 0 -19.845871065741903 15.170385512683424 0 0 0 0 26.643239163912767 -16.945476365355717 0 -16.945476365355717 -54.481838862979885 0 0 0 0 18.870322160656656 -2.1851396024430869 0 -2.1851396024430869 -52.655109360115603 0 0 0 0 59.860723966686898 -7.033314636787054 0 -7.033314636787054 -59.708489648139221 0 0 0 0 20.233032700721196 -3.0222309166783816 0 -3.0222309166783816 -56.92486531335453 0 0 0 0 11.966320432089027 -36.110668359786359 0 -36.110668359786359 -71.011284878622973 0 0 0 0 4.7343275590096141 -14.815720949243769 0 -14.815720949243769 -45.541136260071653 0 0 0 0 -16.435794691340902 -37.547603782932129 0 -37.547603782932129 -58.73716151359622 0 0 0 0 -22.420839335239378 -25.290668960864423 0 -25.290668960864423 -74.117075047593971 0 0 0 0 5.4328740076539361 -70.033271991462243 0 -70.033271991462243 -211.82310781470915 0 0 0 0 -0.19374682786043151 -0.16056546145375705 0 -0.16056546145375705 -0.1855209227917598 0 0 0 0 -14.64621337877395 -31.375939010828006 0 -31.375939010828006 -78.985460039133613 0 0 0 0 -21.03882025429192 -10.559560485977272 0 -10.559560485977272 -103.80651860437138 0 0 0 0 -21.788093290378697 -12.664233037576196 0 -12.664233037576196 -64.628420935459872 0 0 0 0 -18.898427577104371 -23.390956352646754 0 -23.390956352646754 -83.111346800335014 0 0 0 0 -1.8935952699952356 0.57216680715856683 0 0.57216680715856683 -0.4969813524401232 0 0 0 0 -11.108583356532563 -31.384210111613356 0 -31.384210111613356 -114.33232977897569 0 0 0 0 -11.933386305006991 -30.869769158322015 0 -30.869769158322015 -113.01372800966055 0 0 0 0 33.527951911979983 -165.76116987097453 0 -165.76116987097453 -550.1395056397705 0 0 0 0 -197.52067932356704 -316.77019309571097 0 -316.77019309571097 -300.89800652663689 0 0 0 0 -235.14827450108794 40.146727980900323 0 40.146727980900323 -169.67680287495568 0 0 0 0 -70.46873143056996 -290.9320495899301 0 -290.9320495899301 -487.84960142063937 0 0 0 0 42.719210158716635 -147.02126279020194 0 -147.02126279020194 -309.80801062702812 0 0 0 0 49.766057157033629 -147.49757076213427 0 -147.49757076213427 -317.20358477168452 0 0 0 0 -114.4973018367632 -193.96250005182083 0 -193.96250005182083 -315.67768346010337 0 0 0 0 -2.9691130960189298 -147.1672817427625 0 -147.1672817427625 -342.32248856137085 0 0 0 0 -93.329495905066551 -156.33629153913353 0 -156.33629153913353 -188.37000016208299 0 0 0 0 -140.71908418957764 -230.46795708031277 0 -230.46795708031277 -186.75067568904342 0 0 0 0 -30.728099005468493 -30.222038185431302 0 -30.222038185431302 -184.68947292522353 0 0 0 0 -1.1843852503172512 0.17103235982696674 0 0.17103235982696674 -0.3297929889822484 0 0 0 0 -129.1059826461462 -61.007600523795418 0 -61.007600523795418 -147.58660066697485 0 0 0 0 -125.03614943324662 -63.035283925786644 0 -63.035283925786644 -236.05782158118018 0 0 0 0 -55.204926922290099 -135.96966034461366 0 -135.96966034461366 -227.17159625130444 0 0 0 0 -0.13718992169943567 -0.14233906292162146 0 -0.14233906292162146 -0.46617934490572566 0 0 0 0 -120.61815716829665 -127.74667858854809 0 -127.74667858854809 -184.72454478211876 0 0 0 0 -49.440540512697453 -104.10804263168575 0 -104.10804263168575 -200.56162760319421 0 0 0 0 -65.436940023330692 -28.245523266617965 0 -28.245523266617965 -143.7086437108228 0 0 0 0 -44.587742970451245 -95.151580245128571 0 -95.151580245128571 -184.8324509887448 0 0 0 0 -28.934894179329149 -42.475383865665208 0 -42.475383865665208 -146.02411374721123 0 0 0 0 -34.823446442641995 -11.381843109564215 0 -11.381843109564215 -115.9639411137905 0 0 0 0 5.130812932309027 -17.709352006659174 0 -17.709352006659174 -113.12575684408512 0 0 0 0 -7.1778025772860019 -17.101331216454128 0 -17.101331216454128 -112.54846303417435 0 0 0 0 -4.1627168113734001 -12.134982985771785 0 -12.134982985771785 -162.71525145487249 0 0 0 0 -14.449548154802073 -34.341718033301731 0 -34.341718033301731 -116.25790134696581 0 0 0 0 -18.304669687547857 -52.183282242682253 0 -52.183282242682253 -145.96461091834499 0 0 0 0 -3.936196609144929 -31.050173817788163 0 -31.050173817788163 -131.81067005038494 0 0 0 0 1.5640203067961238 -21.535623750576633 0 -21.535623750576633 -115.84650554010386 0 0 0 0 1.5257712466367934 -24.92738908665342 0 -24.92738908665342 -106.97586942619091 0 0 0 0 7.9001638440728357 -15.629411898305989 0 -15.629411898305989 -129.67180409671437 0 0 0 0 3.0220312903825288 -4.7507237193458423 0 -4.7507237193458423 -95.370347415788274 0 0 0 0 -15.647660229284213 -7.9910990663120174 0 -7.9910990663120174 -17.621054924653436 0 0 0 0 -8.3362843383974905 -22.215459464424384 0 -22.215459464424384 -75.165964594008983 0 0 0 0 3.670595350969279 -14.393516214633564 0 -14.393516214633564 -74.511913531137452 0 0 0 0 -14.186201036156945 6.2747111763164867 0 6.2747111763164867 -78.355207482301921 0 0 0 0 -3.8778922137635163 -0.64445014429293224 0 -0.64445014429293224 -75.706309579400113 0 0 0 0 -4.4928478733911561 2.9643306080906768 0 2.9643306080906768 -21.719367249199422 0 0 0 0 -11.93126889550831 18.962799934044597 0 18.962799934044597 -15.092572969194862 0 0 0 0 -7.4677866407394129 7.536675784884963 0 7.536675784884963 -7.6499455247239894 0 0 0 0 -14.183983461543676 17.071798336506617 0 17.071798336506617 -29.895611870160792 0 0 0 0 92.884886193814168 71.905095921360044 0 71.905095921360044 85.535085384486592 0 0 0 0 36.999735473489864 169.0913409690329 0 169.0913409690329 215.50907988869221 0 0 0 0 -91.804356078198168 -160.63181716229974 0 -160.63181716229974 -183.47447836229549 0 0 0 0 -1.6490732588978236 3.5693425420596938 0 3.5693425420596938 -5.0506415431928815 0 0 0 0 124.91180867060984 212.57263904148931 0 212.57263904148931 180.00110612827848 0 0 0 0 -58.501049403894285 -81.432367250374227 0 -81.432367250374227 -200.50236691203281 0 0 0 0 154.75167541382984 113.07392453728608 0 113.07392453728608 173.48848533300043 0 0 0 0 162.95743378694647 120.71449145674706 0 120.71449145674706 131.41121126274811 0 0 0 0 183.35870314856766 137.32946902717231 0 137.32946902717231 48.644841017114231 0 0 0 0 160.34983791685045 216.6349199670949 0 216.6349199670949 68.457576210370462 0 0 0 0 -0.7179001061770327 2.3507231491703209 0 2.3507231491703209 -5.2206577821865636 0 0 0 0 32.043112159224677 131.36270486626427 0 131.36270486626427 277.78657378697244 0 0 0 0 163.89835238644719 133.05712524667615 0 133.05712524667615 193.24549100848162 0 0 0 0 76.208661621247302 157.25612509171697 0 157.25612509171697 188.15514742393952 0 0 0 0 -121.65518147215721 -243.08779522841905 0 -243.08779522841905 -293.2198488747963 0 0 0 0 -1.1948935189616448 1.0008421210141094 0 1.0008421210141094 -1.0237367659225498 0 0 0 0 -185.74735298993346 -135.5205669015013 0 -135.5205669015013 -137.16638332849834 0 0 0 0 -108.18374034748376 -156.19603486255801 0 -156.19603486255801 -183.53951352997319 0 0 0 0 -45.676915869652703 -92.283243569672777 0 -92.283243569672777 -162.89169304992538 0 0 0 0 -79.355126978089174 -68.537852848508919 0 -68.537852848508919 -161.85604352195514 0 0 0 0 -159.60057148422675 -75.502305212881765 0 -75.502305212881765 -142.03078939342959 0 0 0 0 72.878473041073448 117.88186138635501 0 117.88186138635501 27.518350301128521 0 0 0 0 -11.133910401155168 13.596448874983558 0 13.596448874983558 -14.281639044733367 0 0 0 0 -7.6525426882715237 45.772678388490021 0 45.772678388490021 -4.7574940788326785 0 0 0 0 74.682057049295054 169.2807806103483 0 169.2807806103483 126.0037708883774 0 0 0 0 70.780484366213841 34.632197350900242 0 34.632197350900242 -159.76989134234464 0 0 0 0 5.414956571721973 10.065863005771462 0 10.065863005771462 -21.839441717198497 0 0 0 0 26.835943333215425 87.792150407939289 0 87.792150407939289 153.13411637983518 0 0 0 0 -8.6249561284195693 10.851601089611407 0 10.851601089611407 -12.222859620419555 0 0 0 0 -9.066235828114543 1.2625381127618311 0 1.2625381127618311 -25.419044831516658 0 0 0 0 3.9446285793860056 0.54471551084134262 0 0.54471551084134262 -40.593925967366886 0 0 0 0 -0.59479350865619685 0.037262694475032276 0 0.037262694475032276 -0.49275212547987124 0 0 0 0 -2.6061923623501855 -1.9102087218330439 0 -1.9102087218330439 -1.144916926881308 0 0 0 0 -32.90934814997172 -23.970644710752822 0 -23.970644710752822 -47.204680387374538 0 0 0 0 18.463672660867559 -0.20803368833367131 0 -0.20803368833367131 -4.3952025119942846 0 0 0 0 1.6768974199486024 -4.8025076004350922 0 -4.8025076004350922 -79.98243870670558 0 0 0 0 -18.924848283537131 -4.6428672393521992 0 -4.6428672393521992 7.4234334411667078 0 0 0 0 -3.7728421440094149 -0.24034967290731402 0 -0.24034967290731402 -5.245906056830421 0 0 0 0 -6.0004808316340359 24.585889442678308 0 24.585889442678308 -20.187760028027697 0 0 0 0 -8.064494549839452 0.014878058508656977 0 0.014878058508656977 -72.238759349900647 0 0 0 0 -10.180997517953074 -8.7672338002994366 0 -8.7672338002994366 -132.24787061521783 0 0 0 0 -6.5420238315823553 -7.4501060880829755 0 -7.4501060880829755 -118.37544989367416 0 0 0 0 -19.795396176176382 4.350070060329017 0 4.350070060329017 -73.346110091762966 0 0 0 0 -8.7740804455987416 -38.664248393833077 0 -38.664248393833077 -203.19754030857439 0 0 0 0 -29.016370735526152 -6.7343082775223593 0 -6.7343082775223593 -79.917014918100904 0 0 0 0 8.1538265820286142 21.132569516532385 0 21.132569516532385 -107.54089079778714 0 0 0 0 -0.86817762965506518 -37.033821974073362 0 -37.033821974073362 -358.08833605043765 0 0 0 0 -0.90416780313842726 -0.8226204583707073 0 -0.8226204583707073 -0.79217917978691332 0 0 0 0 -33.509901477858904 -50.5461921588103 0 -50.5461921588103 11.163106266612886 0 0 0 0 -95.999572111293929 -172.04803704121241 0 -172.04803704121241 -192.3770478065635 0 0 0 0 -0.86812951601679211 0.42891788375229112 0 0.42891788375229112 -0.13776688160789163 0 0 0 0 -61.017312056566169 -24.282453073781653 0 -24.282453073781653 -14.785872549477062 0 0 0 0 10.482873315377475 12.048084835540067 0 12.048084835540067 -11.201195550571356 0 0 0 0 -13.355382127733947 -64.396304586603947 0 -64.396304586603947 -154.84016532887472 0 0 0 0 -52.313695971483639 60.900021500234288 0 60.900021500234288 -39.618670368658059 0 0 0 0 5.0815617377425824 74.163884882021193 0 74.163884882021193 -128.67433772824734 0 0 0 0 28.627367406877909 37.938814910306974 0 37.938814910306974 -83.690478245676786 0 0 0 0 12.646170218839217 27.893334810763918 0 27.893334810763918 -89.423524883706705 0 0 0 0 53.442891566886153 -4.6974429421125024 0 -4.6974429421125024 -70.786080694844713 0 0 0 0 46.065279007680431 16.906617987326172 0 16.906617987326172 -109.29781958534113 0 0 0 0 2.9784667382133776 8.9963124606219935 0 8.9963124606219935 48.431923011419713 0 0 0 0 61.412762913753397 0.1348884161998285 0 0.1348884161998285 -91.192528547835536 0 0 0 0 2.4226789591334636 -5.8087815931503428 0 -5.8087815931503428 7.1312884783765185 0 0 0 0 -24.157490285455879 -1.5460666864310042 0 -1.5460666864310042 15.297622602098272 0 0 0 0 -63.764524098347295 8.7940257098416623 0 8.7940257098416623 8.5045160746376496 0 0 0 0 -0.26902898773602257 0.47171715231172584 0 0.47171715231172584 -0.79548443153973381 0 0 0 0 -6.9857130915214185 21.753880512187152 0 21.753880512187152 -6.8706114184460603 0 0 0 0 -14.601069926068703 -4.9134819648170378 0 -4.9134819648170378 12.299918015080038 0 0 0 0 -37.224395547232234 20.890414175195474 0 20.890414175195474 11.658934598883206 0 0 0 0 14.246594217586512 -15.080773582700203 0 -15.080773582700203 -17.137851678919105 0 0 0 0 -0.036083359229639789 31.267666435849605 0 31.267666435849605 -60.234379975363481 0 0 0 0 0.09466350047893235 0.086720722213399881 0 0.086720722213399881 -0.14850883724697894 0 0 0 0 7.3227256069635018 31.701917209695239 0 31.701917209695239 -28.641483922549924 0 0 0 0 0.63779899292620712 -5.1351572448984371 0 -5.1351572448984371 -32.461408776392091 0 0 0 0 -7.557216255730026 8.2058857710726443 0 8.2058857710726443 -47.023444746577297 0 0 0 0 17.384033619440387 -17.357678043163105 0 -17.357678043163105 -134.95880045861122 0 0 0 0 -0.34604909158798602 0.049690560651740157 0 0.049690560651740157 -0.26416019785056477 0 0 0 0 -43.13383192633512 -70.006875393235532 0 -70.006875393235532 -109.61858642131619 0 0 0 0 0.0018763029531430886 -51.951181406735486 0 -51.951181406735486 -222.3522805031389 0 0 0 0 5.5867022546800058 -5.5202407363194652 0 -5.5202407363194652 -108.04128253997624 0 0 0 0 7.1868775152456834 -109.85155442041469 0 -109.85155442041469 -316.36392382903432 0 0 0 0 -36.182759641447234 -57.381705665571644 0 -57.381705665571644 -295.56838505312408 0 0 0 0 -21.175551964436895 -59.790797060173645 0 -59.790797060173645 -224.69447536350344 0 0 0 0 2.8125200164212458 -33.15619250450618 0 -33.15619250450618 -171.9886295957549 0 0 0 0 0.011600634506751153 -77.399762528682913 0 -77.399762528682913 -250.14967209546739 0 0 0 0 11.961381585085082 -37.856632428161902 0 -37.856632428161902 -187.26245219874545 0 0 0 0 0.056404546846700737 -43.983349424037442 0 -43.983349424037442 -210.07838123101283 0 0 0 0 3.9803837018279609 -54.045494180281821 0 -54.045494180281821 -199.6614474358903 0 0 0 0 -0.081698858856412926 -46.197500103668972 0 -46.197500103668972 -176.43400140023732 0 0 0 0 -29.489553217978894 -87.327536497019537 0 -87.327536497019537 -231.89670172079059 0 0 0 0 19.787268395441885 -39.561042333320074 0 -39.561042333320074 -225.08239412514195 0 0 0 0 -0.016511929543184367 0.085320676143354035 0 0.085320676143354035 -0.58508485552513889 0 0 0 0 -74.545540207689783 -147.32066623530591 0 -147.32066623530591 -262.39880118811561 0 0 0 0 -74.60807539509409 -89.083315625804971 0 -89.083315625804971 -200.5476228303869 0 0 0 0 -121.60614747260202 -114.65684160652199 0 -114.65684160652199 -209.3139557033428 0 0 0 0 -26.390286328726404 -116.95193780421687 0 -116.95193780421687 -245.33868727838853 0 0 0 0 -27.563954106704557 -116.94105399062209 0 -116.94105399062209 -214.11619800081098 0 0 0 0 -0.03723651403664241 0.11685697127299477 0 0.11685697127299477 -0.82464604815669418 0 0 0 0 -7.3310358435523995 -95.671000797381566 0 -95.671000797381566 -269.91586130618089 0 0 0 0 -23.729059622983698 -67.6747117044888 0 -67.6747117044888 -262.21478254403974 0 0 0 0 -20.773984426526837 -74.075416440353365 0 -74.075416440353365 -248.99640748635284 0 0 0 0 -33.753913643860699 -130.29008470415101 0 -130.29008470415101 -307.44759502833767 0 0 0 0 98.679377981692724 -49.338005256195174 0 -49.338005256195174 -285.29633725877648 0 0 0 0 1.1959695977596709 69.911038325877598 0 69.911038325877598 -246.7257382398966 0 0 0 0 0.26479447423220082 -0.065527678339634576 0 -0.065527678339634576 -0.91662369704224034 0 0 0 0 43.396688815888822 -22.504030724496261 0 -22.504030724496261 -310.0694470506478 0 0 0 0 17.543865872618653 -19.9115898814307 0 -19.9115898814307 -197.21821772601834 0 0 0 0 -0.0046328183302009633 -22.723997040333415 0 -22.723997040333415 -93.065580833366766 0 0 0 0 29.420361033199406 5.5349207036142616 0 5.5349207036142616 -180.1927650555408 0 0 0 0 3.0075175052171659 -41.026581938622257 0 -41.026581938622257 -207.55877863203932 0 0 0 0 0.70223110017430557 -5.7462013089789252 0 -5.7462013089789252 0.37941795245478716 0 0 0 0 -4.391467522499731 -0.63717650667422276 0 -0.63717650667422276 -4.7176363722719543 0 0 0 0 -9.9042876474785082 1.3288620287021331 0 1.3288620287021331 2.2593911427466082 0 0 0 0 -0.017460365711507556 4.0675636040414247 0 4.0675636040414247 -35.91215155943064 0 0 0 0 -6.1945504581171029 27.797443747560465 0 27.797443747560465 -44.647764559100324 0 0 0 0 -3.2192701229029685 40.187648725699546 0 40.187648725699546 -60.716276848070265 0 0 0 0 18.980014899795435 -18.358856494807696 0 -18.358856494807696 -125.88550240725453 0 0 0 0 -6.6665224821420681 18.930507209614916 0 18.930507209614916 6.4702685722440947 0 0 0 0 -0.33131699727430464 0.40049303531067437 0 0.40049303531067437 -0.48388770684653082 0 0 0 0 2.4185680643728347 -1.90614211877255 0 -1.90614211877255 -20.900886421091855 0 0 0 0 6.4107427918577287 -13.723635341650152 0 -13.723635341650152 -70.972971086288453 0 0 0 0 -19.970041269490707 13.394881570729922 0 13.394881570729922 -33.53287207343601 0 0 0 0 7.9867200588367382 14.833828236845875 0 14.833828236845875 -68.656579593785864 0 0 0 0 4.4031312344738467 31.7610291000492 0 31.7610291000492 -14.077027423116306 0 0 0 0 21.69639267399171 6.4665858723237761 0 6.4665858723237761 -34.9588558385949 0 0 0 0 -0.88419490025644087 1.1359272803232301 0 1.1359272803232301 -0.88325128195992875 0 0 0 0 7.8667143904913068 4.4171707098685147 0 4.4171707098685147 -4.7560980402085988 0 0 0 0 2.4389862393795738 10.095993413684482 0 10.095993413684482 -45.018808346474543 0 0 0 0 1.0474296037314361 0.18115314042712782 0 0.18115314042712782 -0.31578740264323857 0 0 0 0 10.775236721518013 17.307435071128566 0 17.307435071128566 -62.867117185351162 0 0 0 0 2.9027857993853559 -7.2143752956835669 0 -7.2143752956835669 -70.027966709050816 0 0 0 0 -0.98250645971609174 -16.806768017006107 0 -16.806768017006107 -91.662004828365752 0 0 0 0 10.385682033991884 25.883338790030393 0 25.883338790030393 -72.607455796969589 0 0 0 0 12.996500622220168 14.964328308255972 0 14.964328308255972 -101.01474467417574 0 0 0 0 11.04388115517213 20.086430249699333 0 20.086430249699333 -69.425519603152566 0 0 0 0 11.879490337762 21.800710501117464 0 21.800710501117464 -60.228503130529134 0 0 0 0 12.8888271471873 23.346322968460299 0 23.346322968460299 -75.080338150466559 0 0 0 0 13.144808581602945 26.745392175944289 0 26.745392175944289 -74.60009067167266 0 0 0 0 -5.1163571452828478 29.896016424856498 0 29.896016424856498 -47.624491465459869 0 0 0 0 11.191893686338858 4.963184013213322 0 4.963184013213322 -37.070827703646501 0 0 0 0 0.31237111101563692 0.044045406771459739 0 0.044045406771459739 0.033747665400315707 0 0 0 0 -15.480141357422108 19.087745038026696 0 19.087745038026696 8.3706615829942166 0 0 0 0 0.041123402060705097 42.148782869946444 0 42.148782869946444 -34.774421407713817 0 0 0 0 -17.934524009910689 23.103679361640388 0 23.103679361640388 -67.384578843755662 0 0 0 0 7.7921514481700278 15.95422405613408 0 15.95422405613408 -65.521394762370619 0 0 0 0 9.4515663335742346 -20.158357496529788 0 -20.158357496529788 -187.45366272648607 0 0 0 0 -0.092537085804392266 35.833714506101387 0 35.833714506101387 -125.35476790735993 0 0 0 0 13.980439900467999 20.986637673306177 0 20.986637673306177 -110.96486695163185 0 0 0 0 6.8057109706701056 18.226634849474067 0 18.226634849474067 -71.690045841070969 0 0 0 0 -12.690194293011345 -7.9655951677559642 0 -7.9655951677559642 -91.891902690284041 0 0 0 0 -4.4176289014692145 -14.32092105691936 0 -14.32092105691936 -46.568275199657364 0 0 0 0 -10.987005569629517 -37.323367451583181 0 -37.323367451583181 -127.0661385509884 0 0 0 0 0.36175492171040868 -0.036176923958976204 0 -0.036176923958976204 -0.16281534549051457 0 0 0 0 -18.431850844712159 -56.056940385155031 0 -56.056940385155031 -158.49182674977419 0 0 0 0 0.14732118783501447 0.2903252862293968 0 0.2903252862293968 -0.82348647137609987 0 0 0 0 0.057266519972565079 24.31468034399586 0 24.31468034399586 16.492768300919124 0 0 0 0 10.235550507979639 7.0055727852814016 0 7.0055727852814016 6.4567187827160524 0 0 0 0 23.909850486251955 14.141704906327504 0 14.141704906327504 3.392342296167044 0 0 0 0 27.560398453301893 27.787436553864609 0 27.787436553864609 9.1238655325723812 0 0 0 0 15.378873707111893 6.4266993725650536 0 6.4266993725650536 -15.314157442728174 0 0 0 0 -0.70307951347473074 1.5747386102893941 0 1.5747386102893941 -2.3197931469913726 0 0 0 0 1.1231727861085448 -1.0437225247575412 0 -1.0437225247575412 0.60492125699641974 0 0 0 0 12.637565560361073 23.059423395682188 0 23.059423395682188 17.277602427355305 0 0 0 0 0.02008387970433903 25.026068479173357 0 25.026068479173357 16.329242783634982 0 0 0 0 0.034259396586848886 0.082297818775309395 0 0.082297818775309395 -0.081121381862431008 0 0 0 0 -11.767752530705062 15.946017687453377 0 15.946017687453377 -17.748245867183385 0 0 0 0 44.629905931601115 40.837283374748949 0 40.837283374748949 -30.154229897965706 0 0 0 0 -12.712288669594955 19.797111565931118 0 19.797111565931118 11.096845643332927 0 0 0 0 0.91002766637648691 2.9510279946978955 0 2.9510279946978955 -3.1122921423093146 0 0 0 0 -3.8451759551867326 7.6359256726609601 0 7.6359256726609601 -23.841175632711384 0 0 0 0 -11.647326110341851 8.8304438332597783 0 8.8304438332597783 5.1823809781053569 0 0 0 0 -9.4617178342778061 5.8346074468136067 0 5.8346074468136067 5.6952965021919226 0 0 0 0 13.175463720043695 24.476081419630646 0 24.476081419630646 -15.538479144583107 0 0 0 0 -0.71709392311855225 1.2301220496335716 0 1.2301220496335716 -1.8204530261317871 0 0 0 0 14.563199086753343 7.500862115786731 0 7.500862115786731 -6.0810177197126905 0 0 0 0 44.432421769713869 31.039080530663341 0 31.039080530663341 15.983426899980259 0 0 0 0 -1.2500328556524209 25.330013835631689 0 25.330013835631689 -16.903915853792569 0 0 0 0 -1.5696958012511004 -11.338041723502101 0 -11.338041723502101 22.734776276010962 0 0 0 0 0.28682862866992309 -1.5142818693675508 0 -1.5142818693675508 -24.098287395758234 0 0 0 0 -21.201775776177442 -3.7613393196661491 0 -3.7613393196661491 -22.241964374377858 0 0 0 0 3.1624166615459517 -1.2135794704480674 0 -1.2135794704480674 -5.3841690321931566 0 0 0 0 18.024976963065001 -14.615651066536884 0 -14.615651066536884 -28.908687087194266 0 0 0 0 56.633947388027309 16.015812436390661 0 16.015812436390661 -46.219500378279918 0 0 0 0 6.3286225539893035 2.0467272483961807 0 2.0467272483961807 -29.12779021379643 0 0 0 0 18.1965489440326 9.5093975972486078 0 9.5093975972486078 -48.746816586153727 0 0 0 0 -0.65797911889302441 -14.458136049626773 0 -14.458136049626773 -24.334448949393845 0 0 0 0 0.2521222656704083 -15.873835023612628 0 -15.873835023612628 -49.390360512130428 0 0 0 0 12.392616115286728 9.9978349471493857 0 9.9978349471493857 -92.730666832459974 0 0 0 0 12.481463051678652 7.9515456821648058 0 7.9515456821648058 -47.137418870283 0 0 0 0 29.114281622342446 -8.2663221583907216 0 -8.2663221583907216 -41.379991226305719 0 0 0 0 4.6131913792119974 12.189340811375132 0 12.189340811375132 -33.391238072355918 0 0 0 0 -0.028237680606554405 1.5631080870981844 0 1.5631080870981844 -1.3856227701053143 0 0 0 0 -116.8704087275114 7.0899339094412426 0 7.0899339094412426 58.185425107138144 0 0 0 0 97.876179150444841 135.5850635930874 0 135.5850635930874 -166.77142213699153 0 0 0 0 -49.704131501112442 -59.637483075875934 0 -59.637483075875934 55.382050080959743 0 0 0 0 2.5353147084695138 104.41051680968121 0 104.41051680968121 -96.069087816402316 0 0 0 0 -67.747037783076848 -34.941412227402907 0 -34.941412227402907 3.6081556791759795 0 0 0 0 91.395373150102387 -86.551699284855204 0 -86.551699284855204 -131.49993250367697 0 0 0 0 6.7042015584996246 -1.8081922178262104 0 -1.8081922178262104 -32.406539397445258 0 0 0 0 -16.618130482914694 64.019388531938603 0 64.019388531938603 -41.36234322324708 0 0 0 0 -91.101796321046777 -6.557164893269146 0 -6.557164893269146 -10.813506072947348 0 0 0 0 -14.260538266677941 1.0207727470333339 0 1.0207727470333339 -11.289354138254566 0 0 0 0 -130.26846295970245 -16.87938234782996 0 -16.87938234782996 -47.757008709708316 0 0 0 0 -41.93921316269757 -40.835951766575818 0 -40.835951766575818 -67.618948161878507 0 0 0 0 18.570178820571073 -3.5135964697956297 0 -3.5135964697956297 -58.431724731424765 0 0 0 0 24.203676080098944 56.408479050864116 0 56.408479050864116 -38.376653947481827 0 0 0 0 -19.482395845978317 -26.604281990734307 0 -26.604281990734307 -35.004030493597384 0 0 0 0 -45.877775351010484 5.3511559094654331 0 5.3511559094654331 -70.983769060185296 0 0 0 0 -32.992383833422537 -53.729413041808584 0 -53.729413041808584 -206.40123264219801 0 0 0 0 -80.760677623447236 -56.766884447275515 0 -56.766884447275515 -72.703430979046971 0 0 0 0 -21.309267445419209 -12.285660350928083 0 -12.285660350928083 -340.49287683040893 0 0 0 0 -2.6325915906281807 12.623307936799392 0 12.623307936799392 -98.301388984590631 0 0 0 0 -26.503792117609919 6.8439583666913677 0 6.8439583666913677 17.511533333831267 0 0 0 0 -92.792657319653244 -42.244027285807533 0 -42.244027285807533 17.307387410728552 0 0 0 0 107.05526108902654 62.89434426767184 0 62.89434426767184 -5.1899206193047576 0 0 0 0 45.452388583437596 133.13937679795799 0 133.13937679795799 99.231146607809933 0 0 0 0 -2.7539029086386382 2.9127555460839147 0 2.9127555460839147 -2.584032574189294 0 0 0 0 -36.747915481488008 5.2048962353183015 0 5.2048962353183015 47.309415817653644 0 0 0 0 18.606583593956515 16.489673943230173 0 16.489673943230173 2.8876078118555597 0 0 0 0 -9.673216624640645 117.36357647628756 0 117.36357647628756 90.799193745988305 0 0 0 0 -1.6574600079544615 1.1369022435326741 0 1.1369022435326741 -0.55178586304884902 0 0 0 0 0.8781461087282878 -31.050761370543114 0 -31.050761370543114 69.830559835572785 0 0 0 0 36.392460704007135 117.6323134273116 0 117.6323134273116 -161.69976157892029 0 0 0 0 14.605034574813089 -9.3400225601253624 0 -9.3400225601253624 -152.24938943183588 0 0 0 0 -68.187183645582991 136.701840778529 0 136.701840778529 -44.186234802968102 0 0 0 0 19.612513810491976 82.369134847012901 0 82.369134847012901 -28.237253390005208 0 0 0 0 20.35102527180004 80.396074343278997 0 80.396074343278997 -62.210400829259015 0 0 0 0 -8.3423894566601575 121.63383061854529 0 121.63383061854529 -10.279930080563645 0 0 0 0 12.320628098055295 127.87216217776586 0 127.87216217776586 -16.895884521027256 0 0 0 0 -3.6694317007843438 113.15434162203383 0 113.15434162203383 -1.3504274747465388 0 0 0 0 3.2207673686825729 119.98040798211514 0 119.98040798211514 -16.56230856791808 0 0 0 0 2.765546609316516 144.36288469906685 0 144.36288469906685 -147.12648735217226 0 0 0 0 -36.055357899962019 143.01637483926606 0 143.01637483926606 6.4280348684915225 0 0 0 0 227.72227198750397 181.48228321165516 0 181.48228321165516 -11.127187180034525 0 0 0 0 53.795395781276511 164.69751704006921 0 164.69751704006921 -32.548976835510985 0 0 0 0 126.96334259796686 103.79058254175106 0 103.79058254175106 -34.778976098779822 0 0 0 0 58.176468995146024 121.90907280431929 0 121.90907280431929 -28.76795335936913 0 0 0 0 58.731341392873219 121.83367106426158 0 121.83367106426158 -36.395203274602409 0 0 0 0 155.54496933319797 42.940367623319617 0 42.940367623319617 -26.175015986264043 0 0 0 0 85.215237826583689 65.520978153050237 0 65.520978153050237 -33.302792859783949 0 0 0 0 19.196646403639164 61.482887061655902 0 61.482887061655902 -8.052221313060727 0 0 0 0 178.464583598633 -32.087067861395553 0 -32.087067861395553 -43.728053855284088 0 0 0 0 1.3649739625528781 -4.1604826842076701 0 -4.1604826842076701 -3.450619261096449 0 0 0 0 33.904348204710459 -81.627605852001579 0 -81.627605852001579 -1.401747230559522 0 0 0 0 87.802196326344571 -1.1182646935595244 0 -1.1182646935595244 -9.7397750132950023 0 0 0 0 9.7403210525774 -8.2998475498152402 0 -8.2998475498152402 -86.712657532705634 0 0 0 0 2.4475127937688512 35.291477364880848 0 35.291477364880848 -76.366335868508031 0 0 0 0 4.5758796530213166 -0.95347248600420187 0 -0.95347248600420187 -37.074315481859557 0 0 0 0 -1.1334061193206253 9.4157292741947458 0 9.4157292741947458 -87.284651147027034 0 0 0 0 -0.24613050466586728 0.55307066263649318 0 0.55307066263649318 -0.42655376502850118 0 0 0 0 -33.542743594869876 14.216043982603878 0 14.216043982603878 -5.9918080986390123 0 0 0 0 6.2836790548053045 -19.789757770473443 0 -19.789757770473443 -142.27966914138233 0 0 0 0 0.45185205666594364 0.30943830904770664 0 0.30943830904770664 -0.38511545180783413 0 0 0 0 -0.40254660012226395 32.25714251879981 0 32.25714251879981 -129.54899281374674 0 0 0 0 -112.18743709309842 -14.101761851539777 0 -14.101761851539777 -66.702465183378081 0 0 0 0 1.9413560854517891 5.3318570688683673 0 5.3318570688683673 -45.488217279954938 0 0 0 0 -6.8138718843067636 41.869532164459088 0 41.869532164459088 36.024342418182641 0 0 0 0 28.847180622716678 8.9450962598511978 0 8.9450962598511978 -59.882492024211388 0 0 0 0 144.99684986469083 11.352438579950103 0 11.352438579950103 -87.811876543812105 0 0 0 0 192.15662782292657 -56.359992517558567 0 -56.359992517558567 -11.185480520820533 0 0 0 0 -3.1896629980170701 55.159297251724638 0 55.159297251724638 -129.06360602281347 0 0 0 0 1.7814479091192217 6.319665777094297 0 6.319665777094297 -6.8292493669295027 0 0 0 0 356.44769827036362 9.2747824678481265 0 9.2747824678481265 -117.62401688392856 0 0 0 0 67.110474790275703 -57.951709814784408 0 -57.951709814784408 -19.508111333743727 0 0 0 0 310.60053316445237 222.37719785929949 0 222.37719785929949 19.27244002366092 0 0 0 0 4.6019102923294799 -2.81021405580411 0 -2.81021405580411 -8.0651242089932396 0 0 0 0 -23.198367753400362 13.894012863092939 0 13.894012863092939 82.41086429265647 0 0 0 0 8.4075506320928355 65.877384026102845 0 65.877384026102845 -51.625781287977588 0 0 0 0 -1.8441104322448991 17.246514932406086 0 17.246514932406086 -32.342507779165686 0 0 0 0 -2.5802591788514064 -40.396228018849797 0 -40.396228018849797 -91.238973488912052 0 0 0 0 -9.2482607056633697 52.619531986016227 0 52.619531986016227 7.759168678043352 0 0 0 0 90.856693923611601 -38.635311216905393 0 -38.635311216905393 -21.702919943742017 0 0 0 0 273.53600590539099 49.430124076830907 0 49.430124076830907 -126.45720620874636 0 0 0 0 -0.9707494098535675 6.0529936278851757 0 6.0529936278851757 -0.71149166339776571 0 0 0 0 219.97142204245893 44.371254132896865 0 44.371254132896865 10.853271352318302 0 0 0 0 86.034329781639372 -3.9600899525357818 0 -3.9600899525357818 -224.53420726102513 0 0 0 0 -86.677804422942245 -206.55853430948628 0 -206.55853430948628 -200.84685735765743 0 0 0 0 116.91942074927147 -99.552608371317547 0 -99.552608371317547 -184.91836495339885 0 0 0 0 -0.096436392114286118 -0.58169416219097014 0 -0.58169416219097014 -1.6933487125988052 0 0 0 0 -333.02439405502673 -181.59249706053015 0 -181.59249706053015 -59.568733859690838 0 0 0 0 -11.302805647520472 32.699743618557477 0 32.699743618557477 -45.961809527416335 0 0 0 0 -187.65796004649337 -210.83702339058073 0 -210.83702339058073 -208.44148701361337 0 0 0 0 -174.50058166238205 -84.612198813126952 0 -84.612198813126952 -93.256665727880318 0 0 0 0 -175.05712709295904 -227.08194478349833 0 -227.08194478349833 -235.75894408798922 0 0 0 0 -155.6855999212562 -211.03955347127339 0 -211.03955347127339 -226.87373043353 0 0 0 0 -28.207277481214305 -62.385848509167772 0 -62.385848509167772 -243.91442630720121 0 0 0 0 5.9857994333806346 64.32275392624797 0 64.32275392624797 -88.696666826173896 0 0 0 0 -84.482694962385267 -34.066834739496699 0 -34.066834739496699 -124.05141097457818 0 0 0 0 67.640879903817222 12.813737096745172 0 12.813737096745172 -65.524676030769115 0 0 0 0 80.701472700888644 66.39640699022857 0 66.39640699022857 114.33876541648351 0 0 0 0 66.67257006509135 -25.410055952743278 0 -25.410055952743278 -25.647526161788846 0 0 0 0 407.30486515448979 15.636639495521194 0 15.636639495521194 -95.156617129054212 0 0 0 0 242.2674336337459 184.1432610095726 0 184.1432610095726 -382.21779910336772 0 0 0 0 114.44869848761056 267.95528457876935 0 267.95528457876935 -70.676140185380063 0 0 0 0 181.66472941056441 247.0234964791307 0 247.0234964791307 -473.37328009987914 0 0 0 0 200.87086956914527 312.71938669843621 0 312.71938669843621 -263.61198314287321 0 0 0 0 52.075818877617166 191.17873254066217 0 191.17873254066217 -357.17129170579574 0 0 0 0 281.43432892006399 362.27882992349078 0 362.27882992349078 -145.7919500556327 0 0 0 0 -0.13294967428662607 1.1391715036682797 0 1.1391715036682797 -3.2712236305591631 0 0 0 0 -203.72890940252276 -293.59444511405866 0 -293.59444511405866 -342.72087824976188 0 0 0 0 -37.388159513836285 -168.87904523494763 0 -168.87904523494763 -619.49494281529769 0 0 0 0 -79.154340917550144 -138.80157572168901 0 -138.80157572168901 -354.73553625545901 0 0 0 0 -199.13602553620012 -220.63983773984182 0 -220.63983773984182 -210.92487037029059 0 0 0 0 12.879427086700389 127.04647534240939 0 127.04647534240939 181.85358001877648 0 0 0 0 -50.260967728507467 24.553284097732103 0 24.553284097732103 71.251107081683585 0 0 0 0 -0.5945250702249818 0.014493863216024749 0 0.014493863216024749 -0.34833902362506564 0 0 0 0 91.21984162059988 147.67136919543009 0 147.67136919543009 -459.16034953577037 0 0 0 0 3.4775985012533539 234.05384475716608 0 234.05384475716608 -176.48220274484629 0 0 0 0 -46.580799822141103 -9.5241107548390573 0 -9.5241107548390573 -260.46448941564449 0 0 0 0 -87.751384544996199 109.42019492701002 0 109.42019492701002 -228.32676300019739 0 0 0 0 0.28789184052186556 98.236144827089447 0 98.236144827089447 -330.21882256971003 0 0 0 0 -1.5420502219506231 1.1327881904929171 0 1.1327881904929171 -0.25455951172667213 0 0 0 0 -34.557794067676014 -0.028731330177834025 0 -0.028731330177834025 -300.25170959010393 0 0 0 0 -99.895676701806366 256.19940507879301 0 256.19940507879301 -384.52194430880627 0 0 0 0 16.185588508473984 -39.778439751782571 0 -39.778439751782571 9.0382631892580321 0 0 0 0 4.7019629581978126 -1.7052608794665218 0 -1.7052608794665218 -2.7670976210534803 0 0 0 0 14.126101770425521 -0.27940677694277838 0 -0.27940677694277838 -1.8465107952251856 0 0 0 0 5.7523754041146162 4.0244946911016086 0 4.0244946911016086 -24.837951745510509 0 0 0 0 4.7473949485655886 -3.3026134916482803 0 -3.3026134916482803 -5.0677016706899423 0 0 0 0 123.5832193326213 44.986241783655714 0 44.986241783655714 -462.90566618019147 0 0 0 0 -9.0870907814883424 -113.57071721011744 0 -113.57071721011744 -236.85061691108058 0 0 0 0 12.094401355507898 4.1421279729711387 0 4.1421279729711387 -17.557428499563684 0 0 0 0 23.733194025404828 11.352013465313576 0 11.352013465313576 -20.415188968442635 0 0 0 0 13.850052479812348 4.0575891652533755 0 4.0575891652533755 -22.97283805936604 0 0 0 0 24.337242632434709 9.1095721815345314 0 9.1095721815345314 -37.257914487995549 0 0 0 0 12.892252762226406 -13.55867621803236 0 -13.55867621803236 -28.595221874071285 0 0 0 0 39.728658059128747 27.930967918997339 0 27.930967918997339 -14.51914189042509 0 0 0 0 14.3506334758913 11.954691936927702 0 11.954691936927702 -9.2259099152356612 0 0 0 0 8.4161296640702403 12.174418408898418 0 12.174418408898418 -8.8931586828657601 0 0 0 0 32.145210265262676 61.739019624730645 0 61.739019624730645 30.241332427835005 0 0 0 0 25.133327777027489 51.50688478469965 0 51.50688478469965 34.684514440952626 0 0 0 0 6.5165043162126324 2.8976462511832324 0 2.8976462511832324 -16.570825638744282 0 0 0 0 -1.2363052460557999 5.1327707594828702 0 5.1327707594828702 -10.923429426790392 0 0 0 0 46.32644219659575 20.57143250156264 0 20.57143250156264 -518.46256479051954 0 0 0 0 1.0645999631616689 0.88581891832765081 0 0.88581891832765081 -3.0650532672523099 0 0 0 0 -419.53981794722927 74.094529624422648 0 74.094529624422648 -375.73112502002186 0 0 0 0 12.248278444542848 52.053983974874427 0 52.053983974874427 116.15214517580716 0 0 0 0 6.1274146884065885 90.495248801755224 0 90.495248801755224 -618.05686423906855 0 0 0 0 39.52049007981941 193.95529772196824 0 193.95529772196824 -341.35872208703472 0 0 0 0 32.14294968717536 60.753881948243361 0 60.753881948243361 0.78810649917068076 0 0 0 0 -10.613278683733597 114.07118322678616 0 114.07118322678616 18.049807154038717 0 0 0 0 34.840820675778104 23.915720897066421 0 23.915720897066421 -35.331213373622177 0 0 0 0 58.343715912617768 47.461132052932953 0 47.461132052932953 -2.3105559077994258 0 0 0 0 32.774924203050432 41.50285165139212 0 41.50285165139212 13.190605338713794 0 0 0 0 20.574475816319179 47.322147256698315 0 47.322147256698315 8.5616575507738162 0 0 0 0 47.62697703016056 35.553960567962349 0 35.553960567962349 4.9330979078149539 0 0 0 0 37.880720538884702 35.575091786190569 0 35.575091786190569 4.3095556414773455 0 0 0 0 19.681980068258326 21.341849582935538 0 21.341849582935538 -0.059402072541161033 0 0 0 0 29.216521549650224 31.327643037619055 0 31.327643037619055 3.6031487601497929 0 0 0 0 33.747079029280485 18.619527173257666 0 18.619527173257666 -6.9611481022802764 0 0 0 0 45.706952491401353 32.595529290407285 0 32.595529290407285 11.8006801372685 0 0 0 0 -0.57453304426727358 0.27264187405438634 0 0.27264187405438634 0.31629084491524395 0 0 0 0 45.277967467833605 45.207607001510041 0 45.207607001510041 2.3744402519405412 0 0 0 0 10.786405890635706 41.719951372353535 0 41.719951372353535 41.512915508854348 0 0 0 0 16.211043193542992 34.645180396340947 0 34.645180396340947 44.594148155105358 0 0 0 0 -2.6342762417016532 3.3381168922676068 0 3.3381168922676068 -3.4486028263853683 0 0 0 0 64.129110103049243 123.0861170167118 0 123.0861170167118 50.872201020174543 0 0 0 0 12.258915337795088 43.844268431465025 0 43.844268431465025 102.1255363033888 0 0 0 0 19.703701496243866 47.852408860293508 0 47.852408860293508 -4.6428436411370058 0 0 0 0 37.378212762414421 21.181838668136152 0 21.181838668136152 -36.62373532608035 0 0 0 0 66.579682363302936 28.99095383655731 0 28.99095383655731 -78.982700215405202 0 0 0 0 31.426563669294637 -2.1576922209314944 0 -2.1576922209314944 101.69715141247917 0 0 0 0 125.09494814180209 69.458841848496377 0 69.458841848496377 -23.669457911710197 0 0 0 0 60.99296918164714 46.107132009066845 0 46.107132009066845 22.596887507585052 0 0 0 0 60.806191038920815 48.098759415658606 0 48.098759415658606 28.95606321770174 0 0 0 0 64.135956505829881 47.002702257035708 0 47.002702257035708 17.956705670134397 0 0 0 0 61.32924612181202 45.777697790789716 0 45.777697790789716 24.035800219746307 0 0 0 0 64.223151317116844 52.010147504093766 0 52.010147504093766 26.091443534030986 0 0 0 0 63.168327979458411 49.330439361754543 0 49.330439361754543 22.54866159336234 0 0 0 0 61.395402582726092 50.747276553134725 0 50.747276553134725 31.41623708482075 0 0 0 0 62.116571086815384 50.909539925003628 0 50.909539925003628 28.281366426992463 0 0 0 0 58.108875446307138 50.694813447629713 0 50.694813447629713 34.812951735540992 0 0 0 0 52.153632039777676 52.440965699446679 0 52.440965699446679 48.405234126716095 0 0 0 0 58.196961232607123 50.573601629816039 0 50.573601629816039 33.321403181995265 0 0 0 0 47.021210575553368 39.257381198600342 0 39.257381198600342 42.214766845252598 0 0 0 0 44.354378223235699 33.253963987566749 0 33.253963987566749 29.132179136759078 0 0 0 0 57.476717032798661 43.629335404410085 0 43.629335404410085 36.275765824935661 0 0 0 0 56.556349800247062 40.002044803746685 0 40.002044803746685 23.270772326199221 0 0 0 0 59.979022223971015 42.027526198879059 0 42.027526198879059 22.405867986188241 0 0 0 0 50.381921383814984 37.494416379320683 0 37.494416379320683 13.176898985177104 0 0 0 0 57.498191096665323 36.739445886461908 0 36.739445886461908 11.306218205339974 0 0 0 0 63.465671704908175 44.632035368005745 0 44.632035368005745 12.188543629421474 0 0 0 0 60.688252844271119 44.363581836430967 0 44.363581836430967 19.175703655608231 0 0 0 0 60.286296735332144 41.195246343537292 0 41.195246343537292 21.742067917252825 0 0 0 0 16.02938791652241 15.979851839489129 0 15.979851839489129 -5.7030841493315165 0 0 0 0 69.008368154064399 51.480083909233144 0 51.480083909233144 14.400529127138725 0 0 0 0 -1.436431406028351 5.2167002771498403 0 5.2167002771498403 -11.83202982485038 0 0 0 0 53.057770376602974 49.06819877350199 0 49.06819877350199 5.4707503328172606 0 0 0 0 64.062106619972326 39.303301337711673 0 39.303301337711673 8.9764246683334932 0 0 0 0 -1.6550759115292544 5.2229990345103197 0 5.2229990345103197 -11.307405458413953 0 0 0 0 62.480209938569061 64.377214368115347 0 64.377214368115347 21.015621654762072 0 0 0 0 15.123819592084288 17.426972758244801 0 17.426972758244801 -0.42960742063223734 0 0 0 0 23.124116682978752 23.811540973796582 0 23.811540973796582 -1.78924535655824 0 0 0 0 25.86602690479981 17.464622411500386 0 17.464622411500386 -6.5851365211028678 0 0 0 0 16.993383645730063 20.92729435210731 0 20.92729435210731 5.103204177437874 0 0 0 0 20.856873447858561 20.558912196091114 0 20.558912196091114 -6.3925674782076385 0 0 0 0 16.230659843257627 17.844193997301772 0 17.844193997301772 -2.287197656409262 0 0 0 0 17.536374707706216 18.913244640476478 0 18.913244640476478 -1.5568257983104559 0 0 0 0 21.470619901809869 21.148427165660905 0 21.148427165660905 -6.2214649793422723 0 0 0 0 20.958103224035284 20.28395855227609 0 20.28395855227609 -7.657575412926235 0 0 0 0 21.663671440875532 20.563783926507313 0 20.563783926507313 -5.2324873384932289 0 0 0 0 18.815902889284075 20.69315784381979 0 20.69315784381979 -4.9221871084191662 0 0 0 0 61.300344181604878 41.654902025236424 0 41.654902025236424 14.52214003415429 0 0 0 0 10.29698641869868 17.473666525338558 0 17.473666525338558 -0.85612395788484719 0 0 0 0 -1.1346897290689333 5.6319659043326666 0 5.6319659043326666 -11.708735222014781 0 0 0 0 20.109413810060119 24.83750615552708 0 24.83750615552708 -2.5991560016191215 0 0 0 0 25.920347487685859 22.85283609427097 0 22.85283609427097 -7.9081816050747875 0 0 0 0 24.193859860932662 25.341086200867721 0 25.341086200867721 -2.6167426219417393 0 0 0 0 14.700299633170403 26.146788938605823 0 26.146788938605823 6.0046406325891439 0 0 0 0 12.804010536136474 11.55822184036424 0 11.55822184036424 -0.51175060812965967 0 0 0 0 0.67648634184368817 2.6442497120771691 0 2.6442497120771691 -6.5637422929915417 0 0 0 0 58.17787728573785 44.919755158800399 0 44.919755158800399 12.002879994746763 0 0 0 0 49.656508381520553 45.792229525759467 0 45.792229525759467 19.274550381611334 0 0 0 0 60.897832280508339 56.388287719044456 0 56.388287719044456 14.55137376122002 0 0 0 0 62.93295028221155 55.45021676835313 0 55.45021676835313 29.705778470444784 0 0 0 0 62.779181886969809 52.170510933752666 0 52.170510933752666 25.197890434028523 0 0 0 0 60.2363065889881 54.518265790116857 0 54.518265790116857 23.544957444086322 0 0 0 0 65.060084024571552 49.512260687246453 0 49.512260687246453 9.855655190651305 0 0 0 0 63.294133969936183 48.640904355102975 0 48.640904355102975 23.052633274943219 0 0 0 0 63.686281976939199 47.072311923031521 0 47.072311923031521 16.352937829287839 0 0 0 0 1.6811782204019203 0.23332767945369426 0 0.23332767945369426 -2.865754952541522 0 0 0 0 59.935954551375204 41.816645738463649 0 41.816645738463649 39.572639498117496 0 0 0 0 71.451778967322284 7.9376626147532079 0 7.9376626147532079 -41.345774859524681 0 0 0 0 5.8714629262586442 23.714810527602822 0 23.714810527602822 26.458007079309027 0 0 0 0 56.122180331630261 44.19732505236243 0 44.19732505236243 7.134301242276706 0 0 0 0 62.681692152989797 8.9689915254930384 0 8.9689915254930384 -12.435151265381137 0 0 0 0 24.236449037309839 26.303969602407562 0 26.303969602407562 -2.5683684658652055 0 0 0 0 31.740237360226956 27.779398573762592 0 27.779398573762592 -5.1072602735366672 0 0 0 0 41.044323098343483 12.45851460645099 0 12.45851460645099 -13.139376456299942 0 0 0 0 39.832626615200311 -4.7103499664654009 0 -4.7103499664654009 -12.915813778166921 0 0 0 0 0.42669898213659962 -17.823059742278929 0 -17.823059742278929 -8.9629412765425513 0 0 0 0 34.485330833436777 9.6600178788212361 0 9.6600178788212361 -10.842854930451722 0 0 0 0 20.213185698427225 -0.89785626412526653 0 -0.89785626412526653 -14.151833370680833 0 0 0 0 24.644957215229056 16.597885302569921 0 16.597885302569921 -9.3413211289062019 0 0 0 0 15.379661344795188 10.280043270706756 0 10.280043270706756 -10.826887330404134 0 0 0 0 12.07841569582331 10.940994723976473 0 10.940994723976473 -8.8275703103595333 0 0 0 0 10.949259801248843 8.0634996759763453 0 8.0634996759763453 -3.2470696755772224 0 0 0 0 17.26713064221866 15.306358732817216 0 15.306358732817216 -5.203500285584596 0 0 0 0 8.5988806173843955 12.067408942453767 0 12.067408942453767 -1.8150275749685534 0 0 0 0 -5.0421441692350299 -5.6741569708492534 0 -5.6741569708492534 -10.440648363388391 0 0 0 0 3.7822471398426103 1.7362761286931345 0 1.7362761286931345 -7.945337679975637 0 0 0 0 16.343610687402617 6.028832106912887 0 6.028832106912887 -7.2130599805241218 0 0 0 0 -0.17021188213002936 -0.33221863705139043 0 -0.33221863705139043 -0.43516201738390592 0 0 0 0 -0.83055841324185664 -0.61508704070001841 0 -0.61508704070001841 -3.9025541036935465 0 0 0 0 -2.0124429330743347 2.060481478927791 0 2.060481478927791 -1.8714687938014833 0 0 0 0 3.1275227033236206 3.776942426225105 0 3.776942426225105 -10.756416619758966 0 0 0 0 -0.53638114563238593 -0.93038191323677921 0 -0.93038191323677921 -1.3340155787389492 0 0 0 0 -10.413351387597118 23.586820154272573 0 23.586820154272573 -51.378804729778494 0 0 0 0 -4.0920420839293001 17.555946985121409 0 17.555946985121409 -67.03322353695512 0 0 0 0 -6.5279250387072807 32.4396640226405 0 32.4396640226405 -62.556255678035086 0 0 0 0 -1.8942022052040102 30.013902483357015 0 30.013902483357015 -74.306516444506997 0 0 0 0 -1.027632334527425 38.257195024219982 0 38.257195024219982 -73.742231119914322 0 0 0 0 -12.795960595099586 38.231576351699914 0 38.231576351699914 -49.521235037238512 0 0 0 0 -8.366269650201275 46.529168979603128 0 46.529168979603128 -67.200745648531665 0 0 0 0 -6.4240356564077956 32.273219515489473 0 32.273219515489473 -62.785669601535119 0 0 0 0 -3.8473173963278668 -18.780375666630789 0 -18.780375666630789 -122.37706097068076 0 0 0 0 -1.1070969351001358 0.91997420655439299 0 0.91997420655439299 -0.88846379051159374 0 0 0 0 19.521242965407282 27.343974472101763 0 27.343974472101763 -120.37147674039807 0 0 0 0 8.3729229964863521 1.3765349601053458 0 1.3765349601053458 -129.06992087087201 0 0 0 0 1.5255026321158311 21.29574908138602 0 21.29574908138602 -97.618889017161564 0 0 0 0 0.58021977366217925 32.749072577676998 0 32.749072577676998 -80.358555356564466 0 0 0 0 -1.4291123897941134 30.605427492515446 0 30.605427492515446 -82.629205778517644 0 0 0 0 -3.9958187808420007 17.174579259954044 0 17.174579259954044 -69.193601916427724 0 0 0 0 -1.8668161402022179 15.32892461688607 0 15.32892461688607 -80.215754597129489 0 0 0 0 -4.380717390600239 13.637185502997454 0 13.637185502997454 -70.387273773783818 0 0 0 0 -2.8965451347103226 21.600141519011231 0 21.600141519011231 -61.545244467793964 0 0 0 0 -2.8965451347085036 21.600141518982127 0 21.600141518982127 -61.545244467677549 0 0 0 0 -0.49356854246411785 -0.031472555056097917 0 -0.031472555056097917 5.7423152605988435 0 0 0 0 7.577387408710706 15.315207829353312 0 15.315207829353312 10.880825275233292 0 0 0 0 3.2633728831946485 12.201403611876231 0 12.201403611876231 8.3870142659216071 0 0 0 0 -3.6862639558865737 4.0995554537767021 0 4.0995554537767021 -1.5482743550965097 0 0 0 0 -0.9061156353048716 3.4571335455857479 0 3.4571335455857479 -2.420686033234233 0 0 0 0 -2.8965451347085036 21.600141518982127 0 21.600141518982127 -61.545244467735756 0 0 0 0 -0.20377243632649877 0.015953153941616449 0 0.015953153941616449 0.16843258759101332 0 0 0 0 -0.24675052489424881 0.40393699652206294 0 0.40393699652206294 -0.58251377415373184 0 0 0 0 -2.4968889806939103 6.2499496282907785 0 6.2499496282907785 -6.0978915170635446 0 0 0 0 -2.9729158722323064 3.3013547239206673 0 3.3013547239206673 -0.67955649455689127 0 0 0 0 13.342657593595845 14.084609293888207 0 14.084609293888207 -1.0898208502549096 0 0 0 0 14.011035837870509 17.268990207778188 0 17.268990207778188 3.9301197441418481 0 0 0 0 13.301028044732561 15.352785116810992 0 15.352785116810992 2.6018171158975747 0 0 0 0 14.02278056961859 16.298133480755496 0 16.298133480755496 3.6262210005843372 0 0 0 0 21.838979633789478 39.164072967216271 0 39.164072967216271 45.026896287479758 0 0 0 0 -0.28883901922051614 0.01705417026654743 0 0.01705417026654743 -0.066305741573891908 0 0 0 0 58.861166176005781 -48.571986902385106 0 -48.571986902385106 -207.45046976922458 0 0 0 0 -21.528816190054215 -39.229553271239183 0 -39.229553271239183 -94.8495403161578 0 0 0 0 -3.004187170471937 32.168774091780506 0 32.168774091780506 -95.834090758071397 0 0 0 0 48.540784598285541 7.6838977009720111 0 7.6838977009720111 -82.630812530522235 0 0 0 0 20.060964916946887 8.7364700179823558 0 8.7364700179823558 -80.230236549403344 0 0 0 0 42.241390032032996 11.201499094931933 0 11.201499094931933 -74.911833899115663 0 0 0 0 41.430950559815471 -46.212039038231524 0 -46.212039038231524 -6.1847441320205689 0 0 0 0 29.273700201509513 7.0785087594349534 0 7.0785087594349534 -53.323231518646935 0 0 0 0 46.239979424159856 -26.611398904227826 0 -26.611398904227826 -15.672974587538192 0 0 0 0 46.601190748475823 2.883465422618599 0 2.883465422618599 -76.406793266578461 0 0 0 0 64.295257292757469 -28.992803605007794 0 -28.992803605007794 -52.854759794223355 0 0 0 0 46.770012980500042 14.503059706134081 0 14.503059706134081 -138.21822649402748 0 0 0 0 21.56854696547498 -35.644312232972879 0 -35.644312232972879 -27.076547780670808 0 0 0 0 68.479598237167011 13.707973348806263 0 13.707973348806263 -7.7097428965043946 0 0 0 0 8.2695989536941852 13.083352776437096 0 13.083352776437096 81.430486466186267 0 0 0 0 54.600354381155512 -40.617566469027224 0 -40.617566469027224 -41.574404123689419 0 0 0 0 -139.62002400695863 312.36968368544944 0 312.36968368544944 -648.424933541879 0 0 0 0 1.6973058296706265 -0.44927767185824052 0 -0.44927767185824052 -1.242219015563002 0 0 0 0 -0.57891741683241738 1.1930317636308629 0 1.1930317636308629 -0.51689127104915045 0 0 0 0 19.816568136850037 -91.562946380487119 0 -91.562946380487119 129.58920078932715 0 0 0 0 46.271266736120424 -157.10157143956167 0 -157.10157143956167 107.71678339497885 0 0 0 0 4.4871108543570699 54.753519361438521 0 54.753519361438521 -256.51818265130714 0 0 0 0 -117.35638402276618 236.74351345092873 0 236.74351345092873 -741.25337229174329 0 0 0 0 63.755300808601532 -97.5686640574786 0 -97.5686640574786 20.963828460910008 0 0 0 0 127.79113671566483 -88.714276978338603 0 -88.714276978338603 -49.450468795606866 0 0 0 0 60.470475771175529 -33.188727775133884 0 -33.188727775133884 -57.31566049013054 0 0 0 0 40.669477259189307 -62.558015255999635 0 -62.558015255999635 -3.1177878253656672 0 0 0 0 71.020753511030762 -60.375407364022976 0 -60.375407364022976 -21.883699252133738 0 0 0 0 146.31270368122068 -177.5313554404056 0 -177.5313554404056 -27.895663438543124 0 0 0 0 95.973807982602466 -137.60719689957841 0 -137.60719689957841 -92.643359056586633 0 0 0 0 115.43661217937415 -85.696102034879004 0 -85.696102034879004 -202.65198054058419 0 0 0 0 100.97541639627173 35.939750793975691 0 35.939750793975691 -310.8570058543628 0 0 0 0 169.14109907501131 -113.82459081778052 0 -113.82459081778052 -157.36066583645879 0 0 0 0 83.021493136958725 -29.901076796159032 0 -29.901076796159032 -120.28583966494261 0 0 0 0 72.876531717804255 -21.609404144848668 0 -21.609404144848668 -91.850211015836976 0 0 0 0 14.958158015482866 29.380226532197412 0 29.380226532197412 -111.50763850843214 0 0 0 0 54.216364840367532 25.492529382421708 0 25.492529382421708 -202.78414858366887 0 0 0 0 36.362900115226608 70.691510536586065 0 70.691510536586065 -170.69182700118108 0 0 0 0 16.967602795809739 57.070955607205178 0 57.070955607205178 -108.86155597208563 0 0 0 0 42.192159510363581 59.116357455284742 0 59.116357455284742 -164.39788561085334 0 0 0 0 20.487520337225988 43.290619165261887 0 43.290619165261887 -161.20491790616597 0 0 0 0 1.7388532777146679 46.839079357818264 0 46.839079357818264 -95.728358271764591 0 0 0 0 -1.3029978560018662 61.541456687202299 0 61.541456687202299 -107.46278484683899 0 0 0 0 -1.0589646196267495 40.785079778122963 0 40.785079778122963 -79.9865557847952 0 0 0 0 -0.51751627548628676 45.91435125812859 0 45.91435125812859 -80.041077111338382 0 0 0 0 -0.56624718925570505 36.846241435827324 0 36.846241435827324 -85.992450744721282 0 0 0 0 6.1958726935333743 39.02073283916252 0 39.02073283916252 -85.332942049426492 0 0 0 0 8.1280512262424054 39.353116961481646 0 39.353116961481646 -92.175418920203811 0 0 0 0 17.329434052630404 25.730239559561596 0 25.730239559561596 -81.757471980708942 0 0 0 0 17.648679932630557 34.359490882750833 0 34.359490882750833 -89.401198293006019 0 0 0 0 30.370781247187097 6.3085439435672015 0 6.3085439435672015 -68.134896242801915 0 0 0 0 32.445811558851574 25.235610216208443 0 25.235610216208443 -89.345934288132412 0 0 0 0 54.35251752895897 6.6287596741021844 0 6.6287596741021844 -107.72099470060857 0 0 0 0 21.844385764589504 22.051014718119404 0 22.051014718119404 -80.794671161638689 0 0 0 0 16.846756583196338 35.851228490799258 0 35.851228490799258 -114.08510073728212 0 0 0 0 22.997750825033393 23.36496440234805 0 23.36496440234805 -89.583215270613437 0 0 0 0 12.660231139066809 37.004057896367158 0 37.004057896367158 -122.15139216251555 0 0 0 0 -10.614277249524264 62.631908779005244 0 62.631908779005244 -136.94159054999545 0 0 0 0 72.336224204578997 49.858231902756415 0 49.858231902756415 -169.84806099631896 0 0 0 0 20.569508894551859 15.808216695622832 0 15.808216695622832 -182.10552027448284 0 0 0 0 30.334969205778521 79.972548287907557 0 79.972548287907557 -160.17333277013677 0 0 0 0 0.25513634965647403 0.37515976747266677 0 0.37515976747266677 -0.33445976743416317 0 0 0 0 11.532258621613096 67.851110054427409 0 67.851110054427409 -150.95455239004332 0 0 0 0 26.593727925652281 60.435522122054863 0 60.435522122054863 -157.68861899731564 0 0 0 0 -16.423800620477209 68.869619459434034 0 68.869619459434034 -156.34355968569798 0 0 0 0 -23.421748947492006 47.311900781445729 0 47.311900781445729 -162.09134280909348 0 0 0 0 -13.675102195060958 19.408597845136683 0 19.408597845136683 -239.18420353622059 0 0 0 0 -31.708958011537391 27.794259751790378 0 27.794259751790378 -190.68214475207787 0 0 0 0 -10.286655990289773 58.967190946052142 0 58.967190946052142 -195.44715544215433 0 0 0 0 -20.55699751616271 63.049149203874549 0 63.049149203874549 -157.18604369918103 0 0 0 0 -16.460609726092457 37.366263808446092 0 37.366263808446092 -190.66308449389817 0 0 0 0 -5.5588263940642264 59.745239914802369 0 59.745239914802369 -179.03695685318598 0 0 0 0 -44.154249323030811 46.357859906243903 0 46.357859906243903 -203.45899017140619 0 0 0 0 -6.0011619742729181 63.723067182319937 0 63.723067182319937 -246.48717403682531 0 0 0 0 -30.818190794453471 76.130729845259339 0 76.130729845259339 -204.53670512003009 0 0 0 0 -11.830978517097662 51.83238590640758 0 51.83238590640758 -198.95483759821309 0 0 0 0 -20.370898675112471 73.64585981307755 0 73.64585981307755 -196.21513407571183 0 0 0 0 -34.98871728340697 59.829464957992968 0 59.829464957992968 -127.67145178256396 0 0 0 0 -9.7544773685899884 43.179126400335008 0 43.179126400335008 -130.48643783092189 0 0 0 0 -20.476923313188735 57.192695568002819 0 57.192695568002819 -103.26910335580396 0 0 0 0 -1.1444263631685203 48.212525992254086 0 48.212525992254086 -149.49995334998493 0 0 0 0 0.31506401233215053 -0.25120534664969796 0 -0.25120534664969796 0.19428378696406412 0 0 0 0 -4.826928522840916 48.038552700787477 0 48.038552700787477 -99.500192992418306 0 0 0 0 -15.799253524425211 32.544433247523557 0 32.544433247523557 -76.042006437612145 0 0 0 0 -1.6941764533776222 0.99398735263139315 0 0.99398735263139315 -16.085138701069809 0 0 0 0 -13.387874944840704 2.5399222940918662 0 2.5399222940918662 -16.222216638996542 0 0 0 0 -4.7721017297287744 10.714486265602318 0 10.714486265602318 -21.510137542954908 0 0 0 0 -4.2588907337584487 7.1858463104908878 0 7.1858463104908878 -19.263749047215242 0 0 0 0 -0.96447339659198406 13.02224158502213 0 13.02224158502213 -26.242547550478776 0 0 0 0 -14.665156863822688 1.8253038013281184 0 1.8253038013281184 -49.004484258044613 0 0 0 0 -0.99578330547918026 2.1659636020208879 0 2.1659636020208879 -3.192400359773913 0 0 0 0 -6.7556786238359905 12.569500978075666 0 12.569500978075666 -20.386534191147803 0 0 0 0 -1.3757751458168457 41.173818294896591 0 41.173818294896591 -86.253882497472659 0 0 0 0 17.88914892569673 26.388498054034244 0 26.388498054034244 -101.03503881983852 0 0 0 0 -4.3633947919222464 -18.4466107383505 0 -18.4466107383505 -84.377656913653482 0 0 0 0 9.7843860294460683 21.605998635681317 0 21.605998635681317 -16.552170632489833 0 0 0 0 -9.9860225974592538 17.65093677908726 0 17.65093677908726 -62.317196467436588 0 0 0 0 -8.9161068173747573 9.2014510776780796 0 9.2014510776780796 -8.5567918783221728 0 0 0 0 8.7668438832149693 0.96759968987719347 0 0.96759968987719347 -9.5446688171146192 0 0 0 0 -12.595276845121361 27.951019472785447 0 27.951019472785447 -37.269565694059565 0 0 0 0 0.23882288280496056 2.7029772365070386 0 2.7029772365070386 -3.9345456062034145 0 0 0 0 5.9624528737828033 -30.617616430417911 0 -30.617616430417911 -175.7216848874923 0 0 0 0 -5.1308120711158267 13.887330562571151 0 13.887330562571151 -26.184802827025123 0 0 0 0 -5.5890154059399624 12.589151336210357 0 12.589151336210357 -12.510324936316316 0 0 0 0 1.8115973557269598 -2.0943757889981498 0 -2.0943757889981498 -7.4578301614710654 0 0 0 0 3.0155216366561604 4.8597768376712338 0 4.8597768376712338 -17.896648548201483 0 0 0 0 0.1966224733287163 3.6372357110958546 0 3.6372357110958546 -13.316501570809123 0 0 0 0 0.043750922340932363 1.5291523222781507 0 1.5291523222781507 -3.920005251248412 0 0 0 0 2.6108262278206098 7.3785551264008973 0 7.3785551264008973 -14.198082182556391 0 0 0 0 0.9227796640092073 2.6597103671393612 0 2.6597103671393612 -6.7015811519057138 0 0 0 0 2.4233773811218313 6.0120880360998399 0 6.0120880360998399 -16.886274177632004 0 0 0 0 229.28426807957166 440.7869351357258 0 440.7869351357258 -782.31500173033783 0 0 0 0 -0.049293026588287048 -0.68411152173352718 0 -0.68411152173352718 -2.508963882997854 0 0 0 0 121.95899451986591 282.88336823358077 0 282.88336823358077 -865.56002475153582 0 0 0 0 -28.36350482434932 51.594130373037842 0 51.594130373037842 -1186.6476501488287 0 0 0 0 -0.3677295204481108 -0.10284726754761309 0 -0.10284726754761309 -0.36749032808980076 0 0 0 0 -77.463216377519871 189.8727757389388 0 189.8727757389388 -740.37998951392728 0 0 0 0 -75.839181697093721 174.07288634934957 0 174.07288634934957 -586.77287963532945 0 0 0 0 -101.07731662350707 298.9832630642195 0 298.9832630642195 -314.74616598998546 0 0 0 0 -6.109114386538872 287.01398667779677 0 287.01398667779677 -713.22496236367442 0 0 0 0 -32.56697839804869 217.43074277654705 0 217.43074277654705 -824.25607235543066 0 0 0 0 -77.040782399751322 220.55188447038017 0 220.55188447038017 -706.6822939484282 0 0 0 0 -57.657102958800138 320.72938669611676 0 320.72938669611676 -208.82238249347574 0 0 0 0 272.10965170897362 -117.69354393102276 0 -117.69354393102276 -1496.9832749844154 0 0 0 0 237.28850595773622 -517.66029649799111 0 -517.66029649799111 -498.1775853165891 0 0 0 0 109.2119051865907 93.906213525946441 0 93.906213525946441 -784.76922787585681 0 0 0 0 426.09393401176726 3.3412883379696723 0 3.3412883379696723 -713.72201607831812 0 0 0 0 0.51094937252140638 -0.34565660504674689 0 -0.34565660504674689 -4.8328250301751297 0 0 0 0 496.12802077755123 206.08266710181124 0 206.08266710181124 -1497.09540182514 0 0 0 0 259.82834425063038 524.40591770889114 0 524.40591770889114 -786.00370128178474 0 0 0 0 302.52455940906265 -499.70232036897869 0 -499.70232036897869 -396.67922181480753 0 0 0 0 52.384181651418714 -68.202257263559659 0 -68.202257263559659 107.74884019227102 0 0 0 0 0.41340692927481593 -0.39468841149481726 0 -0.39468841149481726 -4.7992614898001875 0 0 0 0 76.442733145502302 -118.19010819334471 0 -118.19010819334471 -747.11901992541425 0 0 0 0 74.785585572689342 -256.58160725474227 0 -256.58160725474227 -424.78581143333577 0 0 0 0 156.32093319498006 -288.23209143126587 0 -288.23209143126587 -440.104524247683 0 0 0 0 48.324605120179058 -212.30129000983652 0 -212.30129000983652 -480.61192628134813 0 0 0 0 103.89504478276751 111.97974999104554 0 111.97974999104554 -759.262360331119 0 0 0 0 257.19282971698021 334.58462358766064 0 334.58462358766064 -975.62406864557852 0 0 0 0 -333.84353151647178 -116.68965362486051 0 -116.68965362486051 -636.84360573398772 0 0 0 0 188.63132554422279 -260.42605372367507 0 -260.42605372367507 -796.02155541565662 0 0 0 0 -144.16250474095045 199.61522697004057 0 199.61522697004057 -281.42993965753885 0 0 0 0 -6.0206405956407707 3.2523593307978444 0 3.2523593307978444 -8.7251401852772688 0 0 0 0 -0.79188837288973746 0.69826456553050065 0 0.69826456553050065 -0.86592647435995218 0 0 0 0 -7.041736267603028 9.5179796223801532 0 9.5179796223801532 -11.884508358372841 0 0 0 0 104.77555863145247 73.332078512728458 0 73.332078512728458 -324.32853038773828 0 0 0 0 -0.65134094227666162 0.17892354916259023 0 0.17892354916259023 0.081602016022902291 0 0 0 0 -2.158011197084079 16.370589387172004 0 16.370589387172004 -202.610696434087 0 0 0 0 -12.094991233938799 10.73894866439332 0 10.73894866439332 -168.98886813166234 0 0 0 0 21.630145123668967 -65.290108156097631 0 -65.290108156097631 -9.6028640361400903 0 0 0 0 171.98601886140347 27.599257100728209 0 27.599257100728209 -61.918038048395829 0 0 0 0 282.48099625654828 -93.004583404690493 0 -93.004583404690493 -59.732876006273727 0 0 0 0 271.62596212778271 -36.217305120851961 0 -36.217305120851961 -31.73911772475185 0 0 0 0 26.103450962136492 -140.50840465926012 0 -140.50840465926012 -37.401660834444556 0 0 0 0 52.880479322898623 -179.3888136274727 0 -179.3888136274727 -275.33760285332755 0 0 0 0 10.239849139211302 -215.86150553390621 0 -215.86150553390621 -166.46103159052291 0 0 0 0 31.437832567387659 -371.76736652441105 0 -371.76736652441105 -332.10344460329907 0 0 0 0 88.913262149375015 -244.04479289934125 0 -244.04479289934125 -717.96581609751593 0 0 0 0 44.672994828409173 -463.72588957789776 0 -463.72588957789776 -712.90696792350354 0 0 0 0 -69.338156488880713 -383.4462765717908 0 -383.4462765717908 15.057639946749987 0 0 0 0 -162.53505352133106 -677.87252143468322 0 -677.87252143468322 -486.77437537666628 0 0 0 0 -101.60502100791319 -954.28951221309035 0 -954.28951221309035 -1497.088847765408 0 0 0 0 196.07148337993905 -493.00560386337565 0 -493.00560386337565 -975.20008775504903 0 0 0 0 189.96216798429532 -465.16672082875266 0 -465.16672082875266 -713.26956132411851 0 0 0 0 384.61368855368988 -203.24190661702414 0 -203.24190661702414 -1500.5596247470421 0 0 0 0 201.63416281023436 -459.5264431899941 0 -459.5264431899941 -897.6351997163074 0 0 0 0 109.57680399659715 20.140354688518414 0 20.140354688518414 -329.15471188826632 0 0 0 0 109.45519496671292 -11.344500269581886 0 -11.344500269581886 -1490.250979173572 0 0 0 0 -1.3807192962362711 -1.6510327409956584 0 -1.6510327409956584 -7.3010622072534801 0 0 0 0 -852.11676336995936 -698.76744416428483 0 -698.76744416428483 -580.53132046151586 0 0 0 0 -303.05799032983731 384.99972268802594 0 384.99972268802594 -415.44489433698254 0 0 0 0 0.99779220792292 -5.204348586207316 0 -5.204348586207316 -18.586919720843113 0 0 0 0 54.740414140335361 15.197879079974882 0 15.197879079974882 -25.122311020280904 0 0 0 0 2.5879232130094465 28.105905106383943 0 28.105905106383943 37.549967915154411 0 0 0 0 -59.516301040795355 138.31385343934198 0 138.31385343934198 -111.00441498441796 0 0 0 0 -135.08663076240128 -30.156523386918707 0 -30.156523386918707 -12.774458260348183 0 0 0 0 -12.826527568938019 3.4347920973359578 0 3.4347920973359578 -28.650238713071303 0 0 0 0 -26.389067015818284 10.355738740385277 0 10.355738740385277 -31.83352057286902 0 0 0 0 -1.7083813814795974 8.6953445314975397 0 8.6953445314975397 -33.135264973781887 0 0 0 0 365.81556398736694 -260.21069820394177 0 -260.21069820394177 86.476559437898686 0 0 0 0 3.172002247474162 1.2628422582069518 0 1.2628422582069518 -2.289806017679382 0 0 0 0 0.13870371557185324 -3.465008408595839 0 -3.465008408595839 -0.031962208152975791 0 0 0 0 217.51763217864018 0.98915369110000029 0 0.98915369110000029 -42.955564661126118 0 0 0 0 355.25182349237031 -96.300360118761091 0 -96.300360118761091 -48.60861369947088 0 0 0 0 305.5229098428523 -55.706332648225725 0 -55.706332648225725 -1.3168278834637022 0 0 0 0 -17.810222545168472 -18.612212019230356 0 -18.612212019230356 1.8112384212145116 0 0 0 0 -28.784533427871565 -27.679124026824866 0 -27.679124026824866 10.183191399410134 0 0 0 0 4.0676471688583975 -6.4722489172407336 0 -6.4722489172407336 -16.953856611042411 0 0 0 0 28.412273797118814 -25.781762224089107 0 -25.781762224089107 -9.5987708285429107 0 0 0 0 -3.8734062832168092 -54.319316995371992 0 -54.319316995371992 -14.587122711469419 0 0 0 0 18.534884107016751 29.488918403474599 0 29.488918403474599 -26.484919173862636 0 0 0 0 0.04570707973002458 -0.37271039114971316 0 -0.37271039114971316 -0.43004130031346222 0 0 0 0 -118.87641167449374 -20.414343297883534 0 -20.414343297883534 55.733364383628214 0 0 0 0 400.716282088649 -76.727837146666388 0 -76.727837146666388 -75.565095550853584 0 0 0 0 222.19043297420257 20.160089741575575 0 20.160089741575575 27.600310150301084 0 0 0 0 239.88058409858866 -97.225097313237711 0 -97.225097313237711 87.185604287889873 0 0 0 0 0.063265478587022139 0.03962103307140552 0 0.03962103307140552 -0.052657105647636371 0 0 0 0 26.17270090990155 32.760010283611336 0 32.760010283611336 -0.14025235548797355 0 0 0 0 176.58884273319961 -48.019814763933027 0 -48.019814763933027 -89.798418465092254 0 0 0 0 -6.0628790799147225 -3.8917370640556328 0 -3.8917370640556328 -11.14736663761505 0 0 0 0 -4.3401739167418327 45.796147912793458 0 45.796147912793458 -36.479454782471294 0 0 0 0 55.782235424469036 16.792176950981229 0 16.792176950981229 1.3778831185682066 0 0 0 0 35.38591365188509 -11.314783070254634 0 -11.314783070254634 -34.539438126004825 0 0 0 0 220.12723993078683 9.3311936944185163 0 9.3311936944185163 -21.556247315420478 0 0 0 0 55.421418508802375 -41.257071920379076 0 -41.257071920379076 -57.414968638724531 0 0 0 0 42.37998679264912 46.178127901210701 0 46.178127901210701 -68.448411604942521 0 0 0 0 -5.6793960641586523 9.7441861550050817 0 9.7441861550050817 -95.870760603669623 0 0 0 0 -34.344577600216496 23.906109401189497 0 23.906109401189497 -51.438887017829984 0 0 0 0 -14.59550494686755 69.976089359815887 0 69.976089359815887 -131.26483113393988 0 0 0 0 -36.72513724588282 45.24435634976544 0 45.24435634976544 -147.71252468255261 0 0 0 0 -21.937331758111341 39.285400632645405 0 39.285400632645405 -191.26216637239122 0 0 0 0 -15.006613339944636 39.267859459418105 0 39.267859459418105 -280.3363290558591 0 0 0 0 -32.656223978356017 88.911033868265804 0 88.911033868265804 -201.1448649298909 0 0 0 0 19.462141215540925 -25.390405407059461 0 -25.390405407059461 -123.55361956182969 0 0 0 0 -24.16805861296848 76.938582941242203 0 76.938582941242203 -142.69105057053093 0 0 0 0 -1.9986741861168866 76.958339455977693 0 76.958339455977693 -173.51289171284952 0 0 0 0 86.939852458417249 -75.47084252784407 0 -75.47084252784407 -38.341177072275968 0 0 0 0 57.881762348285747 -29.823975514504127 0 -29.823975514504127 -118.40420527507013 0 0 0 0 112.28620941777274 17.044758811174688 0 17.044758811174688 -81.906665337843151 0 0 0 0 209.33350900881396 -93.787086201644343 0 -93.787086201644343 -5.4424961166132562 0 0 0 0 329.14201674528312 47.687145264903847 0 47.687145264903847 -57.171783206700638 0 0 0 0 133.54698393471372 -70.71606206590377 0 -70.71606206590377 -57.273108768626116 0 0 0 0 37.131804824247411 -107.94512193757055 0 -107.94512193757055 -75.116756767121842 0 0 0 0 145.67140753496682 9.5468223950075526 0 9.5468223950075526 3.0141910520833335 0 0 0 0 192.7595788763428 -0.59084408668422839 0 -0.59084408668422839 -67.450943867446767 0 0 0 0 160.00342434724826 -122.04775171680922 0 -122.04775171680922 -18.563513663542835 0 0 0 0 78.141135565277295 10.225625854242026 0 10.225625854242026 -103.0687314875322 0 0 0 0 0.23803097299924048 -5.0839356802280236 0 -5.0839356802280236 -40.719484752087737 0 0 0 0 -0.28694423508204636 -28.630020280270401 0 -28.630020280270401 -20.161150680134597 0 0 0 0 4.2132219154102586 -18.047906348012475 0 -18.047906348012475 -87.37902378684521 0 0 0 0 -83.902650206755425 -52.595505455075909 0 -52.595505455075909 -26.585532088387481 0 0 0 0 0.83932218456184504 0.50099102809591045 0 0.50099102809591045 -8.2159537846875708 0 0 0 0 0.92768658068744214 1.2541817122485241 0 1.2541817122485241 -4.886737969288049 0 0 0 0 6.6782894824818868 3.3515446020683157 0 3.3515446020683157 -8.398732946603559 0 0 0 0 -10.705226923529153 -79.313277270648541 0 -79.313277270648541 -43.398350894920441 0 0 0 0 -113.67114168498938 -77.969791645185978 0 -77.969791645185978 -43.143278512892721 0 0 0 0 44.432069387654337 -49.513506729052096 0 -49.513506729052096 -73.171104605899018 0 0 0 0 212.28388708746661 -78.676110436881572 0 -78.676110436881572 -108.87208501725399 0 0 0 0 0.05740311132386923 -1.2013523446797763 0 -1.2013523446797763 -0.40014767419052077 0 0 0 0 27.913520235801116 -20.87224641211651 0 -20.87224641211651 -121.23992411401559 0 0 0 0 -23.371199876634364 0.32604109399107983 0 0.32604109399107983 7.1913056517628604 0 0 0 0 -74.461969353942308 74.645572747570569 0 74.645572747570569 -88.260892450161919 0 0 0 0 4.8056393352544546 -9.8781121592837735 0 -9.8781121592837735 -123.38624043543678 0 0 0 0 -0.76067073371896132 0.085220899800077632 0 0.085220899800077632 0.37092860100344893 0 0 0 0 -1.4417492373488585 -29.078706267553571 0 -29.078706267553571 23.824706689101731 0 0 0 0 9.5346538270333667 21.721256083896151 0 21.721256083896151 -144.92371487070704 0 0 0 0 26.434640818433536 -3.9930477353045717 0 -3.9930477353045717 -137.16528098530034 0 0 0 0 1.641029579508313 4.1429116719846206 0 4.1429116719846206 -46.367250371149566 0 0 0 0 1.7003960591855503 -18.196608743479374 0 -18.196608743479374 -97.546652388220537 0 0 0 0 0.13872619158837551 20.010959197072225 0 20.010959197072225 -97.396237870992508 0 0 0 0 0.37791923458416932 -9.328083861801133 0 -9.328083861801133 -16.321987991843343 0 0 0 0 -0.47749246016974212 -18.466880973959633 0 -18.466880973959633 -5.8929259011347312 0 0 0 0 -0.68708876394724072 -0.22294333615310791 0 -0.22294333615310791 -1.6122925136153015 0 0 0 0 18.290614667743089 -15.64485108306809 0 -15.64485108306809 -14.18557935419085 0 0 0 0 9.9234797714257184 -1.8792404455871292 0 -1.8792404455871292 -36.250911878385523 0 0 0 0 18.231546770112885 7.6870518133319479 0 7.6870518133319479 -4.0931873202134739 0 0 0 0 -6.0756871256126033 -1.3891116906124807 0 -1.3891116906124807 -7.3466882986904238 0 0 0 0 0.97667557619331546 14.912487111607334 0 14.912487111607334 13.579784311434196 0 0 0 0 2.0760111990045882 -0.91274210297372349 0 -0.91274210297372349 0.29981384561477409 0 0 0 0 17.00621864196529 37.925035099087836 0 37.925035099087836 -19.493319210516347 0 0 0 0 -63.72931207472493 -0.75811970746872248 0 -0.75811970746872248 82.834338008062332 0 0 0 0 33.783733997600507 38.888123801430993 0 38.888123801430993 -113.67661519579997 0 0 0 0 4.5505888644321999 -1.2288864686132825 0 -1.2288864686132825 -1.2715347215587132 0 0 0 0 11.819665949663431 -10.887470730259338 0 -10.887470730259338 -21.541325272726681 0 0 0 0 -142.31562916154326 -32.452741489239997 0 -32.452741489239997 70.095967092038336 0 0 0 0 39.558089467337368 -8.0806818431592546 0 -8.0806818431592546 -26.091050697756145 0 0 0 0 84.34342740529064 -87.571526935578731 0 -87.571526935578731 27.06935688520025 0 0 0 0 129.29581101723352 -2.3491680583756533 0 -2.3491680583756533 -29.946950859230128 0 0 0 0 159.96570044345572 -85.406924126145896 0 -85.406924126145896 58.512100795953302 0 0 0 0 26.681418321243427 -43.606857808139466 0 -43.606857808139466 -3.7389882443749229 0 0 0 0 13.930038601840295 -19.678910567323328 0 -19.678910567323328 6.9023331642165431 0 0 0 0 33.704186527428419 -35.295159194363805 0 -35.295159194363805 -21.75592905843223 0 0 0 0 2.7821161322585795 -1.2117946375183237 0 -1.2117946375183237 -12.529287159806699 0 0 0 0 2.8354993101056607 -1.2791442418820225 0 -1.2791442418820225 -5.4138216301471402 0 0 0 0 19.601342784352028 -30.326235913427809 0 -30.326235913427809 26.753488647285849 0 0 0 0 3.6931510195276838 -3.5820067190310141 0 -3.5820067190310141 -6.0819999798335864 0 0 0 0 3.2544371662030649 -2.6707168356428568 0 -2.6707168356428568 -5.8526839162979343 0 0 0 0 2.3712413184943557 -1.3142773767558538 0 -1.3142773767558538 -11.059856259671506 0 0 0 0 2.4797307768509427 -2.2015105633140593 0 -2.2015105633140593 -12.901774801779538 0 0 0 0 0.64011803404810053 -4.3530322250444442 0 -4.3530322250444442 -2.3962069370609242 0 0 0 0 -17.785388856015288 -24.553772988045239 0 -24.553772988045239 113.17899984434189 0 0 0 0 1.9011290972687125 -1.3842795993140271 0 -1.3842795993140271 -1.6376679272571835 0 0 0 0 4.5221485918961601 -2.258770434625923 0 -2.258770434625923 -4.7476655377461725 0 0 0 0 -2.7728911478416194 -9.4754547405882477 0 -9.4754547405882477 -35.892600786140974 0 0 0 0 0.97436399183531242 -0.74831414289029397 0 -0.74831414289029397 -8.5859342827405953 0 0 0 0 0.91660944034921155 -0.020971221695141651 0 -0.020971221695141651 -1.3251863983677481 0 0 0 0 3.9899728346008487 2.8568868660440785 0 2.8568868660440785 6.0645877569913864 0 0 0 0 2.6928595810347131 -0.33361756892618644 0 -0.33361756892618644 -9.7118797147459688 0 0 0 0 3.904182292936639 0.082755637922673486 0 0.082755637922673486 -11.34667827656267 0 0 0 0 2.6028521593534837 -0.63342368953348327 0 -0.63342368953348327 -7.8974082339313867 0 0 0 0 123.21194894367886 -24.23001554799157 0 -24.23001554799157 -38.800803046960937 0 0 0 0 4.9006287338133916 -0.68636703818992828 0 -0.68636703818992828 -8.8798248493112624 0 0 0 0 1.0785295600629314 -0.41376872818398658 0 -0.41376872818398658 -9.559362713729044 0 0 0 0 0.72562549446809177 0.51405445807253614 0 0.51405445807253614 -3.1209848079374183 0 0 0 0 -2.3345774017343786 -69.150216870847316 0 -69.150216870847316 52.343376110409736 0 0 0 0 -0.5990402043580616 16.811923545683385 0 16.811923545683385 -34.117532853459124 0 0 0 0 2.0544161204197735 -2.3042708494249382 0 -2.3042708494249382 -12.860516113330959 0 0 0 0 1.9961940726780085 -2.2454188940901076 0 -2.2454188940901076 -12.788606357062235 0 0 0 0 1.7840913271929564 -1.8548535997418369 0 -1.8548535997418369 -9.0714636576539824 0 0 0 0 2.4035249488622483 -5.7833446708753513 0 -5.7833446708753513 -12.971918978190558 0 0 0 0 1.4465503213559714 -2.3680528168188175 0 -2.3680528168188175 -12.768776240845909 0 0 0 0 3.178382030054081 -3.6072812595884898 0 -3.6072812595884898 -5.5883779041632806 0 0 0 0 2.6173226216127086 -4.0459457952541911 0 -4.0459457952541911 -8.1484675960650605 0 0 0 0 2.9200843106728507 -3.3027967102374225 0 -3.3027967102374225 -14.365987810832479 0 0 0 0 11.935217645535886 7.0245876881235745 0 7.0245876881235745 -40.839453020329529 0 0 0 0 28.122498368227589 -20.178549392862635 0 -20.178549392862635 -33.220919402323489 0 0 0 0 2.1194253066207582 -7.5328884504800087 0 -7.5328884504800087 -16.477062180800871 0 0 0 0 3.0589311897007292 -17.116437765442242 0 -17.116437765442242 -40.480809997192409 0 0 0 0 33.261506594734456 -4.9302932834425519 0 -4.9302932834425519 -32.975690149571165 0 0 0 0 0.38174450606367522 -4.9784687930816087 0 -4.9784687930816087 -0.2542336025490215 0 0 0 0 17.696129245270413 6.799632425969321 0 6.799632425969321 -53.823854482121533 0 0 0 0 27.155059608285114 -3.793609738964733 0 -3.793609738964733 -68.826364308946722 0 0 0 0 0.76586078900078292 5.9592205266817473 0 5.9592205266817473 -31.210576838499037 0 0 0 0 39.374360583060337 36.176217598718722 0 36.176217598718722 -146.37639066718839 0 0 0 0 63.122474815494229 -57.692635962073837 0 -57.692635962073837 -57.163559323584195 0 0 0 0 47.735105715393274 -21.601180029552779 0 -21.601180029552779 -61.737617427184887 0 0 0 0 51.516472687916576 -5.0722856619468075 0 -5.0722856619468075 -103.08571967625176 0 0 0 0 35.551873387922114 3.1127922097221017 0 3.1127922097221017 -71.507756667175272 0 0 0 0 31.36128371105292 8.4283790664230764 0 8.4283790664230764 -78.115665156692558 0 0 0 0 4.1303052517304195 14.235382876220683 0 14.235382876220683 -32.488048998944578 0 0 0 0 18.482526880309251 18.830093960352315 0 18.830093960352315 -66.415266762080137 0 0 0 0 8.140321311896912 10.34749810703579 0 10.34749810703579 -32.721906238897645 0 0 0 0 35.066401571032202 18.784870127106842 0 18.784870127106842 -51.033185376960319 0 0 0 0 21.644495763753014 9.917698123072114 0 9.917698123072114 -44.08688801072276 0 0 0 0 24.07668368490215 11.919311779922282 0 11.919311779922282 -34.521492694024346 0 0 0 0 30.649000000737146 3.6876984694317798 0 3.6876984694317798 -43.48037798773521 0 0 0 0 1.8809665173880603 31.442647792153366 0 31.442647792153366 -48.138756421474682 0 0 0 0 58.420008758477138 30.382392228275421 0 30.382392228275421 -55.570903630286921 0 0 0 0 73.702025447191886 20.684961897830362 0 20.684961897830362 -50.866435893774906 0 0 0 0 -155.99738517463012 100.46310518906466 0 100.46310518906466 -188.93891653826176 0 0 0 0 28.884012218281669 -12.970243572604886 0 -12.970243572604886 -3.6820028159563662 0 0 0 0 1.4665813224299808 0.43510151060540636 0 0.43510151060540636 0.37466108268862897 0 0 0 0 71.623997126290703 -1.0362056397852939 0 -1.0362056397852939 -35.651042975805467 0 0 0 0 130.74167553421557 174.72758845823773 0 174.72758845823773 -528.53637564213568 0 0 0 0 8.3757494844696794 7.2049528555471625 0 7.2049528555471625 -16.366749937100394 0 0 0 0 -0.60367595957942988 -0.53331252625325476 0 -0.53331252625325476 -0.69070282217366952 0 0 0 0 17.785577556038106 -186.01762291658815 0 -186.01762291658815 262.76493770453089 0 0 0 0 -15.083953030477995 138.87148152932059 0 138.87148152932059 -1500.3771680121718 0 0 0 0 -1.4992391853053373 -1.2547804756734422 0 -1.2547804756734422 -1.5551800438782362 0 0 0 0 -176.59639774271378 -101.61483729140309 0 -101.61483729140309 227.8827317890391 0 0 0 0 227.83435005025876 -102.29686653885437 0 -102.29686653885437 -1496.4019642877556 0 0 0 0 179.5738505211707 -45.019452514581644 0 -45.019452514581644 -302.75346451800397 0 0 0 0 -0.052960942837674219 -0.92547327374266786 0 -0.92547327374266786 -2.2768335084192017 0 0 0 0 -93.997268768154555 359.97455696019642 0 359.97455696019642 -1405.788311925262 0 0 0 0 -0.62552391606452429 7.7475461193840403 0 7.7475461193840403 -3.4461238648629333 0 0 0 0 -9.2875038169043016 3.5181166940712743 0 3.5181166940712743 1.7241836008298037 0 0 0 0 5.6872639073720386 -131.30902945542402 0 -131.30902945542402 -1498.800437873826 0 0 0 0 -4.8034591520416461 -3.7397009631406846 0 -3.7397009631406846 -7.4688880932384585 0 0 0 0 -14.23548006401481 125.32563530743937 0 125.32563530743937 -1397.7777601100606 0 0 0 0 40.195432662147141 -42.704664340672025 0 -42.704664340672025 5.1498381914129823 0 0 0 0 42.423052936459953 2.2088507431435573 0 2.2088507431435573 -78.557645104767289 0 0 0 0 -82.097874907881305 -86.230409817571854 0 -86.230409817571854 -93.781332777976786 0 0 0 0 -14.080433883155592 -1.3144219709902245 0 -1.3144219709902245 -9.936491297383327 0 0 0 0 6.1743224707489262 1.4739224665136561 0 1.4739224665136561 -5.8034148105341075 0 0 0 0 2.7898100669028301 0.16429350894240713 0 0.16429350894240713 -34.755000166603253 0 0 0 0 13.348713711117199 6.3887125442606703 0 6.3887125442606703 -63.412930456695904 0 0 0 0 20.960740234298157 -16.442824770369043 0 -16.442824770369043 -44.992558761383407 0 0 0 0 3.0453360096252187 -14.384083275177581 0 -14.384083275177581 -12.685845283556013 0 0 0 0 -18.286045948704555 -24.202674818074229 0 -24.202674818074229 -7.4216856202256167 0 0 0 0 -37.69372814971814 -51.977754377655401 0 -51.977754377655401 -46.536365366217069 0 0 0 0 -39.793721400909817 21.172604764367861 0 21.172604764367861 -26.243497377265157 0 0 0 0 0.76109682709260429 -1.6134630063055138 0 -1.6134630063055138 -3.2206788999096148 0 0 0 0 -19.593638485677843 47.725759143377218 0 47.725759143377218 -75.112414102870389 0 0 0 0 8.8782625628119831 -68.817108139555785 0 -68.817108139555785 -141.6462964522434 0 0 0 0 13.776544898039901 -35.848695798846165 0 -35.848695798846165 -108.29875196554349 0 0 0 0 16.376124353478815 -11.130992259390382 0 -11.130992259390382 -47.77237901945773 0 0 0 0 -27.656011770883037 184.24203320188462 0 184.24203320188462 -1499.0133551463769 0 0 0 0 23.560216703692049 5.5018639302652446 0 5.5018639302652446 -65.905487304695271 0 0 0 0 14.672001594108906 5.7652383286022086 0 5.7652383286022086 -33.704701245849719 0 0 0 0 11.224382804431229 -0.39334482387494063 0 -0.39334482387494063 -31.916174309440976 0 0 0 0 1.3768592665558748 -5.0068649876820768 0 -5.0068649876820768 -18.496885895000958 0 0 0 0 1.4709709879303432 -4.4057276867533801 0 -4.4057276867533801 -28.191121495514381 0 0 0 0 2.9290457320682606 -7.3109628307147432 0 -7.3109628307147432 -9.7022456380509539 0 0 0 0 0.52598673914976024 -0.25286071517722064 0 -0.25286071517722064 -5.3209341997981525 0 0 0 0 5.1819162940621482 3.0655238826548157 0 3.0655238826548157 -20.259669148766989 0 0 0 0 6.8616804447667619 -8.2812025092898693 0 -8.2812025092898693 -37.967640663304337 0 0 0 0 1.4661010138629536 7.9417612880351953 0 7.9417612880351953 31.092271225206787 0 0 0 0 -12.248286635558912 41.91829475706254 0 41.91829475706254 -117.13883906215051 0 0 0 0 -0.52281315956416186 -1.5742743987576304 0 -1.5742743987576304 0.35203458634988749 0 0 0 0 1.6805985351682071 -3.9671094544911085 0 -3.9671094544911085 -12.246390551778454 0 0 0 0 2.1961028357326029 -9.6058425623214134 0 -9.6058425623214134 -10.834480226549204 0 0 0 0 -1.4211075008745926 -6.3047672164728912 0 -6.3047672164728912 2.6137023194798701 0 0 0 0 26.798217814853814 2.7201025909926102 0 2.7201025909926102 32.97842573854723 0 0 0 0 12.935326180863171 -12.897100024700194 0 -12.897100024700194 -34.681210755559732 0 0 0 0 -42.144950172243114 -44.545212319353595 0 -44.545212319353595 6.6106327605812112 0 0 0 0 14.683779113050605 -13.957055717692128 0 -13.957055717692128 -49.123194668602082 0 0 0 0 2.1402927285110418 -14.33949244626065 0 -14.33949244626065 -10.220017566086611 0 0 0 0 -1.3059664030545832 -70.17949329599287 0 -70.17949329599287 -157.32676876860205 0 0 0 0 3.873293775043237 40.701335527479387 0 40.701335527479387 -106.32406345353229 0 0 0 0 21.778178232515188 1.219127861164452 0 1.219127861164452 -42.755316542599758 0 0 0 0 -85.509041455630609 -85.193459358801192 0 -85.193459358801192 21.636316548953801 0 0 0 0 -61.255192272838201 -28.238707073980549 0 -28.238707073980549 -65.936232555570314 0 0 0 0 16.972554464733776 1.0393241736273922 0 1.0393241736273922 -143.4787347780657 0 0 0 0 -27.114557666839744 16.867720625323273 0 16.867720625323273 -18.158035195352568 0 0 0 0 -0.84396141671541014 5.3812999872930192 0 5.3812999872930192 -0.34728973736710955 0 0 0 0 10.701371520609825 16.393547861272964 0 16.393547861272964 -33.339874481738661 0 0 0 0 -52.216367356632418 226.39844414744584 0 226.39844414744584 -1507.2696539859062 0 0 0 0 -0.083193049651037604 16.068916079077098 0 16.068916079077098 -638.30668336850067 0 0 0 0 -39.203635573026453 8.8594172242455898 0 8.8594172242455898 -63.594852546091715 0 0 0 0 52.810408318307523 471.73587710757238 0 471.73587710757238 -1630.4496900159647 0 0 0 0 -8.0195090426544482 -25.012793145528121 0 -25.012793145528121 -76.492661106402011 0 0 0 0 -0.3118212301951766 1.6544120631979666 0 1.6544120631979666 -0.99813915682970134 0 0 0 0 9.1483773820362302 -22.444256013392078 0 -22.444256013392078 -105.88880645282916 0 0 0 0 -20.227367538594322 -13.825192481912381 0 -13.825192481912381 -85.799137637699459 0 0 0 0 4.6812380338350295 -5.5858829803692061 0 -5.5858829803692061 -105.91088770070735 0 0 0 0 -2.7945050286907716 -2.4182624733184639 0 -2.4182624733184639 -96.858150422434846 0 0 0 0 -21.120682019421892 22.842712596884667 0 22.842712596884667 -53.696066456614062 0 0 0 0 19.608682754682263 5.1486145091403159 0 5.1486145091403159 -65.682796027540462 0 0 0 0 -32.62993180322114 7.2743792248802492 0 7.2743792248802492 -19.096168238078462 0 0 0 0 -11.367084058425718 30.958200396216853 0 30.958200396216853 -59.302315748645924 0 0 0 0 -1.9840378405106094 20.941228601972398 0 20.941228601972398 -94.415228172124444 0 0 0 0 -15.683512193566429 8.5464431790169328 0 8.5464431790169328 -64.09614334483922 0 0 0 0 -23.661965857503077 23.623196604927216 0 23.623196604927216 -25.971804340013477 0 0 0 0 2.5498040510260012 -6.0499029260899988 0 -6.0499029260899988 -13.883261746523203 0 0 0 0 -0.53034206704703024 -2.3960914325798512 0 -2.3960914325798512 -6.0064497057537665 0 0 0 0 -0.56481563825212922 -2.4370377059631636 0 -2.4370377059631636 -3.1522481687385806 0 0 0 0 -0.58406579450758667 -4.1199666614556207 0 -4.1199666614556207 -6.0110969104357252 0 0 0 0 0.63517976047181213 0.8372505526073013 0 0.8372505526073013 -6.9827875412862923 0 0 0 0 1.4039177365741351 -2.3979379589916476 0 -2.3979379589916476 -11.270319136823375 0 0 0 0 -0.60707739918443338 0.027050740543927532 0 0.027050740543927532 -19.342970728182991 0 0 0 0 0.0025813793158628849 -6.2045625065366039 0 -6.2045625065366039 -21.022622500138823 0 0 0 0 0.098689195740790145 0.0051899176583845019 0 0.0051899176583845019 -1.5707163882754998 0 0 0 0 -0.060310635614879329 -0.46399406497404527 0 -0.46399406497404527 -1.4874946089130177 0 0 0 0 0.74900236043633939 -2.5028442856200854 0 -2.5028442856200854 -30.054706375562091 0 0 0 0 -0.0013946764889014832 -1.367411571771985 0 -1.367411571771985 -4.4974570041522384 0 0 0 0 0.31309120660403877 -3.3529770310415188 0 -3.3529770310415188 -17.625527874079125 0 0 0 0 0.37719001805847263 -2.8793636899936246 0 -2.8793636899936246 -12.825343010641518 0 0 0 0 0.17310914653033205 -5.3723213900957489 0 -5.3723213900957489 -19.28711073177692 0 0 0 0 0.86777293962885904 -4.2677520786362209 0 -4.2677520786362209 -14.777954476121593 0 0 0 0 -0.0099396277840760796 0.25973099631875129 0 0.25973099631875129 -7.71308950914863 0 0 0 0 0.0041156914200263179 1.2927959355874918 0 1.2927959355874918 -15.667208430924802 0 0 0 0 0.091097148376963269 -1.7751670683532765 0 -1.7751670683532765 -5.122961905444086 0 0 0 0 0.0032024739386093165 -0.23853705464716768 0 -0.23853705464716768 -11.847424033709558 0 0 0 0 -0.059201829162825646 1.8862709966597819 0 1.8862709966597819 -2.5813590282040195 0 0 0 0 3.3098144427749574 10.504036445088786 0 10.504036445088786 4.0266970927041257 0 0 0 0 0.36256916821033103 4.8849645191801017 0 4.8849645191801017 -14.25130020679866 0 0 0 0 1.0870804750278502 1.9892585710767889 0 1.9892585710767889 -21.168280525895398 0 0 0 0 -2.8827628489771726 26.752579425640761 0 26.752579425640761 -16.29259775387618 0 0 0 0 0.16133912934653533 0.42743482628481111 0 0.42743482628481111 -24.129180900074402 0 0 0 0 0.33875728538930616 -0.99493827170590521 0 -0.99493827170590521 -24.41950735240971 0 0 0 0 0.80706312032640426 -2.4666017068411747 0 -2.4666017068411747 -26.252022582237259 0 0 0 0 -0.35594262291729506 -0.026313743480571361 0 -0.026313743480571361 -9.2302282210086162 0 0 0 0 0.36702641469497621 -2.2575953518889946 0 -2.2575953518889946 -24.551126312100678 0 0 0 0 -0.05246446773653235 -1.5894160385045843 0 -1.5894160385045843 -18.190377243940191 0 0 0 0 0.11059449564489143 -0.68879841372911699 0 -0.68879841372911699 -4.2515059022528696 0 0 0 0 -1.1389309525918918 -2.3993151488502917 0 -2.3993151488502917 -22.380124420727952 0 0 0 0 -0.33953810646403326 2.1572733091052214 0 2.1572733091052214 -18.378099160083366 0 0 0 0 4.1954069954542774 -1.0846404073308804 0 -1.0846404073308804 -32.985358682963124 0 0 0 0 8.0388823171125523 6.5913698402691807 0 6.5913698402691807 -33.618949812519077 0 0 0 0 5.8042744187395101 6.4503341253584949 0 6.4503341253584949 -24.496564212444355 0 0 0 0 -2.651038093711179 -3.8678235653460433 0 -3.8678235653460433 -21.015316830431402 0 0 0 0 2.0915420978293469 -1.3696844966416393 0 -1.3696844966416393 -36.696605653080724 0 0 0 0 -0.14015974234219186 3.4274588386324467 0 3.4274588386324467 -44.833253894033987 0 0 0 0 0.83408237084253756 38.380152304700459 0 38.380152304700459 -38.66289984787727 0 0 0 0 22.792421563952896 6.6116349600710009 0 6.6116349600710009 -44.471328568259196 0 0 0 0 0.5650723981101532 15.528136360552239 0 15.528136360552239 -29.955785293868416 0 0 0 0 21.679222281797252 -7.230430540839734 0 -7.230430540839734 -75.779842847157852 0 0 0 0 6.3846769605163445 -29.298749980327557 0 -29.298749980327557 -37.886557187766812 0 0 0 0 -1.1466614572788225 17.469499970902156 0 17.469499970902156 -28.597424927897052 0 0 0 0 31.971636000653945 72.250949253480485 0 72.250949253480485 -54.765157176432695 0 0 0 0 -25.118474225079467 7.0774304177966769 0 7.0774304177966769 -40.187748685053521 0 0 0 0 7.5276777491206417 -2.7453100918901328 0 -2.7453100918901328 -68.978805852236746 0 0 0 0 2.0242311057541258 24.742267263249232 0 24.742267263249232 -34.967675445954228 0 0 0 0 19.894385191593557 14.902807043177745 0 14.902807043177745 -85.405998904272565 0 0 0 0 11.87120913403291 8.719400090893032 0 8.719400090893032 -56.550269454310182 0 0 0 0 -9.7770166669037764 44.389953480302211 0 44.389953480302211 -106.0496983079629 0 0 0 0 12.263699718636275 32.731452241168881 0 32.731452241168881 -58.88439007917259 0 0 0 0 15.204411166120053 9.5594416165768052 0 9.5594416165768052 -67.077425079914974 0 0 0 0 0.011979123606174518 5.822092627391612 0 5.822092627391612 -116.0778636063842 0 0 0 0 -32.160903328886093 10.646117781485373 0 10.646117781485373 -56.726486628482235 0 0 0 0 -0.023696085090452196 27.945955337385897 0 27.945955337385897 -26.80969964923861 0 0 0 0 -1.2745606438912631 11.336223956037429 0 11.336223956037429 -58.002603505163279 0 0 0 0 31.762365596167768 9.5930521811242215 0 9.5930521811242215 -21.615864451359812 0 0 0 0 1.0666242012532408 7.5979299976536669 0 7.5979299976536669 -2.8376354094153271 0 0 0 0 -8.7446179519360818 40.381241078443509 0 40.381241078443509 -44.94045390397514 0 0 0 0 -63.05453544063198 -27.918067807732768 0 -27.918067807732768 -32.378556403415132 0 0 0 0 140.12964042913995 135.08842361362349 0 135.08842361362349 -189.25430117680662 0 0 0 0 2.9631317602932121 3.9088761790243707 0 3.9088761790243707 -49.915781349171006 0 0 0 0 26.01268774522805 0.84089887235040806 0 0.84089887235040806 -52.515875324599619 0 0 0 0 142.07234699330638 38.260840950267266 0 38.260840950267266 -61.39239523398669 0 0 0 0 0.78315551214576096 3.1946057699980961 0 3.1946057699980961 -38.794512814453029 0 0 0 0 15.615604533092664 -0.8236622453914606 0 -0.8236622453914606 -38.958062202249494 0 0 0 0 -116.55201079691506 -107.00349572900697 0 -107.00349572900697 -22.458078483403369 0 0 0 0 247.52266461775548 -152.67200445552285 0 -152.67200445552285 -44.736002037262665 0 0 0 0 188.84988120035746 116.80004670535249 0 116.80004670535249 3.2851922244535672 0 0 0 0 1.5918049058229906 3.4859827207858212 0 3.4859827207858212 -7.0914945503039313 0 0 0 0 532.57365555398428 -167.00087149089859 0 -167.00087149089859 -40.071349832197029 0 0 0 0 293.45015737533231 55.398544405632265 0 55.398544405632265 -58.523330273349984 0 0 0 0 91.615525315251944 20.15340685230899 0 20.15340685230899 8.0782444123146888 0 0 0 0 24.077153931576504 -58.675322302472978 0 -58.675322302472978 -77.34020628304097 0 0 0 0 3.7045277039398998 3.9202472865076294 0 3.9202472865076294 -50.296623405628829 0 0 0 0 165.0685640392112 -27.982242527298695 0 -27.982242527298695 -71.112607400385514 0 0 0 0 321.4848610807494 -41.906062283352185 0 -41.906062283352185 -161.37625419624146 0 0 0 0 286.465407532889 -50.836961831612371 0 -50.836961831612371 -19.199160855680248 0 0 0 0 3.5741551659402568 -9.4405995236606728 0 -9.4405995236606728 -2.534633163486939 0 0 0 0 373.74116579607471 -11.390249613278684 0 -11.390249613278684 -121.39395118592256 0 0 0 0 169.84682946504836 -21.786438723760511 0 -21.786438723760511 -87.945801958495395 0 0 0 0 231.83103776152529 -34.961119417898317 0 -34.961119417898317 -107.99600313773817 0 0 0 0 172.83703371226784 70.898858360684358 0 70.898858360684358 -139.54851182658786 0 0 0 0 165.15972614428756 -14.300796493553207 0 -14.300796493553207 -88.442962396658402 0 0 0 0 4.0776756405325321 -2.0988083113155724 0 -2.0988083113155724 -50.703498307316003 0 0 0 0 160.26848071265522 -19.902311931600252 0 -19.902311931600252 -79.011038859663586 0 0 0 0 10.545074784686328 1.6507486562218219 0 1.6507486562218219 -51.49630714453815 0 0 0 0 9.2901338917197194 9.4622625023657747 0 9.4622625023657747 -55.074801190130529 0 0 0 0 43.460930189883129 -27.558501183567387 0 -27.558501183567387 32.494434524720418 0 0 0 0 4.1493897243088895 4.0096700664544187 0 4.0096700664544187 -48.467201542545808 0 0 0 0 13.356779481570811 -155.66121637195829 0 -155.66121637195829 -15.008938821176343 0 0 0 0 7.8637178116528377 -6.1177420772572297 0 -6.1177420772572297 -38.427183773780357 0 0 0 0 1.6807318311675772 3.0411336986690003 0 3.0411336986690003 -45.682168976267349 0 0 0 0 -0.94403897893066091 -1.2363971789670707 0 -1.2363971789670707 -1.4459644585785441 0 0 0 0 -11.822715085487289 81.451248030596616 0 81.451248030596616 -179.21807530961632 0 0 0 0 50.500460904735519 -24.571564366817256 0 -24.571564366817256 6.3067293425119715 0 0 0 0 -33.3683034320552 -32.497511988572114 0 -32.497511988572114 -16.036730178300786 0 0 0 0 -12.891299858525599 -61.654494720947696 0 -61.654494720947696 -109.68682194102075 0 0 0 0 34.239779445892054 12.995580484403035 0 12.995580484403035 -65.07842604403686 0 0 0 0 68.625469194616471 -105.33496989763262 0 -105.33496989763262 -87.413168275405042 0 0 0 0 101.76097830047547 0.91782366466759413 0 0.91782366466759413 -223.2339779236072 0 0 0 0 146.97776397066696 -70.305389229177081 0 -70.305389229177081 -31.308024634072353 0 0 0 0 141.09885819798899 -16.342281645019625 0 -16.342281645019625 -92.039641830691835 0 0 0 0 -76.389930452119188 -66.211793873510942 0 -66.211793873510942 -48.770335183995485 0 0 0 0 32.895296477971556 -26.309579981628985 0 -26.309579981628985 -68.380798370060802 0 0 0 0 31.461158202268052 -24.33213765416258 0 -24.33213765416258 -30.940511934990354 0 0 0 0 131.51336986429533 0.6231083392731307 0 0.6231083392731307 -93.443899000612873 0 0 0 0 -10.401385289578911 -18.760931190744031 0 -18.760931190744031 -14.47477394534053 0 0 0 0 -1.8562305252518754 9.3455267120434193 0 9.3455267120434193 -33.449790792584423 0 0 0 0 145.02737753425254 30.817276482057423 0 30.817276482057423 -39.606678097806594 0 0 0 0 41.720692313813061 17.848893009805124 0 17.848893009805124 -6.1064750984105558 0 0 0 0 1.5509044525950677 9.6307289018672986 0 9.6307289018672986 -17.001806526117477 0 0 0 0 6.4003979161127518 19.481588767806898 0 19.481588767806898 -34.845496130557876 0 0 0 0 -1.2139600560554031 7.7180852116062937 0 7.7180852116062937 -41.882198467362102 0 0 0 0 0.048535269321508423 4.6423843509154246 0 4.6423843509154246 -4.7864360015668268 0 0 0 0 -1.4486244295806046 2.101431794841119 0 2.101431794841119 -36.472492742272152 0 0 0 0 -6.4043860411488822 53.29097438503959 0 53.29097438503959 -10.744333775129235 0 0 0 0 18.072809675463759 4.8400009295655764 0 4.8400009295655764 -46.161828942589636 0 0 0 0 61.967354368649694 -61.294604757256764 0 -61.294604757256764 -102.11980486681387 0 0 0 0 7.3509251990128632 -17.582712993754967 0 -17.582712993754967 -9.0693737230021725 0 0 0 0 23.846538499454027 11.786612718002289 0 11.786612718002289 -46.46819663441056 0 0 0 0 0.92341097157955487 5.7376714790439474 0 5.7376714790439474 -34.974442983531929 0 0 0 0 35.337752055339024 81.961856788697219 0 81.961856788697219 -28.372332070927314 0 0 0 0 5.4845773343467954 16.629183906627077 0 16.629183906627077 -27.670829316159143 0 0 0 0 9.8162933304251982 -9.0541070321738282 0 -9.0541070321738282 -1.8272859713682905 0 0 0 0 7.7191121094751907 -3.5788042880963076 0 -3.5788042880963076 -17.249316896046366 0 0 0 0 6.4813007338991611 -3.2206865057314644 0 -3.2206865057314644 -16.539540895416394 0 0 0 0 18.076072906946592 2.7706750906036177 0 2.7706750906036177 -14.815062364115875 0 0 0 0 4.6775550281904916 -0.26607424979734695 0 -0.26607424979734695 -15.718021119591704 0 0 0 0 7.1361653002806946 -0.59044808764225465 0 -0.59044808764225465 -24.953547023901521 0 0 0 0 -4.7872938750588219 -5.2599062880021279 0 -5.2599062880021279 -14.350594372301202 0 0 0 0 0.20008603484797582 8.1043119421938279 0 8.1043119421938279 -21.621792513716116 0 0 0 0 7.1512592314566064 -1.0455043707170262 0 -1.0455043707170262 -11.166604427198536 0 0 0 0 13.567188454893767 -9.38423904932597 0 -9.38423904932597 -13.549855262858614 0 0 0 0 13.706400226317839 -4.2412129200238269 0 -4.2412129200238269 -6.7060891891946994 0 0 0 0 10.812465639743323 -8.7594064726299621 0 -8.7594064726299621 3.1271419984468594 0 0 0 0 21.37904998957373 -23.803222384279707 0 -23.803222384279707 3.7607329761501376 0 0 0 0 10.71915181615063 -0.87858109828970044 0 -0.87858109828970044 -13.939042191718656 0 0 0 0 16.822110254985773 -9.7140399290818777 0 -9.7140399290818777 -3.6554767999359683 0 0 0 0 11.744054568465799 48.957311082568367 0 48.957311082568367 -71.597575846901918 0 0 0 0 -46.627246551482813 67.50511503415396 0 67.50511503415396 -71.862310668880355 0 0 0 0 8.6700579414328267 -2.8421281021360647 0 -2.8421281021360647 -17.936587030047491 0 0 0 0 24.759912779739466 -28.969117034717101 0 -28.969117034717101 3.5621585963390316 0 0 0 0 19.942151999739053 16.46395190801536 0 16.46395190801536 -113.39368550202937 0 0 0 0 -67.945457896938478 72.502852668887044 0 72.502852668887044 -53.753092396665352 0 0 0 0 -26.461790633405144 -0.3992678012767783 0 -0.3992678012767783 -37.096078965063953 0 0 0 0 18.414081111794872 5.5255822208929715 0 5.5255822208929715 25.154896866918989 0 0 0 0 90.791561247043319 -43.970153625955845 0 -43.970153625955845 -44.374903586346136 0 0 0 0 -180.07199915270439 -254.03440522143751 0 -254.03440522143751 -332.05727029732066 0 0 0 0 1.8085279036608597 -0.97761112654708171 0 -0.97761112654708171 -0.25764188985617187 0 0 0 0 -16.374127970788322 -125.56764145149219 0 -125.56764145149219 -140.6891087506412 0 0 0 0 -5.0207622473881202 66.325822277560746 0 66.325822277560746 -237.94894587433384 0 0 0 0 -483.76367860512437 -172.04956924783073 0 -172.04956924783073 -140.96206330489849 0 0 0 0 95.915848393529814 -41.901032002700845 0 -41.901032002700845 -204.3295047208303 0 0 0 0 117.19659625819986 31.361134950817814 0 31.361134950817814 -15.666127546039661 0 0 0 0 8.3175893550524052 -198.27047862417731 0 -198.27047862417731 62.891309608983363 0 0 0 0 11.318000371551872 -10.215004215292502 0 -10.215004215292502 5.1394039846252069 0 0 0 0 -78.50563741548558 -228.05307427201438 0 -228.05307427201438 -56.81083881506413 0 0 0 0 -104.75961373949576 37.430009013402696 0 37.430009013402696 -37.236712803651699 0 0 0 0 -70.810496122009909 82.352210653455245 0 82.352210653455245 -72.614601811821103 0 0 0 0 -149.03458669964402 137.69382750409136 0 137.69382750409136 -101.70992852272411 0 0 0 0 -194.49446861272281 77.66830443837739 0 77.66830443837739 -18.87980403025756 0 0 0 0 -14.69076586582014 -10.872410938531402 0 -10.872410938531402 -355.53478902841903 0 0 0 0 3.9511709413699627 0.84825512652963653 0 0.84825512652963653 -5.1192238789008773 0 0 0 0 -318.67266293374541 -40.181789637818156 0 -40.181789637818156 -66.345440104189947 0 0 0 0 -70.100061129140613 197.84758906645197 0 197.84758906645197 -444.68848262753545 0 0 0 0 -106.98142418839234 76.970874690263145 0 76.970874690263145 -81.638916416775828 0 0 0 0 -197.58792837946726 21.239355254024247 0 21.239355254024247 -108.82677131575201 0 0 0 0 -176.41742666695427 -208.52221595747369 0 -208.52221595747369 -403.34664241898781 0 0 0 0 43.860244023047926 114.81133760170951 0 114.81133760170951 -104.07889027960391 0 0 0 0 -3.5043615930735541 -9.0418911147862673 0 -9.0418911147862673 -278.40524723531053 0 0 0 0 148.96515946541058 25.621044350361672 0 25.621044350361672 -193.92248031742201 0 0 0 0 1.5436408579398631 106.49193717852586 0 106.49193717852586 -64.680203525858815 0 0 0 0 -24.021249009188978 165.15304241191097 0 165.15304241191097 -170.20265886415086 0 0 0 0 -0.32760268770755374 2.9729110913867109 0 2.9729110913867109 -8.0744413690841927 0 0 0 0 31.554435275622836 -9.7938480962374115 0 -9.7938480962374115 -103.50394559686274 0 0 0 0 -41.64374867734773 177.30302302446535 0 177.30302302446535 79.414369840762902 0 0 0 0 4.515428522970069 235.73253025879558 0 235.73253025879558 -118.68128411702071 0 0 0 0 50.820637557108057 -104.51427496523502 0 -104.51427496523502 -61.364718044569884 0 0 0 0 -99.179573089998939 -38.780385845548835 0 -38.780385845548835 163.42683732559954 0 0 0 0 9.8915809625730162 -54.66743512199659 0 -54.66743512199659 -133.50020511510843 0 0 0 0 67.079166918364535 -6.9569987579188819 0 -6.9569987579188819 -68.455234486028303 0 0 0 0 -28.585913525436808 -8.3415591984521029 0 -8.3415591984521029 -64.534466990071678 0 0 0 0 20.845257194294163 19.959582462684978 0 19.959582462684978 -52.650508906609048 0 0 0 0 43.90850989685714 0.84451950291986577 0 0.84451950291986577 -57.229486143651229 0 0 0 0 37.642964880508771 -1.1853170745212083 0 -1.1853170745212083 -50.824636593791638 0 0 0 0 34.525422961598451 18.586527093310224 0 18.586527093310224 -88.788613739514517 0 0 0 0 16.046265416452002 -30.066465626765137 0 -30.066465626765137 -9.3066054177247679 0 0 0 0 12.285105225856114 -45.04420941734611 0 -45.04420941734611 -61.896864387876576 0 0 0 0 0.34851109888131759 -0.75921001087499462 0 -0.75921001087499462 -100.0414274738323 0 0 0 0 -1.4113742113789041 2.5452251794375593 0 2.5452251794375593 -0.82753319043933593 0 0 0 0 -0.078291695429134833 1.4380334504324779 0 1.4380334504324779 -1.3485604849339619 0 0 0 0 40.584924890777074 -29.883740489988895 0 -29.883740489988895 -21.377023164895263 0 0 0 0 6.1713954104661752 21.479201689966771 0 21.479201689966771 -88.032206004367822 0 0 0 0 -8.9976672855962647 -43.697869195200482 0 -43.697869195200482 -152.21534656265476 0 0 0 0 -4.7198325045201273 -9.0150544199780143 0 -9.0150544199780143 -66.204439782259669 0 0 0 0 -20.214666740465987 -2.7529006933446283 0 -2.7529006933446283 -67.906494582222876 0 0 0 0 5.887829028843953 22.234071829492677 0 22.234071829492677 -45.522164351676111 0 0 0 0 -16.424755259369931 -7.0267365591851103 0 -7.0267365591851103 -35.916010354328591 0 0 0 0 20.627341660451748 21.362454328606759 0 21.362454328606759 -38.947151785324422 0 0 0 0 63.36790763231329 -17.436304856608785 0 -17.436304856608785 -18.864771906525675 0 0 0 0 1.7904382480616521 1.5237259493120106 0 1.5237259493120106 -6.5043317450494147 0 0 0 0 3.7722279870458806 9.9818887247938619 0 9.9818887247938619 -23.890533457431047 0 0 0 0 1.0960073101732632 -22.123938802869588 0 -22.123938802869588 -71.895157529674634 0 0 0 0 10.799325620423588 14.763363978429879 0 14.763363978429879 -47.697124019226749 0 0 0 0 13.730608089507314 8.0891018885299673 0 8.0891018885299673 -33.107405468314937 0 0 0 0 53.032315018344889 20.642675024284017 0 20.642675024284017 -47.243817765440554 0 0 0 0 3.3369377375151998 16.821757296915166 0 16.821757296915166 -21.557936360001349 0 0 0 0 24.555678218681351 22.01603604730758 0 22.01603604730758 -39.044118506894392 0 0 0 0 34.215357508563557 7.6263302917693636 0 7.6263302917693636 -23.13019828228289 0 0 0 0 0.96281969208888718 0.76929035369744447 0 0.76929035369744447 -20.554373491919677 0 0 0 0 35.866129948266916 5.7111183612512377 0 5.7111183612512377 -33.536677901506437 0 0 0 0 9.3084562833080327 7.6038196269759055 0 7.6038196269759055 -22.967522753578123 0 0 0 0 6.0794849894951071 0.87659526974542423 0 0.87659526974542423 -15.867561122363407 0 0 0 0 8.3819855573401583 5.5431338327445019 0 5.5431338327445019 -27.510871510859033 0 0 0 0 5.77564927872272 0.83356737529404512 0 0.83356737529404512 -9.5145649440319602 0 0 0 0 2.8595508101134328 4.9888498781183443 0 4.9888498781183443 -15.531581861250743 0 0 0 0 5.8125253625421465 7.3484336471119605 0 7.3484336471119605 -23.624298169277608 0 0 0 0 5.4201414110437156 3.1611999483880027 0 3.1611999483880027 -24.597805357467223 0 0 0 0 4.690339794983343 1.6406601307816908 0 1.6406601307816908 -18.405511412867792 0 0 0 0 2.3926140232056241 8.5548814922931342 0 8.5548814922931342 -28.373633843121752 0 0 0 0 2.1461703294412429 -3.0765153201322435 0 -3.0765153201322435 -0.91021094699391369 0 0 0 0 -89.135288106384067 94.07051986297779 0 94.07051986297779 0.037494158525078092 0 0 0 0 3.9393201542218321 6.3007965108249664 0 6.3007965108249664 -29.504017626260975 0 0 0 0 6.0650130655549219 3.8680663699110482 0 3.8680663699110482 -27.112817190143687 0 0 0 0 1.8868578586157845 0.98847092730527231 0 0.98847092730527231 -29.354311362816699 0 0 0 0 4.3780681610601277 -0.60802252179064453 0 -0.60802252179064453 -25.939405993653736 0 0 0 0 6.3245697840904969 -0.65432633095495873 0 -0.65432633095495873 -23.511078118666674 0 0 0 0 2.4006816097607242 38.247672131022 0 38.247672131022 -52.223702264249368 0 0 0 0 12.984049830898186 -16.384430949194211 0 -16.384430949194211 -75.163230022684729 0 0 0 0 23.169479810138 -8.3323786848591226 0 -8.3323786848591226 -53.770730217779601 0 0 0 0 2.7510091575799387 11.510264713231656 0 11.510264713231656 -47.67892118787519 0 0 0 0 -0.63172844713808729 3.4917663251973905 0 3.4917663251973905 -14.915040261611116 0 0 0 0 41.077591645525899 -6.3948877514053493 0 -6.3948877514053493 -59.700857864595491 0 0 0 0 -1.684466036973979 1.8211205881553063 0 1.8211205881553063 -7.4182194243187398 0 0 0 0 -34.577698590902628 -0.27591047662644996 0 -0.27591047662644996 -87.53944772797513 0 0 0 0 -5.0773593811998126 16.88474914256949 0 16.88474914256949 -58.627343823657611 0 0 0 0 71.384786728170639 43.269552604962882 0 43.269552604962882 -107.38345498070703 0 0 0 0 -1.8025302534428533 14.607034798602399 0 14.607034798602399 -54.729408431492629 0 0 0 0 -10.800302274933813 15.960591541085478 0 15.960591541085478 -52.965497403938571 0 0 0 0 -7.9319938630746947 11.005844760315085 0 11.005844760315085 -46.51148215590365 0 0 0 0 4.3605712653371427 20.909650337251151 0 20.909650337251151 -47.081679118398824 0 0 0 0 -3.4359028072867233 12.907488852138158 0 12.907488852138158 -53.657334409112082 0 0 0 0 -0.58464956201100904 11.989960644252278 0 11.989960644252278 -50.17930874981721 0 0 0 0 -0.55381415470924367 13.040844764082067 0 13.040844764082067 -57.247665839006004 0 0 0 0 -19.540783603284581 1.4699201642752655 0 1.4699201642752655 -64.189282094106943 0 0 0 0 -4.2403114386940324 13.4010560072803 0 13.4010560072803 -40.076333209493264 0 0 0 0 3.5232673375964048 3.2627927427120795 0 3.2627927427120795 -9.3915903950976514 0 0 0 0 4.2277195685901461 -0.88322152468754211 0 -0.88322152468754211 -6.0591991449800844 0 0 0 0 -0.56894262309253563 -1.007349228081388 0 -1.007349228081388 -1.3663927544087962 0 0 0 0 -13.285656080941067 -14.727139607639856 0 -14.727139607639856 -26.168221233703662 0 0 0 0 -0.88496069766188157 13.526228210057525 0 13.526228210057525 -20.044685219894745 0 0 0 0 58.539371191014652 -70.438380227176822 0 -70.438380227176822 56.207687299545796 0 0 0 0 0.26623005305360614 -0.26173754417805384 0 -0.26173754417805384 -1.0844237623480808 0 0 0 0 11.138415717856338 -7.7735238998087635 0 -7.7735238998087635 -26.209491376164493 0 0 0 0 56.969151112696636 -61.397554501319973 0 -61.397554501319973 57.192163340114348 0 0 0 0 -1.9242715072280632 -2.507926488260221 0 -2.507926488260221 -3.1659096007178249 0 0 0 0 57.806387433875443 -63.778192509820656 0 -63.778192509820656 19.89745042809227 0 0 0 0 -8.091599203400051 15.939855842890211 0 15.939855842890211 -53.196435073219618 0 0 0 0 5.1445941323436273 45.391904860414797 0 45.391904860414797 -82.952381364150824 0 0 0 0 -13.093950237025865 25.774773807654128 0 25.774773807654128 -63.1292220675914 0 0 0 0 -0.85968089905990563 2.911501376705786 0 2.911501376705786 -4.9611694122764707 0 0 0 0 0.34576317677665358 -6.7884661796290064 0 -6.7884661796290064 -3.5627549749608676 0 0 0 0 59.822380176336083 -34.079008836204594 0 -34.079008836204594 26.965607236145388 0 0 0 0 15.86351417939105 -4.8367317236520293 0 -4.8367317236520293 -23.94706386094164 0 0 0 0 -0.76429118872692925 -3.4804097715705211 0 -3.4804097715705211 -3.8793978462199448 0 0 0 0 -1.7967018999534048 -4.7501063378076651 0 -4.7501063378076651 0.36431334986434649 0 0 0 0 -2.7240191462522034 1.7421156639975379 0 1.7421156639975379 -5.020860822245595 0 0 0 0 -3.0501707739085759 0.00054491676200996153 0 0.00054491676200996153 0.25073182666528737 0 0 0 0 12.784149606977735 -22.099299981382501 0 -22.099299981382501 -36.585529728021356 0 0 0 0 51.333161492912041 -44.290366768625972 0 -44.290366768625972 19.912426292416058 0 0 0 0 1.6304961712807033 2.0981788426077692 0 2.0981788426077692 -6.8157996547981838 0 0 0 0 -4.6911814216425682 12.61649414704425 0 12.61649414704425 30.321512033609906 0 0 0 0 7.2803350608878858 0.47576736048799972 0 0.47576736048799972 -22.036069884189843 0 0 0 0 -0.32644743726689285 13.977196714195316 0 13.977196714195316 -30.455698568175649 0 0 0 0 -2.4270125946277403 25.588764223437465 0 25.588764223437465 -67.814314254324017 0 0 0 0 -5.6229248911936338 10.906274943437893 0 10.906274943437893 -20.488981091297319 0 0 0 0 -0.061388735251284743 12.41803414766423 0 12.41803414766423 -53.835158499445242 0 0 0 0 7.1230925339412501 -2.858871767012495 0 -2.858871767012495 -7.8964473686931598 0 0 0 0 7.4381595549180357 9.2786914723838017 0 9.2786914723838017 -33.952214614282383 0 0 0 0 -1.3894212973669653 18.092500854912714 0 18.092500854912714 -69.576041258176701 0 0 0 0 -7.446466585793587 25.074092828486755 0 25.074092828486755 -52.101101017462497 0 0 0 0 2.1544550466238501 10.355302377609004 0 10.355302377609004 -27.776844927794933 0 0 0 0 2.0862810840512793 6.049556715246581 0 6.049556715246581 -26.13315368072108 0 0 0 0 -14.520498182960864 34.764021981123733 0 34.764021981123733 -79.711716016583523 0 0 0 0 1.1612322273872748 -0.35402051301855764 0 -0.35402051301855764 -0.45177599420491177 0 0 0 0 -3.1256835494921233 8.0970541360802599 0 8.0970541360802599 -26.81544895377192 0 0 0 0 -2.2702557976217577 12.72622873905857 0 12.72622873905857 -20.125409931049944 0 0 0 0 2.2673994154716297 3.939664070738587 0 3.939664070738587 -9.9210365554917335 0 0 0 0 4.5276113177180832 1.6058736325358041 0 1.6058736325358041 -14.859393279390133 0 0 0 0 3.4637115215182348 10.929883052032892 0 10.929883052032892 -25.685912580245713 0 0 0 0 5.5156547697033966 0.54044029634744106 0 0.54044029634744106 -16.861412914740711 0 0 0 0 1.1387566609064717 1.8407595074459806 0 1.8407595074459806 -2.7780180156418126 0 0 0 0 5.820060191073253 4.5668754976882155 0 4.5668754976882155 -35.516589036778896 0 0 0 0 5.7446572649623704 4.5155694758468599 0 4.5155694758468599 -28.012371537079161 0 0 0 0 1.4259934373007686 5.0903517985071716 0 5.0903517985071716 -11.002746599046606 0 0 0 0 -0.0070700126462952539 4.5904741557224042 0 4.5904741557224042 -14.232369262623251 0 0 0 0 3.2532771846619397 5.4177711498566836 0 5.4177711498566836 -19.90704470855605 0 0 0 0 -0.99532657062701579 9.4595843208065951 0 9.4595843208065951 -11.857327667045091 0 0 0 0 0.096925837707203755 5.1736539668236219 0 5.1736539668236219 -28.423786267478135 0 0 0 0 -0.50412839373689167 8.0902508082945133 0 8.0902508082945133 -32.665953456379384 0 0 0 0 0.70884921419723179 7.8177098775507829 0 7.8177098775507829 -15.582051650817618 0 0 0 0 -0.69794811740325713 7.1309504276687221 0 7.1309504276687221 -26.967584436873949 0 0 0 0 3.8793431810186121 10.824386300941114 0 10.824386300941114 -24.489605511105765 0 0 0 0 6.1362050819982414 5.821606891693591 0 5.821606891693591 -26.412212648479908 0 0 0 0 5.7210475060276167 6.3845901857266654 0 6.3845901857266654 -22.028922392681125 0 0 0 0 1.4639113361918135 12.140340141253546 0 12.140340141253546 -30.610619687729923 0 0 0 0 1.1955526164356343 11.81130026239407 0 11.81130026239407 -30.930887393507874 0 0 0 0 7.2009462991341948 3.2979929260122276 0 3.2979929260122276 -10.001690755853602 0 0 0 0 8.3559601358688269 -1.0285092346876716 0 -1.0285092346876716 -10.503195569135983 0 0 0 0 1.3802898072220429 -0.53676767755333898 0 -0.53676767755333898 0.055462110211564664 0 0 0 0 4.9450186801893778 10.141239127075096 0 10.141239127075096 -27.152743739417929 0 0 0 0 -2.3273189368164822 16.201016229955712 0 16.201016229955712 -27.363017742274678 0 0 0 0 5.4160783528882348 8.8399691284103028 0 8.8399691284103028 -28.47813691922056 0 0 0 0 1.2997056087533418 11.328113402300431 0 11.328113402300431 -19.96197565490548 0 0 0 0 9.2025046141957318 3.8961289753206074 0 3.8961289753206074 -23.026581732352497 0 0 0 0 0.30238045905719346 0.51845379805213554 0 0.51845379805213554 -4.7079838105376659 0 0 0 0 16.974904660539323 2.703524807751819 0 2.703524807751819 -14.44488500182706 0 0 0 0 -0.49161443468892685 3.0031702232540738 0 3.0031702232540738 -86.790431926823658 0 0 0 0 -1.3968486441635832 7.5325638756294211 0 7.5325638756294211 -36.529568883794127 0 0 0 0 -1.2250571423192014 6.7946187217821716 0 6.7946187217821716 -45.257263321749633 0 0 0 0 4.8957044482600978 6.1781927680583912 0 6.1781927680583912 -27.258490409626091 0 0 0 0 2.6836474822792873 3.054958990725364 0 3.054958990725364 -21.105392023966743 0 0 0 0 8.0956550815508308 -0.91991125865024514 0 -0.91991125865024514 -16.51153849484399 0 0 0 0 4.7882854078558132 1.5101123426030583 0 1.5101123426030583 -17.276396560343173 0 0 0 0 6.9285257604228585 1.5254064067430448 0 1.5254064067430448 -28.619537049313287 0 0 0 0 -0.52535884418307077 1.1437181165464025 0 1.1437181165464025 -4.1148477794073095 0 0 0 0 19.22633727997345 -15.596282767648518 0 -15.596282767648518 -10.016375300641812 0 0 0 0 26.934141759247723 -8.0510541508265305 0 -8.0510541508265305 -82.492476495186565 0 0 0 0 33.943227838342864 -8.431111947476893 0 -8.431111947476893 -49.081029619965193 0 0 0 0 -8.0926083803242364 15.325431878314703 0 15.325431878314703 -35.947336374556471 0 0 0 0 4.0392934537489964 29.001858526498836 0 29.001858526498836 -90.580795099747775 0 0 0 0 -14.803433353334185 9.3645982591006032 0 9.3645982591006032 -13.970690058155924 0 0 0 0 16.048476702687367 5.5437253470299765 0 5.5437253470299765 -16.69267081673388 0 0 0 0 -1.1873190057103784 13.059692783033825 0 13.059692783033825 -13.361606030770417 0 0 0 0 7.7751052330013408 9.7101608684715757 0 9.7101608684715757 -30.218577693714906 0 0 0 0 10.84579927591767 26.401418306802952 0 26.401418306802952 -33.243786950635695 0 0 0 0 23.085175212295326 16.577746965514962 0 16.577746965514962 -16.042121375736315 0 0 0 0 -5.1880794095591227 17.231540848497389 0 17.231540848497389 -13.546507655650203 0 0 0 0 20.027583319713585 6.6836294670365533 0 6.6836294670365533 -10.332148393674288 0 0 0 0 12.067289405827978 18.718344101202092 0 18.718344101202092 -20.777043196067098 0 0 0 0 11.371166827206252 11.429185907494684 0 11.429185907494684 -1.5483901671250351 0 0 0 0 15.789602885678505 -1.8609650979924481 0 -1.8609650979924481 0.15064418398105772 0 0 0 0 38.301164342731226 -3.4455272275190509 0 -3.4455272275190509 -47.934971817288897 0 0 0 0 29.297370786356623 7.400433464863454 0 7.400433464863454 -31.30226817303901 0 0 0 0 35.036980848215535 -3.6462565800575248 0 -3.6462565800575248 -29.664189089897263 0 0 0 0 34.684771500550596 19.611948452824436 0 19.611948452824436 -13.841371481350507 0 0 0 0 19.958607340373874 13.119870656159037 0 13.119870656159037 -1.6320461474460899 0 0 0 0 34.908457862643218 23.106389427847716 0 23.106389427847716 -56.659562901229947 0 0 0 0 119.3311740672043 29.447413607580529 0 29.447413607580529 -104.89866540421281 0 0 0 0 30.8813332530558 50.082108797385445 0 50.082108797385445 -4.990876724795271 0 0 0 0 5.0142789734745747 30.691166196465929 0 30.691166196465929 48.472360936812038 0 0 0 0 15.1386153495705 -42.403817090988014 0 -42.403817090988014 -124.60053968947796 0 0 0 0 -0.56183691651420631 -0.41175035250287806 0 -0.41175035250287806 0.69102848265491446 0 0 0 0 -56.569502196648955 10.168725034718591 0 10.168725034718591 -26.937007699692913 0 0 0 0 -14.130691698099326 -4.8402515655106981 0 -4.8402515655106981 -21.891964123442449 0 0 0 0 -18.238994797860869 -6.0534278712730156 0 -6.0534278712730156 -12.982830652735174 0 0 0 0 1.1178934055496015 -0.12679636168056163 0 -0.12679636168056163 -1.3558556578030085 0 0 0 0 -60.468700825587803 0.07856791851008893 0 0.07856791851008893 -13.818813209411019 0 0 0 0 12.190957950491338 1.4174743107523682 0 1.4174743107523682 -12.26686059610438 0 0 0 0 10.264333751925847 24.174887818485331 0 24.174887818485331 -11.249146296671825 0 0 0 0 -34.668871709481664 32.447944259503856 0 32.447944259503856 -12.741036344163149 0 0 0 0 24.031581878083216 9.1526594919432682 0 9.1526594919432682 -12.642794655872422 0 0 0 0 4.8641180807467208 11.427645022233264 0 11.427645022233264 -3.9181234600109747 0 0 0 0 4.8701969546768851 11.20684928504852 0 11.20684928504852 1.8771485047400347 0 0 0 0 4.0656969299011507 8.3167891758967016 0 8.3167891758967016 1.6365747480995196 0 0 0 0 7.7371322581248023 -2.7946715876805683 0 -2.7946715876805683 -11.151467673833849 0 0 0 0 8.5859742961702068 5.2647204393651919 0 5.2647204393651919 -5.1630468679213664 0 0 0 0 9.1820824679170983 7.9004451855980733 0 7.9004451855980733 -11.716571554048642 0 0 0 0 -0.49570879314832084 2.0515081662856147 0 2.0515081662856147 -3.7477320638444525 0 0 0 0 -3.1471770854846 2.4740267019642488 0 2.4740267019642488 -8.9818676772492836 0 0 0 0 0.66028848203791313 -3.3791534261363267 0 -3.3791534261363267 -13.068240536267695 0 0 0 0 -5.3715069850854889 1.9689454818708327 0 1.9689454818708327 -5.1648634529483388 0 0 0 0 -1.5783799197743065 1.2458413780423143 0 1.2458413780423143 -15.174759080235162 0 0 0 0 -1.3547743429044203 0.86315397892030887 0 0.86315397892030887 -8.1669152046088129 0 0 0 0 -0.8726223916503173 -0.68233468220675775 0 -0.68233468220675775 -1.7592118034175783 0 0 0 0 18.057412578254116 7.113318138581235 0 7.113318138581235 -19.709181425874704 0 0 0 0 1.3681297203031733 1.8404914543625139 0 1.8404914543625139 -8.7059631994885933 0 0 0 0 5.5313010804343321 -5.255649017608448 0 -5.255649017608448 -27.411946144942704 0 0 0 0 -1.3930753481881766 -1.4325774216049467 0 -1.4325774216049467 -10.873518670778139 0 0 0 0 -0.10288769441915946 -0.46256683738380389 0 -0.46256683738380389 -1.6079186176887603 0 0 0 0 -1.4854008609290759 -1.9565205373146455 0 -1.9565205373146455 -7.0873181313290843 0 0 0 0 18.056297937193449 8.9210667181323515 0 8.9210667181323515 -28.044859673026622 0 0 0 0 -7.6170271499177034 3.0334041444293689 0 3.0334041444293689 -11.980017312214841 0 0 0 0 18.040745992856955 1.4936517246951553 0 1.4936517246951553 -29.750807550430181 0 0 0 0 0.14036280432628701 -5.4156136709207203 0 -5.4156136709207203 -6.8481907502900867 0 0 0 0 0.64460251653789413 -0.41946239336798641 0 -0.41946239336798641 -1.1388129928908484 0 0 0 0 0.022838151266277862 -3.3645689782155017 0 -3.3645689782155017 -6.9035797068859033 0 0 0 0 -17.695033122142149 -17.378245874535423 0 -17.378245874535423 -0.87397951142884267 0 0 0 0 0.25255604335632853 -16.527326511066235 0 -16.527326511066235 -1.5301835949721863 0 0 0 0 -71.101192651022984 14.044986089887971 0 14.044986089887971 -19.552742112671694 0 0 0 0 -33.955921170553438 -29.441520295848022 0 -29.441520295848022 -4.833220293150589 0 0 0 0 -10.525472868161842 11.875224137225359 0 11.875224137225359 -66.648227482011862 0 0 0 0 -1.2933275949588778 1.0419898517310102 0 1.0419898517310102 -0.64436228406897555 0 0 0 0 -10.260219195771242 5.2004573269186949 0 5.2004573269186949 -3.529928267139212 0 0 0 0 -71.525315474095919 24.797132404036347 0 24.797132404036347 -2.7608717417970183 0 0 0 0 -0.80080979273177944 0.46104719946022499 0 0.46104719946022499 0.034825411300346332 0 0 0 0 -3.7866151477996937 58.017076335541788 0 58.017076335541788 -76.441383857621531 0 0 0 0 10.511646211123207 29.134867964377918 0 29.134867964377918 -26.571608431371715 0 0 0 0 23.473228620442342 -2.4645161613716482 0 -2.4645161613716482 -92.986816282995278 0 0 0 0 -11.345833060254336 21.64968533946012 0 21.64968533946012 -34.246659252483369 0 0 0 0 34.725383729861278 29.429404487829061 0 29.429404487829061 -33.896353664538765 0 0 0 0 -7.1204944691032779 8.7874320796399843 0 8.7874320796399843 -6.6262675452780968 0 0 0 0 -21.128615301397076 12.666566940025405 0 12.666566940025405 -4.2020616907830117 0 0 0 0 -14.873446061633331 17.447781115264661 0 17.447781115264661 -0.36977839573592064 0 0 0 0 -0.073488065260335134 14.586416208316223 0 14.586416208316223 0.10511999555183138 0 0 0 0 -3.354053210355687 8.0419991208036663 0 8.0419991208036663 0.80797061566408956 0 0 0 0 -7.9698817469065943 7.4925517840101747 0 7.4925517840101747 5.5285653068604006 0 0 0 0 -10.214700362985582 5.0445693523515729 0 5.0445693523515729 -0.39189723238814622 0 0 0 0 -5.2985328389993924 2.7061652936540668 0 2.7061652936540668 5.1107111125820666 0 0 0 0 -1.9451628435419934 3.920322231897444 0 3.920322231897444 -0.13071024462624337 0 0 0 0 -7.9625297766452832 2.7171644450331769 0 2.7171644450331769 -0.21536972364629037 0 0 0 0 -5.9892454851652701 6.1726909476237779 0 6.1726909476237779 -5.1501066458004061 0 0 0 0 -6.8256792327904847 2.2564716208512436 0 2.2564716208512436 0.47530798635852989 0 0 0 0 -3.941029880154673 -0.041154820085921529 0 -0.041154820085921529 3.7122332258004462 0 0 0 0 -2.3102084220745951 0.78137906192387163 0 0.78137906192387163 -0.46259843498046394 0 0 0 0 -2.6482584209250035 2.8315011239319574 0 2.8315011239319574 4.6206411011344244 0 0 0 0 -1.5445577709385001 1.4942817013174974 0 1.4942817013174974 -1.3471366784878427 0 0 0 0 -0.59041445579720175 3.8467282328729198 0 3.8467282328729198 2.1250050560347518 0 0 0 0 -7.1663585005654227 5.5393878377562942 0 5.5393878377562942 1.9336817242917732 0 0 0 0 1.6575366828366214 -1.6147102407176135 0 -1.6147102407176135 -11.323992756942971 0 0 0 0 3.2798514150971414 4.0371573598513351 0 4.0371573598513351 -2.8734958418135648 0 0 0 0 -9.8099569162855005 44.479385760801961 0 44.479385760801961 -55.632073537140968 0 0 0 0 -0.048947906349042114 12.847287609341038 0 12.847287609341038 -23.984175601064635 0 0 0 0 -5.0726493997203761 12.469147865247578 0 12.469147865247578 16.833402844324155 0 0 0 0 -4.2326759319586245 15.395753160846652 0 15.395753160846652 -2.285126063388816 0 0 0 0 -4.2353358639344378 1.287666847676519 0 1.287666847676519 5.4321495386684546 0 0 0 0 -1.8014470190632892 -1.2112145697283268 0 -1.2112145697283268 11.619496790608537 0 0 0 0 20.708964289477535 -0.42741187109277234 0 -0.42741187109277234 -83.172916927675033 0 0 0 0 -0.15107430778785425 -0.34918132865466589 0 -0.34918132865466589 -0.024663582799398398 0 0 0 0 -2.7848459055331847 -2.231623684095041 0 -2.231623684095041 -1.3579415338130474 0 0 0 0 -27.766987670533467 2.4179174022810912 0 2.4179174022810912 -6.3620408117603802 0 0 0 0 -6.1373256527417652 -0.30902411303759436 0 -0.30902411303759436 32.506410301159349 0 0 0 0 -4.890794443185996 5.1706760207816842 0 5.1706760207816842 11.042661643230531 0 0 0 0 3.5105681096933949 4.8439999366883058 0 4.8439999366883058 11.047071547902306 0 0 0 0 2.350990410117447 5.0330386878813442 0 5.0330386878813442 5.7592227511286183 0 0 0 0 4.7946513200427034 4.5213245031281986 0 4.5213245031281986 6.9476439269310504 0 0 0 0 3.1208918457432446 5.891180795384571 0 5.891180795384571 5.5839757805010777 0 0 0 0 -2.6974975486350559 11.488600484628478 0 11.488600484628478 2.835212962134392 0 0 0 0 -2.5157785331207378 4.1117410733604629 0 4.1117410733604629 16.891481687864143 0 0 0 0 -0.66083830154461154 -0.53282792594632866 0 -0.53282792594632866 -0.43788491019553977 0 0 0 0 8.522547299832695 -7.5100279946636874 0 -7.5100279946636874 -71.541731312481716 0 0 0 0 -16.773758766305946 3.3935281144113105 0 3.3935281144113105 -38.395965595569578 0 0 0 0 13.857983558096294 5.3903485104292486 0 5.3903485104292486 -56.568065486484556 0 0 0 0 -2.9966705879326128 17.087195250696823 0 17.087195250696823 -20.803569956588035 0 0 0 0 19.615289673036976 -127.47203124356201 0 -127.47203124356201 -69.7211459725022 0 0 0 0 -145.17260664166662 41.211132110342078 0 41.211132110342078 15.357469735190534 0 0 0 0 -65.39824725837201 94.175218630896779 0 94.175218630896779 -124.15911039154525 0 0 0 0 -4.1991110002610954 -2.9391009765771798 0 -2.9391009765771798 -1.6978715195787046 0 0 0 0 -13.961373680216695 -10.135014788411354 0 -10.135014788411354 -0.81944674707847298 0 0 0 0 1.2184378633203323 -38.820600553532131 0 -38.820600553532131 30.318931393439925 0 0 0 0 -42.2086680988333 12.805797967663239 0 12.805797967663239 16.239348680705007 0 0 0 0 -94.084172787802061 76.556477763055227 0 76.556477763055227 -6.4743800087562704 0 0 0 0 -14.451769418500504 125.22360642746662 0 125.22360642746662 -171.44535960605572 0 0 0 0 -24.553656257754938 82.042141221190832 0 82.042141221190832 -87.27703826119614 0 0 0 0 -1.9594998021482297 95.009964869324904 0 95.009964869324904 -151.19743458340054 0 0 0 0 -15.791135857211998 67.441581134495209 0 67.441581134495209 -87.912435037053342 0 0 0 0 -17.771595256666842 55.92184319081025 0 55.92184319081025 -55.338137158072641 0 0 0 0 1.1094222235369671 36.748102281957472 0 36.748102281957472 -62.542512098720181 0 0 0 0 -1.9965145459877931 -10.304666666062531 0 -10.304666666062531 11.14669257521382 0 0 0 0 -40.786190936551975 -22.982394522830873 0 -22.982394522830873 -61.317003537363917 0 0 0 0 -2.5280133554585547 -0.79249858914533888 0 -0.79249858914533888 -0.098818288557424694 0 0 0 0 -15.565140145155965 -4.5351062954068766 0 -4.5351062954068766 27.139381410591682 0 0 0 0 -0.90321316817496466 -0.46130471142697616 0 -0.46130471142697616 -0.1197582165915807 0 0 0 0 -27.427153436292883 -84.508523916330887 0 -84.508523916330887 -176.33842324979628 0 0 0 0 3.0626576835829837 -1.0203479058072844 0 -1.0203479058072844 -36.168808875412651 0 0 0 0 1.6944130134279476 -1.5862596763108741 0 -1.5862596763108741 -13.718408202388673 0 0 0 0 5.7580375793559142 -5.604234522533261 0 -5.604234522533261 -12.519016545353225 0 0 0 0 0.71929105275648908 -1.6149189836687583 0 -1.6149189836687583 -13.06966741638098 0 0 0 0 3.9528651214036472 -7.1882458786094503 0 -7.1882458786094503 -12.139987234328146 0 0 0 0 -3.2742125401250632 -8.5844601003518619 0 -8.5844601003518619 -4.2527498921663209 0 0 0 0 -5.4728709770452042 0.61806112850717909 0 0.61806112850717909 -4.6319241499895725 0 0 0 0 3.1660296869795275 8.2276261694223649 0 8.2276261694223649 1.6441122337379284 0 0 0 0 1.1551921586178295 0.49065475865998565 0 0.49065475865998565 -1.7922913904931121 0 0 0 0 13.579463124438007 3.718261492496822 0 3.718261492496822 -67.230032150899206 0 0 0 0 -3.8720215923315102 -1.1406568420066279 0 -1.1406568420066279 -0.36339199075105144 0 0 0 0 7.2252267796786782 14.313798230446992 0 14.313798230446992 -74.054175929850317 0 0 0 0 1.1563211159882485 -6.5647879655189172 0 -6.5647879655189172 -42.967961845482932 0 0 0 0 -16.985945098902448 10.068028830981348 0 10.068028830981348 -48.102621615813405 0 0 0 0 -16.985945098876982 10.068028830937692 0 10.068028830937692 -48.102621615835233 0 0 0 0 -16.98594509889233 10.068028830959065 0 10.068028830959065 -48.102621615747921 0 0 0 0 11.031464982539916 9.9426276013196002 0 9.9426276013196002 -37.348108583813882 0 0 0 0 -17.872343534009588 6.2725162158067178 0 6.2725162158067178 -36.720174347477951 0 0 0 0 0.90037564911699519 -28.946767549388824 0 -28.946767549388824 19.530516401655404 0 0 0 0 -13.466274365582649 -4.8253507377303322 0 -4.8253507377303322 -30.451409075329138 0 0 0 0 -3.6050851104899175 -2.9337557727202039 0 -2.9337557727202039 -1.8218580610538595 0 0 0 0 -1.173734743718474 -1.4524153818423855 0 -1.4524153818423855 -1.19954505272473 0 0 0 0 -82.992592568718919 -29.41419402804604 0 -29.41419402804604 34.403154358949905 0 0 0 0 -99.698330820972842 -136.94463005105717 0 -136.94463005105717 -153.79147224025292 0 0 0 0 -19.172043061811337 -39.856517250339493 0 -39.856517250339493 -75.20563899582703 0 0 0 0 -38.975409190110895 -61.798648905760274 0 -61.798648905760274 -68.31795363452693 0 0 0 0 -36.906493321936978 -66.841178919655249 0 -66.841178919655249 -74.064007009346824 0 0 0 0 14.622640030337379 -12.398852349612753 0 -12.398852349612753 -106.50683719385052 0 0 0 0 51.914023541673714 85.874500126935345 0 85.874500126935345 -103.15849627391071 0 0 0 0 -27.731905357772803 35.906764496116921 0 35.906764496116921 -76.624145881050936 0 0 0 0 3.0006676153157059 25.436508060178312 0 25.436508060178312 -146.04595991096903 0 0 0 0 -17.881561938717596 51.490574125564308 0 51.490574125564308 -232.08583887609348 0 0 0 0 -134.05187871530438 -32.529018442101005 0 -32.529018442101005 -129.32127728089472 0 0 0 0 36.623158129425747 -71.014488768263618 0 -71.014488768263618 -374.76931833863091 0 0 0 0 -72.01917784080797 -120.76199801046278 0 -120.76199801046278 -277.42283212960683 0 0 0 0 62.861516192741306 -17.42653769665003 0 -17.42653769665003 -283.6737501780226 0 0 0 0 -0.70862954249883092 -41.393883183327688 0 -41.393883183327688 -281.28059668103015 0 0 0 0 -6.482932016346922 6.0674751017959352 0 6.0674751017959352 -196.17441880342631 0 0 0 0 -47.098955693819335 -28.176853322031093 0 -28.176853322031093 -134.493802650406 0 0 0 0 -1.1677081044037365 -23.165760031963089 0 -23.165760031963089 -172.58415636477002 0 0 0 0 1.8841796310766767 32.551321226201253 0 32.551321226201253 -110.64617830985298 0 0 0 0 -32.754715544424243 12.633980161233922 0 12.633980161233922 -73.032506661551452 0 0 0 0 -39.155420993104144 62.134909040898492 0 62.134909040898492 -56.019567090839701 0 0 0 0 -24.871326769101415 19.094279917308086 0 19.094279917308086 -200.29549405409398 0 0 0 0 -67.064701714102171 63.818184063593435 0 63.818184063593435 -89.583956514150486 0 0 0 0 -85.687715336241723 35.712138237839099 0 35.712138237839099 -14.548074960115628 0 0 0 0 -76.545948709543154 60.703087058446272 0 60.703087058446272 -23.570253697143926 0 0 0 0 -50.657755332283614 27.310082052305006 0 27.310082052305006 -61.301161749877792 0 0 0 0 -44.269311816811296 35.908209513683687 0 35.908209513683687 -6.9408564797759027 0 0 0 0 -5.3988797302176863 26.430556040910233 0 26.430556040910233 -21.366274528769281 0 0 0 0 -31.290610357005335 69.420320817020183 0 69.420320817020183 -0.80514033057352208 0 0 0 0 52.272678051714138 47.781297296856792 0 47.781297296856792 7.3586030395140369 0 0 0 0 84.223680630336275 92.877068796369713 0 92.877068796369713 16.924391138461033 0 0 0 0 17.728983055424123 77.551336684217858 0 77.551336684217858 -17.789072255232895 0 0 0 0 312.10924037441919 103.4946002305478 0 103.4946002305478 -51.172057678231795 0 0 0 0 -1.887380064820491 1.4620827839267179 0 1.4620827839267179 0.52555414921677368 0 0 0 0 -158.11177755050011 56.120021682221932 0 56.120021682221932 29.622334203850187 0 0 0 0 163.87244099872123 158.21604255673992 0 158.21604255673992 19.899346037531359 0 0 0 0 41.989440422138955 60.230700341850024 0 60.230700341850024 -13.746999274539121 0 0 0 0 49.179789544127289 103.49425112808945 0 103.49425112808945 -8.4099744617014949 0 0 0 0 49.433213802847149 83.566826798789407 0 83.566826798789407 -73.636600856034761 0 0 0 0 -4.6314554736027276 14.495051671989131 0 14.495051671989131 -35.66831866942448 0 0 0 0 -12.003724786998077 -35.785945341516708 0 -35.785945341516708 -170.39873195431937 0 0 0 0 54.276015932838021 5.8963928541315909 0 5.8963928541315909 -276.30730901846982 0 0 0 0 2.4634440188108329 101.642153630557 0 101.642153630557 -190.66955324947958 0 0 0 0 -34.239689797501114 55.621505348501159 0 55.621505348501159 -192.02415207861031 0 0 0 0 -98.218629072835228 186.80726309065085 0 186.80726309065085 -415.3402737728411 0 0 0 0 -33.014036954579183 -124.94765021199601 0 -124.94765021199601 -538.57980950189904 0 0 0 0 -205.47102225742213 195.41778683745542 0 195.41778683745542 -238.79839412005276 0 0 0 0 -2.6338543850264946 1.9733099715060263 0 1.9733099715060263 -1.9831445844230089 0 0 0 0 -214.97661094885299 33.861598104465372 0 33.861598104465372 30.054087102405902 0 0 0 0 -306.15529959139803 44.282618458115394 0 44.282618458115394 -131.6045345063576 0 0 0 0 -19.029546577027808 10.821420344334911 0 10.821420344334911 -160.92320784075855 0 0 0 0 -103.10777517499889 -139.69356855744991 0 -139.69356855744991 -347.10102409669707 0 0 0 0 -2.5760897466846568 14.449351989550905 0 14.449351989550905 -306.841672723378 0 0 0 0 -6.8187711936500932 78.144850522367051 0 78.144850522367051 -493.04777393076256 0 0 0 0 -68.76052297330655 53.17735137138834 0 53.17735137138834 -88.52888514353981 0 0 0 0 -121.86984259245611 144.06245594821848 0 144.06245594821848 -204.64008485128033 0 0 0 0 -149.85607694138372 80.662613181401412 0 80.662613181401412 -43.494599803885649 0 0 0 0 -109.34828374864009 28.977845102149786 0 28.977845102149786 -35.853473961080454 0 0 0 0 -116.62757271887055 70.989476301510877 0 70.989476301510877 -46.205259583615771 0 0 0 0 -98.525949640884249 47.578435428852146 0 47.578435428852146 9.9099654612800805 0 0 0 0 -83.238213481388811 51.341001345106633 0 51.341001345106633 -6.3178538917418336 0 0 0 0 -98.489882962828702 19.894381563635761 0 19.894381563635761 5.7382701402293605 0 0 0 0 -100.73157769259365 -11.438721477212766 0 -11.438721477212766 -3.0191125806304626 0 0 0 0 -113.62800179207773 39.513666226799614 0 39.513666226799614 -7.0309565377383478 0 0 0 0 -3.4772844700250971 -17.071143586670587 0 -17.071143586670587 -45.076211672293539 0 0 0 0 1.7456427432426551 37.383461495134384 0 37.383461495134384 4.0243922118861519 0 0 0 0 -27.803814566374058 0.73900573703576811 0 0.73900573703576811 -10.747931981597503 0 0 0 0 -25.712159126683218 8.906016271088447 0 8.906016271088447 -13.783291215670033 0 0 0 0 -5.6777694684337803 -1.5397767256890802 0 -1.5397767256890802 -13.499794276383909 0 0 0 0 13.308061756870075 13.741427012331314 0 13.741427012331314 -20.302571061249182 0 0 0 0 -6.581261322823309 -33.857489395528319 0 -33.857489395528319 -169.75720819720391 0 0 0 0 -6.2321014495583036 5.8480908158916307 0 5.8480908158916307 -5.7749119376525471 0 0 0 0 8.4144812786699479 -1.3398668838723573 0 -1.3398668838723573 -8.1736647803343061 0 0 0 0 -22.134701929921903 56.938269770822444 0 56.938269770822444 -48.74685531515388 0 0 0 0 -117.52650130595185 231.04210622371829 0 231.04210622371829 -554.20634225069443 0 0 0 0 -67.639144713956142 306.67611979184858 0 306.67611979184858 -591.74535471808485 0 0 0 0 16.787243356274303 14.907133093380253 0 14.907133093380253 -67.98298885155782 0 0 0 0 3.1739718748058294 16.678959105865943 0 16.678959105865943 -15.553509549484261 0 0 0 0 -29.236925058473389 23.292073155107573 0 23.292073155107573 -17.241859202888008 0 0 0 0 -4.458486152901969 6.2706267112516798 0 6.2706267112516798 -21.289845020521625 0 0 0 0 -6.938003133456732 9.3530844815795717 0 9.3530844815795717 -23.602490580757149 0 0 0 0 -25.31528886952492 6.5878158918276313 0 6.5878158918276313 -18.524406173179159 0 0 0 0 -13.006490675290479 9.7203343151450099 0 9.7203343151450099 -22.851188377611834 0 0 0 0 -14.335476990711641 3.9598305131876259 0 3.9598305131876259 -18.433282656224037 0 0 0 0 -31.612291683923331 18.20606257391637 0 18.20606257391637 -10.590511103222525 0 0 0 0 -13.812886972475553 25.928312486120376 0 25.928312486120376 -10.245254823144933 0 0 0 0 -21.433380340748499 3.6615610436892894 0 3.6615610436892894 -4.9716632486561139 0 0 0 0 -19.493133224973008 16.213210789992445 0 16.213210789992445 -22.079116831905822 0 0 0 0 1.3461798813136836 -0.51231557443129816 0 -0.51231557443129816 -0.53402834055272308 0 0 0 0 -48.860232682712194 41.099729954510622 0 41.099729954510622 0.52358919674338722 0 0 0 0 4.273629615413256 24.494337792419174 0 24.494337792419174 -68.358575099278823 0 0 0 0 -18.895850256928043 27.725968999187899 0 27.725968999187899 -8.7093049016966688 0 0 0 0 -60.351093155640513 37.012365813730867 0 37.012365813730867 8.0053557787978207 0 0 0 0 -55.788108528399107 41.746223678943352 0 41.746223678943352 1.1817660660526599 0 0 0 0 -75.930825445235541 34.765344046318205 0 34.765344046318205 9.2618239908624673 0 0 0 0 -72.224693361206647 32.146754897798701 0 32.146754897798701 10.714827663701726 0 0 0 0 -68.814785048457679 6.9892439276336518 0 6.9892439276336518 -5.6398307789440878 0 0 0 0 -86.058616831238282 47.70252201108633 0 47.70252201108633 28.907080037653941 0 0 0 0 -86.845472031882082 35.631985076886849 0 35.631985076886849 22.114594325521466 0 0 0 0 -87.069452262801065 44.148469972568819 0 44.148469972568819 16.420398099060549 0 0 0 0 -74.371518646024668 46.869599967247268 0 46.869599967247268 14.44450715995481 0 0 0 0 -69.361027989395097 66.815938275551161 0 66.815938275551161 9.2066065885951502 0 0 0 0 -103.51086236643867 107.93432504817247 0 107.93432504817247 -39.885895206160058 0 0 0 0 -29.16665144668832 84.662623492260536 0 84.662623492260536 -100.31214521201946 0 0 0 0 -98.531106218373068 698.45607675469728 0 698.45607675469728 -1472.5789095010259 0 0 0 0 158.66333124493462 19.59621172362904 0 19.59621172362904 -87.814234029552608 0 0 0 0 2.6345337108927782 0.10150365117886651 0 0.10150365117886651 -4.5521508172329703 0 0 0 0 -445.68901610949524 853.96061280603863 0 853.96061280603863 -1498.9449101216269 0 0 0 0 -2.1006007519160903 45.224528153577012 0 45.224528153577012 -67.263693568038434 0 0 0 0 0.91343825359172115 52.100497533467205 0 52.100497533467205 -66.331542478616029 0 0 0 0 -53.540777059834454 68.663641591307169 0 68.663641591307169 -56.141858493043401 0 0 0 0 6.038246139209785 -0.82790851556870138 0 -0.82790851556870138 -7.3054740772943561 0 0 0 0 -256.32707912232172 496.45765113271227 0 496.45765113271227 -998.91359205169101 0 0 0 0 -210.43175708710481 507.92556568109831 0 507.92556568109831 -999.35670140903676 0 0 0 0 49.047357910742946 440.46654671415308 0 440.46654671415308 -1500.3429590866399 0 0 0 0 101.66751056449787 175.22288437483803 0 175.22288437483803 -1106.4798407123271 0 0 0 0 -78.868227756325297 421.64071138349755 0 421.64071138349755 -894.71016660070381 0 0 0 0 -229.76345401478591 383.15769550246205 0 383.15769550246205 -575.02669966618123 0 0 0 0 -6.7631337276239671 266.78703092791767 0 266.78703092791767 -667.10250590692885 0 0 0 0 76.12376679615204 55.236522602552213 0 55.236522602552213 20.89054518498051 0 0 0 0 -7.2646036793851181 8.2740130262013736 0 8.2740130262013736 -13.357954115530447 0 0 0 0 -4.7291486710274739 12.104583702681794 0 12.104583702681794 -16.671665434005263 0 0 0 0 88.371494480086312 65.179736583552767 0 65.179736583552767 11.56531486399399 0 0 0 0 -1.6611721963616792 7.8222341725314255 0 7.8222341725314255 -9.1361542024383198 0 0 0 0 -2.7954324030817661 4.5496358665659589 0 4.5496358665659589 2.6816115358546142 0 0 0 0 197.89983888949837 17.237414700561203 0 17.237414700561203 10.353963648492936 0 0 0 0 76.936605485366726 84.085577971043676 0 84.085577971043676 29.320364414561482 0 0 0 0 169.21540010314538 69.763497239859134 0 69.763497239859134 4.0587641301390249 0 0 0 0 120.89700949914641 39.344782124069752 0 39.344782124069752 29.448022683243835 0 0 0 0 76.253021396121653 80.54239023020682 0 80.54239023020682 14.099022507703921 0 0 0 0 6.8728461212394905 62.628461115771643 0 62.628461115771643 36.237606938590034 0 0 0 0 -24.702603664320122 43.153596239684703 0 43.153596239684703 13.502950370102553 0 0 0 0 18.759489184427366 62.014155227705487 0 62.014155227705487 20.610586901468196 0 0 0 0 9.1438637859064329 50.802679876928096 0 50.802679876928096 5.1687325149287062 0 0 0 0 -7.6198116809759995 81.504317498831369 0 81.504317498831369 21.966609959567904 0 0 0 0 -69.050921555943091 39.705630051459593 0 39.705630051459593 2.4271978679789754 0 0 0 0 -68.630095850721773 55.618222216930008 0 55.618222216930008 17.371645989036551 0 0 0 0 -55.540080829070575 30.236310802582921 0 30.236310802582921 19.673029103874796 0 0 0 0 -35.000294277021339 62.737740323424077 0 62.737740323424077 27.433745646519128 0 0 0 0 49.607169540482573 78.270355588953862 0 78.270355588953862 13.5026805169 0 0 0 0 -3.5509639878241614 40.89121815011822 0 40.89121815011822 21.560122566075734 0 0 0 0 59.480556964604602 58.471661724491241 0 58.471661724491241 15.410225696628459 0 0 0 0 -116.92646699281039 59.914266947133456 0 59.914266947133456 53.079740992816369 0 0 0 0 -30.981622415258926 15.128929386476557 0 15.128929386476557 55.604833376433817 0 0 0 0 -3.6632203065711373 2.9146919850568089 0 2.9146919850568089 -3.1960543717433119 0 0 0 0 -224.75037775619793 155.30350279425454 0 155.30350279425454 89.084994905300846 0 0 0 0 -6.5414307504821503 48.900353365417686 0 48.900353365417686 -1495.2070045497187 0 0 0 0 -2.5820423734985791 6.7265762964143505 0 6.7265762964143505 -1493.8327469037522 0 0 0 0 -0.71572550170871285 1.2123258014752309 0 1.2123258014752309 -3.283240749905957 0 0 0 0 -21.070127872111932 -26.283477664844611 0 -26.283477664844611 10.982491134698648 0 0 0 0 49.820441825372995 76.311040341164016 0 76.311040341164016 34.627016611171712 0 0 0 0 -10.523503178351746 14.131207445421751 0 14.131207445421751 6.4917229009079165 0 0 0 0 -8.3325520161907214 7.8280808223230167 0 7.8280808223230167 -6.3608437298598623 0 0 0 0 -5.9435805052499031 3.7860364049760236 0 3.7860364049760236 -5.4208710864610055 0 0 0 0 -12.754994988348699 15.19443584765213 0 15.19443584765213 -6.0440602304515778 0 0 0 0 -4.0436368694632563 7.6020217673977868 0 7.6020217673977868 -5.8488013889636932 0 0 0 0 0.52588977583294483 0.031111000617443096 0 0.031111000617443096 -1.7510204605912705 0 0 0 0 -3.6213856680416932 4.0701508027261024 0 4.0701508027261024 0.034339608421731782 0 0 0 0 -137.23216390277921 95.074005639330608 0 95.074005639330608 -70.683875580073618 0 0 0 0 -0.75963120074883805 1.0694578899490907 0 1.0694578899490907 -0.48772418654640148 0 0 0 0 272.17863345524654 -193.52538838987584 0 -193.52538838987584 -1488.5640539045671 0 0 0 0 -200.91573724501563 -243.71246921414377 0 -243.71246921414377 -318.38189142290958 0 0 0 0 125.72066618393787 359.41945525942356 0 359.41945525942356 -1488.0930562910066 0 0 0 0 -1.7893135191397609 1.0955160535266799 0 1.0955160535266799 -3.8700000121377656 0 0 0 0 186.59997767207247 45.934629496631942 0 45.934629496631942 5.6557059409242356 0 0 0 0 -1.9177855238271206 1.4728993065018585 0 1.4728993065018585 -1497.5232272398332 0 0 0 0 -0.54453361774838915 0.49323021146030754 0 0.49323021146030754 -2.4899510629210333 0 0 0 0 -4.8929114422493942 -1.7692127759406677 0 -1.7692127759406677 -1.9607513293142844 0 0 0 0 44.413292459452009 -58.716203735759564 0 -58.716203735759564 31.800373036936435 0 0 0 0 1.0227879520630268 -35.895936037868523 0 -35.895936037868523 20.74717738405252 0 0 0 0 -5.8002061089663979 -1.5998136398871097 0 -1.5998136398871097 -3.7647280208985734 0 0 0 0 19.290063516279019 -8.7464021803639298 0 -8.7464021803639298 -13.590233468152292 0 0 0 0 -28.447723698214816 28.253715191453011 0 28.253715191453011 -34.547342262972961 0 0 0 0 -6.533682766594743 2.6132307818360694 0 2.6132307818360694 -9.7081564324359988 0 0 0 0 -6.0976512596658177 8.959761999091107 0 8.959761999091107 -8.1220217757553215 0 0 0 0 0.43669304311151791 7.0167342429813289 0 7.0167342429813289 -5.4615278907585889 0 0 0 0 15.754819227881924 7.2421726451748327 0 7.2421726451748327 -1495.8056158197896 0 0 0 0 -23.011474147847665 23.288026028064451 0 23.288026028064451 6.6322122456385841 0 0 0 0 -55.775652312248845 207.85592793952651 0 207.85592793952651 -847.93794366927341 0 0 0 0 -0.26994433003346524 0.96496570035255758 0 0.96496570035255758 -1.9982128206355734 0 0 0 0 -64.043080124584193 55.391591839646026 0 55.391591839646026 40.529383807277554 0 0 0 0 211.93660457465745 -882.51440235350128 0 -882.51440235350128 -1489.773150293591 0 0 0 0 -36.456139194775233 12.707275341532295 0 12.707275341532295 63.465141928149933 0 0 0 0 -4.7685234470904101 4.436446890361303 0 4.436446890361303 -3.5457043742714198 0 0 0 0 -1.5537987308105994 2.0865527687826209 0 2.0865527687826209 -3.5559259832585504 0 0 0 0 -10.222518299049739 -11.636852578924845 0 -11.636852578924845 27.293581898215507 0 0 0 0 -227.73338822092728 91.068000170628693 0 91.068000170628693 -7.975576119062147 0 0 0 0 -72.200748172072963 35.083778516825078 0 35.083778516825078 -7.4349034327124173 0 0 0 0 -171.09253918363237 -91.020735851036534 0 -91.020735851036534 24.508478223149723 0 0 0 0 -90.389311007647848 -82.660636360905301 0 -82.660636360905301 34.51793712018025 0 0 0 0 11.770092108422318 5.3738407411424305 0 5.3738407411424305 -224.20113976971834 0 0 0 0 -3.4964936854321422 9.791188848335878 0 9.791188848335878 -13.769148974664859 0 0 0 0 -3.8797587733185992 -22.559251550325371 0 -22.559251550325371 -34.116695293318116 0 0 0 0 -3.0884576108079655 8.2200527092443796 0 8.2200527092443796 -25.357061719672803 0 0 0 0 112.74331771900415 -6.5600554325283156 0 -6.5600554325283156 -13.657629621267461 0 0 0 0 143.93961673838476 -32.226246220483517 0 -32.226246220483517 -43.381522750430577 0 0 0 0 0.99015205898298309 -1.4387412318187138 0 -1.4387412318187138 -4.1765270224381545 0 0 0 0 74.90374270979828 -139.47918324923012 0 -139.47918324923012 26.336950486334899 0 0 0 0 -108.12803782949095 184.84314664668909 0 184.84314664668909 -52.284192057100881 0 0 0 0 137.148639239207 -78.4143424413096 0 -78.4143424413096 -252.30048390678985 0 0 0 0 -1.3736920422036292 68.221729969457556 0 68.221729969457556 -4.3929599466719083 0 0 0 0 -3.026758250588959 10.016176084437138 0 10.016176084437138 -38.459675816458315 0 0 0 0 -15.042476397128667 33.56749462193693 0 33.56749462193693 -27.138809151361784 0 0 0 0 120.59755561430438 93.501625887000046 0 93.501625887000046 -39.61622873144006 0 0 0 0 36.121822918882572 17.154833338947356 0 17.154833338947356 -34.353114925307636 0 0 0 0 -3.3031624328091311 123.88588323004114 0 123.88588323004114 -16.147942082632653 0 0 0 0 62.491240641796139 52.422248246120034 0 52.422248246120034 -3.4979855739975392 0 0 0 0 -2.5647699385098051 11.186577951467669 0 11.186577951467669 -41.026634819940476 0 0 0 0 166.95154780200141 165.17319681490039 0 165.17319681490039 -116.78161596936479 0 0 0 0 -291.76172153895868 41.080583777295942 0 41.080583777295942 23.168307772253684 0 0 0 0 -0.33160125365029836 0.63356256094940111 0 0.63356256094940111 -3.7196407961923263 0 0 0 0 -28.756538300990087 -82.970621318791018 0 -82.970621318791018 -96.239847779022966 0 0 0 0 -14.231873368615339 -9.9938807603968485 0 -9.9938807603968485 -9.0271134918357347 0 0 0 0 43.944539871622283 14.581698500481707 0 14.581698500481707 -54.140269382236056 0 0 0 0 -73.391682231440882 51.408147945498968 0 51.408147945498968 53.489008724920495 0 0 0 0 17.813874162172851 -22.502068448824048 0 -22.502068448824048 -48.47623307394133 0 0 0 0 -0.55821434773623735 2.5522738907593521 0 2.5522738907593521 -11.146078440859224 0 0 0 0 -108.83952826436507 7.677597593705741 0 7.677597593705741 44.165972099015562 0 0 0 0 4.7321674982949844 81.324750637410943 0 81.324750637410943 18.153543757768603 0 0 0 0 7.2697706041340098 -3.6886525858008099 0 -3.6886525858008099 -52.876110398401579 0 0 0 0 -13.914559477801731 -0.10621606520044224 0 -0.10621606520044224 -7.8000797867625806 0 0 0 0 -1.6162374916044939 0.68447675119728491 0 0.68447675119728491 -3.449280541010797 0 0 0 0 4.2194017067572531 2.5524401790889897 0 2.5524401790889897 -12.292272756895272 0 0 0 0 0.87873013250747078 28.446708861272157 0 28.446708861272157 -15.441210856938596 0 0 0 0 -0.57140009355059262 2.9204364200991773 0 2.9204364200991773 -19.214699056421527 0 0 0 0 -48.907220672450421 240.24634011024318 0 240.24634011024318 -151.80568171654886 0 0 0 0 -1.2735412670431039 0.92887406441471398 0 0.92887406441471398 -2.7592452029135224 0 0 0 0 -57.813018824444498 74.352762608739795 0 74.352762608739795 -123.21495942351976 0 0 0 0 -28.551097772390278 19.994913301006363 0 19.994913301006363 -23.926808363914461 0 0 0 0 -408.94934875931722 -258.73670758944354 0 -258.73670758944354 474.10903357002826 0 0 0 0 74.736444746814868 15.717543420395486 0 15.717543420395486 -145.25785721907232 0 0 0 0 72.080062639832249 17.764609306846069 0 17.764609306846069 -29.80807690815891 0 0 0 0 62.49086399663156 66.177679305617858 0 66.177679305617858 -73.76397658885071 0 0 0 0 150.00834490241596 -12.524638540874548 0 -12.524638540874548 -19.285673795558978 0 0 0 0 -2.8450414220410578 11.178379963180186 0 11.178379963180186 -40.124801548964342 0 0 0 0 172.12122406703293 72.45389379864082 0 72.45389379864082 -73.864683931635227 0 0 0 0 27.40508025107755 -38.378944027757143 0 -38.378944027757143 -3.9137004820131551 0 0 0 0 13.345453353057735 -7.8194748309201714 0 -7.8194748309201714 -8.6416192598278485 0 0 0 0 7.0366022913974184 -5.4596084320345035 0 -5.4596084320345035 -21.339018746515926 0 0 0 0 5.3863031707546725 -2.3343121774487372 0 -2.3343121774487372 -6.2447240703199896 0 0 0 0 14.228346160339015 -4.9491989978182573 0 -4.9491989978182573 -10.320963331541861 0 0 0 0 -0.90201356735330318 -0.80082253224843392 0 -0.80082253224843392 0.54880311922263658 0 0 0 0 1.4561045123400902 -33.557554705743598 0 -33.557554705743598 -53.309020109587436 0 0 0 0 -6.5511654025931989 -7.4545638284084816 0 -7.4545638284084816 -0.30898620687639777 0 0 0 0 -17.067845830727382 -33.582976673339573 0 -33.582976673339573 -93.009780923855033 0 0 0 0 -32.892408987270983 37.856849940202892 0 37.856849940202892 -65.867335709409417 0 0 0 0 -12.000238415453964 -32.19907188481784 0 -32.19907188481784 -98.361837341471073 0 0 0 0 -10.74284812148727 10.835663462822595 0 10.835663462822595 -68.442322230175705 0 0 0 0 28.52439820818887 5.6673897144951297 0 5.6673897144951297 -81.134342649493192 0 0 0 0 16.778223261314906 18.104479532209552 0 18.104479532209552 -85.289364385002955 0 0 0 0 18.759563774032586 10.541820161580972 0 10.541820161580972 -37.420739994728592 0 0 0 0 26.417692733111835 4.6654930573131423 0 4.6654930573131423 -53.692026376342255 0 0 0 0 21.577754833642075 17.366793048557156 0 17.366793048557156 -79.459680812571605 0 0 0 0 13.155513998457536 -9.9750787156303886 0 -9.9750787156303886 -90.433500620503764 0 0 0 0 17.762280737982337 5.0994963193247713 0 5.0994963193247713 -45.163563936549508 0 0 0 0 23.339426701079447 12.600910732242482 0 12.600910732242482 -78.198309549768965 0 0 0 0 12.25893251673649 7.9125135781607696 0 7.9125135781607696 -19.705697184999735 0 0 0 0 6.4266650333929647 9.1314459149580216 0 9.1314459149580216 -8.0401307158454074 0 0 0 0 1.6259188523555137 4.5399921615492236 0 4.5399921615492236 -6.9276188459918648 0 0 0 0 5.6550478434678553 -7.0436374475139019 0 -7.0436374475139019 -24.665810588764543 0 0 0 0 0.97696385184770351 5.0545551859633706 0 5.0545551859633706 -5.354869089384021 0 0 0 0 17.362094143180968 15.813799236394061 0 15.813799236394061 -37.063691259286315 0 0 0 0 11.769512737359436 5.4786589955479919 0 5.4786589955479919 -70.118934395187352 0 0 0 0 13.168882587885847 -0.25575544231196545 0 -0.25575544231196545 -68.948452544901556 0 0 0 0 25.35579606018203 20.73639363707116 0 20.73639363707116 -56.147827124024388 0 0 0 0 8.8640754846762775 40.167732464316487 0 40.167732464316487 12.379644653561627 0 0 0 0 5.5011461185390864 -3.6766544808160688 0 -3.6766544808160688 -49.712893835937393 0 0 0 0 37.425823434730091 23.147095989086665 0 23.147095989086665 -50.674522748969622 0 0 0 0 -11.603231156499724 -1.0527728032557206 0 -1.0527728032557206 -7.1070169775493923 0 0 0 0 -34.805554431807693 58.832653163923965 0 58.832653163923965 54.539257543637177 0 0 0 0 -2.1204197558638 5.1211906459417911 0 5.1211906459417911 -3.0592363995049263 0 0 0 0 49.828279587495878 29.806459161029579 0 29.806459161029579 -44.031329639667547 0 0 0 0 9.9023404902992667 3.8484047768542951 0 3.8484047768542951 -14.402254834716587 0 0 0 0 -0.9421989599995868 0.71315074830818048 0 0.71315074830818048 -7.9248072177570066 0 0 0 0 0.77181167773408843 1.5512435122114407 0 1.5512435122114407 -7.5556994448577797 0 0 0 0 -0.65028344035868946 4.0347124021216798 0 4.0347124021216798 -4.4979731325885357 0 0 0 0 -1.282918844371828 0.91998420068323306 0 0.91998420068323306 -13.781240143417714 0 0 0 0 -167.18100354246326 -601.1422943713626 0 -601.1422943713626 -1498.6417456914241 0 0 0 0 1.3817547690270802 -268.38788193298092 0 -268.38788193298092 -942.7904263853253 0 0 0 0 16.179420658117635 1.1362132473568636 0 1.1362132473568636 -39.678329205189755 0 0 0 0 0.44023001643778492 0.96960875215697229 0 0.96960875215697229 -3.425050648470231 0 0 0 0 0.44593465479140371 -0.24298470846417253 0 -0.24298470846417253 -2.8098361962661933 0 0 0 0 1.7986630621212498 -7.2383184161735699 0 -7.2383184161735699 -39.174482016638649 0 0 0 0 -0.88399695384631605 2.0715971455802249 0 2.0715971455802249 -4.8695154045392481 0 0 0 0 -20.789678144560952 -6.4639676684109872 0 -6.4639676684109872 -6.1678167030913755 0 0 0 0 0.90844045675527585 5.2423741186438679 0 5.2423741186438679 -5.3317802016830758 0 0 0 0 0.69564553764229398 4.0508354500426034 0 4.0508354500426034 -5.4118554615096972 0 0 0 0 -6.2287616911215764 2.9737046220629963 0 2.9737046220629963 -17.725455068779866 0 0 0 0 -3.2810682442448069 -0.73219340721698245 0 -0.73219340721698245 -13.159669854518143 0 0 0 0 6.0908451729135322 25.828597998648313 0 25.828597998648313 -51.984711382554508 0 0 0 0 -1.0931386500192977 5.2850625617915128 0 5.2850625617915128 -5.1612060323404023 0 0 0 0 -38.426752368954112 -124.61523371389762 0 -124.61523371389762 -881.44557606082367 0 0 0 0 1.9024016917011244 -2.3993152248902505 0 -2.3993152248902505 -2.7612721352587881 0 0 0 0 3.2953119416995023 -269.56795113309454 0 -269.56795113309454 -1059.1634868107874 0 0 0 0 217.07072923876987 -159.88008954529593 0 -159.88008954529593 -1500.189246721741 0 0 0 0 200.74517214750574 114.56948493874346 0 114.56948493874346 -1179.7122232528423 0 0 0 0 160.90724518673676 -88.814153794209574 0 -88.814153794209574 -1152.6815738927385 0 0 0 0 168.93312356510486 129.18116357658982 0 129.18116357658982 -1000.5967292081992 0 0 0 0 148.21179228524926 -88.197097881866853 0 -88.197097881866853 -873.44046117840753 0 0 0 0 95.677931792231789 493.7654712078305 0 493.7654712078305 -1497.716558932251 0 0 0 0 166.47010281622721 128.98055162432439 0 128.98055162432439 -946.36447022974482 0 0 0 0 7.2961778115241174 42.219087622987843 0 42.219087622987843 -24.11010893484071 0 0 0 0 15.001225004515902 -44.819850208378433 0 -44.819850208378433 -54.513936534613094 0 0 0 0 0.33305884588828627 -0.87120266961247139 0 -0.87120266961247139 0.015798891479109969 0 0 0 0 -70.410461500507694 123.82587943390972 0 123.82587943390972 -504.29110877690186 0 0 0 0 -161.01042044367068 357.423837737947 0 357.423837737947 -828.0781059311056 0 0 0 0 24.282535235377537 -90.106791484329932 0 -90.106791484329932 -103.7121822697685 0 0 0 0 0.72559205542636185 -1.8030751621469507 0 -1.8030751621469507 -14.443817180581206 0 0 0 0 188.42205501096979 6.562094847286744 0 6.562094847286744 -63.143214918909507 0 0 0 0 -87.928033589756538 -4.1470829671271652 0 -4.1470829671271652 70.793522033989518 0 0 0 0 -181.45835586703379 -404.92613510108947 0 -404.92613510108947 -241.86234416250727 0 0 0 0 -0.5679495894114952 -0.68382833668792586 0 -0.68382833668792586 -6.3585515600920779 0 0 0 0 -448.85646546841213 683.50621810329983 0 683.50621810329983 -876.85998229272218 0 0 0 0 173.04762139025212 -247.31836155586461 0 -247.31836155586461 -1497.4034759563199 0 0 0 0 169.89797146949206 31.454830158406367 0 31.454830158406367 -461.43676221961778 0 0 0 0 169.38966803028765 193.06434322984114 0 193.06434322984114 -1497.4952571726408 0 0 0 0 -76.804000792762622 -153.29081629948521 0 -153.29081629948521 -91.547142601437372 0 0 0 0 -113.0865527143993 63.761892774865146 0 63.761892774865146 -89.025042597262654 0 0 0 0 -79.592027372138119 -60.784747647574932 0 -60.784747647574932 -458.44230853820403 0 0 0 0 -9.6623683347904716 131.86578717298016 0 131.86578717298016 -117.9889344797482 0 0 0 0 -154.2747310962971 33.586326277742728 0 33.586326277742728 -21.775657616599347 0 0 0 0 -25.087692564659008 97.752598558952741 0 97.752598558952741 -48.057334410593739 0 0 0 0 -18.111657291217512 113.19500288700692 0 113.19500288700692 40.951012147087567 0 0 0 0 -127.3328123946886 31.630722262645577 0 31.630722262645577 5.2917797392829016 0 0 0 0 54.472774985694173 26.158125713172012 0 26.158125713172012 -8.7770426704319107 0 0 0 0 18.151382377663424 35.266591212803178 0 35.266591212803178 0.28577102807230403 0 0 0 0 -25.463800805120059 -38.263224873991931 0 -38.263224873991931 -48.810655970828293 0 0 0 0 -18.700593519006588 -36.923154430888644 0 -36.923154430888644 2.2154229477309855 0 0 0 0 -37.467997265469023 -1.3183772490374395 0 -1.3183772490374395 9.4055422978453862 0 0 0 0 -25.57473536464709 -22.597782347362681 0 -22.597782347362681 -12.763737224338001 0 0 0 0 -8.6219139983575985 -59.866371339665193 0 -59.866371339665193 -6.8797184216100504 0 0 0 0 12.574250440288965 -4.768063072469733 0 -4.768063072469733 -16.462772688155571 0 0 0 0 10.087852508615466 -6.5001520005291695 0 -6.5001520005291695 -32.27822713236128 0 0 0 0 20.523477626017375 -33.462910158833438 0 -33.462910158833438 -7.1142203749907367 0 0 0 0 1.0490645573361519 -29.046836854592584 0 -29.046836854592584 1.0064715247775666 0 0 0 0 28.394229499213679 4.5271077612032968 0 4.5271077612032968 6.3286132031762463 0 0 0 0 7.7650827724870526 2.0228999585710592 0 2.0228999585710592 -9.5818024077933668 0 0 0 0 23.340169932631397 17.41839398394859 0 17.41839398394859 -38.815036501482609 0 0 0 0 9.2512792899943275 18.161493623546114 0 18.161493623546114 -15.772109443803357 0 0 0 0 -34.806237039907977 78.164357165538604 0 78.164357165538604 -127.23008381445652 0 0 0 0 17.15443916834397 19.361892576341688 0 19.361892576341688 5.0471497077123786 0 0 0 0 69.921707955352332 -64.792368877234367 0 -64.792368877234367 63.246055255443935 0 0 0 0 -21.567931216122361 45.969915285029856 0 45.969915285029856 -3.4036686890558485 0 0 0 0 20.075076327397028 14.532525735143281 0 14.532525735143281 -31.564194446256806 0 0 0 0 -4.0351083147374993 75.942282798935594 0 75.942282798935594 -125.93869947458188 0 0 0 0 -73.277944704253969 48.385690671962038 0 48.385690671962038 16.485271017310879 0 0 0 0 2.3425580972736952 10.911014316744968 0 10.911014316744968 -6.2489718270981029 0 0 0 0 0.34407374053080275 -7.8047489252367086 0 -7.8047489252367086 -300.85297535153768 0 0 0 0 11.649578001612781 -9.2358019415851231 0 -9.2358019415851231 -79.667052680123561 0 0 0 0 -22.521459420034716 -13.399674118620169 0 -13.399674118620169 -179.34975368207233 0 0 0 0 0.30305412677816124 0.66217774375235638 0 0.66217774375235638 -0.49061129366522849 0 0 0 0 -16.235022203090921 -64.836837382797967 0 -64.836837382797967 -271.1476338427201 0 0 0 0 -0.12419251528677311 0.51856393657073685 0 0.51856393657073685 0.34488188483967264 0 0 0 0 6.3574779315836167 -75.728986961777537 0 -75.728986961777537 -179.91745228969376 0 0 0 0 -21.479743644322298 2.3624563769608358 0 2.3624563769608358 -91.244092222388645 0 0 0 0 1.2644498413456624 4.2593944651690752 0 4.2593944651690752 -5.7905390190052941 0 0 0 0 14.649529927619824 11.96891333793792 0 11.96891333793792 -7.9173910612271357 0 0 0 0 0.69655069463555019 7.4854085112269466 0 7.4854085112269466 4.1716027746624178 0 0 0 0 1.0454716525456851 4.8989616773447651 0 4.8989616773447651 -5.8513165308462716 0 0 0 0 3.1276951233326082 2.1937159218627573 0 2.1937159218627573 -7.1016353692449403 0 0 0 0 -2.0893488839508336 0.010933663511650593 0 0.010933663511650593 -26.515905938691958 0 0 0 0 3.3182737384431675 -1.0415025088573202 0 -1.0415025088573202 -26.41278781809433 0 0 0 0 0.073458150536680478 -0.44513597796355953 0 -0.44513597796355953 -6.2697991974628167 0 0 0 0 0.1830013496818419 -0.80958075920837658 0 -0.80958075920837658 -4.5382371745752987 0 0 0 0 -21.074389177399894 -33.072441594868906 0 -33.072441594868906 -101.45289624118777 0 0 0 0 -10.969578199723927 58.714756369846555 0 58.714756369846555 47.66560475918277 0 0 0 0 15.439869741331762 -37.869433765456506 0 -37.869433765456506 -114.20955813718405 0 0 0 0 7.2420263098250244 16.569142149453242 0 16.569142149453242 -15.476589155032812 0 0 0 0 8.0929867375921116 4.3462070221302591 0 4.3462070221302591 -29.168818933890321 0 0 0 0 -154.13823866107521 -563.41061847713445 0 -563.41061847713445 -1209.1892729483736 0 0 0 0 -312.56806626793281 -437.80107098149711 0 -437.80107098149711 -1227.0754763076256 0 0 0 0 -63.969119381228438 -467.68512893919797 0 -467.68512893919797 -1709.6413573875434 0 0 0 0 -177.21995674314098 137.02771615559141 0 137.02771615559141 -1648.9475155805012 0 0 0 0 160.54709430952477 -346.72982368358498 0 -346.72982368358498 -271.24236016133727 0 0 0 0 227.68714614506439 -180.6936179779932 0 -180.6936179779932 -2765.8141704566333 0 0 0 0 1.1730983113986946 -2.3646422475179989 0 -2.3646422475179989 -2.9099292284129268 0 0 0 0 -110.45102899238725 -1007.2626285206206 0 -1007.2626285206206 -1206.9469239784976 0 0 0 0 393.56317441406452 -1291.6528295376029 0 -1291.6528295376029 -1499.0503606056209 0 0 0 0 -269.78789885121859 -951.19350067296818 0 -951.19350067296818 -1177.9928060804268 0 0 0 0 -69.039174185923287 -904.18744490486642 0 -904.18744490486642 -2041.932891456272 0 0 0 0 -168.23747670504201 -880.48490545118875 0 -880.48490545118875 -1171.1539965161155 0 0 0 0 -311.44590616213372 -900.72078191975925 0 -900.72078191975925 -1135.5946654059117 0 0 0 0 -748.00611161081747 -517.73360852643145 0 -517.73360852643145 -158.00338448003458 0 0 0 0 -368.06456790377871 -967.9908592123511 0 -967.9908592123511 -1130.4506042910616 0 0 0 0 -627.69989798668996 -1484.6927774637652 0 -1484.6927774637652 -1498.0045897973232 0 0 0 0 -2.1660419928752108 -3.5525825312762023 0 -3.5525825312762023 -11.277756578486912 0 0 0 0 -221.76510936610651 470.36540789885521 0 470.36540789885521 -377.91901672044287 0 0 0 0 -2120.4580877318149 -1291.6192954201779 0 -1291.6192954201779 -572.2194829713153 0 0 0 0 -0.83237518224256801 -5.8340724545472904 0 -5.8340724545472904 -28.233641389783379 0 0 0 0 167.90197971702707 -35.381562808780927 0 -35.381562808780927 -95.001674923797964 0 0 0 0 -251.44271971202437 -376.19013388005328 0 -376.19013388005328 -412.01813388561095 0 0 0 0 48.339004433573038 -52.48424772221324 0 -52.48424772221324 -16.836192159154507 0 0 0 0 3.9747986966132536 -7.0093617529709711 0 -7.0093617529709711 -37.392052422077512 0 0 0 0 91.920332480379329 -67.409943574817589 0 -67.409943574817589 -210.11650666422429 0 0 0 0 -61.524512775005974 27.034668266641347 0 27.034668266641347 -155.01214994979694 0 0 0 0 -181.28308825345636 -29.482961906834589 0 -29.482961906834589 -82.596351503729238 0 0 0 0 -372.16227361316936 -279.02497659726578 0 -279.02497659726578 -197.52105762306746 0 0 0 0 -382.89768530752951 -420.30849275453056 0 -420.30849275453056 -650.75138542060176 0 0 0 0 -242.05942731134303 -471.59938181449775 0 -471.59938181449775 -632.088429258014 0 0 0 0 -288.66285851526391 -286.84877510679507 0 -286.84877510679507 -333.80263394017811 0 0 0 0 -119.4016379766779 -184.74151547839574 0 -184.74151547839574 -360.76635476369438 0 0 0 0 -152.66489490261927 -340.86464979439802 0 -340.86464979439802 -395.06347299907793 0 0 0 0 -247.39972619127855 -492.98102389706878 0 -492.98102389706878 -581.67143198800477 0 0 0 0 -93.607090601603318 -315.62801273714467 0 -315.62801273714467 -456.8781404315414 0 0 0 0 -256.45434681508738 -549.90953999803878 0 -549.90953999803878 -826.6537209717244 0 0 0 0 -56.890073528329481 -426.30989841770861 0 -426.30989841770861 -771.62126013677425 0 0 0 0 -67.287549173200887 -90.263126340116287 0 -90.263126340116287 -62.632307632595257 0 0 0 0 -156.3942742472552 -91.043322010917109 0 -91.043322010917109 -102.63605965523311 0 0 0 0 -0.73249560968810101 -165.17681585988794 0 -165.17681585988794 -341.90379272166683 0 0 0 0 -122.429496554509 -246.47179157081155 0 -246.47179157081155 -294.4022550785121 0 0 0 0 5.9090762555119261 -2.9189942677928649 0 -2.9189942677928649 2.4466665329426966 0 0 0 0 -95.799362023677759 -273.50715846433013 0 -273.50715846433013 -216.54273218697381 0 0 0 0 9.4578984531019614 -51.254312151192153 0 -51.254312151192153 -76.496142578702347 0 0 0 0 -19.018522587622329 -39.372654121889354 0 -39.372654121889354 -16.498578878243279 0 0 0 0 25.248598010168735 -19.1892247173746 0 -19.1892247173746 -48.263239365100162 0 0 0 0 37.306722936106326 -30.547365599656587 0 -30.547365599656587 -67.907639261768963 0 0 0 0 -93.868276036786256 -4.2868275100154278 0 -4.2868275100154278 14.227775057912368 0 0 0 0 12.605769709640551 -7.7526411255311629 0 -7.7526411255311629 -6.6039259337357521 0 0 0 0 3.2205075844936339 -3.3199349121403503 0 -3.3199349121403503 -52.080614228020551 0 0 0 0 23.298541898454999 -1.9218356940379664 0 -1.9218356940379664 -50.867165639159339 0 0 0 0 89.014058611020687 -17.582259953526261 0 -17.582259953526261 -66.678834246031329 0 0 0 0 32.548464704919638 -2.2613026837926071 0 -2.2613026837926071 -53.459117435593726 0 0 0 0 -0.38108116804285563 -2.8952746263354276 0 -2.8952746263354276 -51.068539320154457 0 0 0 0 38.670002117493596 -15.215664569516321 0 -15.215664569516321 -60.249444694865815 0 0 0 0 37.168781085838191 -22.358771471188447 0 -22.358771471188447 -37.346180103855659 0 0 0 0 23.630406909611793 -17.116096545656546 0 -17.116096545656546 -51.215226693933801 0 0 0 0 4.3819720668120681 1.1536237146674466 0 1.1536237146674466 -32.28745971884382 0 0 0 0 3.0661877193256259 -3.2800257698709174 0 -3.2800257698709174 -23.809901501927015 0 0 0 0 17.452667628025665 19.543338867607417 0 19.543338867607417 -66.120865680384668 0 0 0 0 19.20716654644832 -40.770292026722018 0 -40.770292026722018 -152.38039354922876 0 0 0 0 4.876119153607978 -7.9548198164815762 0 -7.9548198164815762 -24.24642732900751 0 0 0 0 28.457881813635368 6.0476850074533104 0 6.0476850074533104 -50.79769808769106 0 0 0 0 18.993389011596719 -57.132521990040232 0 -57.132521990040232 7.9903122400710345 0 0 0 0 4.7213652924194776 6.8495534919038619 0 6.8495534919038619 -49.266466267519718 0 0 0 0 -4.7461140960031116 36.164633842528929 0 36.164633842528929 -116.05614074087498 0 0 0 0 1.2845977791773748 16.91624974824208 0 16.91624974824208 -101.74821536348463 0 0 0 0 -12.816162473426857 -12.510413080968192 0 -12.510413080968192 -82.927443210501224 0 0 0 0 -31.083750328098176 47.172326962303487 0 47.172326962303487 -129.3083249856063 0 0 0 0 -57.245208368047315 1.5112215264630322 0 1.5112215264630322 -78.353183887971682 0 0 0 0 -69.095556877834497 59.963103748447793 0 59.963103748447793 -165.44194205777421 0 0 0 0 -43.292943042181832 -41.410212034281358 0 -41.410212034281358 -126.20926221956265 0 0 0 0 50.881412221884574 7.3617231691976315 0 7.3617231691976315 -105.29141730069932 0 0 0 0 -44.227101944497917 10.133039036680202 0 10.133039036680202 -14.132970323993959 0 0 0 0 53.265849746139338 -31.238236157837491 0 -31.238236157837491 -64.077159266771332 0 0 0 0 5.2899895120008491 -9.9246085073094221 0 -9.9246085073094221 -28.466058460132309 0 0 0 0 10.638004308293603 1.1720992622622362 0 1.1720992622622362 -48.200765160064293 0 0 0 0 13.202707054971142 -4.0023651277788304 0 -4.0023651277788304 -48.325273501441188 0 0 0 0 14.286773740905119 1.4897501472046315 0 1.4897501472046315 -50.413733743586363 0 0 0 0 13.882676418231767 -0.61157175953030674 0 -0.61157175953030674 -48.391115203856458 0 0 0 0 19.531609134225619 6.5715588974501316 0 6.5715588974501316 -55.4355101549354 0 0 0 0 4.6108307240319846 1.2622851522594374 0 1.2622851522594374 -46.133190973981755 0 0 0 0 24.49938086788643 -6.1743485668566791 0 -6.1743485668566791 -52.379683456640805 0 0 0 0 -1.827165820095388 16.079084001704246 0 16.079084001704246 -58.321457337844322 0 0 0 0 -5.6280286347482615 10.624694393913387 0 10.624694393913387 -52.569581918231734 0 0 0 0 -20.847295742025381 42.17946464458123 0 42.17946464458123 -77.138228219862185 0 0 0 0 20.032290576058585 20.407415965714108 0 20.407415965714108 -73.566895265421635 0 0 0 0 6.2698639094007831 9.2715083702541961 0 9.2715083702541961 -66.164757558058909 0 0 0 0 18.906048722441938 3.446361845346928 0 3.446361845346928 -67.806070674203511 0 0 0 0 33.086108083391991 -7.7711459503613014 0 -7.7711459503613014 -68.87653022200152 0 0 0 0 59.674520219052738 78.498855200331718 0 78.498855200331718 -64.289335066656577 0 0 0 0 92.136424580638504 -31.336839843128587 0 -31.336839843128587 -70.487012005692122 0 0 0 0 9.9453254396569264 -48.97621809117399 0 -48.97621809117399 -58.059714611797517 0 0 0 0 -3.8596732198454902 -14.598390170473152 0 -14.598390170473152 -45.410768109268702 0 0 0 0 1.2330379854881599 -0.15446155746207513 0 -0.15446155746207513 -0.090525368417814445 0 0 0 0 65.887341368068519 70.903807611240609 0 70.903807611240609 73.968320666899672 0 0 0 0 128.65452260297002 27.933088540176755 0 27.933088540176755 -16.619228752415438 0 0 0 0 4.1276624869551597 -11.030962074134436 0 -11.030962074134436 -41.505265518780107 0 0 0 0 20.900222294970462 -6.6885234695301925 0 -6.6885234695301925 -47.447660784178424 0 0 0 0 8.8920011269278803 -17.797527846086837 0 -17.797527846086837 -67.064111813088175 0 0 0 0 3.0537029151966859 -0.77642434677274785 0 -0.77642434677274785 0.46801768332593197 0 0 0 0 17.732409516539064 -20.788104626488575 0 -20.788104626488575 -43.757504876862583 0 0 0 0 23.440356801032749 -1.9931716441273011 0 -1.9931716441273011 -45.697761515427374 0 0 0 0 23.034075023008199 -3.4071085004914323 0 -3.4071085004914323 -45.660943118342857 0 0 0 0 34.490666414565112 -6.8118452671814111 0 -6.8118452671814111 -50.86347612668726 0 0 0 0 23.405281391966128 -5.1822957590511578 0 -5.1822957590511578 -55.084648888534502 0 0 0 0 10.680465051724696 -11.817674496788982 0 -11.817674496788982 -47.848677420914782 0 0 0 0 16.88589418057461 -2.3014085623267704 0 -2.3014085623267704 -49.252479844594291 0 0 0 0 36.366312201910205 -2.0414189758872681 0 -2.0414189758872681 -53.378594841557742 0 0 0 0 0.18008496174390737 -2.5652491306343208 0 -2.5652491306343208 -49.576490015281877 0 0 0 0 143.99671517871661 -22.405453406718152 0 -22.405453406718152 -51.897556821414582 0 0 0 0 9.826000053127018 13.506823158202451 0 13.506823158202451 -39.032260106945614 0 0 0 0 27.365088250322515 -66.290016378923042 0 -66.290016378923042 -6.4330043934496643 0 0 0 0 -73.019363129077874 -7.375823289076834 0 -7.375823289076834 10.171623243521708 0 0 0 0 -45.935383796180304 78.82906257202103 0 78.82906257202103 -98.265224274413413 0 0 0 0 18.211003480301997 -3.00387456465387 0 -3.00387456465387 -41.863185292695562 0 0 0 0 22.064182443131187 1.6646356268993259 0 1.6646356268993259 -94.442210695546237 0 0 0 0 2.0744188303294777 29.827407741772731 0 29.827407741772731 -78.648061019612214 0 0 0 0 1.7698608563423477 10.734843415502837 0 10.734843415502837 -37.978885554182853 0 0 0 0 28.213111673979256 31.198959979354186 0 31.198959979354186 -111.7644706730789 0 0 0 0 37.652335990983147 14.082906802388607 0 14.082906802388607 -91.400469459687884 0 0 0 0 32.19313588177647 23.572141137074141 0 23.572141137074141 -106.35124068875302 0 0 0 0 32.125553377037477 4.5051280232019053 0 4.5051280232019053 -131.53810514912311 0 0 0 0 25.210799294817662 19.172638434558394 0 19.172638434558394 -61.863880973902269 0 0 0 0 28.236398976667516 39.689029464928495 0 39.689029464928495 -195.43643780102866 0 0 0 0 -1.790587079291754 -45.084290399491238 0 -45.084290399491238 -149.15169757019248 0 0 0 0 0.040226102294582233 12.223617163654126 0 12.223617163654126 -4.2693859948522004 0 0 0 0 0.67568939951274842 -24.352994109919564 0 -24.352994109919564 -42.989049613785028 0 0 0 0 10.788220248914627 7.8239701074517143 0 7.8239701074517143 -63.964778126213787 0 0 0 0 -1.3935336329975598 -2.3555233175738977 0 -2.3555233175738977 -17.780446013803157 0 0 0 0 240.84550385849838 -22.954166250700411 0 -22.954166250700411 -231.04426073623836 0 0 0 0 -0.1015998530421611 -2.3352045643076584 0 -2.3352045643076584 -46.584301158030129 0 0 0 0 -1.1030908075701777 1.2648048226697615 0 1.2648048226697615 -1.8441447597849532 0 0 0 0 -40.517414318318515 101.1600589863092 0 101.1600589863092 6.0365059159294105 0 0 0 0 -60.502056137960608 9.5968279232201894 0 9.5968279232201894 7.2662956545245834 0 0 0 0 2.3700875342746026 0.38758966856976773 0 0.38758966856976773 -41.224382585104763 0 0 0 0 90.839171814688143 51.833615501017448 0 51.833615501017448 -25.203296140158272 0 0 0 0 11.054075353431987 11.577798376204084 0 11.577798376204084 -16.359666005497107 0 0 0 0 19.312322023050001 24.986372461709834 0 24.986372461709834 -26.483791029449094 0 0 0 0 14.170264827830124 31.078682787752768 0 31.078682787752768 5.1729636930940615 0 0 0 0 18.902067849110836 25.987961782342609 0 25.987961782342609 10.649667835241416 0 0 0 0 18.37946970420785 33.562388881381594 0 33.562388881381594 1.7881566500473127 0 0 0 0 63.956746899908815 -6.2063636768341581 0 -6.2063636768341581 -164.0723333744927 0 0 0 0 62.955658396285791 -112.55963585534612 0 -112.55963585534612 6.2045156209487686 0 0 0 0 5.7972270726477291 92.998386649300301 0 92.998386649300301 -228.88784941317408 0 0 0 0 -53.291744549525902 87.914187397493606 0 87.914187397493606 -82.381248738430259 0 0 0 0 1.2396459887182172 2.8575742371272979 0 2.8575742371272979 -0.91812048551721404 0 0 0 0 11.934026248142374 -26.838569993440089 0 -26.838569993440089 -103.50863216714424 0 0 0 0 -55.706663509138707 109.16505981982004 0 109.16505981982004 -140.44196175008392 0 0 0 0 8.4670464571408957 5.5825037476643047 0 5.5825037476643047 -1.5150637494625698 0 0 0 0 4.0650470201941289 12.873162887982971 0 12.873162887982971 -11.347876898485993 0 0 0 0 -0.32140042989819251 4.3920321548874099 0 4.3920321548874099 -5.0767408325125984 0 0 0 0 16.945501547274944 15.841645304907615 0 15.841645304907615 -10.902357355735148 0 0 0 0 18.265651571071331 23.151619387302844 0 23.151619387302844 1.501605037094123 0 0 0 0 48.43566755094821 17.200693124043028 0 17.200693124043028 -6.7428792218561284 0 0 0 0 35.675963486516991 16.532509381737327 0 16.532509381737327 -1.7706807280042085 0 0 0 0 17.267582508885923 9.4548355982073193 0 9.4548355982073193 -14.1680025695804 0 0 0 0 54.974073230037902 -68.384268212108509 0 -68.384268212108509 -75.826150366432557 0 0 0 0 32.632081796200509 -6.9121861039538999 0 -6.9121861039538999 6.2435584681958094 0 0 0 0 30.982013234164697 5.4756927026264748 0 5.4756927026264748 -76.674290999853881 0 0 0 0 -1.0851903352242118 11.603497944494146 0 11.603497944494146 7.688057985235055 0 0 0 0 5.7719362975362856 20.925355417468381 0 20.925355417468381 21.042635754674848 0 0 0 0 1.0697682922531269 2.5196006132113276 0 2.5196006132113276 -0.9321544908759396 0 0 0 0 19.541688520630032 13.609398209629035 0 13.609398209629035 -12.318504590128214 0 0 0 0 4.5849919806698836 9.8087163157752002 0 9.8087163157752002 3.3431825093193765 0 0 0 0 18.884063541574506 13.412011532665929 0 13.412011532665929 -12.318221224239096 0 0 0 0 8.6452230644636803 6.2001766553473097 0 6.2001766553473097 -3.5409816247799828 0 0 0 0 12.185752358946756 2.1119959839512177 0 2.1119959839512177 -7.9694915254352523 0 0 0 0 2.3853675877749083 12.446164886754559 0 12.446164886754559 4.8367882864258718 0 0 0 0 1.0325764474011994 0.47647513887262249 0 0.47647513887262249 -3.4900056801899257 0 0 0 0 7.860475603982195 0.15746499741726439 0 0.15746499741726439 -27.742900316668965 0 0 0 0 14.41338775761562 4.5506801532848549 0 4.5506801532848549 -22.321000190011841 0 0 0 0 6.5034897142794854 -5.0855131658181802 0 -5.0855131658181802 -13.840856037454966 0 0 0 0 -0.72622798604788841 30.592168315959725 0 30.592168315959725 -43.186896250703455 0 0 0 0 -50.3860879306485 -0.60042068872030541 0 -0.60042068872030541 -35.471822953345509 0 0 0 0 12.738918151615962 -5.1858256494288071 0 -5.1858256494288071 -3.6176180169532017 0 0 0 0 0.4198364561307244 -3.1930650112190051 0 -3.1930650112190051 -3.9232660825766743 0 0 0 0 12.223444959073277 -6.4813316417937585 0 -6.4813316417937585 -6.2469068563495966 0 0 0 0 4.8337721612716553 -3.922267286514753 0 -3.922267286514753 -6.0516174452243696 0 0 0 0 32.90582711192792 -111.52915250640444 0 -111.52915250640444 136.33803218790399 0 0 0 0 -77.163617140227871 70.179083262806671 0 70.179083262806671 -234.82849558751468 0 0 0 0 24.312101139243168 -18.815666912581491 0 -18.815666912581491 86.002663195107289 0 0 0 0 1.5222614673108019 -0.00052912830909046527 0 -0.00052912830909046527 -0.28001017920285243 0 0 0 0 -16.566003288005959 14.233347938609313 0 14.233347938609313 1.3815771955314631 0 0 0 0 122.55836932343664 -95.681098716441284 0 -95.681098716441284 -8.8973633422310741 0 0 0 0 116.36307561686954 -19.4051754713214 0 -19.4051754713214 -30.617086203741565 0 0 0 0 28.42790498944305 -60.58934883519737 0 -60.58934883519737 23.892811215361689 0 0 0 0 2.9441426902882384 -7.3943458858754054 0 -7.3943458858754054 -11.876757488554567 0 0 0 0 54.440315961053784 -30.006564810870714 0 -30.006564810870714 -29.437846759909007 0 0 0 0 22.685490842876789 12.867045847685404 0 12.867045847685404 -27.880682731714515 0 0 0 0 30.605065312693114 -56.269538262437891 0 -56.269538262437891 52.97111819580914 0 0 0 0 31.555662994165687 -41.668949525818789 0 -41.668949525818789 32.604597257211935 0 0 0 0 46.782084523620142 -34.361741242652897 0 -34.361741242652897 10.418274989558995 0 0 0 0 33.242473938442345 -44.527864634927028 0 -44.527864634927028 -3.2643248641929858 0 0 0 0 7.6202116407894209 -30.195453428467317 0 -30.195453428467317 11.295653210525643 0 0 0 0 32.648246099272001 -40.942917815943019 0 -40.942917815943019 9.1175442532148736 0 0 0 0 37.788765193806285 -41.75661759801892 0 -41.75661759801892 0.54317317561071832 0 0 0 0 34.956396515266533 -41.289582025317031 0 -41.289582025317031 5.5105565487447166 0 0 0 0 32.996719675867098 -41.610892642326462 0 -41.610892642326462 21.071561755408766 0 0 0 0 32.953319757378267 -37.300465643942744 0 -37.300465643942744 6.1907038247582022 0 0 0 0 42.07596493726669 -39.326413877765845 0 -39.326413877765845 9.3920717153105215 0 0 0 0 65.215438469029323 56.211677215006148 0 56.211677215006148 -201.7917818849769 0 0 0 0 48.484985235905697 -19.325072485232795 0 -19.325072485232795 37.293612906710791 0 0 0 0 43.738335540405387 -34.571644839260898 0 -34.571644839260898 21.513879886784707 0 0 0 0 30.366216442314908 -39.571079204020407 0 -39.571079204020407 23.806432841686274 0 0 0 0 47.83149580137615 78.286105587799284 0 78.286105587799284 -194.45984539897154 0 0 0 0 4.6014710128652183 -0.0012232864049166459 0 -0.0012232864049166459 -0.78302975593954827 0 0 0 0 57.573537358413887 87.667731975350307 0 87.667731975350307 -135.04329047163446 0 0 0 0 22.338573558772623 -35.541288372297458 0 -35.541288372297458 23.555684110747279 0 0 0 0 1.1099605344870724 -15.195663424240593 0 -15.195663424240593 4.109030313922176 0 0 0 0 30.535724171868424 -36.79881766669132 0 -36.79881766669132 1.0581503104740477 0 0 0 0 37.151536462271906 -31.680401114668257 0 -31.680401114668257 -8.4796713550208551 0 0 0 0 7.2890631620291835 0.53222136705550405 0 0.53222136705550405 -0.87472046044035512 0 0 0 0 26.272741899748326 14.188390031636231 0 14.188390031636231 -43.478023702522478 0 0 0 0 44.783094683519266 69.67770157148459 0 69.67770157148459 12.066769922805179 0 0 0 0 24.345594067566026 22.94309062827665 0 22.94309062827665 -295.79694323985382 0 0 0 0 -20.561792023514499 -50.106387341116488 0 -50.106387341116488 -162.40950402497231 0 0 0 0 0.29391983702285174 0.59001943864578266 0 0.59001943864578266 -0.61386155962324329 0 0 0 0 48.491091247094118 30.337902853441392 0 30.337902853441392 -15.132913532376278 0 0 0 0 21.755353098013074 -5.2854226048325472 0 -5.2854226048325472 -17.230773561631395 0 0 0 0 50.352045739286496 28.190613958661174 0 28.190613958661174 -13.921228619898102 0 0 0 0 31.988811473941041 18.662533922994839 0 18.662533922994839 -5.5938106428047831 0 0 0 0 25.563923231247145 22.782512799358301 0 22.782512799358301 24.128423245482736 0 0 0 0 17.186077098767782 -0.38318986851777481 0 -0.38318986851777481 -10.647204380658422 0 0 0 0 5.2881702793599672 -1.9730164811066606 0 -1.9730164811066606 -5.0921996967494589 0 0 0 0 18.49972863072162 12.470147144751536 0 12.470147144751536 -26.917008208922198 0 0 0 0 -9.1705223774915794 21.35621786614638 0 21.35621786614638 20.93169322411859 0 0 0 0 5.1315146075371558 -30.385404603465531 0 -30.385404603465531 -88.716722661190943 0 0 0 0 -6.9082576437431271 -9.7219680002162931 0 -9.7219680002162931 -6.0466281277285816 0 0 0 0 17.547195834584954 11.345301709173214 0 11.345301709173214 -147.44452931965043 0 0 0 0 -9.0040898978622863 83.78243363346246 0 83.78243363346246 -264.95436640704111 0 0 0 0 30.003534236826454 35.08433734809114 0 35.08433734809114 -119.60880473998213 0 0 0 0 34.996536851185738 16.547173812215078 0 16.547173812215078 -87.667994138235599 0 0 0 0 57.326859962218805 86.415589247223807 0 86.415589247223807 -73.708990586771506 0 0 0 0 43.25259516001006 17.732636665437212 0 17.732636665437212 -28.296789140988949 0 0 0 0 40.251293501529744 29.073531197193574 0 29.073531197193574 -70.887753944224642 0 0 0 0 14.577827878147104 8.877212740085497 0 8.877212740085497 -32.6989784078105 0 0 0 0 10.040489751128007 -11.241607176703837 0 -11.241607176703837 -44.827861236596618 0 0 0 0 12.443595395674492 -0.76905146083663567 0 -0.76905146083663567 -44.491841855586244 0 0 0 0 -17.672561846648023 8.1763322708720807 0 8.1763322708720807 -38.889339396679134 0 0 0 0 8.6227389394171041 14.54996217716689 0 14.54996217716689 -64.803379162058263 0 0 0 0 13.103874989510587 23.767846176991952 0 23.767846176991952 -77.737590778277081 0 0 0 0 3.3157212100172728 -12.037829568966117 0 -12.037829568966117 -50.771330512696295 0 0 0 0 9.6447221299349621 1.423918858057732 0 1.423918858057732 -37.632476771962502 0 0 0 0 -2.9452114383493608 6.574771216712179 0 6.574771216712179 -20.610801464568794 0 0 0 0 13.489663960184771 4.9608965398310829 0 4.9608965398310829 -20.533237075558304 0 0 0 0 11.390457050100849 -13.442940061231639 0 -13.442940061231639 -6.7289488282003731 0 0 0 0 13.479477241931193 -3.4400642141831668 0 -3.4400642141831668 -5.5291958334782976 0 0 0 0 -0.4735355906195764 2.4981632287135653 0 2.4981632287135653 -13.677833708821709 0 0 0 0 10.068176057826932 -0.42603997038653318 0 -0.42603997038653318 -8.1518156712369532 0 0 0 0 9.2737722069388155 0.92934867170060897 0 0.92934867170060897 -3.36523815873079 0 0 0 0 10.985950858540491 9.8701377588477044 0 9.8701377588477044 -7.2784118425661291 0 0 0 0 18.830570217895001 10.256683118899673 0 10.256683118899673 -23.583647240335267 0 0 0 0 8.1324230965965043 -1.4327415256477636 0 -1.4327415256477636 -15.772061988517081 0 0 0 0 21.469162723984937 -2.1321074121406127 0 -2.1321074121406127 -20.198832298578054 0 0 0 0 17.909790425734172 2.0845510807994287 0 2.0845510807994287 -26.226342886791826 0 0 0 0 6.8007962857229378 -2.5583187861687406 0 -2.5583187861687406 -17.389504207676893 0 0 0 0 5.5001960038079005 -19.080171506773695 0 -19.080171506773695 -19.324134387716185 0 0 0 0 18.503507587598051 -18.04735451943634 0 -18.04735451943634 -36.350193349484471 0 0 0 0 17.116502480849174 -5.76477330963219 0 -5.76477330963219 -17.074013441672051 0 0 0 0 62.402335319715348 -43.878565541881471 0 -43.878565541881471 11.397166105802171 0 0 0 0 35.832395926083336 -4.9704759597589145 0 -4.9704759597589145 -25.004621494852472 0 0 0 0 22.274658222077278 3.9952614576636734 0 3.9952614576636734 -29.282398033403297 0 0 0 0 5.5794744247526395 6.7057906609586411 0 6.7057906609586411 -18.262236567320642 0 0 0 0 13.2127730238808 0.8724330361255852 0 0.8724330361255852 -24.705010219915494 0 0 0 0 13.839721570182519 -7.0007746821393084 0 -7.0007746821393084 -32.041831052005364 0 0 0 0 6.4405606437100396 -6.4837732626472828 0 -6.4837732626472828 1.5903346165410319 0 0 0 0 7.4618178280652501 93.534221236477606 0 93.534221236477606 -62.593338251179375 0 0 0 0 0.48289846512781942 1.8438102515839816 0 1.8438102515839816 -14.769694623926185 0 0 0 0 82.272654510244138 47.918312611593137 0 47.918312611593137 -53.077738690175465 0 0 0 0 -6.9861308547315275 -41.932628978571302 0 -41.932628978571302 -61.548525091126066 0 0 0 0 0.17084222310790409 -0.48276775239551029 0 -0.48276775239551029 -0.77727334863254782 0 0 0 0 -39.329514296565321 -45.576684902200213 0 -45.576684902200213 -51.229418461494788 0 0 0 0 -12.812638449220685 -34.790205639670603 0 -34.790205639670603 -63.039629470509681 0 0 0 0 -16.246142021707783 -33.814320707049774 0 -33.814320707049774 -30.671680203464348 0 0 0 0 -9.902242463447692 -27.034140501862566 0 -27.034140501862566 -47.506550367150339 0 0 0 0 -4.2800898082423373 -48.89656114927493 0 -48.89656114927493 -50.374281912743754 0 0 0 0 -0.020048988239068422 -32.760064231431897 0 -32.760064231431897 -48.682864782240358 0 0 0 0 0.11516578931332333 -40.577515201002825 0 -40.577515201002825 -36.667850750614889 0 0 0 0 9.2561441045618267 -34.512867123914475 0 -34.512867123914475 -28.996395499161736 0 0 0 0 -0.41049500478959544 -30.672766213980481 0 -30.672766213980481 -30.080909224852803 0 0 0 0 23.506613216337428 -36.430172097556351 0 -36.430172097556351 -44.87763321073362 0 0 0 0 57.442872671381338 -63.086680104308471 0 -63.086680104308471 -33.304352949599718 0 0 0 0 11.040002013232879 -46.52098201046465 0 -46.52098201046465 -33.527108576364867 0 0 0 0 67.347673886690245 -6.5474132209828895 0 -6.5474132209828895 -67.378955434513045 0 0 0 0 197.17460166040837 97.016782089885965 0 97.016782089885965 -4.7000716142647434 0 0 0 0 73.983206897257332 0.48229160884238809 0 0.48229160884238809 -87.572998691675821 0 0 0 0 15.169991187728968 -7.2663170571814675 0 -7.2663170571814675 -3.1393692137539588 0 0 0 0 14.994541015788855 -8.0134605842213205 0 -8.0134605842213205 -55.667897844796244 0 0 0 0 1.5345158016752976 -27.340943544346374 0 -27.340943544346374 -76.866390097924523 0 0 0 0 1.6962619031221227 2.7782507964735217 0 2.7782507964735217 1.6070801634985799 0 0 0 0 56.180195934996391 54.432992160881895 0 54.432992160881895 -41.188962595664634 0 0 0 0 -0.65057382381110962 15.744452484140663 0 15.744452484140663 -45.490442805244328 0 0 0 0 29.275316737930552 51.832249298977331 0 51.832249298977331 -21.602484621031181 0 0 0 0 59.250633109280898 13.912505232223339 0 13.912505232223339 -22.679994369542669 0 0 0 0 22.350215130594734 63.718650068130046 0 63.718650068130046 -41.960241257489542 0 0 0 0 -68.023910673184218 42.261212873867407 0 42.261212873867407 -3.898333702401942 0 0 0 0 -104.42282850058473 68.644690953783538 0 68.644690953783538 -20.760647100774804 0 0 0 0 21.106933870086891 46.274306749949574 0 46.274306749949574 -71.543629417676129 0 0 0 0 36.206449056534439 -23.537300932595826 0 -23.537300932595826 -84.398100793575395 0 0 0 0 -0.080510833560487605 -0.037198440417739675 0 -0.037198440417739675 -0.96602810962590979 0 0 0 0 5.3819554634410451 16.722279450544193 0 16.722279450544193 1.3382518383514252 0 0 0 0 30.591857371777223 19.356507369991959 0 19.356507369991959 -9.5150273210583691 0 0 0 0 3.1789645048511952 4.0779903550665786 0 4.0779903550665786 -1.3856574670203514 0 0 0 0 13.032881478116906 7.8812309835539054 0 7.8812309835539054 -4.1080726309446618 0 0 0 0 10.708291861503785 15.706147320793203 0 15.706147320793203 -13.765450675935462 0 0 0 0 1.5458571372082588 25.767664474191406 0 25.767664474191406 -5.0416123119492795 0 0 0 0 2.5114134441796523 25.663873476956269 0 25.663873476956269 -5.4996803549865945 0 0 0 0 -0.39189081493896083 2.9606702554037838 0 2.9606702554037838 -42.61250877456223 0 0 0 0 7.2920286403307806 0.74681399539341609 0 0.74681399539341609 -3.2193870784943144 0 0 0 0 10.908061574736394 -1.171845668759488 0 -1.171845668759488 -10.203828118850652 0 0 0 0 5.9652593735581831 25.172741391218551 0 25.172741391218551 -72.104490615643954 0 0 0 0 -0.43165416649208055 -0.8639547627169577 0 -0.8639547627169577 -11.215948361090341 0 0 0 0 13.974218173034387 12.667348529012088 0 12.667348529012088 -7.4179573973297011 0 0 0 0 9.9477944251422912 3.1102933757371014 0 3.1102933757371014 -3.9813293624872976 0 0 0 0 9.460114114532189 7.3382609954219333 0 7.3382609954219333 -12.39431592323308 0 0 0 0 12.846609539066776 3.7484177958613145 0 3.7484177958613145 -13.124249213986332 0 0 0 0 10.02794672977787 2.1584259612622816 0 2.1584259612622816 -4.2733092755756417 0 0 0 0 4.9111840226723871 8.1740332782537735 0 8.1740332782537735 -13.035467746479299 0 0 0 0 10.874390406542261 6.2985232896826346 0 6.2985232896826346 -14.16192937543201 0 0 0 0 7.5535660081348652 6.1193285141793083 0 6.1193285141793083 -2.2588571411714433 0 0 0 0 6.4826277059100477 10.262537674935174 0 10.262537674935174 -14.970369036596821 0 0 0 0 12.617192428861927 3.2678498512705119 0 3.2678498512705119 -10.098665686415188 0 0 0 0 7.779334308677166 2.0897039356467886 0 2.0897039356467886 -2.9787531037670121 0 0 0 0 16.395576131496796 -3.6951254908171904 0 -3.6951254908171904 -3.6667657212419726 0 0 0 0 14.471093190807323 -1.5988677190580347 0 -1.5988677190580347 -4.6474720682163024 0 0 0 0 8.4648585568586441 5.8528956516438484 0 5.8528956516438484 1.6363245820293741 0 0 0 0 10.770963586374478 8.5408605452794291 0 8.5408605452794291 -18.952564786759467 0 0 0 0 1.1760875857210351 2.9968419396332138 0 2.9968419396332138 -4.8583462890383089 0 0 0 0 16.086075462430927 7.2118156421402091 0 7.2118156421402091 -3.8351623454145738 0 0 0 0 15.033755405578631 5.0548589099671517 0 5.0548589099671517 -50.660554224377847 0 0 0 0 7.5629780063136423 12.874482455979887 0 12.874482455979887 -45.01486409286008 0 0 0 0 18.629831348506741 -4.8010176860225329 0 -4.8010176860225329 -41.535515115684575 0 0 0 0 9.1772393188094039 -1.3081357609333466 0 -1.3081357609333466 -14.225669229456486 0 0 0 0 17.244919205332735 3.1955516343587078 0 3.1955516343587078 -38.019318238764754 0 0 0 0 12.766577879700435 7.0131554223053172 0 7.0131554223053172 -12.703106691995345 0 0 0 0 16.932475505203129 8.3819883295451874 0 8.3819883295451874 -24.312362773836639 0 0 0 0 14.344138568081689 2.1063435813084652 0 2.1063435813084652 -11.547358526790049 0 0 0 0 11.691677594853211 5.1736011054820885 0 5.1736011054820885 -9.4972211105942179 0 0 0 0 12.868706230699113 5.1011384735596064 0 5.1011384735596064 -12.743877388644869 0 0 0 0 3.2465428702010568 -2.0707289381518121 0 -2.0707289381518121 -6.0001909345420756 0 0 0 0 13.055914390178259 3.2361682580440174 0 3.2361682580440174 -12.353355555061171 0 0 0 0 14.463165248468215 -4.672659221927006 0 -4.672659221927006 -5.7392196679757035 0 0 0 0 14.943024333210815 -7.0845419496181421 0 -7.0845419496181421 -3.4084845783472701 0 0 0 0 13.059207337071712 -4.2953617743778523 0 -4.2953617743778523 -5.7911069647670956 0 0 0 0 13.462301960315472 -2.5259521028146992 0 -2.5259521028146992 -6.2469785226762724 0 0 0 0 10.549488292380829 -1.6709868805992301 0 -1.6709868805992301 -2.9272773706579756 0 0 0 0 -4.6008489159560781 12.198819165230816 0 12.198819165230816 -13.305434591487028 0 0 0 0 0.69147611421150756 0.35855008274327105 0 0.35855008274327105 -2.3267916675116354 0 0 0 0 2.4666925313010779 5.2299618918041233 0 5.2299618918041233 -10.825959644931572 0 0 0 0 1.9885680411204258 3.3366696585525801 0 3.3366696585525801 -7.1302594971795585 0 0 0 0 10.356883402597759 -2.4937446339044982 0 -2.4937446339044982 -6.3195216477633949 0 0 0 0 0.90627754748824829 1.6742260669875009 0 1.6742260669875009 -0.91824684098712339 0 0 0 0 0.39738868871598498 1.3762614629039582 0 1.3762614629039582 -6.9203432976918435 0 0 0 0 -15.766504903813143 -5.9814192664453003 0 -5.9814192664453003 55.233901030351262 0 0 0 0 25.106784520178493 8.3856594855797084 0 8.3856594855797084 -20.244519151015993 0 0 0 0 19.657891195240978 23.267008336432355 0 23.267008336432355 -3.1823050539569522 0 0 0 0 9.4776659302701773 0.46911664028448286 0 0.46911664028448286 -3.6606759597052587 0 0 0 0 9.2298754611045979 0.48092769740924268 0 0.48092769740924268 0.8927500812933431 0 0 0 0 11.097707441603006 -2.4783276044381637 0 -2.4783276044381637 5.6583756450745568 0 0 0 0 9.4640881251311839 -0.32541022683653864 0 -0.32541022683653864 3.5581945047597401 0 0 0 0 11.9425178916199 -0.86367932379107515 0 -0.86367932379107515 -3.1453592192629003 0 0 0 0 12.579675606969829 -2.3564115444032723 0 -2.3564115444032723 -0.061391406256007031 0 0 0 0 6.1742474220147869 10.415934870582532 0 10.415934870582532 -17.847517053563934 0 0 0 0 9.0274330321246907 18.435427321774114 0 18.435427321774114 -42.628304324120109 0 0 0 0 0.12578794431740492 1.0584051739603417 0 1.0584051739603417 -1.8210949106290784 0 0 0 0 20.524820527454153 -17.859284041429419 0 -17.859284041429419 -4.6849705331369478 0 0 0 0 -2.5835774412264527 3.0504310156302381 0 3.0504310156302381 -10.905792020585068 0 0 0 0 12.585251761344068 3.2069741122832056 0 3.2069741122832056 -25.660455373079458 0 0 0 0 26.544197117312933 3.8460377095107106 0 3.8460377095107106 -16.962305002954963 0 0 0 0 3.2023971023269269 0.34165324803871044 0 0.34165324803871044 3.1545709190377238 0 0 0 0 10.743400358062786 -1.2303163089127338 0 -1.2303163089127338 -20.856942296879424 0 0 0 0 -72.122768710129208 41.169159203896925 0 41.169159203896925 -5.7433279264532757 0 0 0 0 -31.711851963241543 16.98698851638801 0 16.98698851638801 -14.978159559894266 0 0 0 0 20.117509939300021 31.656139183476625 0 31.656139183476625 -90.55404726789493 0 0 0 0 -1.2070411499227021 41.05641958785418 0 41.05641958785418 -72.534585126340971 0 0 0 0 2.7017279739241076 27.919737912656274 0 27.919737912656274 -42.010491319656921 0 0 0 0 6.3242630223312517 50.541157589384966 0 50.541157589384966 -72.170596593762639 0 0 0 0 17.517555953108058 56.248497313363259 0 56.248497313363259 -115.32055038325962 0 0 0 0 49.931715259761063 19.427208833540135 0 19.427208833540135 -141.44202897755622 0 0 0 0 44.704250183438376 38.997765719174822 0 38.997765719174822 -203.67140799173831 0 0 0 0 -130.0868263974333 140.17587505980555 0 140.17587505980555 -118.0370218342905 0 0 0 0 -11.279340782424242 89.326351095962309 0 89.326351095962309 -146.47507680498529 0 0 0 0 21.625607325771284 51.522549077739313 0 51.522549077739313 -145.15906114683094 0 0 0 0 7.4614874309970105 108.15134907506672 0 108.15134907506672 -350.60444492991519 0 0 0 0 -226.93358739838919 -153.73467074282053 0 -153.73467074282053 73.760443036142533 0 0 0 0 -28.383551330941259 77.519679046068632 0 77.519679046068632 50.492925328570664 0 0 0 0 20.16304355225904 -62.90477514747765 0 -62.90477514747765 -345.78362561803806 0 0 0 0 46.721328961761628 -15.201247845761827 0 -15.201247845761827 -76.758931948217651 0 0 0 0 20.166015543712085 -63.958279798731319 0 -63.958279798731319 -104.18601866129393 0 0 0 0 -121.2125095649501 11.463847604232797 0 11.463847604232797 -303.58177494769188 0 0 0 0 65.42960109040871 294.95532760750029 0 294.95532760750029 -257.40820998270647 0 0 0 0 -72.904075180827476 123.34819351720216 0 123.34819351720216 95.761859907948747 0 0 0 0 149.89626877122214 140.41958555684323 0 140.41958555684323 -473.1066840068961 0 0 0 0 -0.10615323029781863 0.39695276808922664 0 0.39695276808922664 -2.6463404160208555 0 0 0 0 59.659618651193 54.364331734426742 0 54.364331734426742 -464.19824458744733 0 0 0 0 -6.2159945783871535 -2.4252628436533996 0 -2.4252628436533996 -175.07278942063931 0 0 0 0 1.8869843016128129 -115.49638647184247 0 -115.49638647184247 -299.67613097963476 0 0 0 0 121.46625781416179 -8.412316874237149 0 -8.412316874237149 -472.17041113643381 0 0 0 0 -6.2407488723429196 12.789862239400463 0 12.789862239400463 -5.3376333546589194 0 0 0 0 11.315408472579975 -6.8587967398834735 0 -6.8587967398834735 36.492758707235907 0 0 0 0 -0.8322681951770825 1.3832927346848471 0 1.3832927346848471 -1.6780602836544887 0 0 0 0 -11.22913025049553 170.13378815674355 0 170.13378815674355 -131.52732129756623 0 0 0 0 -22.495965177918606 177.5088011242733 0 177.5088011242733 54.211729883350927 0 0 0 0 -46.464276822535567 113.36885637353498 0 113.36885637353498 -154.15265593232471 0 0 0 0 -53.206327412743235 94.53451431034955 0 94.53451431034955 -82.412305287229174 0 0 0 0 -23.111970430916472 25.986707594148356 0 25.986707594148356 -101.72860538140594 0 0 0 0 -67.27122510811148 77.413143723262692 0 77.413143723262692 -106.08573942851029 0 0 0 0 -6.2612226737120977 -9.2022414470520744 0 -9.2022414470520744 -25.575470713949471 0 0 0 0 -10.892593049359334 9.6097388769533154 0 9.6097388769533154 -13.578807236895955 0 0 0 0 23.900590100170803 9.5703438922773785 0 9.5703438922773785 -102.75014980077469 0 0 0 0 11.654834703112328 -5.7923526993290579 0 -5.7923526993290579 -15.964289864937655 0 0 0 0 -0.51048389315764098 -7.2645870748483503 0 -7.2645870748483503 10.434351045965741 0 0 0 0 -3.9926501803176961 4.155636292140116 0 4.155636292140116 -8.8475673706070666 0 0 0 0 5.7258478072917001 -18.515672600509788 0 -18.515672600509788 6.9474733080423903 0 0 0 0 -3.2385623496002154 -17.32690992217249 0 -17.32690992217249 16.923712132163928 0 0 0 0 28.891516715441981 -12.089776689308565 0 -12.089776689308565 -24.592996674902679 0 0 0 0 24.09115313266534 -19.767739129138135 0 -19.767739129138135 1.4413216745087993 0 0 0 0 0.41531897866473955 -0.12115064421465149 0 -0.12115064421465149 -0.51835083582568586 0 0 0 0 8.8909808678040463 4.5870495108247269 0 4.5870495108247269 -2.3100140165552148 0 0 0 0 14.677698128402199 -2.531446161779968 0 -2.531446161779968 1.675677343388088 0 0 0 0 12.741040916826307 -1.5031653948844905 0 -1.5031653948844905 1.1546732576316572 0 0 0 0 13.848828126435137 -3.1234328975751851 0 -3.1234328975751851 -2.1369117356662173 0 0 0 0 13.612147640488047 -3.0302051330691029 0 -3.0302051330691029 2.5205620108663425 0 0 0 0 14.245351402779988 -2.8605289250081114 0 -2.8605289250081114 0.695251238081255 0 0 0 0 14.47299274060822 -0.14395985259693589 0 -0.14395985259693589 1.6131559328787262 0 0 0 0 12.161194974002399 -2.9158170952828186 0 -2.9158170952828186 5.9018051065795589 0 0 0 0 12.238154115574162 -0.86775571123507689 0 -0.86775571123507689 1.7949523805764329 0 0 0 0 5.0265006377342161 -2.2096678326652182 0 -2.2096678326652182 4.3609600289564696 0 0 0 0 28.726025861720245 -20.85008312176069 0 -20.85008312176069 9.0295658886243473 0 0 0 0 14.683852521447648 -5.9178114331225515 0 -5.9178114331225515 5.1808191394811729 0 0 0 0 15.836413235987948 -3.6253626912730397 0 -3.6253626912730397 3.6436607578980329 0 0 0 0 36.457408020994791 -32.623463572019318 0 -32.623463572019318 11.30089422029414 0 0 0 0 13.45011621130152 -32.916061514582907 0 -32.916061514582907 23.85344301040459 0 0 0 0 19.257573206456982 -11.921959982355474 0 -11.921959982355474 2.5347768874780741 0 0 0 0 41.686160800572793 -16.345705694528078 0 -16.345705694528078 8.032775394822238 0 0 0 0 22.717136014561902 -6.9575889782317972 0 -6.9575889782317972 -7.6656463056842767 0 0 0 0 18.756090566149851 -6.5749076260326547 0 -6.5749076260326547 3.750622935978754 0 0 0 0 20.03220892772606 -2.6825293217953003 0 -2.6825293217953003 4.3694969464995665 0 0 0 0 37.857292797952141 -13.464988025509228 0 -13.464988025509228 6.2864254022233581 0 0 0 0 25.368469148037093 -21.788373614017473 0 -21.788373614017473 3.0372288153594127 0 0 0 0 37.570728589314058 -12.904718273763137 0 -12.904718273763137 30.213365298259305 0 0 0 0 7.2119638550178014 -0.74736253810131004 0 -0.74736253810131004 -7.2829280101467901 0 0 0 0 13.386308099826786 2.4275906421041675 0 2.4275906421041675 -9.2873147355456211 0 0 0 0 19.55506806676749 6.4248383314279636 0 6.4248383314279636 -7.0245684218898532 0 0 0 0 19.155288842558321 -3.2242012146003276 0 -3.2242012146003276 -2.3440829249448143 0 0 0 0 16.002516127718536 -3.9258825668912323 0 -3.9258825668912323 -5.4435727373520422 0 0 0 0 13.389694303972789 -2.816349969814155 0 -2.816349969814155 -2.2908278633258305 0 0 0 0 15.876827447601499 -1.7045658964325412 0 -1.7045658964325412 -5.7723678967813612 0 0 0 0 15.650077112523832 -23.346405865147972 0 -23.346405865147972 -20.918175104277907 0 0 0 0 55.169268128801377 -4.8122806494502584 0 -4.8122806494502584 -32.376807191027183 0 0 0 0 11.432267854165884 -0.7557410838276013 0 -0.7557410838276013 -13.553035566744839 0 0 0 0 2.8284048161381179 -7.4704276533229859 0 -7.4704276533229859 -15.143961008332553 0 0 0 0 15.917286364206802 -44.617592176895414 0 -44.617592176895414 33.704912653003703 0 0 0 0 15.283101295305187 -0.92454506857211527 0 -0.92454506857211527 -20.811639716085665 0 0 0 0 7.7494332395427437 -4.5644612186950155 0 -4.5644612186950155 -17.048774209450833 0 0 0 0 3.3854211560534915 -6.830968447713623 0 -6.830968447713623 -18.975373026643098 0 0 0 0 61.977374782785859 -17.238008918251239 0 -17.238008918251239 -39.970732137229788 0 0 0 0 -24.628794939509433 -13.089816828747644 0 -13.089816828747644 -0.33997409486437391 0 0 0 0 2.9814369254460393 -12.837923293602628 0 -12.837923293602628 -21.270383011390763 0 0 0 0 43.723206573731069 -82.375600851360929 0 -82.375600851360929 5.8123630921145377 0 0 0 0 107.66280026726258 25.03009019477031 0 25.03009019477031 -27.460889505319756 0 0 0 0 111.30699241245202 57.682163653152202 0 57.682163653152202 -30.364220460382057 0 0 0 0 -13.847045904882179 -7.6544387579051545 0 -7.6544387579051545 20.658209287527825 0 0 0 0 -0.59927256028811371 -23.842025395000746 0 -23.842025395000746 41.946622328432568 0 0 0 0 3.5651933175851696 -29.380669164853316 0 -29.380669164853316 24.002625562992762 0 0 0 0 40.000125271427237 -5.3722466265135154 0 -5.3722466265135154 15.667627837668988 0 0 0 0 14.288591557968971 -31.561013221731628 0 -31.561013221731628 -7.5088733321172185 0 0 0 0 -50.185751724142392 9.188099506760409 0 9.188099506760409 -4.8033985428022561 0 0 0 0 -9.5457986675207849 38.803396634833916 0 38.803396634833916 -92.736422304022199 0 0 0 0 -13.160683571657628 -61.061062034911629 0 -61.061062034911629 22.743848527941736 0 0 0 0 -37.174488355375573 26.656827362525291 0 26.656827362525291 -35.545978552878296 0 0 0 0 -131.06970022537206 275.09567838986732 0 275.09567838986732 -420.29346975272711 0 0 0 0 -1.9388223825412338 2.0972331281512595 0 2.0972331281512595 -2.9375731890899104 0 0 0 0 -160.00741959755203 94.557999484438596 0 94.557999484438596 70.183230545320839 0 0 0 0 44.030784966320219 156.76197993753385 0 156.76197993753385 -809.02235481995012 0 0 0 0 -64.628523735807676 -4.0448874636904293 0 -4.0448874636904293 -69.712552425200556 0 0 0 0 -93.392523992197397 142.24145145922546 0 142.24145145922546 -202.15678797098008 0 0 0 0 -11.09976856179037 17.783780841682528 0 17.783780841682528 -207.9007339622558 0 0 0 0 -3.7602513844792611 69.742214783143936 0 69.742214783143936 -223.22105119915796 0 0 0 0 -3.3843202796334566 85.472283121498947 0 85.472283121498947 -369.59744308672816 0 0 0 0 0.05476144597196253 29.45116996050001 0 29.45116996050001 -368.46719674810083 0 0 0 0 -15.507552237496611 140.82699706470521 0 140.82699706470521 -466.51688397294311 0 0 0 0 41.216111657749479 10.22759564581429 0 10.22759564581429 -696.17253377974885 0 0 0 0 45.075188090577285 -44.101136354567643 0 -44.101136354567643 -601.58296415858786 0 0 0 0 55.725409357566832 -61.165435845476168 0 -61.165435845476168 -461.16016731593481 0 0 0 0 71.984375058968226 -16.168046147718997 0 -16.168046147718997 -653.5974830526975 0 0 0 0 130.49216774280501 -129.56947669287001 0 -129.56947669287001 -764.53717282204707 0 0 0 0 111.57411453050133 -177.55380822886218 0 -177.55380822886218 -752.44268050994606 0 0 0 0 81.269344938937252 -99.70397025366583 0 -99.70397025366583 -639.27733054115924 0 0 0 0 63.344805939378716 -133.0667481006767 0 -133.0667481006767 -819.27852688593248 0 0 0 0 89.247535080402514 -98.625147057167396 0 -98.625147057167396 -852.10689144587013 0 0 0 0 -116.24464275365258 -59.276688177893448 0 -59.276688177893448 -816.95186118500533 0 0 0 0 63.547805900421849 -137.03185486373241 0 -137.03185486373241 -955.44009138605725 0 0 0 0 -187.41383960190922 84.023749491313993 0 84.023749491313993 -989.2348448995981 0 0 0 0 18.713953878721949 -78.015513457971565 0 -78.015513457971565 -848.35444757974619 0 0 0 0 -0.66522145421034251 0.62256062266825651 0 0.62256062266825651 -0.77253395647215939 0 0 0 0 -1.328412078351846 -165.86002386716427 0 -165.86002386716427 -162.31407302978187 0 0 0 0 19.34493811858361 42.530583495241444 0 42.530583495241444 15.057369041218408 0 0 0 0 18.188598914186343 -29.074344387465317 0 -29.074344387465317 -11.210954517940991 0 0 0 0 -1.4390141038679805 2.0890019531716426 0 2.0890019531716426 -2.3330442350865752 0 0 0 0 85.177419557435769 24.832900376641192 0 24.832900376641192 -154.53456077333794 0 0 0 0 95.874228288973086 -30.399021363632528 0 -30.399021363632528 -171.99167114633701 0 0 0 0 58.81482561760226 -14.797337295462285 0 -14.797337295462285 -262.38463028974547 0 0 0 0 106.76267776522377 -19.914976134467906 0 -19.914976134467906 -270.8931657014009 0 0 0 0 95.011031846413971 -12.531567477305543 0 -12.531567477305543 -124.65035103166156 0 0 0 0 63.002101879521547 41.888858346477718 0 41.888858346477718 -187.66097603865273 0 0 0 0 -8.4591610762890923 41.849964812678081 0 41.849964812678081 -144.66899844577529 0 0 0 0 -1.359706373366862 63.624563810324616 0 63.624563810324616 -100.7505520924642 0 0 0 0 38.930185938354271 -7.6519859758700477 0 -7.6519859758700477 -177.32635560022391 0 0 0 0 49.598506346839372 -75.35000304240566 0 -75.35000304240566 -369.54185093109754 0 0 0 0 15.202402946402799 50.037802593713423 0 50.037802593713423 -280.71332548857754 0 0 0 0 74.422353233014348 -36.309208044843217 0 -36.309208044843217 -495.48775614276747 0 0 0 0 103.84201199962229 -164.45525213549627 0 -164.45525213549627 -581.03228228786611 0 0 0 0 124.65251142726697 -140.95348458913668 0 -140.95348458913668 -590.45703336320366 0 0 0 0 140.87453230008623 -268.51144082690189 0 -268.51144082690189 -688.98121996929513 0 0 0 0 153.10826960290456 -252.17634066441315 0 -252.17634066441315 -693.39191721738098 0 0 0 0 50.635552272643395 -217.71550877364643 0 -217.71550877364643 -339.87797562839842 0 0 0 0 83.284355506211114 -256.561669238994 0 -256.561669238994 -505.31442096892897 0 0 0 0 88.457243184626932 -180.53828063905087 0 -180.53828063905087 -428.56311679067585 0 0 0 0 101.89863892454406 -250.28683772767909 0 -250.28683772767909 -509.79948033977598 0 0 0 0 -19.881222523047768 -290.46580201800316 0 -290.46580201800316 -466.50240073594432 0 0 0 0 -9.1574988515526456 -280.38733767779377 0 -280.38733767779377 -475.98456131642524 0 0 0 0 1.6366739248636648 -1.0247554518501296 0 -1.0247554518501296 -0.027094311477718236 0 0 0 0 -16.348045133214384 34.248359782704711 0 34.248359782704711 -48.337589073187701 0 0 0 0 -21.509992457345447 -161.0244718371232 0 -161.0244718371232 -312.60577625319547 0 0 0 0 -94.045095297625778 -471.22714658397081 0 -471.22714658397081 -702.70807282868191 0 0 0 0 124.10731902281088 -468.79087724575766 0 -468.79087724575766 -921.42559532645464 0 0 0 0 32.149842071967214 -378.38363563825806 0 -378.38363563825806 -667.4504974950014 0 0 0 0 -117.61595828992145 -387.30277408079974 0 -387.30277408079974 -499.35684055244928 0 0 0 0 37.959543450733918 -361.28779409265553 0 -361.28779409265553 -618.44799098151486 0 0 0 0 142.45613847661588 -372.97027040150533 0 -372.97027040150533 -798.6345982453895 0 0 0 0 83.067993342880982 -289.92707902222264 0 -289.92707902222264 -611.96406386496164 0 0 0 0 195.94214436790941 -377.50983364725926 0 -377.50983364725926 -798.35460145105753 0 0 0 0 123.26608734546591 -460.28868371120711 0 -460.28868371120711 -892.15686162265047 0 0 0 0 242.28593508022169 -327.20025219367562 0 -327.20025219367562 -854.55322943454257 0 0 0 0 216.07204732048123 -366.2967670642056 0 -366.2967670642056 -911.96572402600759 0 0 0 0 187.83755360118198 -290.10964603982393 0 -290.10964603982393 -859.35207893163897 0 0 0 0 165.90681750740441 -324.07564192972768 0 -324.07564192972768 -698.71531006973601 0 0 0 0 172.11164688180691 -234.07062611691254 0 -234.07062611691254 -730.86014657093438 0 0 0 0 178.80908281734548 -230.52290733775317 0 -230.52290733775317 -881.04620718458682 0 0 0 0 224.34350063888152 -280.37176813880615 0 -280.37176813880615 -970.89734345632496 0 0 0 0 177.99689389840489 -377.45757682512158 0 -377.45757682512158 -935.26986862409649 0 0 0 0 267.94753414867205 -324.27723399001115 0 -324.27723399001115 -923.61097138919013 0 0 0 0 212.47456981914107 -745.21404489036649 0 -745.21404489036649 -910.08047103280683 0 0 0 0 333.17760159546509 -594.68520304871345 0 -594.68520304871345 -1496.6891546826319 0 0 0 0 -64.731533282639504 -349.23468865289396 0 -349.23468865289396 326.18496231070276 0 0 0 0 0.29919224298330621 -2.2768700471319292 0 -2.2768700471319292 -2.0101215977752735 0 0 0 0 185.41185849426341 -713.54393397182412 0 -713.54393397182412 -270.6960338861536 0 0 0 0 305.86617082418883 -266.09219597078663 0 -266.09219597078663 -685.66510777307121 0 0 0 0 301.7901308098339 -351.41800191384073 0 -351.41800191384073 -909.74151103958138 0 0 0 0 296.42589052439706 -412.95796924710339 0 -412.95796924710339 -826.49447339850849 0 0 0 0 264.94824901311182 -431.73220242644038 0 -431.73220242644038 -933.43996834541758 0 0 0 0 125.82606191684511 -481.61579727534445 0 -481.61579727534445 -944.57283221940816 0 0 0 0 206.68350117712669 -404.68621140013056 0 -404.68621140013056 -895.67466272486422 0 0 0 0 127.83079227681947 -355.8942511930818 0 -355.8942511930818 -879.1092928476246 0 0 0 0 219.04563175899781 -362.69190008477312 0 -362.69190008477312 -998.12438336190826 0 0 0 0 217.93343850907524 -350.61572824757241 0 -350.61572824757241 -816.68732909632308 0 0 0 0 193.61059272334586 68.935101655053586 0 68.935101655053586 -571.91474292697967 0 0 0 0 -41.106680602683106 241.11252436556606 0 241.11252436556606 -1500.1003246151943 0 0 0 0 310.28192536463422 -382.6967222232887 0 -382.6967222232887 -806.98474414806333 0 0 0 0 170.57587389025275 -250.99100022361745 0 -250.99100022361745 -554.74773521130555 0 0 0 0 179.01226845664075 -7.684369709620114 0 -7.684369709620114 -912.88185800301289 0 0 0 0 115.20378659949938 -208.94589230691781 0 -208.94589230691781 -902.23201279279601 0 0 0 0 170.59926008323205 -223.72425168231302 0 -223.72425168231302 -963.87625983033649 0 0 0 0 -20.121730358665552 204.01260554058763 0 204.01260554058763 -1435.8864713035427 0 0 0 0 78.892211922739762 -116.49804416425832 0 -116.49804416425832 -1012.2006770113476 0 0 0 0 1.4820887840257648 -4.7449604349113912 0 -4.7449604349113912 -3.9674358569826929 0 0 0 0 67.285270844415805 130.00861197569975 0 130.00861197569975 -1499.5842474508681 0 0 0 0 -42.59898921648778 -173.00414500848547 0 -173.00414500848547 -988.23930408028536 0 0 0 0 79.258712996600025 -134.96083966815786 0 -134.96083966815786 -1049.6423967766168 0 0 0 0 -158.94617450515739 -33.804558383721087 0 -33.804558383721087 -1140.5333045664411 0 0 0 0 -109.10822692238708 -356.87103035769906 0 -356.87103035769906 -1144.3927879762559 0 0 0 0 32.451854330007677 -393.63330326829237 0 -393.63330326829237 -1305.8815178980221 0 0 0 0 131.41329406937643 -350.90444920130176 0 -350.90444920130176 -1079.8117840783968 0 0 0 0 74.045032121077213 -299.08174263022556 0 -299.08174263022556 -1090.9911161847522 0 0 0 0 93.998052810986223 -435.11088573167581 0 -435.11088573167581 -914.27319239524377 0 0 0 0 26.916862687599632 -524.59871804394447 0 -524.59871804394447 -1033.233440787666 0 0 0 0 14.478307261976852 -455.29912001692537 0 -455.29912001692537 -1196.6661757103102 0 0 0 0 117.59195349832868 -204.37079698590969 0 -204.37079698590969 -1085.8626548484472 0 0 0 0 111.06846717874271 -152.16338566080412 0 -152.16338566080412 -1147.0101320862595 0 0 0 0 104.33301804425042 -125.94108289500082 0 -125.94108289500082 -1201.1868366652616 0 0 0 0 18.384988674181443 -58.027604134190824 0 -58.027604134190824 -947.46043803041903 0 0 0 0 1.7578582209205535 -90.481060777332459 0 -90.481060777332459 -990.22881215771122 0 0 0 0 121.76248894778325 -152.88959312644329 0 -152.88959312644329 -926.55116931996599 0 0 0 0 122.88866833965255 -250.60680593950565 0 -250.60680593950565 -935.69196410756695 0 0 0 0 156.84848669211755 -260.00760383556917 0 -260.00760383556917 -857.78313469772638 0 0 0 0 164.69319926683983 -252.9429003503692 0 -252.9429003503692 -1018.756213778579 0 0 0 0 162.79475102506012 -218.0791958515656 0 -218.0791958515656 -1063.6969599210661 0 0 0 0 118.93007872563186 -216.33755797158574 0 -216.33755797158574 -991.70859420484521 0 0 0 0 223.13988846966026 -259.45997135804282 0 -259.45997135804282 -1262.5233565911203 0 0 0 0 200.1035628471102 -354.28527154396397 0 -354.28527154396397 -1104.4282862872974 0 0 0 0 214.89164817104268 -356.33872378693104 0 -356.33872378693104 -1162.0463856468741 0 0 0 0 307.2299974073614 -433.48898396655932 0 -433.48898396655932 -1142.8400629102475 0 0 0 0 303.47601385051598 -394.62883489726778 0 -394.62883489726778 -1500.5415342995111 0 0 0 0 231.47128604262556 -242.58104849217671 0 -242.58104849217671 -1245.5390193214189 0 0 0 0 213.64681691630034 -150.81872417758314 0 -150.81872417758314 -1499.7786819044813 0 0 0 0 142.56994692891487 20.992189623570084 0 20.992189623570084 -1499.6448373259614 0 0 0 0 168.16220911518025 138.48077880315259 0 138.48077880315259 -1029.3047266313406 0 0 0 0 174.90921786521662 -85.025763378421289 0 -85.025763378421289 -1229.2517276395138 0 0 0 0 46.493183408814104 -67.88957697193473 0 -67.88957697193473 -1118.4893140273361 0 0 0 0 49.729802076924166 -65.445302430813399 0 -65.445302430813399 -1245.5364950374751 0 0 0 0 40.132897032389167 72.489348581431841 0 72.489348581431841 -1249.9363366795844 0 0 0 0 10.273638728050059 -2.2029608009725052 0 -2.2029608009725052 -1158.6770098122415 0 0 0 0 -2.7309188589359081 -72.092808164582493 0 -72.092808164582493 -1151.7305374383941 0 0 0 0 -14.800656865057221 -66.234905964117388 0 -66.234905964117388 -324.32870725260909 0 0 0 0 -65.878855846517467 -53.110024030047498 0 -53.110024030047498 -1669.0961077176344 0 0 0 0 -49.246014230076639 364.81549765815907 0 364.81549765815907 -1728.9480555750547 0 0 0 0 -0.70502824312413559 -2.295883838935751 0 -2.295883838935751 -4.9656679649834388 0 0 0 0 50.735992501172433 353.92886905578962 0 353.92886905578962 -1077.0890894116856 0 0 0 0 217.18044653740077 252.86361786682392 0 252.86361786682392 -1499.7009163354087 0 0 0 0 147.46543427612423 320.69404768440836 0 320.69404768440836 -1092.0371491230835 0 0 0 0 93.540765496856253 474.17500439493233 0 474.17500439493233 -1500.436960342706 0 0 0 0 -288.45061886241592 574.71522239555838 0 574.71522239555838 -971.85075584792867 0 0 0 0 -298.00885648663655 739.93767346092989 0 739.93767346092989 -1539.6525779139592 0 0 0 0 -369.70759240467316 264.84034396312381 0 264.84034396312381 -158.58172110649502 0 0 0 0 -1.749922562886826 -4.1379608977514124 0 -4.1379608977514124 -7.5409634089170723 0 0 0 0 7.4210782505414414 235.66281831425295 0 235.66281831425295 -887.86517849093798 0 0 0 0 -62.47938539581682 -562.95895036151705 0 -562.95895036151705 -1496.9934595941813 0 0 0 0 -1.8162247006129419 2.4532005049457162 0 2.4532005049457162 -6.3288442865823242 0 0 0 0 -882.02722391489601 838.91474829011713 0 838.91474829011713 -889.76334642603797 0 0 0 0 -586.29198024595235 620.71886429545702 0 620.71886429545702 -1497.2945300614597 0 0 0 0 -1.0646040325352679 -1.2003002434468897 0 -1.2003002434468897 -4.264628967610264 0 0 0 0 -695.75645915761595 445.56666606776707 0 445.56666606776707 -245.57748768678357 0 0 0 0 -25.293327453837492 -118.81996821004213 0 -118.81996821004213 -111.39911230621874 0 0 0 0 -718.35216318036669 178.45721530647859 0 178.45721530647859 181.78359952801475 0 0 0 0 -477.85037768232132 118.53244206600175 0 118.53244206600175 -201.28276144962365 0 0 0 0 -459.18438899210344 14.212256040562124 0 14.212256040562124 -458.35587370829671 0 0 0 0 -412.66987244502866 48.356264955948063 0 48.356264955948063 -494.51289613374684 0 0 0 0 -459.45292885437971 -259.97882803744506 0 -259.97882803744506 -866.23126579130621 0 0 0 0 -424.98672670861106 -157.75211098698128 0 -157.75211098698128 -996.8522504470493 0 0 0 0 -156.54374035035221 -226.6534392940921 0 -226.6534392940921 -485.86229448311315 0 0 0 0 -550.37952598833476 46.100384215973463 0 46.100384215973463 -673.14125932214301 0 0 0 0 -70.339901233333023 -189.40908781175472 0 -189.40908781175472 -1161.7895111346224 0 0 0 0 -76.921086357823469 -138.23733786732078 0 -138.23733786732078 -863.24396989012894 0 0 0 0 -273.12366913184951 185.84207855225395 0 185.84207855225395 -494.41385479644669 0 0 0 0 -259.66820100709197 47.034145642286603 0 47.034145642286603 -467.43143192688331 0 0 0 0 -250.59578559581416 -49.910637894124193 0 -49.910637894124193 -992.90724852820858 0 0 0 0 -88.151588691000597 -66.353115709520353 0 -66.353115709520353 -992.11169975493976 0 0 0 0 -351.65731295450041 -406.8625260795925 0 -406.8625260795925 -1313.1591176479633 0 0 0 0 0.060636802860585703 4.4285223650749685 0 4.4285223650749685 -1431.7883443526007 0 0 0 0 -32.522309454092692 -17.408562570541108 0 -17.408562570541108 -1320.987333219744 0 0 0 0 -49.822352272309203 387.58114980201026 0 387.58114980201026 -1159.6614109914226 0 0 0 0 267.02739736811873 -64.112055310353753 0 -64.112055310353753 -1535.8921738846802 0 0 0 0 227.43526585295729 99.864987956371522 0 99.864987956371522 -2340.7224024982715 0 0 0 0 220.04519640714147 -155.17084341690031 0 -155.17084341690031 -1208.617363449448 0 0 0 0 161.96838984965734 -240.46131123304258 0 -240.46131123304258 -1531.0834904431613 0 0 0 0 159.40299050822364 -234.93433193643432 0 -234.93433193643432 -1542.8983130059787 0 0 0 0 -6.4625784773779742 -245.7318064496103 0 -245.7318064496103 -1457.773933887529 0 0 0 0 344.40071506131625 94.489138651373196 0 94.489138651373196 -1298.560289867346 0 0 0 0 302.42713293688143 -148.10358761168754 0 -148.10358761168754 -1800.4941971968001 0 0 0 0 -217.57827314211499 313.20099187809683 0 313.20099187809683 -293.73657343034574 0 0 0 0 4.3590368024943018 -2.010479839740583 0 -2.010479839740583 -25.892946130610653 0 0 0 0 0.9830145260655252 -1.9208451339079176 0 -1.9208451339079176 -6.1252555685115411 0 0 0 0 -1.9291918785588678 36.846887901796435 0 36.846887901796435 -170.69930002070032 0 0 0 0 128.3890604765279 -180.45680241524315 0 -180.45680241524315 -460.49584063504881 0 0 0 0 130.80657766028912 65.234287146944553 0 65.234287146944553 3.1809506437730306 0 0 0 0 -206.40679006181836 -218.80703799806724 0 -218.80703799806724 41.594550202760729 0 0 0 0 5.1485956121808973 -1.1855379941351458 0 -1.1855379941351458 -0.22830037193272545 0 0 0 0 -90.160036432016113 -1267.8045948542858 0 -1267.8045948542858 -1300.5095052350334 0 0 0 0 133.98259325339859 -156.68824832985956 0 -156.68824832985956 -1203.7805679201629 0 0 0 0 -34.564698129326473 -194.98495435456971 0 -194.98495435456971 -1275.6583463393617 0 0 0 0 -129.95255766326284 -327.81364716205553 0 -327.81364716205553 -1102.2531877326546 0 0 0 0 -520.05573057616994 193.84057248540194 0 193.84057248540194 -1798.7459176106281 0 0 0 0 -1225.9570813186531 -553.55923006819103 0 -553.55923006819103 -1173.1092858352495 0 0 0 0 -116.91770958846791 -675.28292691387833 0 -675.28292691387833 -2444.8830364296518 0 0 0 0 -514.27490369065436 -81.398898484701931 0 -81.398898484701931 -89.475476233763402 0 0 0 0 -0.0049426763897981729 -5.0387118898099885 0 -5.0387118898099885 -9.8872916292541504 0 0 0 0 -225.49806037117423 470.42323379984373 0 470.42323379984373 -1769.9521879943568 0 0 0 0 -455.03106690827099 -987.42879911698765 0 -987.42879911698765 -1298.9174752706604 0 0 0 0 -965.04291915751696 -722.53879556704305 0 -722.53879556704305 -359.83441911893897 0 0 0 0 13.339283586487454 -648.13988410526508 0 -648.13988410526508 -1930.742757493007 0 0 0 0 54.114101343843231 -372.10968033556128 0 -372.10968033556128 -809.50710370915112 0 0 0 0 -161.95189982187094 -456.86408592846419 0 -456.86408592846419 -709.62430246025906 0 0 0 0 -60.495619515627254 -574.88577235260163 0 -574.88577235260163 -933.36012198464596 0 0 0 0 -104.95695895484869 -664.56883864567135 0 -664.56883864567135 -1104.2959194696887 0 0 0 0 -18.622003557215521 -495.47322034263561 0 -495.47322034263561 -908.82215730156167 0 0 0 0 -22.306918538630271 -496.42984124019858 0 -496.42984124019858 -875.84788931866933 0 0 0 0 18.99407905595308 -510.97642654937226 0 -510.97642654937226 -873.5972583085495 0 0 0 0 15.042533143170658 -528.96665957458572 0 -528.96665957458572 -1188.6435469621501 0 0 0 0 51.178699539588706 -565.0407030071492 0 -565.0407030071492 -1270.725027049637 0 0 0 0 1.2460509191797424 -12.002014846209477 0 -12.002014846209477 -15.565967081623967 0 0 0 0 -86.542585334176238 -524.02222376081772 0 -524.02222376081772 -674.80667705478118 0 0 0 0 0.55767431696131098 -561.35607316682581 0 -561.35607316682581 -762.49434565590491 0 0 0 0 -41.263970460380733 -519.26106513893319 0 -519.26106513893319 -758.91728028852958 0 0 0 0 33.585472507896611 -543.04916307848544 0 -543.04916307848544 -803.21227525654831 0 0 0 0 3.5207059209114764 -2.8779866090096746 0 -2.8779866090096746 -12.950799044687727 0 0 0 0 9.400453003008618 -1.2617101370532069 0 -1.2617101370532069 -9.2081401122720621 0 0 0 0 5.3312004035865357 -8.3303579210260068 0 -8.3303579210260068 -19.034244226470037 0 0 0 0 4.4583654491991203 -3.8627471187126758 0 -3.8627471187126758 -4.6326572114766904 0 0 0 0 3.165620182939449 -8.5609093414950621 0 -8.5609093414950621 -19.048212990604952 0 0 0 0 6.885730525382507 -8.4829411325007307 0 -8.4829411325007307 -17.636012474579744 0 0 0 0 1.4274136605341141 -11.626720890812067 0 -11.626720890812067 -15.940681134816259 0 0 0 0 -1.3386889224562424 -5.6889710790528625 0 -5.6889710790528625 -14.563490469696262 0 0 0 0 -3.2756325928316983 -7.5519097091782896 0 -7.5519097091782896 -13.417002083322586 0 0 0 0 1.1170368385994034 -4.4237690475071245 0 -4.4237690475071245 -10.843826636447005 0 0 0 0 62.626619236429633 -15.656301367285778 0 -15.656301367285778 -16.948788490859442 0 0 0 0 126.99135844558623 -29.060834483834697 0 -29.060834483834697 -86.532516881365154 0 0 0 0 90.857685871295416 15.143167951875512 0 15.143167951875512 -28.899612947017886 0 0 0 0 13.677746656229374 -11.585010561415402 0 -11.585010561415402 -6.807733620327781 0 0 0 0 46.316620745875753 17.691541094907734 0 17.691541094907734 -18.2907342560502 0 0 0 0 22.529185993318151 -26.517579320890945 0 -26.517579320890945 -22.139965308317187 0 0 0 0 13.073179112743532 -8.078836159542746 0 -8.078836159542746 -4.4014803883406515 0 0 0 0 28.539112151001973 -14.363128858109121 0 -14.363128858109121 -15.347707466491556 0 0 0 0 3.3374804006767391 -15.068388926205444 0 -15.068388926205444 -9.8625383327962481 0 0 0 0 -0.71879312006689133 -6.9322479051552364 0 -6.9322479051552364 -8.251248669576853 0 0 0 0 -3.2697634482716302 -11.102716413918081 0 -11.102716413918081 -11.477431989042884 0 0 0 0 48.349539060250095 -30.138662143523106 0 -30.138662143523106 -6.6682432563684415 0 0 0 0 49.264505254676578 -48.760080962261782 0 -48.760080962261782 -1.9495697112615744 0 0 0 0 30.424340532474616 -18.614746504819777 0 -18.614746504819777 -13.784083464201103 0 0 0 0 64.447191594675914 -55.680307746710895 0 -55.680307746710895 -1.5671739960598643 0 0 0 0 -3.0026195388575534 -8.7166604198084165 0 -8.7166604198084165 -25.090982382042043 0 0 0 0 107.46562517224061 -81.216800027107638 0 -81.216800027107638 -17.469460633532435 0 0 0 0 64.403424654563878 -59.479227991236257 0 -59.479227991236257 8.6082567452540388 0 0 0 0 -78.819034869153711 474.47563598581473 0 474.47563598581473 238.32817908885045 0 0 0 0 0.057281834876806603 -0.33862641408027727 0 -0.33862641408027727 -1.8441907102692454 0 0 0 0 92.4832266992521 -53.305829560224083 0 -53.305829560224083 -50.962915666044864 0 0 0 0 179.68978257200365 7.6566030978246999 0 7.6566030978246999 -66.983010599939007 0 0 0 0 10.701706519749798 316.2593223530057 0 316.2593223530057 -504.18652134849617 0 0 0 0 184.4194177629654 -227.22110538093148 0 -227.22110538093148 -147.90830709992406 0 0 0 0 -80.939089343846675 14.130049944714301 0 14.130049944714301 62.99298055847612 0 0 0 0 -0.62609907161912581 -1.8621923093945192 0 -1.8621923093945192 -2.5420169348880606 0 0 0 0 -62.933748688252109 40.186397713636779 0 40.186397713636779 -4.5078097555342538 0 0 0 0 86.413306717716182 67.91270763045577 0 67.91270763045577 -104.87773422328064 0 0 0 0 -1.5440799260190485 4.4156065911858562 0 4.4156065911858562 -9.4685984493059436 0 0 0 0 0.73120846544725282 -182.70515589299066 0 -182.70515589299066 -423.82617602930259 0 0 0 0 -23.573673830293785 100.18960681451154 0 100.18960681451154 -126.41937349881846 0 0 0 0 -65.574190490670333 -81.79138278357641 0 -81.79138278357641 -101.90394531174752 0 0 0 0 86.290177745769711 136.74223939340845 0 136.74223939340845 -980.09739050537792 0 0 0 0 57.203552307175975 -20.059857452153665 0 -20.059857452153665 -832.57129240450377 0 0 0 0 -34.515155659041454 206.63047263059161 0 206.63047263059161 -1066.4659835457578 0 0 0 0 42.058256487623225 -150.97789001475394 0 -150.97789001475394 -1137.5076920379615 0 0 0 0 34.534252680323618 51.959034887139751 0 51.959034887139751 -1065.0229906382592 0 0 0 0 64.345524493874308 66.732997556077862 0 66.732997556077862 -1077.7138167732592 0 0 0 0 -117.10405493966975 -162.48093414818732 0 -162.48093414818732 -1405.1701681048798 0 0 0 0 -153.36703454669959 -12.144702843053892 0 -12.144702843053892 -1103.2646907361523 0 0 0 0 -54.657130532331678 23.301724526510952 0 23.301724526510952 -1389.1890007467191 0 0 0 0 -365.57359118206182 89.984057721077988 0 89.984057721077988 -1387.3448981115012 0 0 0 0 -173.83308349011867 -82.30601740106431 0 -82.30601740106431 -1252.5054933196443 0 0 0 0 -102.84465887588453 64.799868122336193 0 64.799868122336193 -1166.5008742331411 0 0 0 0 42.66966440719807 -27.594328317813051 0 -27.594328317813051 387.52757395143271 0 0 0 0 -171.41331578947151 78.526626457603925 0 78.526626457603925 -828.74960987985469 0 0 0 0 -214.09776857333281 5.8348348502986482 0 5.8348348502986482 -1274.181027382554 0 0 0 0 -1.2004611072411202 -3.2206883055592446 0 -3.2206883055592446 -9.123188685881388 0 0 0 0 -97.994363066178494 151.28862102572384 0 151.28862102572384 -1186.0242547687549 0 0 0 0 5.0049016445149306 165.4052636554261 0 165.4052636554261 -1079.8541088804445 0 0 0 0 -49.356064882967914 78.38482178706181 0 78.38482178706181 -828.76492729213714 0 0 0 0 -29.566271191112719 -22.247358556820473 0 -22.247358556820473 -1097.2156011016832 0 0 0 0 -9.6470520612272885 -7.2445732167359438 0 -7.2445732167359438 -25.71654536981805 0 0 0 0 12.917290333023004 -2.823028719125432 0 -2.823028719125432 -39.635580647974621 0 0 0 0 8.5510209557108663 -8.7121776941567077 0 -8.7121776941567077 -40.040743995813273 0 0 0 0 8.073857990153666 -2.9722565388457269 0 -2.9722565388457269 -31.151981724397046 0 0 0 0 4.2489966462888873 -2.1941050780988007 0 -2.1941050780988007 -27.468184276753163 0 0 0 0 -1.4701880108208742 -11.916026194852748 0 -11.916026194852748 -32.928338600511779 0 0 0 0 -0.21988551928514491 -53.429805202393496 0 -53.429805202393496 -302.1684324638336 0 0 0 0 40.543908212866818 -228.20033661206071 0 -228.20033661206071 -1496.6526375834692 0 0 0 0 1.0250194814467939 -2.844106911590643 0 -2.844106911590643 -30.214391302368313 0 0 0 0 0.33685099515912231 -1.292567327044992 0 -1.292567327044992 -4.8191107443937327 0 0 0 0 -217.53407962785886 -507.31522669728292 0 -507.31522669728292 -1213.9957536526581 0 0 0 0 -2.9871714718740097 2.8429140849505856 0 2.8429140849505856 -2.6880557838953791 0 0 0 0 6.0347192730181334 -7.7733847744748346 0 -7.7733847744748346 -27.933286494888307 0 0 0 0 -2.237016812286754 27.954383678841623 0 27.954383678841623 -11.049659908843751 0 0 0 0 50.382120837339926 4.6392434633089579 0 4.6392434633089579 -41.897069259597629 0 0 0 0 1.3929815583273037 -0.77128670779250896 0 -0.77128670779250896 -27.671906626710665 0 0 0 0 27.788444116852133 11.316268025628233 0 11.316268025628233 -42.412889704930421 0 0 0 0 -4.684018714114897 7.0181168063251462 0 7.0181168063251462 -5.3807184714129388 0 0 0 0 12.793928073856838 198.01698597400309 0 198.01698597400309 -1498.397766431277 0 0 0 0 38.786800707653356 31.260616871601087 0 31.260616871601087 -14.161897464635331 0 0 0 0 -13.407762657005129 -115.40471579237783 0 -115.40471579237783 -1322.6852263544715 0 0 0 0 107.76477316120361 -59.788210606940083 0 -59.788210606940083 84.51291742437752 0 0 0 0 86.285497519466844 16.360273990751011 0 16.360273990751011 -15.23457013227744 0 0 0 0 55.212881470516095 38.681549069726316 0 38.681549069726316 -19.638341722560654 0 0 0 0 115.12663445483349 -20.450138996711757 0 -20.450138996711757 22.879340203828178 0 0 0 0 92.243397146769439 40.940294074709527 0 40.940294074709527 -19.79424054807896 0 0 0 0 69.006350078097398 9.6751932943225256 0 9.6751932943225256 50.353948113741353 0 0 0 0 79.309230668914552 16.450197313290118 0 16.450197313290118 -42.859709948334057 0 0 0 0 50.764296819644414 0.10261258682294283 0 0.10261258682294283 -70.542475932568777 0 0 0 0 88.621353880374386 -1.2652256278706773 0 -1.2652256278706773 -87.381293060301687 0 0 0 0 68.976391970525583 23.923512127468712 0 23.923512127468712 -47.724455103270884 0 0 0 0 53.450766980923959 -6.0812277994464239 0 -6.0812277994464239 -57.720168501859007 0 0 0 0 21.327556003685913 -36.427482957911707 0 -36.427482957911707 -56.87145544802479 0 0 0 0 1.4766183576749317 -1.6565283759027274 0 -1.6565283759027274 -29.384026416720943 0 0 0 0 42.301326225823232 -9.1687341554643353 0 -9.1687341554643353 -56.372781637550361 0 0 0 0 12.44591714904039 -5.428415190846863 0 -5.428415190846863 -32.704684407362947 0 0 0 0 2.8499498043531779 -3.4413352277741112 0 -3.4413352277741112 -30.560376298564165 0 0 0 0 8.4610121030385699 -0.83166458628693363 0 -0.83166458628693363 -33.450647630437743 0 0 0 0 6.5069583673485338 0.78268927302087832 0 0.78268927302087832 -31.823609161641798 0 0 0 0 28.543745407179358 -23.544272252715018 0 -23.544272252715018 -32.435055278307118 0 0 0 0 32.015991815442931 -12.650071011841646 0 -12.650071011841646 -18.946403940091841 0 0 0 0 25.648249063104345 -27.699345302859911 0 -27.699345302859911 -46.688600013490941 0 0 0 0 3.4629417573840442 -27.091479066519241 0 -27.091479066519241 -10.292339295883721 0 0 0 0 5.9345344477483195 -19.390095945531357 0 -19.390095945531357 -12.730709895735345 0 0 0 0 -12.532780659237119 -48.552173426782247 0 -48.552173426782247 -34.927099667402217 0 0 0 0 10.693285144883589 -11.306504568055971 0 -11.306504568055971 6.2409983689503861 0 0 0 0 -29.247318827517734 -0.95792623561737855 0 -0.95792623561737855 31.434039980769739 0 0 0 0 -8.8212613117148635 19.604740552200383 0 19.604740552200383 45.903496222515969 0 0 0 0 -12.490352775146448 -23.45542398418911 0 -23.45542398418911 -10.372007326550374 0 0 0 0 -15.778225870118774 -31.575499339392991 0 -31.575499339392991 0.47123341624683235 0 0 0 0 -44.565250135905501 -55.950340167622926 0 -55.950340167622926 -29.877730601270741 0 0 0 0 -24.68611888620751 -48.529295169892066 0 -48.529295169892066 -75.010972672025673 0 0 0 0 -66.259797625268163 -11.756851177764474 0 -11.756851177764474 -95.910766118096944 0 0 0 0 -16.692928836485521 -30.523755962327414 0 -30.523755962327414 -68.139093567471718 0 0 0 0 -50.86719180627199 -58.59595169406748 0 -58.59595169406748 -90.659279856226931 0 0 0 0 1.7805296762622334 -54.744038671513408 0 -54.744038671513408 -93.563413366195164 0 0 0 0 21.72371052508106 -34.77204982569674 0 -34.77204982569674 -54.816706139841699 0 0 0 0 6.3904315285283246 -41.597833549822099 0 -41.597833549822099 -57.740844279338489 0 0 0 0 33.05217887658705 -23.542020551038149 0 -23.542020551038149 -86.591219071437081 0 0 0 0 38.847646780122091 -30.713003060031042 0 -30.713003060031042 -96.570224365175818 0 0 0 0 -18.900853229841346 -45.697180510745966 0 -45.697180510745966 -85.436914682737552 0 0 0 0 30.287295248492995 -37.26613806770456 0 -37.26613806770456 -123.15295729278296 0 0 0 0 -6.3895903567763526 -22.973267053894233 0 -22.973267053894233 -108.18285347407073 0 0 0 0 -4.5880430594630752 -26.10657735357745 0 -26.10657735357745 -161.66968718639691 0 0 0 0 34.134591587658178 -12.374761194012535 0 -12.374761194012535 -132.02856131472799 0 0 0 0 -2.4732471037034429 28.284748613019474 0 28.284748613019474 -82.998295590092312 0 0 0 0 -2.5302092850302174 25.557096053802297 0 25.557096053802297 -197.79969891924702 0 0 0 0 72.644795046773197 5.8215518714860082 0 5.8215518714860082 -89.621265058891368 0 0 0 0 66.8169558269135 -11.412564689999272 0 -11.412564689999272 -64.229571685646079 0 0 0 0 35.9910134873478 4.141298516842653 0 4.141298516842653 -71.81420334939321 0 0 0 0 -1.8801834668129052 2.2804613155092568 0 2.2804613155092568 -1.0615920678986086 0 0 0 0 36.746999898482045 39.534292993674171 0 39.534292993674171 -28.501899320155644 0 0 0 0 -144.59111441262729 190.83220651259035 0 190.83220651259035 327.6128533299343 0 0 0 0 88.79544663641343 -8.3012524443183793 0 -8.3012524443183793 6.0536599489714717 0 0 0 0 -18.251375297406216 -180.49910507897403 0 -180.49910507897403 -1510.3787751941345 0 0 0 0 -31.604331777829202 88.099362543347524 0 88.099362543347524 126.02872673852107 0 0 0 0 35.787463961887909 17.34802337289193 0 17.34802337289193 -84.2660895496374 0 0 0 0 -59.005221154762239 168.06201369397604 0 168.06201369397604 -197.30498375723255 0 0 0 0 -31.996164329411613 97.770927935474901 0 97.770927935474901 -56.174461713497294 0 0 0 0 -108.73924498063479 263.70573423242604 0 263.70573423242604 -8.4472640624189808 0 0 0 0 -25.848839624524544 117.87537558523763 0 117.87537558523763 4.2014425584929995 0 0 0 0 -33.71862154186465 103.70722969726921 0 103.70722969726921 17.127638831065269 0 0 0 0 -210.60118501374427 336.50540915774764 0 336.50540915774764 209.90028860945313 0 0 0 0 -87.757816064362373 136.97925983315508 0 136.97925983315508 130.79809104082233 0 0 0 0 1.6580425089612163 -37.516438220463897 0 -37.516438220463897 274.70769091936381 0 0 0 0 35.115042224909232 505.2977086503397 0 505.2977086503397 -1061.7837964080172 0 0 0 0 -71.439458384374404 497.68851709732917 0 497.68851709732917 -618.33423270487401 0 0 0 0 -74.460619183773616 511.8500603713037 0 511.8500603713037 -683.98974757529504 0 0 0 0 -898.80399544648321 2143.4138767983532 0 2143.4138767983532 -2606.3029807326675 0 0 0 0 -44.842278245874923 403.74299216945656 0 403.74299216945656 201.12207673937519 0 0 0 0 -250.07631343366967 569.33686910621327 0 569.33686910621327 -133.34672654126189 0 0 0 0 -161.41260719457705 326.47762277984293 0 326.47762277984293 -120.37341114914125 0 0 0 0 -203.30395532084086 657.00649719902685 0 657.00649719902685 -500.0439009196125 0 0 0 0 -162.1020546886698 450.5260390691401 0 450.5260390691401 -494.09919927411966 0 0 0 0 -131.45914937417777 279.92079793112498 0 279.92079793112498 -344.53281933868129 0 0 0 0 -65.998296550421657 304.54319131798547 0 304.54319131798547 -354.94987200461037 0 0 0 0 -112.38583261407659 289.20167445076731 0 289.20167445076731 -186.38915854846709 0 0 0 0 -89.393722278116684 185.85035260899167 0 185.85035260899167 -136.79357824208273 0 0 0 0 -67.763881038507293 66.903233754987014 0 66.903233754987014 -139.2503396756656 0 0 0 0 -58.501796517213165 91.441871214410639 0 91.441871214410639 -355.49611232242569 0 0 0 0 -80.932271915241614 83.242691921128426 0 83.242691921128426 -511.18200267253269 0 0 0 0 -67.747121349529507 364.22630897693602 0 364.22630897693602 -757.46677106620336 0 0 0 0 -92.309734219632759 45.365014701152177 0 45.365014701152177 -298.58632551772462 0 0 0 0 -81.2919939725424 50.164152034718427 0 50.164152034718427 -296.85757673824264 0 0 0 0 -115.01272290273099 59.529301786358701 0 59.529301786358701 -240.82804763525201 0 0 0 0 -46.577773954012628 36.652320349945512 0 36.652320349945512 -263.34578202174453 0 0 0 0 -56.051381979421535 0.99802974057820393 0 0.99802974057820393 -142.74155105375394 0 0 0 0 -16.782391210694705 -43.965952448706958 0 -43.965952448706958 -136.32336487740395 0 0 0 0 -46.072980689619271 -28.937432549937512 0 -28.937432549937512 -185.246533065736 0 0 0 0 -60.666279398401855 -23.988848952190892 0 -23.988848952190892 -127.71602594331489 0 0 0 0 -58.086272146542484 -48.229624001836783 0 -48.229624001836783 -174.2712679581964 0 0 0 0 17.384591328692849 -75.398330073834586 0 -75.398330073834586 -189.62054422319488 0 0 0 0 -99.213857652830086 22.515354227656644 0 22.515354227656644 -128.96893770830138 0 0 0 0 8.8944628666837389 -10.160425795886113 0 -10.160425795886113 -401.68669115999364 0 0 0 0 -51.650636766866569 48.443433732460107 0 48.443433732460107 -413.92026796123446 0 0 0 0 286.64371807523867 203.3757346638231 0 203.3757346638231 -1501.2472144766944 0 0 0 0 73.239573881842873 -92.450406165968161 0 -92.450406165968161 -1071.5443406307968 0 0 0 0 -26.310839232324767 72.281722331967103 0 72.281722331967103 -802.6723290769587 0 0 0 0 60.62114973591008 -121.53345194184658 0 -121.53345194184658 -418.49763789782082 0 0 0 0 43.804760174420693 47.203349600993533 0 47.203349600993533 -401.58532165349561 0 0 0 0 -1.610692134127514 5.6112213525188146 0 5.6112213525188146 -12.424397874320832 0 0 0 0 86.158051692167618 339.37613417902662 0 339.37613417902662 -120.49167903485795 0 0 0 0 103.18079643840736 -177.12997978657222 0 -177.12997978657222 -127.21407167266392 0 0 0 0 -71.151264208065527 25.051610831341804 0 25.051610831341804 27.034203422710561 0 0 0 0 -83.723294224311331 -86.596579745477356 0 -86.596579745477356 -45.229035489017406 0 0 0 0 25.576300420863927 44.403954483699636 0 44.403954483699636 7.5917308071366278 0 0 0 0 1.0227421746883028 4.0210090138210646 0 4.0210090138210646 -10.338961235597736 0 0 0 0 -231.67827195804784 -408.91723920263757 0 -408.91723920263757 -345.41488404054689 0 0 0 0 2.628479101018963 -0.56276204253107664 0 -0.56276204253107664 -1.9852434097818801 0 0 0 0 158.37937227362761 -21.494341528514269 0 -21.494341528514269 -14.73513431527681 0 0 0 0 -39.112074313918129 -380.63466044526285 0 -380.63466044526285 -460.87792855815883 0 0 0 0 308.18448001222305 -500.41523024614798 0 -500.41523024614798 -944.73029174757539 0 0 0 0 -90.191214370685316 92.172428632872197 0 92.172428632872197 -473.69503788697693 0 0 0 0 331.0953588233732 -205.83410647815481 0 -205.83410647815481 -1105.9904305976597 0 0 0 0 69.556952578407504 -336.21005497957594 0 -336.21005497957594 -1161.6857255501091 0 0 0 0 115.69495655148773 -330.00049846187903 0 -330.00049846187903 -1242.0644241561022 0 0 0 0 166.08444808380295 -412.17806670369464 0 -412.17806670369464 -1453.3061660366657 0 0 0 0 170.97048928181107 -370.78959570560983 0 -370.78959570560983 -1218.5158793538649 0 0 0 0 129.08994973585061 -273.41170012662678 0 -273.41170012662678 -1073.6358749004867 0 0 0 0 150.18226523942849 -397.06388540730404 0 -397.06388540730404 -1084.7580209737571 0 0 0 0 200.52407625561932 -337.3218391049013 0 -337.3218391049013 -1241.6758166869549 0 0 0 0 -14.941772551397321 -191.06321539507917 0 -191.06321539507917 -1075.6560438194938 0 0 0 0 -186.4814840063633 -396.04829019808676 0 -396.04829019808676 -1162.3572167119419 0 0 0 0 -36.379731710285341 22.158606758464884 0 22.158606758464884 -220.02941439496863 0 0 0 0 7.1661615619800614 -419.12986088867547 0 -419.12986088867547 -1483.7768229715875 0 0 0 0 -2.6400362333060219 -1.0954646189534358 0 -1.0954646189534358 -2.6769502868054964 0 0 0 0 -107.46021426469019 -492.7777052025649 0 -492.7777052025649 -1285.078184482787 0 0 0 0 -33.091058165296545 -368.64867445552591 0 -368.64867445552591 -1276.0350119208888 0 0 0 0 -83.391435339634882 -360.17530390181491 0 -360.17530390181491 -1156.0779042574541 0 0 0 0 9.8561469603748719 -300.27064627903746 0 -300.27064627903746 -1161.5458223989644 0 0 0 0 -96.297979813238499 -358.76611157031948 0 -358.76611157031948 -1144.0890625322791 0 0 0 0 20.278071835531087 -316.42683960900649 0 -316.42683960900649 -1154.5906930610363 0 0 0 0 25.399023104412464 -351.76858296597857 0 -351.76858296597857 -1149.0669197206007 0 0 0 0 -54.771976818398571 -340.93699658580954 0 -340.93699658580954 -1072.071395125975 0 0 0 0 -11.293428192203464 -374.06681495174053 0 -374.06681495174053 -1153.5274286026397 0 0 0 0 7.121892667073098 -338.94568772182538 0 -338.94568772182538 -1075.3686532628089 0 0 0 0 -28.340900648851857 -317.58332970118499 0 -317.58332970118499 -989.95119368557062 0 0 0 0 -26.554596196773723 -348.22538537252694 0 -348.22538537252694 -946.00190337178356 0 0 0 0 5.9725950154788308 -354.87165873930644 0 -354.87165873930644 -1073.4600218783944 0 0 0 0 0.62751449854672359 -371.82813162467937 0 -371.82813162467937 -951.00860740710414 0 0 0 0 64.252345539533167 -385.75744999301241 0 -385.75744999301241 -1079.2569442869926 0 0 0 0 64.880338502788334 -376.1615736134072 0 -376.1615736134072 -1215.928938747762 0 0 0 0 46.571179568962634 -469.25980085514675 0 -469.25980085514675 -1080.1278067939056 0 0 0 0 46.548538349395358 -470.10661478653492 0 -470.10661478653492 -1110.7541590879846 0 0 0 0 -55.818717397677574 -424.07115513453755 0 -424.07115513453755 -768.07982635249937 0 0 0 0 3.4016447224788191 -3.2260892821717704 0 -3.2260892821717704 -0.047080498074819843 0 0 0 0 -116.88211149699922 -347.0052950488498 0 -347.0052950488498 -636.46661727380342 0 0 0 0 10.383439766805054 -7.3386832965006761 0 -7.3386832965006761 -31.981171284343873 0 0 0 0 -48.30130717431372 -441.00167097435315 0 -441.00167097435315 -889.92856251070043 0 0 0 0 -57.775142490186681 -307.64437144809926 0 -307.64437144809926 -794.93868961181397 0 0 0 0 7.1565686751991962 11.535761892435403 0 11.535761892435403 -9.2272970468848143 0 0 0 0 0.56502226690279422 -0.85120964360744011 0 -0.85120964360744011 -2.9993881520858139 0 0 0 0 -5.1539983435582144 9.3698571788991103 0 9.3698571788991103 -27.013356931653107 0 0 0 0 28.900379514330325 6.1499141780586797 0 6.1499141780586797 -32.278720214424538 0 0 0 0 -31.796248614663909 5.3249311678373488 0 5.3249311678373488 33.697021557567496 0 0 0 0 8.340720463350408 -45.241764484093437 0 -45.241764484093437 16.816410057828762 0 0 0 0 1.5384355215566674 -0.53802705577417953 0 -0.53802705577417953 -0.35984367599469635 0 0 0 0 11.25099768741029 -25.014229988722946 0 -25.014229988722946 -83.148837671935325 0 0 0 0 -84.18593628996814 -146.62176345145053 0 -146.62176345145053 -615.91677361971415 0 0 0 0 -16.056173480712232 5.2703981594313518 0 5.2703981594313518 -27.035590946547018 0 0 0 0 -10.860612951558323 0.80106747599347727 0 0.80106747599347727 -26.048327024513128 0 0 0 0 -7.0145385456362419 -12.637783249519998 0 -12.637783249519998 -43.32043386960504 0 0 0 0 -29.53551459832488 11.930679449433228 0 11.930679449433228 12.628870677566738 0 0 0 0 0.75265284354645701 -26.713897348745377 0 -26.713897348745377 -25.999653726874385 0 0 0 0 -21.171238362000878 -40.312527997778488 0 -40.312527997778488 -35.559769960971607 0 0 0 0 -24.932659299740862 -236.20663857903128 0 -236.20663857903128 -845.91515222740418 0 0 0 0 -60.247808359243209 -181.66597126538545 0 -181.66597126538545 -686.22800190458656 0 0 0 0 -60.515173483176113 -264.83470921725893 0 -264.83470921725893 -813.90740030279267 0 0 0 0 -83.837492865155582 -273.6204016456104 0 -273.6204016456104 -644.69827615780923 0 0 0 0 -55.965421247270285 -331.35217448087337 0 -331.35217448087337 -818.21829631846049 0 0 0 0 -10.268554237796025 -281.61292886133742 0 -281.61292886133742 -929.06620548495994 0 0 0 0 -29.611312089195508 -310.96504534859923 0 -310.96504534859923 -898.39172305926331 0 0 0 0 -1.4934942988693365 -283.72584292194369 0 -283.72584292194369 -994.74065952221281 0 0 0 0 12.970381004704905 -279.13516913585408 0 -279.13516913585408 -1025.7794623750669 0 0 0 0 0.92786027638294399 -300.37899819744052 0 -300.37899819744052 -995.88587536403247 0 0 0 0 -9.987103689124865 -263.4403507743009 0 -263.4403507743009 -936.81180694347131 0 0 0 0 -17.525026075900314 -287.56000809139368 0 -287.56000809139368 -923.36644022463588 0 0 0 0 25.376516399007869 -216.29551705857011 0 -216.29551705857011 -1023.8481434659989 0 0 0 0 51.824001012197186 -275.84939838485661 0 -275.84939838485661 -1158.9877791015388 0 0 0 0 18.615914023193682 -162.03682347878203 0 -162.03682347878203 -946.45807797418092 0 0 0 0 3.6466607977265539 -243.52414628845145 0 -243.52414628845145 -969.99982996417384 0 0 0 0 23.45086323589021 -205.55531999078812 0 -205.55531999078812 -984.44087547516574 0 0 0 0 -10.123935584756964 -204.64169302870141 0 -204.64169302870141 -830.85358231935243 0 0 0 0 -9.9560217942075724 -234.11390974937967 0 -234.11390974937967 -887.14831085546757 0 0 0 0 23.989462442752483 -158.96137447845103 0 -158.96137447845103 -865.54288071378323 0 0 0 0 -12.528176723584693 -180.98677789603244 0 -180.98677789603244 -850.91791020961682 0 0 0 0 -0.27495748744013326 -117.15568689897918 0 -117.15568689897918 -720.5154993832366 0 0 0 0 49.583505809036069 -149.2439359598211 0 -149.2439359598211 -751.24963500761078 0 0 0 0 -3.2816167688351925 -144.78872244549711 0 -144.78872244549711 -741.03312780207489 0 0 0 0 -5.7598039539448109 -166.69061624300593 0 -166.69061624300593 -780.79261088826752 0 0 0 0 -43.240425603371477 -197.24323123622889 0 -197.24323123622889 -614.08692853528191 0 0 0 0 80.578049549350908 -221.36470137048309 0 -221.36470137048309 -688.21446309122257 0 0 0 0 38.830211887810947 -146.75367480942805 0 -146.75367480942805 -775.96843010371231 0 0 0 0 58.981274849062174 34.145185804882203 0 34.145185804882203 -366.99287866891245 0 0 0 0 -3.267154377688712 -269.50409518896049 0 -269.50409518896049 -548.9895832449256 0 0 0 0 56.057027237906368 88.034905918073491 0 88.034905918073491 -110.82072842355046 0 0 0 0 -0.86522101406394469 -0.25278398678113945 0 -0.25278398678113945 -0.1274966678316396 0 0 0 0 -93.454755746285173 -127.71148612716206 0 -127.71148612716206 -517.36475063681428 0 0 0 0 -44.269234546098232 -166.59549240722481 0 -166.59549240722481 -748.96907424966048 0 0 0 0 -147.00748579889023 -102.55673383754765 0 -102.55673383754765 -523.49724257055641 0 0 0 0 -69.505113070149491 -135.39451148250373 0 -135.39451148250373 -754.82842421193345 0 0 0 0 -35.468230434095631 -95.20956285657121 0 -95.20956285657121 -923.3997471951734 0 0 0 0 -83.818878882459103 -28.304719582010875 0 -28.304719582010875 -690.8969066705904 0 0 0 0 -92.242111359537489 -251.59245847906914 0 -251.59245847906914 -1033.9820497420151 0 0 0 0 -34.439903786998002 -168.51300109463773 0 -168.51300109463773 -932.24045959217619 0 0 0 0 -126.2609206578627 -111.65105508195848 0 -111.65105508195848 -963.12366636947991 0 0 0 0 49.551466349436851 -297.5276288358873 0 -297.5276288358873 -1194.3967448462572 0 0 0 0 28.982927706981513 -221.80569820193523 0 -221.80569820193523 -1267.1424850198091 0 0 0 0 39.041587934375912 -214.60296929785545 0 -214.60296929785545 -1689.3062422653602 0 0 0 0 -276.75857226500102 -121.200751268967 0 -121.200751268967 -1124.663206044228 0 0 0 0 22.802005521777787 -540.99058663937444 0 -540.99058663937444 -1363.2341913410055 0 0 0 0 5.7960547535822116 -485.31764964392642 0 -485.31764964392642 -1261.3346280013211 0 0 0 0 13.86639998756641 -498.77129307295036 0 -498.77129307295036 -1244.4734480845364 0 0 0 0 55.301220741986072 -358.17301201788359 0 -358.17301201788359 -1317.8070676088682 0 0 0 0 24.010722570611051 -365.48176169736507 0 -365.48176169736507 -1126.4214188197147 0 0 0 0 3.9735597852409228 -396.36006461500074 0 -396.36006461500074 -1163.263410473126 0 0 0 0 -13.877760637697861 -358.92526594406445 0 -358.92526594406445 -1053.0382238910388 0 0 0 0 2.4878142165343888 -340.26572162748926 0 -340.26572162748926 -1093.026061909768 0 0 0 0 -38.946200447844149 -400.55659916630248 0 -400.55659916630248 -1123.0267147776431 0 0 0 0 -23.879331475563049 -394.28838104847819 0 -394.28838104847819 -1159.0325652638421 0 0 0 0 -52.61512297947138 -428.02301058382 0 -428.02301058382 -1147.5541952630629 0 0 0 0 -6.4537333177795517 -476.93242682500932 0 -476.93242682500932 -1127.5039559855213 0 0 0 0 -90.883150366195423 -393.94094548470457 0 -393.94094548470457 -1140.1249856870731 0 0 0 0 -57.615698513012376 -414.53443132367829 0 -414.53443132367829 -1168.6889115054437 0 0 0 0 -82.973618338383858 -318.6584392639561 0 -318.6584392639561 -1280.2675854033441 0 0 0 0 9.0981652629836791 0.47687930070697604 0 0.47687930070697604 -6.7453611362958483 0 0 0 0 -9.4021029417730233 -18.142526723169794 0 -18.142526723169794 14.755074157841591 0 0 0 0 3.5020051995452124 -6.4671145741055795 0 -6.4671145741055795 -0.46809124703839977 0 0 0 0 -1.3004753277282362 -22.989032932862756 0 -22.989032932862756 -69.223074541987444 0 0 0 0 5.2973750029484545 1.7511086356788113 0 1.7511086356788113 -5.3099097050154214 0 0 0 0 -105.85227778447143 -463.14939117738322 0 -463.14939117738322 -902.13324855436076 0 0 0 0 -61.137541169513497 -584.79231029046423 0 -584.79231029046423 -1189.5467093342668 0 0 0 0 -390.01517423607106 -256.15145878633757 0 -256.15145878633757 -353.90935249160248 0 0 0 0 7.0743448596402345 -5.0399654942493726 0 -5.0399654942493726 -44.309989114852215 0 0 0 0 16.147821195804681 -18.665129585886461 0 -18.665129585886461 -19.894667721273436 0 0 0 0 7.4190149630233719 -5.544363303415409 0 -5.544363303415409 -7.1979031063925607 0 0 0 0 7.417901481466326 -0.97606731173789285 0 -0.97606731173789285 -7.0443198857093492 0 0 0 0 5.2217093805415971 -8.3602493764046812 0 -8.3602493764046812 -39.916184924193658 0 0 0 0 6.2258796066449982 -6.7919986876285421 0 -6.7919986876285421 -21.022004009787906 0 0 0 0 -0.54947958591593338 -8.6434174928590437 0 -8.6434174928590437 -36.254474701883737 0 0 0 0 8.8399192538138003 1.1889973786637711 0 1.1889973786637711 -32.198581035889219 0 0 0 0 0.073222881371189652 -0.69835818248715498 0 -0.69835818248715498 -6.5994692093570322 0 0 0 0 -114.1489030028057 36.232299925339248 0 36.232299925339248 -872.0463780940263 0 0 0 0 4.6490911504300954 -17.887280925489904 0 -17.887280925489904 -39.484977563748544 0 0 0 0 5.6698659383464323 0.38051073572133021 0 0.38051073572133021 -6.12724851659123 0 0 0 0 13.632639913013463 -469.77333667140556 0 -469.77333667140556 -1215.8591390766596 0 0 0 0 -264.32125132632063 -794.38177620495844 0 -794.38177620495844 -1763.6605588182233 0 0 0 0 2.212107492470214 -1.7001377810692073 0 -1.7001377810692073 -7.5299422883238805 0 0 0 0 139.28193575986325 206.87862104973101 0 206.87862104973101 -1837.574670913913 0 0 0 0 -853.50178002097164 -1001.5548896420223 0 -1001.5548896420223 -958.34686694568882 0 0 0 0 21.997300908288814 -487.68662781870114 0 -487.68662781870114 -2163.209333056162 0 0 0 0 -131.6039052979213 -168.75373067095279 0 -168.75373067095279 -980.10407456962275 0 0 0 0 -381.48482477142625 111.16644308165996 0 111.16644308165996 -1614.3048618058674 0 0 0 0 -784.77647292745951 -495.97383517457092 0 -495.97383517457092 -1143.5265213528692 0 0 0 0 243.0322729378945 -81.53258849010308 0 -81.53258849010308 -530.41464965678097 0 0 0 0 -234.4999807698955 -328.16146395085343 0 -328.16146395085343 -162.85926959908829 0 0 0 0 -235.68939793230629 -302.1195302971264 0 -302.1195302971264 -616.72699998608005 0 0 0 0 194.28849818277786 37.512447490513296 0 37.512447490513296 -963.72671870478098 0 0 0 0 -68.011544614781769 -522.27385226346451 0 -522.27385226346451 -1087.6105598945578 0 0 0 0 -105.29229678996965 -612.13088266524358 0 -612.13088266524358 -1248.6539100137234 0 0 0 0 14.398389869804078 -455.48457215674352 0 -455.48457215674352 -1352.5486754667581 0 0 0 0 7.0272259592720729 -459.56807032164215 0 -459.56807032164215 -1223.20638925612 0 0 0 0 -41.989342052081611 -460.56597907224932 0 -460.56597907224932 -1249.3339398052544 0 0 0 0 23.51679227780761 -453.77700838211967 0 -453.77700838211967 -1248.9667186286533 0 0 0 0 43.071295232417015 -324.06848926780003 0 -324.06848926780003 -1731.3593876040068 0 0 0 0 -3.30351378854292 -2.6134049174202687 0 -2.6134049174202687 -2.1357345109280672 0 0 0 0 -128.50194860404619 -595.83831843079497 0 -595.83831843079497 -1450.4312255530531 0 0 0 0 63.469243604886834 -283.74165377323516 0 -283.74165377323516 -1151.0460502147184 0 0 0 0 -288.95335594512642 -408.92743121230524 0 -408.92743121230524 -1143.7483107797452 0 0 0 0 0.42097078580860997 -138.82981240193428 0 -138.82981240193428 -308.7928088682238 0 0 0 0 11.676154487096566 2.1685711188183632 0 2.1685711188183632 -33.209347013180377 0 0 0 0 1.6663554131569041 0.63846392405672248 0 0.63846392405672248 -1.1297780634677537 0 0 0 0 -84.019102055670146 -334.97170001242921 0 -334.97170001242921 -1164.7682258357236 0 0 0 0 10.070400708131647 3.1061045173737512 0 3.1061045173737512 -32.401601012243191 0 0 0 0 31.209581881067606 -464.98458239797037 0 -464.98458239797037 -1237.5875737175083 0 0 0 0 6.1558634392404485 5.2485392897579004 0 5.2485392897579004 -29.652973530795862 0 0 0 0 9.1259860528786945 0.016648131371766794 0 0.016648131371766794 -25.999992227858456 0 0 0 0 13.08354725308941 -0.28426966160259326 0 -0.28426966160259326 -33.481626387861979 0 0 0 0 11.179540940865373 -5.650158132029901 0 -5.650158132029901 -32.201122727841721 0 0 0 0 9.9559829483476019 0.18636372378387023 0 0.18636372378387023 -34.806806834269082 0 0 0 0 14.482714352164834 -5.9123967009927583 0 -5.9123967009927583 -318.15571960009584 0 0 0 0 -35.911395736587224 139.68285782862961 0 139.68285782862961 -291.20278252987191 0 0 0 0 -0.2473087081220923 95.226569731023119 0 95.226569731023119 -240.4271278704 0 0 0 0 -0.24256997896591759 0.25935836779662225 0 0.25935836779662225 -0.23195359510828695 0 0 0 0 -33.534089188059625 102.81498074534466 0 102.81498074534466 -253.84994842587184 0 0 0 0 -21.205239917218307 -40.307370875620109 0 -40.307370875620109 -109.89496547828458 0 0 0 0 -0.2451320516411159 0.17386525687818732 0 0.17386525687818732 -0.42519785126422249 0 0 0 0 -0.23933827497911178 -158.13656375926712 0 -158.13656375926712 -976.14107293932648 0 0 0 0 -102.03647135144115 10.980725884466665 0 10.980725884466665 -315.04138817151033 0 0 0 0 -171.84283835055646 9.5394824907780276 0 9.5394824907780276 -219.66791333027504 0 0 0 0 -51.395864412926841 78.374405042839498 0 78.374405042839498 -234.36682019869113 0 0 0 0 -149.29629235219062 61.446449848398515 0 61.446449848398515 -105.26289380672824 0 0 0 0 7.4370996348980611 92.559236352459266 0 92.559236352459266 -402.21899036680406 0 0 0 0 -28.9408860283514 -40.452383442775272 0 -40.452383442775272 -282.10736815332348 0 0 0 0 -8.1286382215976403 -5.1090522611452371 0 -5.1090522611452371 -2.2618277514073277 0 0 0 0 -45.49707518532648 15.256257614353672 0 15.256257614353672 -120.19252199061521 0 0 0 0 10.271494894089692 -3.1756170124172058 0 -3.1756170124172058 -259.37132406487217 0 0 0 0 0.034920773500346058 35.481800156878307 0 35.481800156878307 -270.9037498159305 0 0 0 0 -1.8197180401907449 41.814302428601422 0 41.814302428601422 -260.32081808462681 0 0 0 0 -11.624625115910774 77.334088151892502 0 77.334088151892502 -287.06893184971705 0 0 0 0 -88.361554516577854 122.08186577065135 0 122.08186577065135 -146.29870005518751 0 0 0 0 -33.098484318898002 -78.309519116060983 0 -78.309519116060983 -49.377920917075244 0 0 0 0 -99.194406728947172 199.48602511540594 0 199.48602511540594 -318.05103318042529 0 0 0 0 -0.15980442815919815 -0.57655198249900508 0 -0.57655198249900508 -1.865640123622498 0 0 0 0 -100.38835699290098 12.894244490813435 0 12.894244490813435 34.401842561950616 0 0 0 0 -48.029834566437842 32.079988080131443 0 32.079988080131443 -150.11912744187975 0 0 0 0 -56.445958803327414 114.49696056030371 0 114.49696056030371 -179.83317868224185 0 0 0 0 -0.1623676744832292 -1.2290496623892579 0 -1.2290496623892579 -3.5020852997216849 0 0 0 0 -98.275763406105398 28.122616895212559 0 28.122616895212559 -89.204451124300249 0 0 0 0 0.047776748217367215 0.11709951927824136 0 0.11709951927824136 -0.22221260640867513 0 0 0 0 -28.734149002807499 8.2555391287387465 0 8.2555391287387465 -78.95621646858126 0 0 0 0 60.086441899940041 109.19555290618155 0 109.19555290618155 -177.39288780379866 0 0 0 0 -73.331067667799019 41.476323495018733 0 41.476323495018733 -48.30259764107177 0 0 0 0 -14.230335361750946 37.260409772774437 0 37.260409772774437 -91.252372462458879 0 0 0 0 -38.118799986774903 55.16772184304682 0 55.16772184304682 -118.04295784204442 0 0 0 0 -52.986852069215999 54.101510281740048 0 54.101510281740048 -117.87891439727719 0 0 0 0 -61.523447114618875 64.109404592229112 0 64.109404592229112 -120.96801641650381 0 0 0 0 -57.434030762099553 38.387402829968778 0 38.387402829968778 -79.641651847028697 0 0 0 0 -81.712604225021863 46.104829463114584 0 46.104829463114584 -74.897157801242429 0 0 0 0 -97.951388443260441 16.902747293210268 0 16.902747293210268 -57.713108556017687 0 0 0 0 -87.341667225768816 32.61711065147756 0 32.61711065147756 -107.0423571472877 0 0 0 0 -75.704146684809558 41.119657708033628 0 41.119657708033628 -107.40639667140204 0 0 0 0 -59.998182134110316 35.237069815882933 0 35.237069815882933 -162.83319929800928 0 0 0 0 -77.880984038343954 18.755867268650036 0 18.755867268650036 -151.07495574899258 0 0 0 0 -74.855567012574625 22.310725103812729 0 22.310725103812729 -153.47081540770887 0 0 0 0 -58.027498565713515 1.6863196438753221 0 1.6863196438753221 -221.66449038549035 0 0 0 0 -36.507648064977928 36.875263363486738 0 36.875263363486738 -206.77830990641087 0 0 0 0 -39.323470187053587 35.890902748797089 0 35.890902748797089 -163.13435778121311 0 0 0 0 -33.161035754787122 52.919964374625124 0 52.919964374625124 -167.46956951128436 0 0 0 0 -43.20341326785482 56.364549223231734 0 56.364549223231734 -167.38045399117982 0 0 0 0 -10.314842619497771 52.617423025407334 0 52.617423025407334 -239.88405169086764 0 0 0 0 -9.6951817142736161 64.227794618665939 0 64.227794618665939 -208.15131193165143 0 0 0 0 -8.196380206622635 30.983624779932143 0 30.983624779932143 -247.83396579223154 0 0 0 0 -13.254126041984279 29.296508593397448 0 29.296508593397448 -229.47987403986917 0 0 0 0 4.7608042118675371 20.795984509626578 0 20.795984509626578 -240.33377520555223 0 0 0 0 -7.5032359469725503 -3.6120945542583058 0 -3.6120945542583058 -1.0856553904706665 0 0 0 0 -10.880213782465319 0.41319938456217642 0 0.41319938456217642 -205.22116514000663 0 0 0 0 36.602499796326811 -20.555354805208481 0 -20.555354805208481 291.56333723544412 0 0 0 0 -211.81522640415164 -58.277466050381918 0 -58.277466050381918 457.8969437640626 0 0 0 0 -2.7707835305129036 -0.98992432292993726 0 -0.98992432292993726 -0.33402904981990389 0 0 0 0 -84.377694332365309 -2.7281344654984423 0 -2.7281344654984423 278.83934570871133 0 0 0 0 65.490336856838951 -45.544876157948238 0 -45.544876157948238 290.83510333950107 0 0 0 0 -11.83332035437347 29.439271219536749 0 29.439271219536749 -238.35684225810837 0 0 0 0 -18.195863326736045 -10.136817084976428 0 -10.136817084976428 -378.19761360869597 0 0 0 0 -8.4183194191277639 22.293904770177051 0 22.293904770177051 -245.18883014410676 0 0 0 0 -134.41194360939124 -86.693134327328153 0 -86.693134327328153 -215.28321707383475 0 0 0 0 -76.183599809708966 13.972816238085215 0 13.972816238085215 -177.9002599350024 0 0 0 0 -158.60304698728174 -10.295722451031452 0 -10.295722451031452 -95.349360057050944 0 0 0 0 -143.63823438466474 -42.086789591372508 0 -42.086789591372508 420.97257992210507 0 0 0 0 -1.5447045036751397 -1.5434268716247885 0 -1.5434268716247885 -0.006058899756428815 0 0 0 0 -228.28162552475686 -118.18164218578568 0 -118.18164218578568 292.02075416123262 0 0 0 0 -60.156211947021021 -272.08122183696287 0 -272.08122183696287 -5.4788316289195791 0 0 0 0 -112.76528460758539 37.099606853349542 0 37.099606853349542 365.47974248532046 0 0 0 0 110.42302964260432 -124.98510316600732 0 -124.98510316600732 -204.14480424306385 0 0 0 0 50.891484560820039 -81.691737392187861 0 -81.691737392187861 94.437173025493394 0 0 0 0 38.967354569505751 -164.28553878772436 0 -164.28553878772436 132.43889412619319 0 0 0 0 26.895521462080808 -9.876116569925216 0 -9.876116569925216 -21.34414979599751 0 0 0 0 0.099988620912680959 -2.9551663200432898 0 -2.9551663200432898 -2.6020205568621577 0 0 0 0 154.76994909134436 -73.238103080395376 0 -73.238103080395376 58.39159212456434 0 0 0 0 -10.639878429052544 43.664645926444791 0 43.664645926444791 -158.64041319323951 0 0 0 0 86.587443679323442 -96.147745869531718 0 -96.147745869531718 -72.178602899934049 0 0 0 0 107.62134207576574 112.27416221997009 0 112.27416221997009 -66.913384041945903 0 0 0 0 46.106131645594019 23.455408890957187 0 23.455408890957187 -193.63804072397761 0 0 0 0 -40.171479318253432 88.483883330620301 0 88.483883330620301 -100.50352347758781 0 0 0 0 -100.13119606937752 17.551435819188555 0 17.551435819188555 -141.10907941891492 0 0 0 0 -78.773414467450877 37.323266008261271 0 37.323266008261271 -130.07695059179605 0 0 0 0 -115.29176201468997 -20.747730148439587 0 -20.747730148439587 -130.37455901498652 0 0 0 0 -21.344600864374172 9.7546070307944319 0 9.7546070307944319 -120.47790349420757 0 0 0 0 -61.947838437961536 -104.89217205819295 0 -104.89217205819295 -169.58459109979958 0 0 0 0 -32.055624533737202 -27.311841395022839 0 -27.311841395022839 -223.19965281426266 0 0 0 0 -82.619031981148083 -71.8948000768778 0 -71.8948000768778 -55.328928245871793 0 0 0 0 -138.9775004186358 -8.3337628854833383 0 -8.3337628854833383 -71.393895401692134 0 0 0 0 -158.43896920044855 -43.17866958324521 0 -43.17866958324521 -48.27109702380676 0 0 0 0 -63.922302873100847 -102.2661209090802 0 -102.2661209090802 -20.596512275133136 0 0 0 0 -64.158770681375557 64.696582315355045 0 64.696582315355045 -44.917361414605693 0 0 0 0 -185.84579520400854 96.767954860370082 0 96.767954860370082 64.760271542028931 0 0 0 0 -239.58114456647627 292.88967912950102 0 292.88967912950102 -219.95524287548506 0 0 0 0 -160.8064019975825 236.63809278705594 0 236.63809278705594 20.223928264422284 0 0 0 0 -144.14461025647847 192.41331315319803 0 192.41331315319803 -244.1772369767059 0 0 0 0 -257.0918075665968 233.49151715471453 0 233.49151715471453 -109.93691893787036 0 0 0 0 -324.50666814774161 283.99617685701742 0 283.99617685701742 -279.12719191890437 0 0 0 0 -235.2978513653207 211.85169576513908 0 211.85169576513908 -289.59972001212009 0 0 0 0 -158.64964225984909 60.101122874006251 0 60.101122874006251 -150.4797104588506 0 0 0 0 -220.13065931012937 160.44804459507395 0 160.44804459507395 -247.15063191480294 0 0 0 0 -268.96949121978321 140.01438892531223 0 140.01438892531223 -248.96571512965602 0 0 0 0 -246.13273283546596 229.85464207080804 0 229.85464207080804 -349.40443335531018 0 0 0 0 -288.71521498039112 257.09500746633239 0 257.09500746633239 -280.96949490092811 0 0 0 0 -273.69467805663078 331.80260734562398 0 331.80260734562398 -418.30280540898457 0 0 0 0 -255.00229205117253 264.30129236916855 0 264.30129236916855 -400.09634995008673 0 0 0 0 -116.16580873175644 300.97827663919088 0 300.97827663919088 -478.28157104693673 0 0 0 0 -114.30328627554559 212.54983020940927 0 212.54983020940927 -391.6103293506676 0 0 0 0 -244.93718215241284 166.92259593769813 0 166.92259593769813 -368.19311832778476 0 0 0 0 -169.97715169593158 231.4727694449175 0 231.4727694449175 -298.61710438765658 0 0 0 0 -0.16906917894413431 -0.4354357726876259 0 -0.4354357726876259 -1.8754018786048903 0 0 0 0 -126.18792132318379 175.29193378495984 0 175.29193378495984 -369.62172552246329 0 0 0 0 -153.68994760271735 -11.931405158431517 0 -11.931405158431517 -35.056647378711205 0 0 0 0 -142.41901885782369 -45.739694362117007 0 -45.739694362117007 -117.79915368321053 0 0 0 0 -147.39670065346056 -7.723664524139167 0 -7.723664524139167 -68.189167449167144 0 0 0 0 -113.85603770791583 46.622123021523294 0 46.622123021523294 -4.4229183832358103 0 0 0 0 -35.19526199159165 77.287594019395328 0 77.287594019395328 -54.569514552651526 0 0 0 0 -76.257343939570887 52.625928640489292 0 52.625928640489292 -62.088105194442505 0 0 0 0 -153.09710892660217 166.7692708276154 0 166.7692708276154 -78.010344334979891 0 0 0 0 -96.962996134294713 57.677235401424696 0 57.677235401424696 -84.715099994551565 0 0 0 0 -64.961182307555646 136.18567091265868 0 136.18567091265868 -232.74889426466234 0 0 0 0 -109.91267476331529 205.25028270936309 0 205.25028270936309 -220.58141307407641 0 0 0 0 -109.50947991433793 132.18527092076329 0 132.18527092076329 -116.01440533146524 0 0 0 0 -93.129689144413106 125.17850457347595 0 125.17850457347595 -124.03487449626846 0 0 0 0 -11.772584701618712 69.268404909227684 0 69.268404909227684 -209.909200737231 0 0 0 0 -41.05248560858945 161.72856901647174 0 161.72856901647174 -338.05920040667115 0 0 0 0 -82.758780506111037 156.5305314318266 0 156.5305314318266 -212.89326907118084 0 0 0 0 -68.633453189843635 143.6503162817753 0 143.6503162817753 -236.46728091803379 0 0 0 0 -63.97619308320381 191.96157596371813 0 191.96157596371813 -334.76296231083688 0 0 0 0 -47.924465267801565 195.80325943889329 0 195.80325943889329 -424.40060866390559 0 0 0 0 -78.127724632865807 200.70543091907166 0 200.70543091907166 -322.16075278963581 0 0 0 0 -92.490447395911474 184.85825167442817 0 184.85825167442817 -223.88251148082145 0 0 0 0 -61.105484725690246 176.87124936290638 0 176.87124936290638 -331.05412777115271 0 0 0 0 -79.194977786031359 165.7253090321683 0 165.7253090321683 -285.09643087942095 0 0 0 0 -66.210474480445214 199.49115817321581 0 199.49115817321581 -398.38638721558527 0 0 0 0 -129.10031151645532 219.19723323973176 0 219.19723323973176 -304.86081523918256 0 0 0 0 -121.77169894007363 226.10275454635484 0 226.10275454635484 -398.49029018717886 0 0 0 0 -54.741618566190482 232.92236000966659 0 232.92236000966659 -475.61600429052487 0 0 0 0 -94.944536274050137 270.96328443043149 0 270.96328443043149 -472.45457502234058 0 0 0 0 -22.359814978099735 256.1803871382217 0 256.1803871382217 -562.19469547781046 0 0 0 0 -28.73739834294679 283.43491683608954 0 283.43491683608954 -540.74737908481632 0 0 0 0 -23.146761910377876 266.56744032430015 0 266.56744032430015 -542.64431679892732 0 0 0 0 -29.255160662545563 212.00672321007914 0 212.00672321007914 -528.6142003616842 0 0 0 0 -56.104670829678582 223.23580683992805 0 223.23580683992805 -424.38024457840947 0 0 0 0 -45.436677758669248 206.3485052681317 0 206.3485052681317 -450.82356464333748 0 0 0 0 -22.937683798696355 211.8762192083359 0 211.8762192083359 -588.64161391786183 0 0 0 0 -78.464478023657051 256.45722829717852 0 256.45722829717852 -575.36500419648655 0 0 0 0 -21.805956117518917 260.66339520013207 0 260.66339520013207 -673.98458881742408 0 0 0 0 -21.710348512517385 321.56606795860716 0 321.56606795860716 -841.56219823445826 0 0 0 0 -1.1958987248849458 189.31052525280575 0 189.31052525280575 -624.60992122847892 0 0 0 0 -82.210684347280363 207.29260935596358 0 207.29260935596358 -464.66277113874094 0 0 0 0 0.28211885783774582 139.87003437515341 0 139.87003437515341 -383.93982268131731 0 0 0 0 -10.164540163092909 197.31526403785756 0 197.31526403785756 -467.95875320515825 0 0 0 0 -68.885293006466554 187.12967315161586 0 187.12967315161586 -358.12737632168864 0 0 0 0 -42.083558910188685 178.31487695435135 0 178.31487695435135 -452.55620583023347 0 0 0 0 -41.106044622404681 158.04605186785193 0 158.04605186785193 -360.19187554646646 0 0 0 0 -70.07797010496904 165.56285423172812 0 165.56285423172812 -259.82354923972889 0 0 0 0 -51.463423555867777 150.78818554944337 0 150.78818554944337 -287.03918944495672 0 0 0 0 396.87623530562081 -35.159859781836943 0 -35.159859781836943 -110.03865793294972 0 0 0 0 -4.4645181634386972 -18.006553616432939 0 -18.006553616432939 -41.145935825156812 0 0 0 0 3.1704787987127929 -19.938217864859325 0 -19.938217864859325 -49.114375145902159 0 0 0 0 12.26312187131742 -7.3632743249356523 0 -7.3632743249356523 -30.694418395155111 0 0 0 0 -6.4922253561235266 -36.344256584343384 0 -36.344256584343384 -57.459768636719673 0 0 0 0 -2.2236925674901613 -379.17585314143071 0 -379.17585314143071 -138.30298460298945 0 0 0 0 -216.0865734061839 175.69384829050614 0 175.69384829050614 96.761312798618746 0 0 0 0 396.51595288329918 144.71862665867593 0 144.71862665867593 -409.37790260477777 0 0 0 0 193.02868859183536 290.47367224976188 0 290.47367224976188 32.84308079080256 0 0 0 0 13.100320355795898 -6.1344734712076416 0 -6.1344734712076416 -25.742911313478956 0 0 0 0 -19.624479271587006 -26.657293914388902 0 -26.657293914388902 -29.94114406749577 0 0 0 0 -22.478757490413045 -22.456468242738993 0 -22.456468242738993 -29.287747350655991 0 0 0 0 -17.798952723847833 -26.968365670105413 0 -26.968365670105413 -36.798638427821061 0 0 0 0 37.872974715974124 -4.8796332291931321 0 -4.8796332291931321 -2.4868895277541014 0 0 0 0 36.895626847147014 19.8428844497721 0 19.8428844497721 9.1877579628453532 0 0 0 0 54.99967350640074 39.962082454858773 0 39.962082454858773 34.868916411593091 0 0 0 0 99.928543310797522 27.982661009007643 0 27.982661009007643 -12.368129211507039 0 0 0 0 1.5526293141410683 -0.52441802464941745 0 -0.52441802464941745 -4.2833698809280776 0 0 0 0 -44.504890130897365 -32.288915334429475 0 -32.288915334429475 -32.328784386922052 0 0 0 0 -57.903514673023892 -62.850637193090733 0 -62.850637193090733 -48.368178085744148 0 0 0 0 -20.387903759720757 -42.881895077538502 0 -42.881895077538502 -63.473660179597573 0 0 0 0 -20.402194181533712 -31.555150883083275 0 -31.555150883083275 -42.114584311289946 0 0 0 0 -59.420786381219841 -28.498856614991382 0 -28.498856614991382 -29.33754822438641 0 0 0 0 -4.7769715746549082 -59.238664464275644 0 -59.238664464275644 -35.059618198196404 0 0 0 0 30.11249783726953 -8.8806776257897582 0 -8.8806776257897582 -33.737453735760937 0 0 0 0 114.91759690661843 67.436202646455058 0 67.436202646455058 -10.349099471899535 0 0 0 0 1.1145640289920999 -0.66413846869594195 0 -0.66413846869594195 -2.0410215983220326 0 0 0 0 -108.65491290432465 -120.92795085058879 0 -120.92795085058879 -48.975362727935135 0 0 0 0 7.1442604870720601 -7.1696302711712505 0 -7.1696302711712505 -17.825099607334764 0 0 0 0 47.817513896107812 -63.810498408779949 0 -63.810498408779949 -56.60006889322176 0 0 0 0 17.340639505113813 -50.851150472486552 0 -50.851150472486552 -60.261270185932517 0 0 0 0 -115.42539980621586 -85.048324483403121 0 -85.048324483403121 12.077241220074939 0 0 0 0 24.580470889521166 15.359449435303759 0 15.359449435303759 -3.5768900323455455 0 0 0 0 8.5768354871637484 -11.715062725402287 0 -11.715062725402287 4.2165909517132292 0 0 0 0 -34.955074908544418 -40.258324310007083 0 -40.258324310007083 -4.121865907716284 0 0 0 0 158.17308503157665 -63.859299722113064 0 -63.859299722113064 -38.755693412371329 0 0 0 0 -2.1998370750851217 -15.083761771784609 0 -15.083761771784609 -36.081856387152285 0 0 0 0 63.774402388225212 -83.356251466981121 0 -83.356251466981121 -20.525755517577636 0 0 0 0 -47.63046174998675 -69.658423287051846 0 -69.658423287051846 85.684932822335213 0 0 0 0 -3.3485953562476425 -11.800222267353092 0 -11.800222267353092 -12.376458458966226 0 0 0 0 6.9139967091504966 -9.0524891678728565 0 -9.0524891678728565 -10.433940159835302 0 0 0 0 -0.63491210400410347 -14.994314378418217 0 -14.994314378418217 5.7401055826439773 0 0 0 0 191.76013950280139 -36.389465672997176 0 -36.389465672997176 -16.907621761540213 0 0 0 0 6.3789590661435795 11.88152945679758 0 11.88152945679758 58.824155807815259 0 0 0 0 465.82525705361149 69.750722646458598 0 69.750722646458598 -60.527875803119969 0 0 0 0 -0.84848553040112229 -7.5571731620071319 0 -7.5571731620071319 -8.1775100529103497 0 0 0 0 7.316922105097877 5.0284077170307597 0 5.0284077170307597 -4.1942263467937977 0 0 0 0 0.7191329238085018 -44.975316946489329 0 -44.975316946489329 -33.587630271802482 0 0 0 0 13.726085544990461 -14.582899655247182 0 -14.582899655247182 -22.68244071982717 0 0 0 0 -274.62830823673517 -207.77751796318626 0 -207.77751796318626 61.93095649566385 0 0 0 0 -1.0406962383611056 -120.51463229451326 0 -120.51463229451326 6.2012741103826556 0 0 0 0 374.47825451901099 -236.58535593232227 0 -236.58535593232227 -147.36134683094861 0 0 0 0 0.38873399058866198 -173.68630330980523 0 -173.68630330980523 -12.338176105491584 0 0 0 0 238.61706544498202 -105.9274128923571 0 -105.9274128923571 -66.737637893151259 0 0 0 0 148.87783671435454 -174.26608948370995 0 -174.26608948370995 -19.736799053527648 0 0 0 0 102.53159977097948 -128.22105833951355 0 -128.22105833951355 -27.097757022129372 0 0 0 0 20.724677059065471 -104.22678985782113 0 -104.22678985782113 -18.282624061364913 0 0 0 0 -20.631013548849637 -128.47456243380657 0 -128.47456243380657 8.1565916336257942 0 0 0 0 9.73126378993652 -69.045659127616091 0 -69.045659127616091 -1.6440738264645915 0 0 0 0 50.843741457601482 -88.441724203170452 0 -88.441724203170452 -8.1718152796001959 0 0 0 0 160.88845676133155 -75.664261059955606 0 -75.664261059955606 -46.040850255914847 0 0 0 0 33.514689148130273 -50.112967966606448 0 -50.112967966606448 -15.113160213688388 0 0 0 0 7.2869523772376397 -74.183027966377267 0 -74.183027966377267 -12.203505944926292 0 0 0 0 117.06851718210874 -83.46107157033839 0 -83.46107157033839 -41.187926479338785 0 0 0 0 112.70385497479379 -49.528072013123165 0 -49.528072013123165 -10.995611937076319 0 0 0 0 12.343525012804037 -52.857324438264186 0 -52.857324438264186 5.5557404740829952 0 0 0 0 23.844881828336611 -29.271440996781166 0 -29.271440996781166 1.7690065325223259 0 0 0 0 24.114893161556211 -44.424286618846963 0 -44.424286618846963 -11.044938438746613 0 0 0 0 -30.973915988343094 2.2500536624502274 0 2.2500536624502274 -48.171013246370421 0 0 0 0 -17.567198606011743 -57.684350511444791 0 -57.684350511444791 -0.3915475550602423 0 0 0 0 19.828134431879107 -26.092519059402548 0 -26.092519059402548 11.806025107827736 0 0 0 0 38.620297322328042 -23.491454300397891 0 -23.491454300397891 -149.93456204996983 0 0 0 0 0.6513832645633113 -1.8655679476354692 0 -1.8655679476354692 -1.7077531210881567 0 0 0 0 -0.54386217541373794 -5.234430160822896 0 -5.234430160822896 -3.0536685759392839 0 0 0 0 2.5529694703309929 -9.861103570467094 0 -9.861103570467094 -5.8401798230115674 0 0 0 0 -6.0831516436226432 -7.1541649241261709 0 -7.1541649241261709 -3.6805423672438309 0 0 0 0 -23.758417511901094 -8.2997630392055726 0 -8.2997630392055726 4.2182824249794066 0 0 0 0 -33.605006990491688 50.904197172945715 0 50.904197172945715 -75.179567340994254 0 0 0 0 26.38227781504537 -18.940124609278428 0 -18.940124609278428 -87.648660324506636 0 0 0 0 27.124276376954469 -21.944075408569915 0 -21.944075408569915 -195.74115386886479 0 0 0 0 -252.60150779814353 -4.6761711697363353 0 -4.6761711697363353 50.131482434619102 0 0 0 0 -2.1219883241931647 -4.3095048336680541 0 -4.3095048336680541 -4.4181223418923707 0 0 0 0 -41.732736890347326 85.839767153453067 0 85.839767153453067 -214.25361317475472 0 0 0 0 -50.834742895983027 29.825045313424198 0 29.825045313424198 -55.642944397579413 0 0 0 0 -149.13569672454696 -30.624756956873171 0 -30.624756956873171 3.9373365629144246 0 0 0 0 -3.4371412073012948 -1.7601697495956614 0 -1.7601697495956614 -9.6152270930133454 0 0 0 0 -2.1906447033528957 -5.3093874923362137 0 -5.3093874923362137 -3.3166364502164178 0 0 0 0 -0.4782388488140441 -7.2762223020945385 0 -7.2762223020945385 -15.327607927043573 0 0 0 0 14.466265377156965 -7.6520821223002713 0 -7.6520821223002713 -91.152609274991846 0 0 0 0 -3.898780907119658 -25.211028348338004 0 -25.211028348338004 -66.731006613721547 0 0 0 0 -0.013524006838160581 -1.91366488322143 0 -1.91366488322143 -5.0407993546707246 0 0 0 0 161.16690057148983 -48.126298939681874 0 -48.126298939681874 -46.830658612456318 0 0 0 0 0.064491712365040213 -0.034862352703266986 0 -0.034862352703266986 -2.0203094499700001 0 0 0 0 -117.45000713195259 -187.32676060490485 0 -187.32676060490485 -212.10577262068546 0 0 0 0 9.0698808502338721 -75.953475901517322 0 -75.953475901517322 -167.44967198417726 0 0 0 0 7.890929943053834 -48.319968340209016 0 -48.319968340209016 -58.201632615166091 0 0 0 0 60.852063873114126 -36.843260276868023 0 -36.843260276868023 -129.94423166098568 0 0 0 0 85.776444933553037 -18.159826041603083 0 -18.159826041603083 -157.78776598508557 0 0 0 0 72.865768882316843 -12.686981165359612 0 -12.686981165359612 -275.22466669774622 0 0 0 0 -119.91273163293468 -25.849695605931629 0 -25.849695605931629 -97.145251490816008 0 0 0 0 -178.80533035898623 -181.64077036796516 0 -181.64077036796516 -236.89641179870523 0 0 0 0 48.349024757935922 -9.4262610349105671 0 -9.4262610349105671 -345.42720013621874 0 0 0 0 33.707540416412996 -20.065473536419631 0 -20.065473536419631 -200.10606423363788 0 0 0 0 68.11694477880107 -52.261314242230583 0 -52.261314242230583 -225.3851473384002 0 0 0 0 68.524504687796139 -81.636108581391454 0 -81.636108581391454 -199.30472215283226 0 0 0 0 0.72097408427737264 -94.534885737422883 0 -94.534885737422883 -107.84038155669259 0 0 0 0 46.197827577523981 3.6756042733013601 0 3.6756042733013601 -34.257143253402319 0 0 0 0 60.335379748156925 0.72826644772067084 0 0.72826644772067084 -80.516764690011769 0 0 0 0 26.562868121272288 20.385722865314165 0 20.385722865314165 19.205682502753916 0 0 0 0 133.98463382155035 5.7494362797424401 0 5.7494362797424401 -20.445242183152004 0 0 0 0 -16.289290805302002 6.5449503782874672 0 6.5449503782874672 -24.648926273235702 0 0 0 0 102.30727007116229 37.427073836646741 0 37.427073836646741 -46.998961345481803 0 0 0 0 77.505080548221144 -7.2643717924620432 0 -7.2643717924620432 34.021760067127616 0 0 0 0 51.946050306496417 69.091399134165385 0 69.091399134165385 85.544485437858384 0 0 0 0 74.478988054378078 91.305287372288149 0 91.305287372288149 67.824314504840004 0 0 0 0 60.810223947451831 41.225075707575343 0 41.225075707575343 -31.31873404361977 0 0 0 0 45.956621904536817 45.281530274645775 0 45.281530274645775 69.384289219866332 0 0 0 0 30.270068472800979 55.790101151305862 0 55.790101151305862 88.164733721067023 0 0 0 0 13.712990132668279 -8.7406760817679086 0 -8.7406760817679086 -20.399140034585884 0 0 0 0 82.77452570765567 78.438187975132678 0 78.438187975132678 75.010818757105881 0 0 0 0 64.843192163533843 -97.094689879846555 0 -97.094689879846555 -71.190092876746348 0 0 0 0 83.027801587970714 59.90615228585375 0 59.90615228585375 -93.444479842768487 0 0 0 0 90.568459022374554 13.31987884105456 0 13.31987884105456 -21.695597349535092 0 0 0 0 68.854840798206027 142.37511283326603 0 142.37511283326603 280.02424739595153 0 0 0 0 259.90872385100835 143.52453095825695 0 143.52453095825695 53.302076223706536 0 0 0 0 -27.891876236081686 -9.1203135890355043 0 -9.1203135890355043 10.448141347031196 0 0 0 0 232.85179351061845 -176.18599127842026 0 -176.18599127842026 101.49846249159236 0 0 0 0 -59.665515581688624 147.79326994705116 0 147.79326994705116 393.05171085701295 0 0 0 0 434.83465868995654 69.7427123563848 0 69.7427123563848 -54.596086555720831 0 0 0 0 3.8875688728620954 -0.11412490382923579 0 -0.11412490382923579 0.41471956502691665 0 0 0 0 48.930633579826235 -133.04912676752247 0 -133.04912676752247 323.73948520895647 0 0 0 0 51.275065369653248 -96.288912745163543 0 -96.288912745163543 -49.382124451691197 0 0 0 0 90.068234721194585 103.14274503985871 0 103.14274503985871 -195.60069703064073 0 0 0 0 -24.521246358067515 75.967661270919052 0 75.967661270919052 -45.01116619052209 0 0 0 0 76.35046962089865 190.33222719604237 0 190.33222719604237 -227.83024165543611 0 0 0 0 -8.412571013764591 -51.815765004191235 0 -51.815765004191235 13.434455186186824 0 0 0 0 -15.351193043226885 -53.466660647645767 0 -53.466660647645767 171.27173928817501 0 0 0 0 44.40290857641412 -77.323889354400308 0 -77.323889354400308 -1.9202642317686696 0 0 0 0 1.6156698033386956 -2.92375565518131 0 -2.92375565518131 -3.1113912979627401 0 0 0 0 11.456708064835565 -3.6659822827991633 0 -3.6659822827991633 -3.9250129450928504 0 0 0 0 21.066256919757507 -58.208616254014487 0 -58.208616254014487 146.49335192082799 0 0 0 0 45.08949556776588 -32.282319467900379 0 -32.282319467900379 58.847931381569651 0 0 0 0 3.3484543162712725 -26.406866291094047 0 -26.406866291094047 76.724035995946906 0 0 0 0 2.4306113063385055 -80.036971088091377 0 -80.036971088091377 135.13397466548849 0 0 0 0 14.53307911310003 -86.269683532646013 0 -86.269683532646013 4.7701261024631094 0 0 0 0 -11.99600360929071 -28.407948008949461 0 -28.407948008949461 59.441107403141359 0 0 0 0 13.869822308362018 1.3399464540148074 0 1.3399464540148074 -180.83871056036878 0 0 0 0 -12.137738137212182 -41.845489786755934 0 -41.845489786755934 -34.426008677393838 0 0 0 0 0.67043885206476261 -82.287919658134342 0 -82.287919658134342 -90.850243370914541 0 0 0 0 4.6823876004787053 -99.076524891533154 0 -99.076524891533154 -60.491653938312083 0 0 0 0 -1.782590391487247 -65.018159735289373 0 -65.018159735289373 -2.1192724880856986 0 0 0 0 -12.008051026669364 -99.739587616004428 0 -99.739587616004428 4.5623620496917283 0 0 0 0 9.1370024502784872 -79.05413956852135 0 -79.05413956852135 -53.314277805495294 0 0 0 0 6.572373380141471 -83.02850794486676 0 -83.02850794486676 -40.400649456816609 0 0 0 0 38.736449844096569 -70.32198622953365 0 -70.32198622953365 -35.932672697450471 0 0 0 0 87.938934168601918 -34.92714584285568 0 -34.92714584285568 -58.29177709720534 0 0 0 0 9.5275832052211626 -28.330121225888433 0 -28.330121225888433 -51.269458618400677 0 0 0 0 5.0230078599892742 -8.1605130606947824 0 -8.1605130606947824 -6.3129089787851536 0 0 0 0 5.5013540707477659 -49.322583861776366 0 -49.322583861776366 -56.342127400086611 0 0 0 0 41.637196084465359 -33.488572672948067 0 -33.488572672948067 -110.86679929377715 0 0 0 0 12.212165625105094 -14.678648115473564 0 -14.678648115473564 4.4219774994606063 0 0 0 0 -6.1023637598944376 -11.738182514310395 0 -11.738182514310395 -0.91091244483012446 0 0 0 0 2.2479348829001538 -42.132808328813553 0 -42.132808328813553 -45.161831949673797 0 0 0 0 -2.496727650075627 -47.783648538945272 0 -47.783648538945272 16.092621581432468 0 0 0 0 -17.837774631732827 -23.325744826837763 0 -23.325744826837763 -18.454393787597155 0 0 0 0 -7.6237337750824281 -11.687015967701882 0 -11.687015967701882 -21.878931937731977 0 0 0 0 -8.4484001161481501 -11.837559304138267 0 -11.837559304138267 -2.4736195665595915 0 0 0 0 2.5591743067962769 -0.68598490238192156 0 -0.68598490238192156 -8.3615342944775932 0 0 0 0 -2.7158582123845463 -7.8373932069871444 0 -7.8373932069871444 -20.388873780921131 0 0 0 0 32.276469095162156 3.6327989195124246 0 3.6327989195124246 -23.411963370112062 0 0 0 0 -18.262519256374162 -14.842775193537818 0 -14.842775193537818 -12.359896473455592 0 0 0 0 -22.020423961521374 -23.397228459944017 0 -23.397228459944017 -28.528226203085069 0 0 0 0 -8.5514180981181198 -23.064671226739847 0 -23.064671226739847 -36.252125011211319 0 0 0 0 42.785382681500323 -7.4524234448490461 0 -7.4524234448490461 -49.639786271400226 0 0 0 0 7.0219676357087337 -7.4079809872528131 0 -7.4079809872528131 -17.834929608583479 0 0 0 0 39.527032238776883 1.6920128383371775 0 1.6920128383371775 -21.074340705898067 0 0 0 0 72.959633508118031 21.525944295508452 0 21.525944295508452 -16.838890928047476 0 0 0 0 1.2426311110584862 0.17163976968458883 0 0.17163976968458883 -5.6228777141595856 0 0 0 0 26.319461200123442 0.50256234216431039 0 0.50256234216431039 -2.8922241926939023 0 0 0 0 27.550838071468661 -14.495496250032375 0 -14.495496250032375 -27.13817994978308 0 0 0 0 27.764632391280884 -15.329554137451851 0 -15.329554137451851 -25.531331830701674 0 0 0 0 7.2278410797409967 -0.89104237567642386 0 -0.89104237567642386 -1.307889935603086 0 0 0 0 38.426453631282811 14.15512417969876 0 14.15512417969876 -3.0463753367075697 0 0 0 0 40.949311500121894 5.9218554062936164 0 5.9218554062936164 -37.343655622768665 0 0 0 0 2.6225404020942733 -29.188617515228543 0 -29.188617515228543 -31.446436896507294 0 0 0 0 15.265518218353463 -20.598998286593996 0 -20.598998286593996 -91.914889429033792 0 0 0 0 75.10214900700521 33.597503622499062 0 33.597503622499062 -75.993900643102279 0 0 0 0 -0.38953745225089165 -4.6825240630940357 0 -4.6825240630940357 -8.0258256117139908 0 0 0 0 104.57392624696877 44.257122636372515 0 44.257122636372515 -46.622871430728992 0 0 0 0 11.228654223641076 2.1021776501522496 0 2.1021776501522496 -26.9001187666818 0 0 0 0 9.7921505772537785 -5.453300725625013 0 -5.453300725625013 -13.732357154973215 0 0 0 0 15.367766250200777 -2.5349157955133776 0 -2.5349157955133776 -25.508968980673728 0 0 0 0 15.926137282064985 7.9192936406544803 0 7.9192936406544803 -28.641474119061101 0 0 0 0 41.852167001045018 -13.551611866714666 0 -13.551611866714666 -70.135549860729952 0 0 0 0 7.9313329905917271 -18.067342568179811 0 -18.067342568179811 -65.871077705640346 0 0 0 0 10.96151302228802 -2.4541968559947236 0 -2.4541968559947236 -13.503495342167213 0 0 0 0 28.776842026366467 45.482256666058674 0 45.482256666058674 94.621252363744134 0 0 0 0 54.024536595379686 68.999389113170764 0 68.999389113170764 -32.014867032323309 0 0 0 0 65.783199061155756 -5.3773986705418793 0 -5.3773986705418793 -97.65812881886859 0 0 0 0 -6.6627426725171972 -8.4272317949944409 0 -8.4272317949944409 -71.742112847881799 0 0 0 0 90.776811506671947 -25.231264041241957 0 -25.231264041241957 -69.874668094227673 0 0 0 0 23.3454688842168 -12.774121722628799 0 -12.774121722628799 -5.3428637019070795 0 0 0 0 42.311907642535516 21.727284790147678 0 21.727284790147678 -63.591977977584065 0 0 0 0 123.36681647972728 -3.7249130961172341 0 -3.7249130961172341 -69.936572653743497 0 0 0 0 73.795381559852103 -26.810594828693866 0 -26.810594828693866 -20.149023218247748 0 0 0 0 40.362793053223186 29.426065940682292 0 29.426065940682292 13.8965275880837 0 0 0 0 50.842445864179354 45.386287432668723 0 45.386287432668723 -62.428237442301906 0 0 0 0 -1.3315150446339032 12.916310901416072 0 12.916310901416072 -41.874122322443398 0 0 0 0 0.10017047667504997 -0.56558208097388274 0 -0.56558208097388274 -2.0323683548805249 0 0 0 0 -11.28722558886875 7.6255680003378075 0 7.6255680003378075 -12.369312463983078 0 0 0 0 -24.410026247232054 -7.1946434264673371 0 -7.1946434264673371 -42.93075955155291 0 0 0 0 153.33715888861434 126.60463549751239 0 126.60463549751239 41.926295557796038 0 0 0 0 266.59399634533793 9.9749562996394161 0 9.9749562996394161 -90.443534652251401 0 0 0 0 -3.0673370528982193 11.260808671681918 0 11.260808671681918 -38.536762215302119 0 0 0 0 82.495522810339025 -3.5369312953698682 0 -3.5369312953698682 -13.030430777093898 0 0 0 0 -107.96056240092912 156.68711130041083 0 156.68711130041083 194.62306287160391 0 0 0 0 -95.88436337113842 -1.9381228138295228 0 -1.9381228138295228 139.15889202681137 0 0 0 0 -210.71927472718198 -7.6764182526567311 0 -7.6764182526567311 165.37571561088771 0 0 0 0 -297.78269034787991 116.41439584753243 0 116.41439584753243 196.85101916809811 0 0 0 0 -260.77654257619702 -35.189776691488532 0 -35.189776691488532 151.05142537264328 0 0 0 0 -1.7829173547194372 8.9361402754933721 0 8.9361402754933721 -30.926206772553115 0 0 0 0 441.03807520501869 256.83412944360771 0 256.83412944360771 -426.81691246974333 0 0 0 0 165.28585006273534 -114.35458293465126 0 -114.35458293465126 -61.294007166950905 0 0 0 0 -1.0667803048900169 374.92503651149673 0 374.92503651149673 -1499.1272960938149 0 0 0 0 -162.17006439130978 328.20777083147277 0 328.20777083147277 -389.55329700755465 0 0 0 0 -57.125891388477612 28.499242131287247 0 28.499242131287247 22.292270384619769 0 0 0 0 322.33072499352716 128.88140847466775 0 128.88140847466775 -162.4204744486633 0 0 0 0 22.932082779602524 -26.470141199881255 0 -26.470141199881255 -227.37474670895608 0 0 0 0 31.741982338171965 13.553929413008518 0 13.553929413008518 -71.99976282182979 0 0 0 0 86.444602348918124 -49.667756253424159 0 -49.667756253424159 -28.210400958259925 0 0 0 0 83.553969813660842 -65.672739823045049 0 -65.672739823045049 -71.359646310658718 0 0 0 0 98.173960645836814 -11.429150535586814 0 -11.429150535586814 -37.559486690344784 0 0 0 0 28.220148562127179 -101.95142958138604 0 -101.95142958138604 -90.628601489901484 0 0 0 0 -9.0814625731109118 -63.000378762881155 0 -63.000378762881155 -47.948195093101276 0 0 0 0 3.557320861925291 -84.022337494257954 0 -84.022337494257954 -136.00754396682896 0 0 0 0 -46.418563356535742 -53.870319525878585 0 -53.870319525878585 -78.551023000887653 0 0 0 0 -12.799065524666275 -37.960483557784755 0 -37.960483557784755 -230.15512257246883 0 0 0 0 -13.222587731208932 -6.5948576284627052 0 -6.5948576284627052 -189.77342871822475 0 0 0 0 -138.84033708178413 87.714802328828227 0 87.714802328828227 -268.83141248880202 0 0 0 0 -44.65344877067696 -6.8141693651141395 0 -6.8141693651141395 -292.82886421872172 0 0 0 0 -63.705622826912986 16.641710077914468 0 16.641710077914468 -141.62036076268896 0 0 0 0 -165.89451969964753 220.73783002916025 0 220.73783002916025 -214.12817038502999 0 0 0 0 -29.692855907499847 190.7274619965774 0 190.7274619965774 -350.78415055466758 0 0 0 0 -249.34988587348857 226.29044359870022 0 226.29044359870022 -330.54778701057148 0 0 0 0 -130.06874816464403 97.783733934433258 0 97.783733934433258 -183.0927970000339 0 0 0 0 -101.71452402484692 9.9980855229005101 0 9.9980855229005101 -169.56137094218684 0 0 0 0 -22.266378077257968 97.582282331317401 0 97.582282331317401 -325.43310205103626 0 0 0 0 -69.850406271791144 108.57515176658308 0 108.57515176658308 -458.57458380625394 0 0 0 0 -138.35451292539693 234.47017774371852 0 234.47017774371852 -468.99797488901822 0 0 0 0 -208.68588983890299 125.36201886141134 0 125.36201886141134 -303.45202709199839 0 0 0 0 -352.77796133160291 421.46694847126514 0 421.46694847126514 -533.3359150915494 0 0 0 0 -318.87989004075723 207.57936873293147 0 207.57936873293147 -459.3523043384339 0 0 0 0 -147.06574590930589 283.75191176215412 0 283.75191176215412 -499.21796081653156 0 0 0 0 -668.17779567117691 278.32619974234694 0 278.32619974234694 -598.7337902458039 0 0 0 0 -541.66597675208834 698.86112422037468 0 698.86112422037468 -956.32848303866194 0 0 0 0 -285.29494149974687 116.9300706679519 0 116.9300706679519 -430.41113307786873 0 0 0 0 -228.37198902194768 276.43494131878833 0 276.43494131878833 -621.37801273601508 0 0 0 0 -274.80255001206456 130.07923063241469 0 130.07923063241469 -859.83767272805198 0 0 0 0 -136.29271602370909 233.19037138577369 0 233.19037138577369 -402.43747836551211 0 0 0 0 -110.72743001962908 93.62365932818102 0 93.62365932818102 -111.67393049290149 0 0 0 0 -152.67273679902223 290.89030719559742 0 290.89030719559742 -650.87840751489057 0 0 0 0 -115.60000286142679 195.52597115258823 0 195.52597115258823 -500.24395507699955 0 0 0 0 -148.20984073642148 429.02919718921657 0 429.02919718921657 -650.43764411666052 0 0 0 0 -90.710505963112382 312.99270724768212 0 312.99270724768212 -485.73042274835461 0 0 0 0 -227.70329149123836 400.10225371613524 0 400.10225371613524 -530.4111378890384 0 0 0 0 -171.84869055642372 476.64097207726991 0 476.64097207726991 -520.97839167793063 0 0 0 0 -223.27289021548106 442.20723908646733 0 442.20723908646733 -492.97652219371957 0 0 0 0 -127.53612694376829 457.95235269115801 0 457.95235269115801 -502.51665715589115 0 0 0 0 -425.89455485949884 181.23633295156833 0 181.23633295156833 -604.64581441601877 0 0 0 0 -198.78180713431516 410.45838904695484 0 410.45838904695484 -556.1805984738312 0 0 0 0 -619.99803405538069 488.59434685625638 0 488.59434685625638 -202.94474066184557 0 0 0 0 -165.41605839312638 538.41883951729324 0 538.41883951729324 -921.49268909573152 0 0 0 0 -278.22720229403728 263.21854604525288 0 263.21854604525288 -262.9323624018507 0 0 0 0 2.755151154665981 -1.2200877631803451 0 -1.2200877631803451 -38.961024377346803 0 0 0 0 9.2136404035308122 -5.913790620117652 0 -5.913790620117652 -21.510256826008884 0 0 0 0 -95.222882991702818 80.320477967702573 0 80.320477967702573 -137.89964894123477 0 0 0 0 6.4242275883600541 4.0085662279398093 0 4.0085662279398093 -38.314351505607192 0 0 0 0 5.3788524761147931 4.9125092420284062 0 4.9125092420284062 -11.806807881969494 0 0 0 0 5.4841371223260467 5.0923147208231967 0 5.0923147208231967 -28.839063037105461 0 0 0 0 6.428895210391147 2.6637534245128336 0 2.6637534245128336 -33.145663290473749 0 0 0 0 0.49623734995747704 -0.014726911079534943 0 -0.014726911079534943 -7.4239999917423614 0 0 0 0 30.834512547557779 11.563228144015739 0 11.563228144015739 -32.69329785582886 0 0 0 0 9.5459942589904543 -4.5843318577891026 0 -4.5843318577891026 -19.321381466020306 0 0 0 0 0.23182540845027688 6.3740964143507881 0 6.3740964143507881 -32.698001766002562 0 0 0 0 6.5745772571467569 7.7357306922494899 0 7.7357306922494899 -37.605193703589521 0 0 0 0 6.3466193856691007 8.3303450667917787 0 8.3303450667917787 -39.054547253439523 0 0 0 0 -499.8416703242824 258.2235505097251 0 258.2235505097251 -684.69773514478584 0 0 0 0 -23.238565940806438 257.34672878572314 0 257.34672878572314 -454.4552188841335 0 0 0 0 -29.783233382029721 -98.978888069439563 0 -98.978888069439563 -122.60639783483202 0 0 0 0 -311.97779063624921 382.09093414066774 0 382.09093414066774 -311.43365093858665 0 0 0 0 -1.1089423756193355 -63.498342698876513 0 -63.498342698876513 -111.413150512014 0 0 0 0 -2.2050767719929354 10.210363321990371 0 10.210363321990371 -38.692503061505704 0 0 0 0 7.0952724553893542 -6.1400374726264175 0 -6.1400374726264175 -18.682950252189606 0 0 0 0 -747.921930254367 200.81266982582201 0 200.81266982582201 -88.965465073983069 0 0 0 0 -73.764710593118025 -52.52391128745694 0 -52.52391128745694 -68.803352932591224 0 0 0 0 0.60169085789891774 2.2759042355898833 0 2.2759042355898833 -4.4654750665852561 0 0 0 0 -3.3155562908150387 19.213267718654606 0 19.213267718654606 1.5876052188687027 0 0 0 0 -927.57777146043691 432.09770632805885 0 432.09770632805885 -239.29893465227178 0 0 0 0 -575.05304466005282 287.9824491304098 0 287.9824491304098 -357.97012841251853 0 0 0 0 -541.26690192833871 176.00276075040574 0 176.00276075040574 9.594174754438427 0 0 0 0 -474.7612434290366 48.453034425628289 0 48.453034425628289 -257.64955732874296 0 0 0 0 -694.80306033973829 -79.64475672937624 0 -79.64475672937624 -86.877421823494387 0 0 0 0 -214.41061065971007 333.94958439313996 0 333.94958439313996 -187.88348972928452 0 0 0 0 -174.19559931990352 191.35368159453628 0 191.35368159453628 285.99456812893004 0 0 0 0 1003.9629441089592 -103.29013276401679 0 -103.29013276401679 -613.63209089284101 0 0 0 0 1033.0881967046898 670.53919025469258 0 670.53919025469258 -384.26675430659088 0 0 0 0 -2.0845106048434898 13.162470473732506 0 13.162470473732506 -38.741550704244744 0 0 0 0 522.89573782743992 -16.264053684646569 0 -16.264053684646569 -208.08383287889774 0 0 0 0 -350.1795187259745 525.88694480961112 0 525.88694480961112 -227.65156497212229 0 0 0 0 372.93204271215268 -201.50303371136374 0 -201.50303371136374 -1485.6645685043113 0 0 0 0 365.30955554779666 -302.98363547649751 0 -302.98363547649751 94.214717910592299 0 0 0 0 -1.6615424738355129 6.9111829562205536 0 6.9111829562205536 -18.026928543501263 0 0 0 0 700.069974731211 -369.24621045263211 0 -369.24621045263211 -950.89836785512853 0 0 0 0 -33.360737416324355 -617.34855082256308 0 -617.34855082256308 -917.29762707102782 0 0 0 0 -182.42940590068883 553.40025952355791 0 553.40025952355791 -365.41935649376683 0 0 0 0 -1.2686139752768621 3.7598482585297965 0 3.7598482585297965 -12.496171603302912 0 0 0 0 -71.880658792403665 259.59449268313574 0 259.59449268313574 -1098.5428400397941 0 0 0 0 -488.42408208710776 -134.61818771422168 0 -134.61818771422168 -756.72836775394899 0 0 0 0 12.67151163658853 -4.2990371165651595 0 -4.2990371165651595 -71.217947016094513 0 0 0 0 13.447057937701587 5.8448687766831426 0 5.8448687766831426 37.73469734518585 0 0 0 0 0.08980744756669784 0.22583286341428277 0 0.22583286341428277 -2.3033341059189354 0 0 0 0 69.070137227704436 -57.310693616273056 0 -57.310693616273056 -98.532282999745803 0 0 0 0 -313.92597203527566 247.99500313076533 0 247.99500313076533 13.371621383987076 0 0 0 0 56.360176901480749 -8.3890586776979035 0 -8.3890586776979035 -266.67834762367147 0 0 0 0 0.11850714201746473 41.371967274748386 0 41.371967274748386 -196.46817559459305 0 0 0 0 23.627265337608932 -19.712832512883324 0 -19.712832512883324 -69.009956612877431 0 0 0 0 -52.834846232090364 196.74472046346273 0 196.74472046346273 -298.29554438160676 0 0 0 0 -21.692645444523261 103.41109423718444 0 103.41109423718444 -18.575890531603363 0 0 0 0 -336.35785199774642 597.28162962307397 0 597.28162962307397 -698.71119913633265 0 0 0 0 -0.1414764544361809 26.090439984907789 0 26.090439984907789 14.165448586412822 0 0 0 0 0.32190282017523125 0.23074854457533434 0 0.23074854457533434 -3.251668211826356 0 0 0 0 -290.1581259157615 329.79600340528805 0 329.79600340528805 -364.79489752066729 0 0 0 0 -61.272559318660228 303.26853386550829 0 303.26853386550829 -449.46133503684541 0 0 0 0 -96.765754064806515 385.69993642329791 0 385.69993642329791 -629.17518951368947 0 0 0 0 28.95529596877725 231.00210610896102 0 231.00210610896102 -462.82509101704636 0 0 0 0 0.93099302640521797 -0.71335502276075147 0 -0.71335502276075147 -5.7010493914737026 0 0 0 0 78.43106797175966 56.203271411308378 0 56.203271411308378 -263.34525374202349 0 0 0 0 -139.10846360689141 44.550058090455423 0 44.550058090455423 -474.46407563549292 0 0 0 0 -145.82464714313176 155.82251147522402 0 155.82251147522402 -177.72566667962019 0 0 0 0 110.16694070151254 141.8993992976757 0 141.8993992976757 -411.99031577027381 0 0 0 0 9.8419216772879281 128.89494657629257 0 128.89494657629257 -210.26176290356671 0 0 0 0 28.373494209371756 204.82529402690852 0 204.82529402690852 -392.81846175715327 0 0 0 0 -14.678156099786349 300.25224555333989 0 300.25224555333989 -502.78666692970728 0 0 0 0 11.147903708509176 290.62110099226356 0 290.62110099226356 -506.41225239672349 0 0 0 0 -5.8493244162123119 312.513361806803 0 312.513361806803 -590.34319115878498 0 0 0 0 -7.2394503653119955 302.86116775881965 0 302.86116775881965 -540.20001241410444 0 0 0 0 -70.63043616703942 369.97343215982619 0 369.97343215982619 -563.80466206959682 0 0 0 0 -64.233257240211742 316.78253078483613 0 316.78253078483613 -534.97596726905795 0 0 0 0 34.795975224045264 312.64222786855316 0 312.64222786855316 -595.78516581251461 0 0 0 0 44.2844220178863 102.34375386369356 0 102.34375386369356 -508.82583361331126 0 0 0 0 0.39147837714847356 84.41851454308744 0 84.41851454308744 -345.21242170719052 0 0 0 0 -37.526359165358826 -107.00948634634915 0 -107.00948634634915 -182.45997946734133 0 0 0 0 49.042571636523007 2.4112899211631884 0 2.4112899211631884 -418.14090642084193 0 0 0 0 12.946036119415794 7.307087767536359 0 7.307087767536359 -145.71518471102172 0 0 0 0 46.208387743494654 2.1376369630816043 0 2.1376369630816043 -254.95647614405607 0 0 0 0 -20.122127352582311 4.6486630284343846 0 4.6486630284343846 120.91346844029977 0 0 0 0 51.947894521111394 192.28549406216007 0 192.28549406216007 -195.89164776573307 0 0 0 0 -316.38712495373028 260.73167917275578 0 260.73167917275578 -52.533340311099892 0 0 0 0 150.7529844702384 -223.39152012185514 0 -223.39152012185514 -56.04144035682657 0 0 0 0 0.20418023809670793 -0.57571263543482587 0 -0.57571263543482587 -2.7613895585350434 0 0 0 0 62.558264902293388 -50.158342785201967 0 -50.158342785201967 -136.11391972131969 0 0 0 0 145.89408053215664 -84.215895421264577 0 -84.215895421264577 -154.14803140380536 0 0 0 0 56.09328977959558 -43.364452947989776 0 -43.364452947989776 -107.57037706972915 0 0 0 0 5.856626145846576 -43.058000389815788 0 -43.058000389815788 -105.84327223163564 0 0 0 0 32.157804666454012 -140.3600169400961 0 -140.3600169400961 -152.59642363906232 0 0 0 0 19.874624378633371 -18.56145936906978 0 -18.56145936906978 -100.38331695232046 0 0 0 0 22.563516271742003 29.831425882264057 0 29.831425882264057 -49.201763915611082 0 0 0 0 31.971966296827759 32.084932026264141 0 32.084932026264141 -34.349903154259664 0 0 0 0 -24.768228838630876 138.0396834542953 0 138.0396834542953 40.34525957387541 0 0 0 0 0.23765095838661088 0.85318256498139178 0 0.85318256498139178 -1.082346213608389 0 0 0 0 67.340642610532541 7.591274044225429 0 7.591274044225429 -54.22220797764021 0 0 0 0 43.505773490812771 0.5112727206251293 0 0.5112727206251293 -17.388005382799747 0 0 0 0 56.637895041195407 30.753965113093727 0 30.753965113093727 -104.2468082895648 0 0 0 0 -387.17805006356804 613.25314334392442 0 613.25314334392442 -769.67215983093774 0 0 0 0 -58.785224591582391 -173.02527576181456 0 -173.02527576181456 -17.838546296801724 0 0 0 0 -343.86366505790852 756.46341772189044 0 756.46341772189044 -1184.3190238367461 0 0 0 0 -0.97731034456665178 -2.2083224848171028 0 -2.2083224848171028 -4.7611040305686316 0 0 0 0 32.52816759107327 -145.64961210027468 0 -145.64961210027468 -355.35226430743205 0 0 0 0 29.466151396943133 -124.2802146825743 0 -124.2802146825743 -86.338234559977991 0 0 0 0 -33.709170487087249 1.2354519717264338 0 1.2354519717264338 -103.24639430601383 0 0 0 0 68.959448524875086 176.55980023014854 0 176.55980023014854 -979.60598426415527 0 0 0 0 -412.26190010890423 203.96481241481433 0 203.96481241481433 -660.42238550328329 0 0 0 0 -312.90549122309631 413.07236996697247 0 413.07236996697247 -579.0565037275228 0 0 0 0 -62.023603656701141 330.9698571177878 0 330.9698571177878 -613.72036728011153 0 0 0 0 -240.46233836214145 370.56341338824132 0 370.56341338824132 -582.17285158317827 0 0 0 0 -122.97819979628571 312.79355506306456 0 312.79355506306456 -476.13594184768772 0 0 0 0 -256.15342703145302 391.25135224637052 0 391.25135224637052 -521.1866524807192 0 0 0 0 -371.44537997717913 264.52828772024623 0 264.52828772024623 -457.40147084033379 0 0 0 0 -244.23505155313092 369.19019368308 0 369.19019368308 -691.06190062034511 0 0 0 0 -252.73062895499265 285.62474074132297 0 285.62474074132297 -1219.450995322768 0 0 0 0 -301.95845665602553 322.69133306779804 0 322.69133306779804 -723.38850213871046 0 0 0 0 -183.77420061934049 448.0488633367313 0 448.0488633367313 -1027.666919493342 0 0 0 0 -248.44892404382813 294.58295036130949 0 294.58295036130949 -601.02431468127543 0 0 0 0 -193.19562137282765 458.33877912418757 0 458.33877912418757 -756.69600528733281 0 0 0 0 -204.85936150171869 431.44991081490298 0 431.44991081490298 -776.77992733401697 0 0 0 0 -264.88143153976125 364.54981684123413 0 364.54981684123413 -444.03985671290138 0 0 0 0 -209.01687776843954 264.50797461278489 0 264.50797461278489 -447.76971396029694 0 0 0 0 -100.37350755934136 255.64537424288028 0 255.64537424288028 -402.90320378904289 0 0 0 0 -241.13721845537901 327.45816633537106 0 327.45816633537106 -394.2127547348482 0 0 0 0 -212.99299589138263 374.38524420403905 0 374.38524420403905 -588.17356775753433 0 0 0 0 -181.61468807896739 355.00844975421023 0 355.00844975421023 -603.86769753891713 0 0 0 0 -269.32466591464458 488.60477874202479 0 488.60477874202479 -690.16789742709079 0 0 0 0 -225.4488719707972 414.49558190797325 0 414.49558190797325 -693.45135728302557 0 0 0 0 -360.38597645715527 472.37051267698553 0 472.37051267698553 -695.27644270411884 0 0 0 0 -241.01812336568776 596.12938120680701 0 596.12938120680701 -926.93579907609819 0 0 0 0 -289.5207262338588 488.22531151354997 0 488.22531151354997 -612.07515318281366 0 0 0 0 -180.60735816210126 473.98335886044879 0 473.98335886044879 -807.09986123048293 0 0 0 0 -162.69145441118576 500.20009890420988 0 500.20009890420988 -809.45292167924208 0 0 0 0 9.9636398962031762 -3.7210017983707075 0 -3.7210017983707075 -34.985998806452699 0 0 0 0 -2.8785156799162426 -4.8082857286877285 0 -4.8082857286877285 -14.011770236129237 0 0 0 0 -87.75148152796487 127.32291629783504 0 127.32291629783504 -608.04257981909086 0 0 0 0 -115.62893403343867 432.45645373807929 0 432.45645373807929 -1360.7850756610587 0 0 0 0 -79.758022409420164 262.55997505222331 0 262.55997505222331 -980.6763862461944 0 0 0 0 -8.9762185056607411 2.659928249712685 0 2.659928249712685 -4.7840652485182567 0 0 0 0 -117.99222266368088 -29.142754372734998 0 -29.142754372734998 -43.206493580076312 0 0 0 0 5.5661704273011372 -1.672514104062131 0 -1.672514104062131 -21.245540942611115 0 0 0 0 11.311892468118399 -0.17425726758696669 0 -0.17425726758696669 -18.124143045641304 0 0 0 0 2.6578208908751382 5.959561813520466 0 5.959561813520466 -9.7895427128116808 0 0 0 0 5.6397883806757179 4.8677151256339357 0 4.8677151256339357 -19.971152158177574 0 0 0 0 5.750776724289608 0.3832187627976964 0 0.3832187627976964 -26.703243900170492 0 0 0 0 6.0952387848535636 3.366821514115145 0 3.366821514115145 -33.582175881463627 0 0 0 0 2.2824369150291659 -2.8158364836017427 0 -2.8158364836017427 -33.94343745147853 0 0 0 0 2.503546556994479 5.8890677190283895 0 5.8890677190283895 -24.327358962498693 0 0 0 0 8.4893096510721762 4.806187723424955 0 4.806187723424955 -41.438188782965881 0 0 0 0 6.3488127630967028 5.0836134789860807 0 5.0836134789860807 -41.775581738172605 0 0 0 0 10.148010866095547 -1.7876453176068026 0 -1.7876453176068026 -49.739347173632268 0 0 0 0 5.3530325069808669 5.8435264878517046 0 5.8435264878517046 -39.164379578931403 0 0 0 0 4.7755459418284421 1.9039466476980991 0 1.9039466476980991 -3.7627806776841064 0 0 0 0 6.1629763683799865 6.6067308975289052 0 6.6067308975289052 -40.482859494433796 0 0 0 0 5.0571338055966066 5.0409123885820009 0 5.0409123885820009 -40.68764770938833 0 0 0 0 7.9109967860109691 2.8839250153941975 0 2.8839250153941975 -39.137978048076548 0 0 0 0 3.098989218443239 1.4847473809590106 0 1.4847473809590106 -38.736848277040039 0 0 0 0 3.0769534910193466 -3.5407952036232473 0 -3.5407952036232473 -6.657061997923936 0 0 0 0 5.3791544950957695 3.1229864523402284 0 3.1229864523402284 -44.287309724597435 0 0 0 0 0.4991785042589072 -5.2579449640761595 0 -5.2579449640761595 -52.947516341148003 0 0 0 0 1.5273597736824558 6.1028858218414044 0 6.1028858218414044 -8.7233412122602267 0 0 0 0 1.5246599465167492 -3.4037932142164209 0 -3.4037932142164209 -26.301079515607853 0 0 0 0 0.52611452671885672 -41.650605533606722 0 -41.650605533606722 21.056926861449028 0 0 0 0 1.4912348170872605 -6.6869602771917016 0 -6.6869602771917016 -81.267543868652865 0 0 0 0 6.0222426913588611 -3.5939917043292837 0 -3.5939917043292837 -5.5603155409318834 0 0 0 0 1.249599104396844 -0.077717916433641676 0 -0.077717916433641676 -4.897264820806793 0 0 0 0 7.2842524047547705 -0.66407042431915286 0 -0.66407042431915286 -16.980069297795694 0 0 0 0 79.377190600650977 -42.705413760818374 0 -42.705413760818374 -0.54844564908853499 0 0 0 0 18.608068731961339 -77.069250566295523 0 -77.069250566295523 -3.4722770458101877 0 0 0 0 -45.985755177781812 -27.222991148584697 0 -27.222991148584697 -21.607581522193811 0 0 0 0 -2.3519701014877228 -49.986619670147775 0 -49.986619670147775 -21.738259094411433 0 0 0 0 -2.0137436196212093 -31.146541324358623 0 -31.146541324358623 20.919088415117585 0 0 0 0 -45.41012332255832 -40.152155608353496 0 -40.152155608353496 44.560127648408525 0 0 0 0 9.1130907206843403 -17.778502552835562 0 -17.778502552835562 47.271429482934764 0 0 0 0 -31.370150473685271 -19.649030706423218 0 -19.649030706423218 106.63784135712194 0 0 0 0 3.5772986244815002 -6.4030951867462136 0 -6.4030951867462136 -81.258985641383333 0 0 0 0 -1.8485192075922896 -9.4365375919005601 0 -9.4365375919005601 63.420566225948278 0 0 0 0 25.362895545617448 16.314179134293227 0 16.314179134293227 64.219611458118379 0 0 0 0 -5.2884049960294988 30.067455599790264 0 30.067455599790264 128.91003362895572 0 0 0 0 -1.4837636929655673 -16.744380407239078 0 -16.744380407239078 33.683852636313532 0 0 0 0 -25.316873540471533 -39.852532515564235 0 -39.852532515564235 36.675846176411142 0 0 0 0 -4.2712926230423705 -6.596485875414146 0 -6.596485875414146 -20.12030001837411 0 0 0 0 7.4298686148686102 11.186413433795678 0 11.186413433795678 -12.288869275012985 0 0 0 0 -8.7517285234814608 1.6335927133113728 0 1.6335927133113728 -10.795432763305143 0 0 0 0 -0.46565912356413719 7.2896608317605569 0 7.2896608317605569 -13.904494088725187 0 0 0 0 14.560932289362654 11.530231898956117 0 11.530231898956117 -13.866169277491281 0 0 0 0 5.1849586714885163 7.711848322473088 0 7.711848322473088 -13.004641813895432 0 0 0 0 13.702045125963878 -0.26404791258028126 0 -0.26404791258028126 -17.271094919269672 0 0 0 0 2.5088845601731009 1.4287412792837131 0 1.4287412792837131 -14.38409222784685 0 0 0 0 0.90890297859834845 1.3639659198106528 0 1.3639659198106528 -16.413889056566404 0 0 0 0 -0.7522498813641505 3.7684971716080327 0 3.7684971716080327 -16.986815133081109 0 0 0 0 1.3299746955719911 2.0161561944914865 0 2.0161561944914865 -18.634225946230799 0 0 0 0 0.99708530858288213 -0.33183450440992601 0 -0.33183450440992601 -23.685092738967796 0 0 0 0 2.010487819040963 0.75957701832421698 0 0.75957701832421698 -19.46210837603887 0 0 0 0 3.6107723474819977 2.3627266632174724 0 2.3627266632174724 -20.958679519666475 0 0 0 0 0.75875199952281491 3.9924708106700564 0 3.9924708106700564 -19.596637988950533 0 0 0 0 3.1294875531884943 0.22275630713117778 0 0.22275630713117778 -3.4933813338216879 0 0 0 0 31.153164062671976 40.350046994426521 0 40.350046994426521 33.855392757155641 0 0 0 0 34.333988646937087 9.0847424788516946 0 9.0847424788516946 -16.212854169585626 0 0 0 0 0.92991932270690603 0.056601095369813947 0 0.056601095369813947 -0.13981330486092958 0 0 0 0 18.283104162605071 -7.507228765720356 0 -7.507228765720356 -45.116190221182478 0 0 0 0 38.6452160106478 106.81692946579642 0 106.81692946579642 123.75919952753611 0 0 0 0 -80.115918630559577 95.661609575621696 0 95.661609575621696 82.425657439336646 0 0 0 0 94.996387515217378 75.586043340333163 0 75.586043340333163 -129.91532139412448 0 0 0 0 -126.26743956374531 -7.8624619067304593 0 -7.8624619067304593 61.87684163449012 0 0 0 0 32.745292967101591 7.0506258641471504 0 7.0506258641471504 -328.42733310862968 0 0 0 0 -8.8030545286184179 5.7083602573657117 0 5.7083602573657117 63.331273907715513 0 0 0 0 0.65457821338722733 -0.1973364411132188 0 -0.1973364411132188 -4.728456000149464 0 0 0 0 -9.6016613934863813 -7.0783915053107194 0 -7.0783915053107194 33.746350488843746 0 0 0 0 -8.5303834696580907 19.807166886661435 0 19.807166886661435 14.23297851404584 0 0 0 0 -7.8221671165845521 27.490683355380497 0 27.490683355380497 2.4825495519471588 0 0 0 0 75.858760817707662 71.792411696878844 0 71.792411696878844 6.0281317515909905 0 0 0 0 51.046896978711175 17.532652377129125 0 17.532652377129125 -26.16402397264028 0 0 0 0 37.309719662571638 19.65176421043725 0 19.65176421043725 -16.284867526628659 0 0 0 0 14.195434556406781 38.674937658353883 0 38.674937658353883 -1.6866890062519815 0 0 0 0 15.663646593840895 20.162962256508763 0 20.162962256508763 4.7687761371125816 0 0 0 0 13.547577752424331 13.098744708157028 0 13.098744708157028 -16.086196989963355 0 0 0 0 15.822612352242686 15.094543124447227 0 15.094543124447227 -14.448642131363158 0 0 0 0 -14.671188677815735 -10.360938717130921 0 -10.360938717130921 -47.982723334800539 0 0 0 0 13.266246572557066 9.5362503090000246 0 9.5362503090000246 -13.754003583893791 0 0 0 0 -3.0392314054377323 -7.6554058359433839 0 -7.6554058359433839 -47.624801570906129 0 0 0 0 0.44912895170870559 0.098680593756952817 0 0.098680593756952817 0.45089877231414199 0 0 0 0 6.7273607675093672 4.1329591076355428 0 4.1329591076355428 -7.9141837018250953 0 0 0 0 69.847645487325281 -43.582568295416422 0 -43.582568295416422 -79.569972665169189 0 0 0 0 2.238177173398066 -2.5433705859536389 0 -2.5433705859536389 0.51313035443641652 0 0 0 0 -34.317704119836947 19.381312143465038 0 19.381312143465038 208.40427601369447 0 0 0 0 -10.208349127479778 49.361821053273161 0 49.361821053273161 194.94071676628664 0 0 0 0 58.292782959054648 49.379083010644536 0 49.379083010644536 143.47097666619811 0 0 0 0 -5.7811169257020083 9.4586061479931232 0 9.4586061479931232 124.8866486960469 0 0 0 0 8.6398456397573682 30.473603381717112 0 30.473603381717112 134.54684218819602 0 0 0 0 -32.19578925886259 11.544839520687674 0 11.544839520687674 150.60480855414062 0 0 0 0 -34.551735477933562 18.515575872996124 0 18.515575872996124 174.55732388958859 0 0 0 0 -30.375030727682486 17.626827470230637 0 17.626827470230637 153.31851744261803 0 0 0 0 3.2547885949940856 -3.8041086534615403 0 -3.8041086534615403 2.1475075656140739 0 0 0 0 -28.465113951498552 3.139744342857739 0 3.139744342857739 161.89787278368021 0 0 0 0 1.5025214414461061 -31.800273852859391 0 -31.800273852859391 140.57900156633696 0 0 0 0 37.458378398211948 4.4355656607076526 0 4.4355656607076526 89.000095117371529 0 0 0 0 57.695628692552191 -13.030006071465323 0 -13.030006071465323 117.02235555017251 0 0 0 0 -10.13350379054873 -7.7525701905542519 0 -7.7525701905542519 116.87612740298209 0 0 0 0 -24.050519957336292 -0.2653796783706639 0 -0.2653796783706639 119.78104646522115 0 0 0 0 4.8186879543604846 -18.504926684254315 0 -18.504926684254315 76.352002462575911 0 0 0 0 0.5282880069301541 -10.69822758025839 0 -10.69822758025839 -3.402448136053863 0 0 0 0 -22.240586263426167 -43.647205482702702 0 -43.647205482702702 69.148892212659121 0 0 0 0 -27.502386184152513 1.3605450705445037 0 1.3605450705445037 88.903739632572979 0 0 0 0 -45.835737659725623 46.915709417558901 0 46.915709417558901 33.72317484987434 0 0 0 0 4.3585488785047346 17.316599814366782 0 17.316599814366782 54.830764872458531 0 0 0 0 -50.874830920435159 -35.013416568275716 0 -35.013416568275716 17.738659467599064 0 0 0 0 -18.016854597438282 18.613993251768989 0 18.613993251768989 113.1673012317915 0 0 0 0 -22.399998094149964 -11.258240637514973 0 -11.258240637514973 101.46541823630105 0 0 0 0 -50.391698207151535 -41.374052248123917 0 -41.374052248123917 -18.158604648702749 0 0 0 0 -12.88188465911503 14.020109795856115 0 14.020109795856115 -71.983527814503759 0 0 0 0 14.468016964010431 75.975397733760474 0 75.975397733760474 -84.225378844646912 0 0 0 0 2.9410845324554487 46.835853810538538 0 46.835853810538538 -52.542318267835071 0 0 0 0 -15.948818564546041 32.752069672460493 0 32.752069672460493 9.5516836506722029 0 0 0 0 -9.9355829364504018 25.731759373855311 0 25.731759373855311 80.719849950110074 0 0 0 0 -2.7966335175149197 -1.3574743778735865 0 -1.3574743778735865 73.050088196439901 0 0 0 0 28.504391567962358 36.639014557076734 0 36.639014557076734 9.3424819927531644 0 0 0 0 0.88313348950566706 33.573891734136851 0 33.573891734136851 64.035960466804681 0 0 0 0 12.310071743766095 62.367384981625946 0 62.367384981625946 27.273713046422927 0 0 0 0 6.0112611819561437 26.706412196421297 0 26.706412196421297 54.385857613830012 0 0 0 0 -1.4150086123903378 40.113827108973055 0 40.113827108973055 8.4778543165593874 0 0 0 0 -25.522912824626751 90.292306629416998 0 90.292306629416998 -28.335334442876047 0 0 0 0 -16.066752584054719 52.596339003121102 0 52.596339003121102 29.677970591495978 0 0 0 0 -3.7563711615412441 47.051783994207653 0 47.051783994207653 22.318261399341282 0 0 0 0 53.908258478073662 -46.874464707332663 0 -46.874464707332663 -14.838740258361213 0 0 0 0 3.2390925592479434 10.12736391945873 0 10.12736391945873 42.797883490595268 0 0 0 0 22.55037791323134 -7.7680318952025118 0 -7.7680318952025118 4.0728062689013314 0 0 0 0 11.341851576763872 43.839594973847852 0 43.839594973847852 83.930041181505658 0 0 0 0 1.4626743689723725 13.585220785942511 0 13.585220785942511 60.253769103233935 0 0 0 0 -22.55700823009596 -11.719134395883884 0 -11.719134395883884 209.13698891316017 0 0 0 0 -36.188263391291912 5.2977222717017867 0 5.2977222717017867 202.66856107649801 0 0 0 0 -13.368313300088218 -10.139534802432536 0 -10.139534802432536 165.48043542302912 0 0 0 0 -12.131649792939378 -0.67641632308914268 0 -0.67641632308914268 160.83332828577841 0 0 0 0 36.243854386197199 -19.462283915869193 0 -19.462283915869193 107.94236284261569 0 0 0 0 28.181751815576717 -39.774399229732808 0 -39.774399229732808 196.68539130756835 0 0 0 0 28.181751815580924 -39.774399229558185 0 -39.774399229558185 196.68539130766294 0 0 0 0 43.556001000424544 -19.763797437568428 0 -19.763797437568428 82.010679740729756 0 0 0 0 28.181751815577172 -39.774399229732808 0 -39.774399229732808 196.68539130760473 0 0 0 0 91.256230430331186 -1.0934044558671303 0 -1.0934044558671303 139.90813333337428 0 0 0 0 22.488114698462553 -4.3741617160558235 0 -4.3741617160558235 139.75743981986307 0 0 0 0 58.435238178065845 20.760770179098472 0 20.760770179098472 59.493997391458834 0 0 0 0 35.595690184663056 1.9646266853669658 0 1.9646266853669658 363.8166960462695 0 0 0 0 0.040855990725261679 0.09136882703192839 0 0.09136882703192839 -0.27385441845743941 0 0 0 0 5.9810299780955347 -38.940926521921938 0 -38.940926521921938 24.908008772472385 0 0 0 0 10.000504425860527 -6.1027106864494272 0 -6.1027106864494272 14.189529984411649 0 0 0 0 5.2614850203513797 -4.4024977099907119 0 -4.4024977099907119 27.09153529775358 0 0 0 0 -4.4851524994837835 5.7746940528959385 0 5.7746940528959385 5.7188824031545664 0 0 0 0 9.2356802111393179 -2.2215005357484188 0 -2.2215005357484188 7.3951889849922736 0 0 0 0 -5.4795811502495972 31.678793918530573 0 31.678793918530573 -9.9162394089071313 0 0 0 0 -5.9625941477187645 51.053374535364128 0 51.053374535364128 -39.757054895730107 0 0 0 0 -5.2987622812585542 43.868812933742447 0 43.868812933742447 -0.94334208637519623 0 0 0 0 3.2378699920825351 37.646180396814088 0 37.646180396814088 -86.31792952032265 0 0 0 0 -0.074727625053118377 13.19620778139506 0 13.19620778139506 -71.531605102012691 0 0 0 0 1.8592422619174442 19.775012110148964 0 19.775012110148964 -20.352033486071377 0 0 0 0 -7.5451134435356639 28.387903238821309 0 28.387903238821309 -16.06995359532084 0 0 0 0 0.023636072932211084 9.7840494443171337 0 9.7840494443171337 -3.1609438785708335 0 0 0 0 16.882060651249734 3.3692530734615502 0 3.3692530734615502 -3.0215617552239564 0 0 0 0 10.566990421712809 1.4174031423208362 0 1.4174031423208362 -0.75335240485037502 0 0 0 0 0.38818342283186674 0.050173988640000999 0 0.050173988640000999 -4.9045350229706628 0 0 0 0 50.608639593057021 10.681649719250345 0 10.681649719250345 -7.8591510674450547 0 0 0 0 11.911459406755698 16.37413473435231 0 16.37413473435231 -0.07096006231586216 0 0 0 0 -0.047432061198072528 16.686302299583986 0 16.686302299583986 1.6176115495909471 0 0 0 0 -19.153877042287842 8.3455632119184884 0 8.3455632119184884 -38.820911746031925 0 0 0 0 -3.3644833102634277 -6.4157817072918988 0 -6.4157817072918988 -31.902788210700237 0 0 0 0 -0.37519400023703975 0.099742880433524306 0 0.099742880433524306 -0.067107136447049243 0 0 0 0 -10.765304036155026 -21.639825266789558 0 -21.639825266789558 -27.285989603402413 0 0 0 0 -18.370517795767725 1.5252244423791126 0 1.5252244423791126 1.9871164042197051 0 0 0 0 -6.6355524589258268 -0.63980917316166597 0 -0.63980917316166597 -12.610535649582744 0 0 0 0 -6.1106381090473354 -14.165836343869159 0 -14.165836343869159 -53.772864368344017 0 0 0 0 -0.0083350813514830157 -3.5877398733318842 0 -3.5877398733318842 -46.217662569673848 0 0 0 0 -0.86447524398099596 0.27359502772378619 0 0.27359502772378619 -40.668455201732286 0 0 0 0 0.0023141665372591567 -4.1610520987353468 0 -4.1610520987353468 -34.7229541759516 0 0 0 0 0.01762130874811272 -0.077193268205846266 0 -0.077193268205846266 -0.30984419864199708 0 0 0 0 22.259310989255958 50.301195030957388 0 50.301195030957388 -130.81909262609406 0 0 0 0 23.693203768071093 56.685023430856745 0 56.685023430856745 -148.04746890859678 0 0 0 0 18.706036210132091 50.107332168165158 0 50.107332168165158 -83.423302197312296 0 0 0 0 2.6177252553187742 -54.973151722322655 0 -54.973151722322655 -34.071280858439422 0 0 0 0 0.0013730078582218086 -0.098039690921552847 0 -0.098039690921552847 -0.20671627891033495 0 0 0 0 4.45820868174774 -6.7419460049604822 0 -6.7419460049604822 -130.01245684845344 0 0 0 0 -0.14985406392652401 0.83362367033987539 0 0.83362367033987539 -53.327586849043826 0 0 0 0 -48.588117054475468 -53.680253656397326 0 -53.680253656397326 -60.830264956246538 0 0 0 0 -24.590490774897319 7.8593060238199541 0 7.8593060238199541 -36.461020981572801 0 0 0 0 8.14729442454564 -67.143085386105668 0 -67.143085386105668 -238.28806827715016 0 0 0 0 -15.596587036447358 119.42756858524808 0 119.42756858524808 -208.59147881916579 0 0 0 0 -148.20104477073622 57.840888069513312 0 57.840888069513312 -53.239834648009037 0 0 0 0 11.221675188917967 61.946833250429336 0 61.946833250429336 -85.600139195182692 0 0 0 0 9.344674143224438 23.95511317871933 0 23.95511317871933 -303.56965233397932 0 0 0 0 -88.770270566458933 -85.602063079512845 0 -85.602063079512845 -164.85668778249965 0 0 0 0 -0.82301509865705813 -0.7544430305260903 0 -0.7544430305260903 -3.2763821493124823 0 0 0 0 -24.536520617247106 95.533811648569099 0 95.533811648569099 -267.30369258863357 0 0 0 0 -41.661822626392485 -20.07445478027239 0 -20.07445478027239 -7.5502933224634035 0 0 0 0 -1.6636220028634188 5.0726640739054076 0 5.0726640739054076 -7.6998706395457361 0 0 0 0 -3.5701274020387754 47.591007010731118 0 47.591007010731118 7.5125735573319616 0 0 0 0 1.9426781324514906 13.709143255556228 0 13.709143255556228 3.9718129176908405 0 0 0 0 -20.055228334792872 26.42658639786714 0 26.42658639786714 -3.3317056757077808 0 0 0 0 14.773351376188813 -7.4228298946036375 0 -7.4228298946036375 -32.019006853624887 0 0 0 0 -34.096032537659831 -42.409288669310627 0 -42.409288669310627 -31.145867528059171 0 0 0 0 -8.7559383551129812 -21.214901896593801 0 -21.214901896593801 -37.102201629562842 0 0 0 0 7.6165989425667533 15.051704860889004 0 15.051704860889004 6.5328890205155403 0 0 0 0 -24.156309628009566 -16.097185073493165 0 -16.097185073493165 8.450834961302462 0 0 0 0 -1.9805614991290932 2.4981460650375951 0 2.4981460650375951 1.8394706805988505 0 0 0 0 -1.3646648343334067 4.8972151522692933 0 4.8972151522692933 -13.651368976309129 0 0 0 0 16.323901965715606 -1.5001118419277191 0 -1.5001118419277191 -27.422506611772405 0 0 0 0 47.976388749587386 16.425483909368268 0 16.425483909368268 -22.771193802305788 0 0 0 0 39.688513409784036 9.8275439764620387 0 9.8275439764620387 -4.712066770720412 0 0 0 0 0.25413695825058413 0.26301247368328262 0 0.26301247368328262 -2.9446985355105397 0 0 0 0 -13.120037947985402 3.5227984928860678 0 3.5227984928860678 0.85865152350743301 0 0 0 0 41.2690405454481 16.256372094765197 0 16.256372094765197 -19.454749748198083 0 0 0 0 7.4083342486254367 29.551937194825769 0 29.551937194825769 -0.99314371799118817 0 0 0 0 41.168500618885901 13.673375480146206 0 13.673375480146206 -45.461292983738531 0 0 0 0 13.542326567966711 18.383743994920223 0 18.383743994920223 15.87256354919009 0 0 0 0 6.4849622191619112 36.862218096076958 0 36.862218096076958 -37.825068750433275 0 0 0 0 25.286539882454917 30.597812247084221 0 30.597812247084221 -32.503669344267109 0 0 0 0 9.7093393549289857 34.876403489204677 0 34.876403489204677 -36.604377706036757 0 0 0 0 -178.30416203823427 100.51966185243145 0 100.51966185243145 55.64760633469632 0 0 0 0 100.36279201752811 -70.070188929630604 0 -70.070188929630604 -256.69261663610087 0 0 0 0 1.1204426597409713 -0.0051259260688354402 0 -0.0051259260688354402 -0.96056959287733434 0 0 0 0 -33.085179855580122 21.189076142015438 0 21.189076142015438 -23.226776509178308 0 0 0 0 -41.360183020937221 38.526505255691973 0 38.526505255691973 -1.4419893037265865 0 0 0 0 -5.9712581397579854 52.05834264367877 0 52.05834264367877 -0.79176380735952989 0 0 0 0 0.92243484041795343 1.3574429604321594 0 1.3574429604321594 -0.63392823062808645 0 0 0 0 -26.528018391008999 -38.536398817319423 0 -38.536398817319423 100.92960355590367 0 0 0 0 -141.1408766338875 21.153679026450845 0 21.153679026450845 -4.4562338274645299 0 0 0 0 -27.735672186879192 60.942653093659146 0 60.942653093659146 -245.34675304241682 0 0 0 0 -2.0725229572535682 0.30501133198228558 0 0.30501133198228558 -0.091728915256652499 0 0 0 0 -29.837685337939774 75.362113468014286 0 75.362113468014286 -233.33577079619863 0 0 0 0 -27.459310654835463 23.786382160096764 0 23.786382160096764 -122.62283870347892 0 0 0 0 -10.136262762737601 -9.8668363614233385 0 -9.8668363614233385 -144.1706751429374 0 0 0 0 -17.233775145577511 -34.560115641543234 0 -34.560115641543234 18.482998213128667 0 0 0 0 -0.60477168259490099 -44.339377413269176 0 -44.339377413269176 -82.810777693579439 0 0 0 0 -140.82965720803031 42.839607311303553 0 42.839607311303553 -51.242508081342748 0 0 0 0 -23.123459342865544 118.21612053944227 0 118.21612053944227 -76.414778597310942 0 0 0 0 44.624573438908783 -121.4146446106779 0 -121.4146446106779 -136.1799191884129 0 0 0 0 17.449177672491516 4.1639292479044343 0 4.1639292479044343 -42.143198206220404 0 0 0 0 224.64249254878814 -40.007166778268584 0 -40.007166778268584 -135.77235746468796 0 0 0 0 1.8863165570641609 1.5742649463073253 0 1.5742649463073253 -40.541381750206327 0 0 0 0 8.4045454409140348 6.6233165756948438 0 6.6233165756948438 -39.677246955354349 0 0 0 0 9.2939637613546324 7.1899423157260571 0 7.1899423157260571 -41.01601451793249 0 0 0 0 11.065082758494782 7.1160658039334521 0 7.1160658039334521 -42.156564584965963 0 0 0 0 25.73813573559616 2.4872001429357624 0 2.4872001429357624 -42.758648630617245 0 0 0 0 12.351349411791944 9.6653178866254166 0 9.6653178866254166 -41.968105853062298 0 0 0 0 145.54652822317485 45.930693379777949 0 45.930693379777949 -69.001414867940184 0 0 0 0 2.1883327303488844 2.1891990128438055 0 2.1891990128438055 -40.613350805446188 0 0 0 0 54.133040311557124 2.2827226738008903 0 2.2827226738008903 -47.166217315869289 0 0 0 0 14.30506445772653 50.120888697274495 0 50.120888697274495 -37.767645578613156 0 0 0 0 2.137747297845392 2.736383262188304 0 2.736383262188304 -39.126954531508076 0 0 0 0 -22.18270163188572 53.222629542418872 0 53.222629542418872 -24.531914430612233 0 0 0 0 10.279666262197679 2.80302708464842 0 2.80302708464842 -39.11367278981561 0 0 0 0 36.243558350166154 -0.80470655849194372 0 -0.80470655849194372 -46.762613593269634 0 0 0 0 21.345772908537583 -15.466810495983736 0 -15.466810495983736 -44.971545232234348 0 0 0 0 -50.817380072155174 -43.617007480348548 0 -43.617007480348548 -23.77122526356834 0 0 0 0 -5.8954597548572565 42.691165827502118 0 42.691165827502118 2.7330458268479561 0 0 0 0 32.58723006131288 45.038915486485166 0 45.038915486485166 -17.663540261433809 0 0 0 0 39.493196222362712 28.50009447901175 0 28.50009447901175 -55.94289140764522 0 0 0 0 10.776012846495178 23.143840866516257 0 23.143840866516257 -13.896194010590989 0 0 0 0 38.450251845056755 20.914430210816136 0 20.914430210816136 -33.993504786583799 0 0 0 0 -2.6957134026315543 33.295453582439222 0 33.295453582439222 -17.282805631850351 0 0 0 0 -11.778180518837416 46.103172050621652 0 46.103172050621652 -25.616276244734763 0 0 0 0 27.992611309033236 -13.36722435680349 0 -13.36722435680349 -46.185638857012236 0 0 0 0 3.223528529621928 2.7425957541416439 0 2.7425957541416439 -36.577690246230674 0 0 0 0 1.670440018812883 -4.1921799940746496 0 -4.1921799940746496 -35.105443538130203 0 0 0 0 -3.2730649612228717 7.7544075501209591 0 7.7544075501209591 -58.092176795034902 0 0 0 0 0.7919132952898984 -0.35251719255185554 0 -0.35251719255185554 -27.969396449210592 0 0 0 0 -2.263666107267909 3.027375497268622 0 3.027375497268622 -36.722842776180187 0 0 0 0 -10.290041390189799 9.1929285850710585 0 9.1929285850710585 -23.397151560704515 0 0 0 0 2.8986621742751595 -2.638318332414201 0 -2.638318332414201 -14.051233939695521 0 0 0 0 -6.0473008742391698 -2.3619671934274393 0 -2.3619671934274393 -22.178306617562463 0 0 0 0 -7.1332762697716952 -4.7817826087904507 0 -4.7817826087904507 -7.9430341145473591 0 0 0 0 3.0080523256659717 1.2232715738780371 0 1.2232715738780371 -25.062828339498083 0 0 0 0 -11.086634043724189 7.7658835975162219 0 7.7658835975162219 -25.932143055950291 0 0 0 0 0.71645342526221611 -19.501728242808895 0 -19.501728242808895 -26.216640185637516 0 0 0 0 -7.8458190110677606 8.4788911651703529 0 8.4788911651703529 -26.135598712180581 0 0 0 0 1.525069504602925 9.2216016260954348 0 9.2216016260954348 -66.200565253271634 0 0 0 0 -8.8267390576465914 18.125378180850021 0 18.125378180850021 -55.714584012494015 0 0 0 0 -0.3052683743963378 -1.1074341159558614 0 -1.1074341159558614 -7.6420206473416066 0 0 0 0 -16.52207628262849 10.51462631760387 0 10.51462631760387 -24.214168686346966 0 0 0 0 -15.184436889557219 23.999579549388727 0 23.999579549388727 -36.739555138767173 0 0 0 0 -15.51647451769702 13.57602620752732 0 13.57602620752732 -14.718287072726525 0 0 0 0 -11.60451540103395 12.153585131258296 0 12.153585131258296 -14.582248334059841 0 0 0 0 -9.2343359894468904 8.1149872578098439 0 8.1149872578098439 -24.990803099310142 0 0 0 0 -7.0742840174441426 10.462000709791027 0 10.462000709791027 -29.894491436949465 0 0 0 0 -1.788956919544944 -0.49532124253164511 0 -0.49532124253164511 -18.403488250973169 0 0 0 0 -1.7889569195442618 -0.49532124254619703 0 -0.49532124254619703 -18.403488251002273 0 0 0 0 -1.7889569195454271 -0.49532124252436915 0 -0.49532124252436915 -18.403488251031376 0 0 0 0 -3.6115146822448878 -27.536060473416001 0 -27.536060473416001 19.28831810682459 0 0 0 0 -2.4630471422170936 -2.7447944835478637 0 -2.7447944835478637 -3.3345115553697653 0 0 0 0 27.747636828477084 -3.9580638718434784 0 -3.9580638718434784 9.4430099290621001 0 0 0 0 0.71663282268593775 -12.372288789836603 0 -12.372288789836603 -20.021995184150001 0 0 0 0 -22.012074106828209 -12.481101575845969 0 -12.481101575845969 14.273562927846797 0 0 0 0 -18.270258124116026 -18.587653784918075 0 -18.587653784918075 19.067256090783985 0 0 0 0 -65.803906184281686 -98.777174170943908 0 -98.777174170943908 27.860997081515961 0 0 0 0 -69.733001546665719 -3.138944085665571 0 -3.138944085665571 92.152351662662113 0 0 0 0 -7.7084722934964702 -30.734571939683519 0 -30.734571939683519 -25.821852984416182 0 0 0 0 -1.2120728265734328 -3.7141707119371858 0 -3.7141707119371858 -8.2159558782004751 0 0 0 0 -6.7745960313739033 50.533215587165614 0 50.533215587165614 64.880249839901808 0 0 0 0 1.1428351866582276 1.4497036315504914 0 1.4497036315504914 -4.697628739561182 0 0 0 0 -2.7833403001155261 -1.7388439225287584 0 -1.7388439225287584 -6.7332331055367831 0 0 0 0 -1.795423799789944 0.70653998149282415 0 0.70653998149282415 -6.0642098295793403 0 0 0 0 1.0992582046591117 -2.6055567910698514 0 -2.6055567910698514 -4.3642018597910521 0 0 0 0 1.9461997227033976 -1.6363285228908353 0 -1.6363285228908353 -8.4394676090996654 0 0 0 0 -4.6523471354187222 -1.1751602565927897 0 -1.1751602565927897 -13.069993328972487 0 0 0 0 0.80431639388666554 -2.7766171416988072 0 -2.7766171416988072 -8.6890341684847954 0 0 0 0 -3.4265718030778771 3.5428684280850575 0 3.5428684280850575 -10.669665879657259 0 0 0 0 -7.0277987859379465 0.57271501386640011 0 0.57271501386640011 -12.043058693539933 0 0 0 0 -20.037987708291894 6.732947166710801 0 6.732947166710801 -9.845089578840998 0 0 0 0 -0.4700087411005705 3.565987882975012 0 3.565987882975012 -6.5950100192992238 0 0 0 0 11.426622752375351 6.0693472200000542 0 6.0693472200000542 -14.168186931514356 0 0 0 0 -101.0835829019735 28.171054881475357 0 28.171054881475357 -6.5607797404773009 0 0 0 0 -67.640892776332706 15.215210502876289 0 15.215210502876289 99.218867639574455 0 0 0 0 -2.962199371616407 -1.7153636040347919 0 -1.7153636040347919 -9.9331239054445177 0 0 0 0 -29.499225604942239 6.8065981841718894 0 6.8065981841718894 -3.8374225573861622 0 0 0 0 -45.772781177495972 22.432483513024636 0 22.432483513024636 -6.5797212061916071 0 0 0 0 -42.569053330951874 49.178684034959588 0 49.178684034959588 -18.881835527339717 0 0 0 0 -14.377311403446129 38.054418468182121 0 38.054418468182121 -24.214073615970847 0 0 0 0 -13.713971482973648 51.964679719894775 0 51.964679719894775 -27.870371375174727 0 0 0 0 73.384169818946475 -109.83067662977192 0 -109.83067662977192 -58.195046723179985 0 0 0 0 -54.147950216133438 92.36283011946216 0 92.36283011946216 -91.751524629973574 0 0 0 0 -14.609427473586038 30.52310036830022 0 30.52310036830022 -12.902585514115344 0 0 0 0 -95.298379000966449 -91.068162073730491 0 -91.068162073730491 -51.742583318344259 0 0 0 0 1.2793383445935476 77.227988160579116 0 77.227988160579116 -245.73557194422756 0 0 0 0 -1.121644587175106 1.827288580588327 0 1.827288580588327 -2.2430116941777243 0 0 0 0 26.684097079678907 -65.406225500846631 0 -65.406225500846631 -49.684215999926892 0 0 0 0 30.448786092671469 -66.134566898224875 0 -66.134566898224875 -94.008295029565488 0 0 0 0 36.668188654160417 10.985569035980006 0 10.985569035980006 -136.21705542325799 0 0 0 0 36.263148529225987 6.964159971990739 0 6.964159971990739 -56.571944835217437 0 0 0 0 36.514392297788845 -0.75470149868124281 0 -0.75470149868124281 -36.142193816660438 0 0 0 0 -0.91189723598912686 5.1935656273473185 0 5.1935656273473185 -17.329597567212943 0 0 0 0 37.204349204875143 2.5364503115551997 0 2.5364503115551997 -20.566327815307886 0 0 0 0 22.505791161523803 -2.0278883498303912 0 -2.0278883498303912 -18.957512949669763 0 0 0 0 1.4356926299135631 -0.039079215810772894 0 -0.039079215810772894 -4.1447849414570026 0 0 0 0 3.8244258652296708 15.388839499315509 0 15.388839499315509 -6.4212101292068837 0 0 0 0 17.446616403766996 -28.913725530117517 0 -28.913725530117517 7.5534135606649215 0 0 0 0 1.6843096183649777 3.7043282459162583 0 3.7043282459162583 -18.628229895766708 0 0 0 0 11.107525571568999 7.1490004103320643 0 7.1490004103320643 -25.595068081223872 0 0 0 0 12.202285413858135 1.3809674714648281 0 1.3809674714648281 -42.223473447020297 0 0 0 0 34.15217847411509 32.328493067703675 0 32.328493067703675 -31.215609326565755 0 0 0 0 26.297659554871188 -34.751118994361605 0 -34.751118994361605 -87.30442888950347 0 0 0 0 59.94402893537233 4.6455741005120217 0 4.6455741005120217 -96.041800595528912 0 0 0 0 1.9735625928070668 -0.61063471042348283 0 -0.61063471042348283 -8.3515887079847744 0 0 0 0 -1.633702519034216 -15.319297190882935 0 -15.319297190882935 -27.388134602555283 0 0 0 0 1.6058196742718565 -6.5005316405422491 0 -6.5005316405422491 -19.383335854450706 0 0 0 0 0.97525666857365145 -1.9184791263061456 0 -1.9184791263061456 -4.9986093746017843 0 0 0 0 -52.65723245397723 -43.534365077774055 0 -43.534365077774055 -25.632485376641853 0 0 0 0 5.2591418206571063 -6.1856081776968495 0 -6.1856081776968495 -32.091255389947037 0 0 0 0 2.8483110680276695 1.847574875348073 0 1.847574875348073 -7.0533428804192226 0 0 0 0 -0.066823157326489024 2.0442353721446125 0 2.0442353721446125 -14.611794737731543 0 0 0 0 4.4132175912690172 0.98706146388576599 0 0.98706146388576599 -9.2782753760329797 0 0 0 0 1.3767467841624317 2.288273711025397 0 2.288273711025397 -8.5988645909349373 0 0 0 0 0.63553730625795879 2.0515893322371994 0 2.0515893322371994 -14.807809220117633 0 0 0 0 2.1143694478272281 -3.4789174809863113 0 -3.4789174809863113 -4.6282254038179289 0 0 0 0 7.0590883344671056 -1.5958676847367315 0 -1.5958676847367315 -8.3215817124291789 0 0 0 0 0.81548099579605893 -0.51471522167683048 0 -0.51471522167683048 -1.8052546364592175 0 0 0 0 -0.3544737327891454 1.4612369926808242 0 1.4612369926808242 -14.555963134371268 0 0 0 0 -0.33448411453770888 1.4903879140219942 0 1.4903879140219942 -14.823896237501685 0 0 0 0 1.755525942987042 -2.5817088162900319 0 -2.5817088162900319 -8.2317592799716977 0 0 0 0 4.6492772525828059 3.6503998587213573 0 3.6503998587213573 -28.470500240582624 0 0 0 0 5.9964515853625926 -0.33225447032600641 0 -0.33225447032600641 -28.980508768472646 0 0 0 0 3.8521940805500208 2.6771781730894872 0 2.6771781730894872 -27.881682399223791 0 0 0 0 -0.10206402225912825 1.4729528659700009 0 1.4729528659700009 -15.326464213976578 0 0 0 0 -0.06872704867121511 2.109362939789083 0 2.109362939789083 -12.672246547400562 0 0 0 0 1.5600124180257218 2.8479605802431252 0 2.8479605802431252 -20.679847405255714 0 0 0 0 0.010436469530370789 0.56381053807999137 0 0.56381053807999137 -2.6539868564659059 0 0 0 0 -0.0055009578082239434 -1.0569127611943259 0 -1.0569127611943259 -15.608185938363022 0 0 0 0 -0.081983485842192422 0.70380062130072929 0 0.70380062130072929 -2.7572543112384551 0 0 0 0 0.032885311628309918 0.00024946332210618039 0 0.00024946332210618039 -0.24263112130738662 0 0 0 0 -0.017897057287288024 4.7196324645261321 0 4.7196324645261321 -36.356095219569397 0 0 0 0 1.2785512313339371 5.2574895312500303 0 5.2574895312500303 -37.444413198503753 0 0 0 0 -0.12699382910257528 3.8350874999152254 0 3.8350874999152254 -19.586961283524317 0 0 0 0 -0.17923737944961049 6.0530845362254695 0 6.0530845362254695 -27.093374493299052 0 0 0 0 0.52758575171156963 1.1593773651475203 0 1.1593773651475203 -23.783821719822299 0 0 0 0 0.24925973035500865 0.92127552718240224 0 0.92127552718240224 -6.4468913388259868 0 0 0 0 -15.955003947656902 37.10260645384551 0 37.10260645384551 -33.267387712890923 0 0 0 0 -6.7514511885850084 11.485702290163317 0 11.485702290163317 11.842952230987521 0 0 0 0 19.539847917075861 25.063497892675514 0 25.063497892675514 -37.688293923172751 0 0 0 0 -8.3826053436763317 -1.3251807992201066 0 -1.3251807992201066 -4.0631384269436239 0 0 0 0 3.603659628147228 -16.739108273572128 0 -16.739108273572128 -76.717995163213345 0 0 0 0 6.8047204762735278 3.6785257642986835 0 3.6785257642986835 -59.104672655557806 0 0 0 0 -17.300432548781369 -7.4279438809389831 0 -7.4279438809389831 22.582848369691419 0 0 0 0 0.016140150550493625 3.4287832455463523 0 3.4287832455463523 -32.658264219004195 0 0 0 0 -14.596855857882796 -22.977647610333975 0 -22.977647610333975 -23.085073392794584 0 0 0 0 -449.98312861453724 603.72997602910618 0 603.72997602910618 -417.06899346747014 0 0 0 0 -441.51614258945392 1041.3513929443097 0 1041.3513929443097 -113.8120369822027 0 0 0 0 10.233845272538019 -33.45797606742417 0 -33.45797606742417 -264.14771061537613 0 0 0 0 -55.301071249579763 161.94622707857707 0 161.94622707857707 -202.18627946015158 0 0 0 0 -107.66215930715225 84.349140980185439 0 84.349140980185439 -2480.7861376528817 0 0 0 0 2.0869620722399453 1.2008223803334168 0 1.2008223803334168 -0.28589009489206063 0 0 0 0 -224.2038264399921 205.99646360980933 0 205.99646360980933 -663.22572480839881 0 0 0 0 -104.61949611445743 11.658405395339287 0 11.658405395339287 33.030253932927735 0 0 0 0 175.73678014403231 -61.077938184944287 0 -61.077938184944287 -156.74165408777662 0 0 0 0 -3.1257681191559641 -1.9064287056762623 0 -1.9064287056762623 -54.538380990852602 0 0 0 0 72.730538607585913 58.289356634613796 0 58.289356634613796 -99.742683538675919 0 0 0 0 2.7411131390778793 -1.7674564875803291 0 -1.7674564875803291 -52.623607923813204 0 0 0 0 -2.3193101652559562 -82.998798720218474 0 -82.998798720218474 19.112639295530244 0 0 0 0 -147.15488457974857 105.55127493847965 0 105.55127493847965 -113.43332921381443 0 0 0 0 -10.819958599050551 -10.326017391877031 0 -10.326017391877031 -69.029703970656556 0 0 0 0 43.435776088419516 -6.5555167182101286 0 -6.5555167182101286 -242.44594163082002 0 0 0 0 -74.154992461661095 32.096088997340303 0 32.096088997340303 -70.851335525971081 0 0 0 0 -157.68544591363025 -47.172760503966856 0 -47.172760503966856 -145.89888886189692 0 0 0 0 -43.828916157044659 -38.290242966459118 0 -38.290242966459118 -89.122547537564969 0 0 0 0 -908.7987068345883 -310.28759363867903 0 -310.28759363867903 -1641.0789966752518 0 0 0 0 1.0833756471077844 0.6595703277042535 0 0.6595703277042535 -3.3667790707155163 0 0 0 0 -257.91199456962136 210.44627717161779 0 210.44627717161779 290.4479236743482 0 0 0 0 -45.054906674300888 102.0061939649032 0 102.0061939649032 -156.5778973123106 0 0 0 0 -200.073998621594 903.44355679219188 0 903.44355679219188 -814.82596561464334 0 0 0 0 -26.14074597767285 480.96405189139932 0 480.96405189139932 -428.22844739061475 0 0 0 0 -39.779519426580009 332.1916707414257 0 332.1916707414257 -124.5018775040935 0 0 0 0 -52.32772294762799 496.04609707721738 0 496.04609707721738 -7.6181688886845222 0 0 0 0 121.03731345429333 293.25561766212832 0 293.25561766212832 -665.75616239568899 0 0 0 0 155.56349634680555 46.0319039209935 0 46.0319039209935 -581.42444510920814 0 0 0 0 298.24308159143402 107.3548239296988 0 107.3548239296988 -557.57415309109092 0 0 0 0 275.38328012366492 -213.02487438811841 0 -213.02487438811841 -763.37642410347598 0 0 0 0 278.71094479084786 247.66047758550758 0 247.66047758550758 -1227.8711957712453 0 0 0 0 -2.2802990076022782 5.5883465401206056 0 5.5883465401206056 -12.394785219815518 0 0 0 0 -914.44133576357649 512.95839734794345 0 512.95839734794345 19.497938857584813 0 0 0 0 137.66927316007423 -232.64691087954679 0 -232.64691087954679 -226.4976844098619 0 0 0 0 99.060279440327577 7.0425420269930328 0 7.0425420269930328 24.613113260560567 0 0 0 0 582.44600076343568 117.7081714679523 0 117.7081714679523 -85.506364016475345 0 0 0 0 -328.37095589136425 178.54909305301135 0 178.54909305301135 187.17348447458789 0 0 0 0 -2.8214364666123855 12.225972595020197 0 12.225972595020197 -32.910902840497698 0 0 0 0 438.96223806087482 436.96295519777868 0 436.96295519777868 -53.376406030904036 0 0 0 0 -301.573508309825 449.27843231054521 0 449.27843231054521 -166.87931920258052 0 0 0 0 -420.88752097533416 406.31567516217547 0 406.31567516217547 -158.38194729657607 0 0 0 0 -456.17135427715266 590.83184988156518 0 590.83184988156518 -299.68271934223594 0 0 0 0 64.303779853631113 61.108270094086947 0 61.108270094086947 -107.53312684503362 0 0 0 0 -429.92249532688322 443.60247968167664 0 443.60247968167664 -197.61883704858337 0 0 0 0 2.9097062143211634 6.4523351916529759 0 6.4523351916529759 -4.9001298097444987 0 0 0 0 -593.77368671610611 287.39984258175355 0 287.39984258175355 -158.77649606455452 0 0 0 0 -484.0812140887183 447.77259767373289 0 447.77259767373289 55.315173953712019 0 0 0 0 3.9138618067249809 2.8251423717738362 0 2.8251423717738362 15.230963907228215 0 0 0 0 -5.3708825830451588 10.519383092050248 0 10.519383092050248 -51.265955284736265 0 0 0 0 -613.62969234115053 279.46958756955064 0 279.46958756955064 -59.72403494746959 0 0 0 0 1.7930146002811771 0.89037391810728383 0 0.89037391810728383 -10.422369165122532 0 0 0 0 5.5440785835126789 -3.0004951290329167 0 -3.0004951290329167 -25.418409286101195 0 0 0 0 -5.683222700829333 10.087621295231202 0 10.087621295231202 -41.405330602141476 0 0 0 0 -5.9514314298371573 6.2951966590753727 0 6.2951966590753727 -44.612346390153107 0 0 0 0 -7.7050395085407217 1.7250201215756533 0 1.7250201215756533 -49.482113227805257 0 0 0 0 4.6032181938738699 -1.841751585206918 0 -1.841751585206918 -48.68133448957132 0 0 0 0 -7.3794352961422192 1.3944513964888756 0 1.3944513964888756 -49.180985886137933 0 0 0 0 8.0758628170322027 8.8332795235182857 0 8.8332795235182857 -42.768011791338722 0 0 0 0 0.98458361312987108 9.8539269625871384 0 9.8539269625871384 -39.441334192501017 0 0 0 0 -0.12164689992277999 6.9767490817175712 0 6.9767490817175712 -39.665288147602951 0 0 0 0 0.19725234600446129 8.961145546663829 0 8.961145546663829 -40.801665583285285 0 0 0 0 -0.089897295502396446 4.5275483359855571 0 4.5275483359855571 -45.884848500807493 0 0 0 0 9.098124771836865 5.2894304736146296 0 5.2894304736146296 -44.365912162320456 0 0 0 0 -4.4739954849428614 8.787839618158614 0 8.787839618158614 -43.955049870499352 0 0 0 0 -8.7426515892657335 8.3232059609017597 0 8.3232059609017597 -46.459924080507335 0 0 0 0 -8.2208787866143211 -2.8140278219398169 0 -2.8140278219398169 -53.350939506275608 0 0 0 0 9.6078230257703581 5.9995173868992424 0 5.9995173868992424 -48.434139301745745 0 0 0 0 -8.3534839605918023 -0.61959085674607195 0 -0.61959085674607195 -49.260253371658109 0 0 0 0 -5.5187789733813588 1.5078630270487565 0 1.5078630270487565 -46.837341841990565 0 0 0 0 -12.65122972883546 3.442900930187534 0 3.442900930187534 -46.600113610453263 0 0 0 0 -9.2648153593299867 -2.7973741020587113 0 -2.7973741020587113 -53.453127867724106 0 0 0 0 -11.240092627031117 -7.9586403904268082 0 -7.9586403904268082 -68.2487385608365 0 0 0 0 -16.192758695934344 2.261002262738657 0 2.261002262738657 -56.53783638922323 0 0 0 0 -8.621337420798227 0.86481368153545191 0 0.86481368153545191 -55.729734889166139 0 0 0 0 -7.9447711370585239 -2.9718684551553451 0 -2.9718684551553451 -54.468790543156501 0 0 0 0 -4.0426283523588609 5.268389297358226 0 5.268389297358226 -74.394829704346193 0 0 0 0 -5.988549389972377 4.3519557712879759 0 4.3519557712879759 -63.832167078362545 0 0 0 0 -4.7889659066468084 5.0152575809916016 0 5.0152575809916016 -72.272386066742911 0 0 0 0 -3.8430480968295342 -4.9946692456996971 0 -4.9946692456996971 -112.15331950985637 0 0 0 0 0.079127933626010005 -1.0259440300734468 0 -1.0259440300734468 -0.54128162289232229 0 0 0 0 0.76757105333626896 -8.4025929944655218 0 -8.4025929944655218 -45.013830235511705 0 0 0 0 -6.4356886552468495 5.7294407639219571 0 5.7294407639219571 -16.331426165343146 0 0 0 0 16.211023759096861 4.0395386609743582 0 4.0395386609743582 -32.02081050156994 0 0 0 0 -5.7999100202900991 -12.744982076535962 0 -12.744982076535962 -55.201563908693061 0 0 0 0 0.63966969597763246 3.3650553508192402 0 3.3650553508192402 -10.210525056873983 0 0 0 0 -3.7012038404144274 -0.47805395237075032 0 -0.47805395237075032 -2.4870304925823046 0 0 0 0 -12.222583992880573 -14.163143872770888 0 -14.163143872770888 -42.59209033724801 0 0 0 0 -0.62526012652694618 -0.41032866799122303 0 -0.41032866799122303 -3.875554704235304 0 0 0 0 11.420393606244033 2.5638933180762251 0 2.5638933180762251 -40.897414731807658 0 0 0 0 8.8079046775549159 -3.7686051680793753 0 -3.7686051680793753 -55.875133889960125 0 0 0 0 -15.345030462009163 6.3196937846114452 0 6.3196937846114452 -56.710484877632553 0 0 0 0 -24.550513958494776 -18.015241407036228 0 -18.015241407036228 -70.845280068762804 0 0 0 0 8.0996203860840978 -11.564524490204349 0 -11.564524490204349 -64.35376268552136 0 0 0 0 -4.4758239509519626 -9.0419462642530561 0 -9.0419462642530561 -34.845677919258378 0 0 0 0 1.3397034981976983 -1.015678000634999 0 -1.015678000634999 1.248902094478149 0 0 0 0 -31.65835158550567 -18.479029669413649 0 -18.479029669413649 -18.820130590862391 0 0 0 0 19.563446547358126 -10.451677134451529 0 -10.451677134451529 -40.29982702491543 0 0 0 0 7.8802652775816568 -14.042803752281543 0 -14.042803752281543 -40.493507294322626 0 0 0 0 6.9939848372681155 -2.0122209095352943 0 -2.0122209095352943 -7.9011010691994557 0 0 0 0 1.7120561388446731 -3.8854114822825068 0 -3.8854114822825068 -34.67229940692232 0 0 0 0 1.9956080933463909 -3.9195274505254929 0 -3.9195274505254929 -35.329565187366825 0 0 0 0 -4.9874484581191609 -13.477274455835868 0 -13.477274455835868 -38.144532865942892 0 0 0 0 29.894117723006275 -2.6981370909388716 0 -2.6981370909388716 -26.482847361625318 0 0 0 0 44.137176253725784 -11.51736765206897 0 -11.51736765206897 -77.29093180331256 0 0 0 0 1.9034506262798914 -4.3105836857666873 0 -4.3105836857666873 -35.558434987829969 0 0 0 0 4.1692563371129268 2.1895465454329042 0 2.1895465454329042 -34.028792898490792 0 0 0 0 2.6240964077899953 3.105700496313851 0 3.105700496313851 -10.567998259059365 0 0 0 0 8.2009452510950496 -21.065805483292934 0 -21.065805483292934 -48.186456872510462 0 0 0 0 -51.791617736538228 -46.101129912726719 0 -46.101129912726719 17.546669082694279 0 0 0 0 -1.4418400147590091 -14.765413077171615 0 -14.765413077171615 -45.663244782073889 0 0 0 0 1.7387930074408224 5.5891959927287331 0 5.5891959927287331 -4.3211798606903429 0 0 0 0 -58.180625342012718 93.493211011538733 0 93.493211011538733 22.922138648176769 0 0 0 0 -95.896771940109829 136.86173885776225 0 136.86173885776225 -170.3453049575528 0 0 0 0 -238.3505891799507 -45.402569326867251 0 -45.402569326867251 -50.067809917029081 0 0 0 0 20.073744313767065 -0.7735960903664818 0 -0.7735960903664818 -73.402913092359086 0 0 0 0 -2.6172903105485905 -10.957830001972178 0 -10.957830001972178 -42.329073335745456 0 0 0 0 81.618916871103465 26.997824784467866 0 26.997824784467866 -92.755140094450326 0 0 0 0 63.965600854299282 28.82306280503667 0 28.82306280503667 -39.277946680301284 0 0 0 0 -2.730108058136834 -11.263943725042317 0 -11.263943725042317 -42.625407689578388 0 0 0 0 0.85698433273773844 -74.182607402954091 0 -74.182607402954091 -36.708289685386262 0 0 0 0 30.216931980591198 -53.104962653371331 0 -53.104962653371331 -21.956921912178586 0 0 0 0 -1.6932109898480121 -4.0702141747751739 0 -4.0702141747751739 -47.76148009276767 0 0 0 0 -4.2458666233078297 7.644014456612112 0 7.644014456612112 -17.659559739291453 0 0 0 0 -6.78804412039608 -20.382123544233764 0 -20.382123544233764 22.816952841823877 0 0 0 0 -7.873573680855543 -12.846539333303554 0 -12.846539333303554 -25.628141985100228 0 0 0 0 -5.1545365589655123 -8.3499116953360542 0 -8.3499116953360542 -13.608212626817362 0 0 0 0 9.0232244779845132 -32.211836847405721 0 -32.211836847405721 -95.285320389597473 0 0 0 0 -7.5064245456496792 -5.5730330755668547 0 -5.5730330755668547 -32.468367490553646 0 0 0 0 -5.2133729651227556 -0.73587193262425554 0 -0.73587193262425554 -36.232892862367372 0 0 0 0 -1.9137670505633562 -4.2235617795961673 0 -4.2235617795961673 -26.44982452692421 0 0 0 0 -2.5628308740411807 -8.0151910430820479 0 -8.0151910430820479 -31.725677821414735 0 0 0 0 2.4114474909401906 -2.2829302420432214 0 -2.2829302420432214 -23.746548866409285 0 0 0 0 1.7799770318400334 -0.23603875939388974 0 -0.23603875939388974 -29.305293222538797 0 0 0 0 3.0522371869600349 0.069523333160653067 0 0.069523333160653067 -8.7998849733294371 0 0 0 0 -0.50034738658860078 0.87681144909947761 0 0.87681144909947761 -64.010935243854874 0 0 0 0 58.688428064540858 46.796480401639656 0 46.796480401639656 -5.2962538645479071 0 0 0 0 2.4493898097062416 -0.40967846259056984 0 -0.40967846259056984 -11.214759859624259 0 0 0 0 -3.477271056036443 -0.91783710254640027 0 -0.91783710254640027 -51.953430141242279 0 0 0 0 53.638039478333667 -42.083948919218528 0 -42.083948919218528 8.8720678031313582 0 0 0 0 0.8773582208431101 -1.5484488331027642 0 -1.5484488331027642 -13.296448628842654 0 0 0 0 -0.88872479195924825 -42.768096410775797 0 -42.768096410775797 58.009496503082119 0 0 0 0 -10.266032096013078 2.9789445345340937 0 2.9789445345340937 -86.688664557172615 0 0 0 0 -23.767115145461503 -71.394692920689067 0 -71.394692920689067 33.114479072091854 0 0 0 0 19.324575559299774 -85.966352351175374 0 -85.966352351175374 -45.589263528665469 0 0 0 0 -4.2528817297861679 3.3466022610773507 0 3.3466022610773507 -66.338126521355662 0 0 0 0 -4.6677139112707664 5.7216000492771855 0 5.7216000492771855 -62.822145698337408 0 0 0 0 88.089688161170216 -89.646253098572288 0 -89.646253098572288 -33.817620216628711 0 0 0 0 2.2312825202444957 -2.0270548793456107 0 -2.0270548793456107 -54.309918750379694 0 0 0 0 -3.2262194713457575 4.6014541232543706 0 4.6014541232543706 -65.10046931632678 0 0 0 0 -60.91803242075639 137.58671216385028 0 137.58671216385028 -62.720557369328162 0 0 0 0 0.97218147544348099 0.41177088839956966 0 0.41177088839956966 -2.9360128800843555 0 0 0 0 -110.61456630784778 240.41013295845278 0 240.41013295845278 53.314925885304547 0 0 0 0 -62.293831661606418 229.03061038219676 0 229.03061038219676 -167.70794126095279 0 0 0 0 -93.113093422093698 -40.798112033779944 0 -40.798112033779944 26.698542741235542 0 0 0 0 60.776621437697031 -31.167845006512835 0 -31.167845006512835 -175.71073611733323 0 0 0 0 25.534866963786953 -13.349299822175453 0 -13.349299822175453 -80.047257886204534 0 0 0 0 -44.14959387119552 250.0228707767929 0 250.0228707767929 -107.59826111312941 0 0 0 0 -110.21228147664988 -88.062249935815089 0 -88.062249935815089 11.312500427996611 0 0 0 0 -283.2220651568407 173.73100616834904 0 173.73100616834904 -96.394618185944637 0 0 0 0 33.212676382606332 -43.727667411555558 0 -43.727667411555558 -122.57789418002994 0 0 0 0 94.591648757188523 69.735010814991256 0 69.735010814991256 -40.272527193586939 0 0 0 0 126.3881052443121 55.085867723121282 0 55.085867723121282 -138.64060699311995 0 0 0 0 136.72044014670428 -50.431729746117412 0 -50.431729746117412 -103.59183015794588 0 0 0 0 69.631122350171609 4.3248577990584636 0 4.3248577990584636 -65.053472608836728 0 0 0 0 -16.498962819076723 73.865899251232577 0 73.865899251232577 -227.63297208232325 0 0 0 0 -8.9487589457632453 -14.167619102796078 0 -14.167619102796078 -255.49123569867152 0 0 0 0 -9.4973992941768302 -51.411097348881412 0 -51.411097348881412 -136.93758942284012 0 0 0 0 -33.153602915104784 62.95627710184408 0 62.95627710184408 -189.96051042120325 0 0 0 0 68.203766586049824 83.60297648214555 0 83.60297648214555 -305.86070370971811 0 0 0 0 77.77697509589234 -40.623591892640889 0 -40.623591892640889 -92.639454458476393 0 0 0 0 0.48284499610519305 0.4318875617223652 0 0.4318875617223652 -0.70268334070195948 0 0 0 0 -0.89635313938693528 -1.4370112913146604 0 -1.4370112913146604 -4.8163215750535926 0 0 0 0 -286.78101233876441 -43.297941172576429 0 -43.297941172576429 -94.767610583487112 0 0 0 0 -170.48567224116505 232.98247422507939 0 232.98247422507939 -344.10078523098946 0 0 0 0 -160.84327703683812 -166.44423824826526 0 -166.44423824826526 -319.85215358343885 0 0 0 0 -30.220097342560962 76.744818654268073 0 76.744818654268073 -525.22997524949915 0 0 0 0 -242.88671538058497 205.36400191317716 0 205.36400191317716 -271.56863592569061 0 0 0 0 -127.47975174601061 -33.558715281119248 0 -33.558715281119248 -509.09315119151688 0 0 0 0 -155.06385022212908 100.28062405602941 0 100.28062405602941 -222.80254091041297 0 0 0 0 -322.52779959933196 40.920517438811203 0 40.920517438811203 -243.69486450527074 0 0 0 0 -163.36830374535475 100.61590462242339 0 100.61590462242339 -210.77394424381055 0 0 0 0 -130.52697012312183 160.84040488133996 0 160.84040488133996 -211.31670001776274 0 0 0 0 -61.082221246434983 148.18377389522539 0 148.18377389522539 -136.51754811369392 0 0 0 0 -89.894311235802888 129.4288995198649 0 129.4288995198649 -252.90072918185615 0 0 0 0 -86.256774845686778 149.86206728804291 0 149.86206728804291 -152.25738319354878 0 0 0 0 -50.211791382852425 144.3506377314435 0 144.3506377314435 -245.83670758992957 0 0 0 0 -41.302760369008865 177.01343550538058 0 177.01343550538058 -235.7173793376046 0 0 0 0 -31.209564582523853 171.29583235761675 0 171.29583235761675 -241.49116842694457 0 0 0 0 -29.268699350752286 149.71163522657935 0 149.71163522657935 -162.82570297603343 0 0 0 0 12.706033668300734 223.47798738224265 0 223.47798738224265 -226.1049312762525 0 0 0 0 -52.576490681338328 223.18349001178285 0 223.18349001178285 -214.07591610826785 0 0 0 0 75.188089987033436 166.13630370674446 0 166.13630370674446 -324.08055498744579 0 0 0 0 -27.662944942716422 312.41946370247615 0 312.41946370247615 -368.54793167898242 0 0 0 0 -6.1618633220587071 178.89495717082559 0 178.89495717082559 -324.96367111776271 0 0 0 0 120.48001561023375 227.4629417987253 0 227.4629417987253 -404.30871203706147 0 0 0 0 18.871603263169163 92.152638720531286 0 92.152638720531286 -383.51412373658968 0 0 0 0 156.2029712033418 -7.7214382372085311 0 -7.7214382372085311 -315.79561352872042 0 0 0 0 14.283825030885623 79.989014840701429 0 79.989014840701429 -258.40224153921918 0 0 0 0 -62.70767388042259 63.088615833297808 0 63.088615833297808 -259.03018518294812 0 0 0 0 -78.363883047007221 117.61865949683943 0 117.61865949683943 -265.10924451794654 0 0 0 0 -85.351059846462704 87.990010154577249 0 87.990010154577249 -219.86728449254042 0 0 0 0 -119.56719453592086 102.91614031213521 0 102.91614031213521 -211.55377043777708 0 0 0 0 -148.10846751720146 82.672055569045824 0 82.672055569045824 -199.9391032884887 0 0 0 0 -140.31578393725067 66.459748386752153 0 66.459748386752153 -184.73587687241525 0 0 0 0 -117.13344784303627 73.989859192380209 0 73.989859192380209 -199.37008190189408 0 0 0 0 -116.14120653712143 47.206691650819948 0 47.206691650819948 -279.9083601272705 0 0 0 0 -115.05841768934351 57.99979372438429 0 57.99979372438429 -213.3525696091865 0 0 0 0 -116.40898243100492 78.779704147181292 0 78.779704147181292 -221.41355241017027 0 0 0 0 -68.882588395193125 58.89145537061404 0 58.89145537061404 -220.63229024022985 0 0 0 0 -115.67638673241527 70.485823602559321 0 70.485823602559321 -212.31438478286373 0 0 0 0 -102.81032880504972 74.454444344283274 0 74.454444344283274 -256.51754759502001 0 0 0 0 -86.156284801123547 113.17711191336184 0 113.17711191336184 -242.74661538529858 0 0 0 0 -82.052706500710201 113.31476331638885 0 113.31476331638885 -384.86319591889514 0 0 0 0 -37.58861645959405 177.52704819822429 0 177.52704819822429 -355.34432240766637 0 0 0 0 -119.35812634098426 121.14301333876435 0 121.14301333876435 -155.49620673667596 0 0 0 0 -119.62500612535132 156.64138709378858 0 156.64138709378858 -293.75784648558147 0 0 0 0 -83.742556426737792 198.15970894849124 0 198.15970894849124 -272.58075567795004 0 0 0 0 -149.65932215987414 78.641552621443225 0 78.641552621443225 -134.33709823947538 0 0 0 0 -209.25105389982127 216.55441566926947 0 216.55441566926947 -242.68130584142 0 0 0 0 -213.23175344666561 152.14061105025849 0 152.14061105025849 6.1350665580994246 0 0 0 0 233.15813767799409 -156.19063010718673 0 -156.19063010718673 -11.643151651349399 0 0 0 0 -186.40733547691798 -17.07178236862319 0 -17.07178236862319 47.435733354398508 0 0 0 0 59.537611416035588 -131.03051699485502 0 -131.03051699485502 -166.12270858154625 0 0 0 0 -23.1095764627471 -16.45605542143403 0 -16.45605542143403 -267.70101295020049 0 0 0 0 -21.585565976567523 25.219727478228378 0 25.219727478228378 -230.35508783575642 0 0 0 0 -149.23874911809435 95.424501170573421 0 95.424501170573421 -176.84125568887066 0 0 0 0 -83.178889265129328 33.724062599396348 0 33.724062599396348 -171.78346171626617 0 0 0 0 0.30906094507411552 -0.29624376086268178 0 -0.29624376086268178 -2.2808654397273074 0 0 0 0 -203.62612703529066 300.34290497510074 0 300.34290497510074 -650.33627493582458 0 0 0 0 -201.80291200939246 320.43902367833971 0 320.43902367833971 -473.41324265119977 0 0 0 0 31.60900641905846 226.40786410133728 0 226.40786410133728 -462.34223852506511 0 0 0 0 -98.221926236968557 177.38515679616671 0 177.38515679616671 -280.1890775457332 0 0 0 0 78.726032522318746 71.4500125092095 0 71.4500125092095 -437.71148602968685 0 0 0 0 17.32676519978213 173.52895740943632 0 173.52895740943632 -551.26730565936123 0 0 0 0 -83.424229267636292 84.300937103359956 0 84.300937103359956 -531.35974427111978 0 0 0 0 -200.27915683099309 225.0823898957633 0 225.0823898957633 -682.27183404889547 0 0 0 0 -225.09869148888629 22.2594421634426 0 22.2594421634426 -551.48596988060308 0 0 0 0 -319.80595966540022 156.73357269480312 0 156.73357269480312 -572.02929591136899 0 0 0 0 -119.00820992284116 159.52648917951183 0 159.52648917951183 -427.50925895869659 0 0 0 0 -48.797606589571842 140.22910440520945 0 140.22910440520945 -478.68809093424534 0 0 0 0 -59.305163959609672 84.460573411050291 0 84.460573411050291 -471.54293548528949 0 0 0 0 -70.305153574061478 56.739981960690784 0 56.739981960690784 -278.04268635878907 0 0 0 0 -68.898019125916107 -18.548592291493151 0 -18.548592291493151 -335.15200338979685 0 0 0 0 -48.031791139450206 -97.291754094679277 0 -97.291754094679277 -38.835378799978571 0 0 0 0 -60.332522508805596 110.00094874646675 0 110.00094874646675 -117.0739641394739 0 0 0 0 -115.37130033193353 85.126714810804515 0 85.126714810804515 -173.17019370933895 0 0 0 0 -128.45160448600745 17.029200772268268 0 17.029200772268268 -150.73458761405163 0 0 0 0 -108.27518437577965 92.774288373451782 0 92.774288373451782 -175.12231859828731 0 0 0 0 -95.485910316192985 64.211304421836985 0 64.211304421836985 -176.53013306026605 0 0 0 0 -61.177304297161754 116.0050647025837 0 116.0050647025837 -151.88650934695545 0 0 0 0 33.167158053977801 17.21841239401374 0 17.21841239401374 -137.07410740804426 0 0 0 0 -62.600164971122467 171.17290952646636 0 171.17290952646636 -279.15587986278751 0 0 0 0 0.99291711357273016 -0.90745697780142009 0 -0.90745697780142009 -4.6249600888005276 0 0 0 0 -40.38388685142354 121.61443196757159 0 121.61443196757159 -254.93404009685401 0 0 0 0 6.6821645458512648 98.624271765778758 0 98.624271765778758 -351.06161870931192 0 0 0 0 -88.028415886214134 179.12814585629394 0 179.12814585629394 -271.72062395121179 0 0 0 0 12.212837733799006 101.45343107390408 0 101.45343107390408 -396.32624450184358 0 0 0 0 -108.22801641419028 88.528351145168472 0 88.528351145168472 -217.24041388145133 0 0 0 0 -181.33730348453719 46.748560036612957 0 46.748560036612957 -238.92431432992817 0 0 0 0 -30.019400467289415 94.891199117230144 0 94.891199117230144 -287.82746682320794 0 0 0 0 -38.026191548816314 85.10069129336307 0 85.10069129336307 -289.60456236957396 0 0 0 0 -54.181888359622462 53.249105024629898 0 53.249105024629898 -342.27975470811134 0 0 0 0 -71.937122811255904 75.748080683636999 0 75.748080683636999 -325.41202098935264 0 0 0 0 -15.599642920352494 79.990780734864614 0 79.990780734864614 -314.11326191124499 0 0 0 0 -18.945997969400025 50.881310052751786 0 50.881310052751786 -356.02376451004329 0 0 0 0 -80.579836272034299 181.88873488939134 0 181.88873488939134 -312.44821260236404 0 0 0 0 17.943864926823835 83.172839969387951 0 83.172839969387951 -379.75569622101648 0 0 0 0 -30.707591553398743 89.057089775201348 0 89.057089775201348 -365.93001996218845 0 0 0 0 5.7887799940226614 59.889429092820137 0 59.889429092820137 -315.21790184895599 0 0 0 0 10.904548810040069 74.130775693162377 0 74.130775693162377 -352.39693984234509 0 0 0 0 6.918555884540865 79.825495240754719 0 79.825495240754719 -303.6473263265616 0 0 0 0 1.701282703119432 59.18762332145252 0 59.18762332145252 -296.14703348039438 0 0 0 0 21.833578351616779 65.832765222447733 0 65.832765222447733 -291.5386542007318 0 0 0 0 -7.0140831214048376 42.698020061908665 0 42.698020061908665 -304.44833416043912 0 0 0 0 33.431601354925988 44.045341570879145 0 44.045341570879145 -309.11177344531552 0 0 0 0 -5.8388544574048353 104.58448309914954 0 104.58448309914954 -342.45038971838221 0 0 0 0 18.577613661221221 160.4948554678939 0 160.4948554678939 -566.84136061529534 0 0 0 0 10.474958377299117 98.21744612557427 0 98.21744612557427 -384.22178616081544 0 0 0 0 24.512123921310376 64.956786785692884 0 64.956786785692884 -432.57396841808622 0 0 0 0 55.057735527026125 46.919901414087235 0 46.919901414087235 -379.92760949619878 0 0 0 0 107.99393833057366 46.996548386736322 0 46.996548386736322 -401.51325347055081 0 0 0 0 107.90457022533337 38.808168090884465 0 38.808168090884465 -769.38363528281798 0 0 0 0 92.194377094969241 197.71205482137361 0 197.71205482137361 -485.04317330199046 0 0 0 0 43.979993843287048 181.5706482110354 0 181.5706482110354 -452.28839566904526 0 0 0 0 55.125665971465423 131.25048714519266 0 131.25048714519266 -489.33815177636461 0 0 0 0 44.62885368530192 190.76392294739486 0 190.76392294739486 -398.37816122556796 0 0 0 0 26.181193819908685 137.76869873664987 0 137.76869873664987 -380.76528398471146 0 0 0 0 -68.559909041237916 235.06506492235872 0 235.06506492235872 -312.34593169781238 0 0 0 0 -16.065322121864028 103.16225656157746 0 103.16225656157746 -158.3297195564719 0 0 0 0 -82.300078849279089 102.10962393379407 0 102.10962393379407 -76.910820893450364 0 0 0 0 -64.01453762530582 98.701077369064933 0 98.701077369064933 -156.74777489980625 0 0 0 0 98.338880497351965 -84.024512060668485 0 -84.024512060668485 4.9942895457811574 0 0 0 0 103.11275321200083 27.70762837755251 0 27.70762837755251 -223.9548226078964 0 0 0 0 1.283596010803187 -0.76192705919825254 0 -0.76192705919825254 -4.5822023411715627 0 0 0 0 -201.70046885626607 359.3417399770359 0 359.3417399770359 -513.77112427724023 0 0 0 0 0.66089945752305113 -0.15108533142997249 0 -0.15108533142997249 -2.2796187488635375 0 0 0 0 273.8633895653511 64.270403719653586 0 64.270403719653586 -1522.7144604317073 0 0 0 0 -554.27566405006201 -33.654446513919311 0 -33.654446513919311 -2138.8797818213407 0 0 0 0 422.23376943000039 -97.063037888143299 0 -97.063037888143299 -2191.3287305155595 0 0 0 0 322.05978769036165 274.91465931595394 0 274.91465931595394 -604.84738487206414 0 0 0 0 -0.33621818548050664 2.4016036915437828 0 2.4016036915437828 -26.177243002517987 0 0 0 0 -110.98909629843911 83.223094136704276 0 83.223094136704276 -53.532880574010051 0 0 0 0 -107.69827458011332 46.046974420723018 0 46.046974420723018 -63.187487510338542 0 0 0 0 -7.236828443621107 -1248.2129552142039 0 -1248.2129552142039 -1572.8474198872741 0 0 0 0 0.53338857352524638 1.4665737081940957 0 1.4665737081940957 -21.63463059626261 0 0 0 0 464.41701844636646 -1779.0323702741457 0 -1779.0323702741457 -978.94214238028326 0 0 0 0 -649.65210249676784 1710.4986528646741 0 1710.4986528646741 -838.34764875476208 0 0 0 0 -270.26401168302345 274.54536139353013 0 274.54536139353013 128.03442639103696 0 0 0 0 -99.824681322771539 168.2443699642597 0 168.2443699642597 -585.81092853444125 0 0 0 0 19.691545257307553 674.05061610376345 0 674.05061610376345 -607.69640773885294 0 0 0 0 174.65792164918275 608.37942285612644 0 608.37942285612644 -1337.9308992491083 0 0 0 0 260.36678871138156 -198.18796640997425 0 -198.18796640997425 -1919.6617437804744 0 0 0 0 86.406518625050126 255.11999538624022 0 255.11999538624022 -1046.0941923620785 0 0 0 0 -151.82401105689223 428.14219923083579 0 428.14219923083579 -404.50475781948126 0 0 0 0 -58.175868018424808 144.510194741041 0 144.510194741041 -182.59138024714252 0 0 0 0 -46.634101170781832 183.36588795850116 0 183.36588795850116 -111.42903825282428 0 0 0 0 -62.691220491484273 55.400287134650171 0 55.400287134650171 9.5940578318818552 0 0 0 0 234.34367820703483 174.46220172936887 0 174.46220172936887 20.692550467533692 0 0 0 0 29.016336087354375 -20.072238399016214 0 -20.072238399016214 73.414670638141615 0 0 0 0 361.32673392055585 -54.521817719598857 0 -54.521817719598857 -63.291585716729514 0 0 0 0 0.67551767724833844 8.6669029101341533 0 8.6669029101341533 -41.903635644354679 0 0 0 0 2067.3808953672319 717.36713744919246 0 717.36713744919246 -1034.2715166897287 0 0 0 0 591.75877797204976 134.88687973769765 0 134.88687973769765 -110.62063412300813 0 0 0 0 513.38880151588637 70.38293451279651 0 70.38293451279651 -80.81468287658663 0 0 0 0 -324.05932819028749 627.39322934402207 0 627.39322934402207 325.91067292288312 0 0 0 0 -438.43999339319453 -22.646414067256956 0 -22.646414067256956 394.10645936116975 0 0 0 0 -703.2659045321617 405.06181883735661 0 405.06181883735661 -208.84763238043342 0 0 0 0 -1009.9531658971218 -640.56550851574229 0 -640.56550851574229 -334.89905146598176 0 0 0 0 -966.82452901547367 853.27659228768402 0 853.27659228768402 -544.88629245545644 0 0 0 0 -451.5084596932229 310.9318595074451 0 310.9318595074451 9.3300589225423209 0 0 0 0 -290.38312661984537 333.73782662575792 0 333.73782662575792 -31.731683675768409 0 0 0 0 351.75565467975775 519.68821722491089 0 519.68821722491089 -12.106431243160614 0 0 0 0 -1.3340384509323657 10.315497410241667 0 10.315497410241667 -32.666115861616902 0 0 0 0 570.25899217217602 39.57101052289147 0 39.57101052289147 -858.99553639861188 0 0 0 0 128.97661533816427 -75.152371871201467 0 -75.152371871201467 7.8595764908413912 0 0 0 0 396.57483003743255 -195.79532896640694 0 -195.79532896640694 -469.58165953030039 0 0 0 0 -1.232835186951486 4.7955752382502741 0 4.7955752382502741 -11.857232568867001 0 0 0 0 140.64494844963292 -38.368547758364343 0 -38.368547758364343 -384.02840890534753 0 0 0 0 123.71315086493632 129.12128418316343 0 129.12128418316343 33.313517478634367 0 0 0 0 146.07529484436122 44.85102635219414 0 44.85102635219414 -138.83826613682868 0 0 0 0 -6.0091977587283054 23.079090181713127 0 23.079090181713127 -139.74390757321635 0 0 0 0 7.4181243839448143 -22.353965685259027 0 -22.353965685259027 -44.317666325238179 0 0 0 0 0.92529183878468757 -11.340493693874578 0 -11.340493693874578 -145.01999067184283 0 0 0 0 17.656342538732133 -38.953180135324487 0 -38.953180135324487 -248.40074490016104 0 0 0 0 -16.247426546004135 189.93291564829542 0 189.93291564829542 -546.62262379542631 0 0 0 0 74.424187344645361 -8.71931462287057 0 -8.71931462287057 -444.08835763710431 0 0 0 0 5.7186176422453165 2.0997744299384431 0 2.0997744299384431 -1.2256472518769623 0 0 0 0 83.526773478886184 -29.586564801902739 0 -29.586564801902739 -12.888364370931413 0 0 0 0 0.047605389503697637 -1.5052638980556443 0 -1.5052638980556443 -2.745955367145049 0 0 0 0 -12.346770538068085 120.17383832155519 0 120.17383832155519 -421.55425227510636 0 0 0 0 95.451951663588261 -12.844297838786588 0 -12.844297838786588 -456.30369303830139 0 0 0 0 1.9999637332501123 0.81665216057148626 0 0.81665216057148626 -0.014708547303427633 0 0 0 0 -24.254696914908891 191.63985187181788 0 191.63985187181788 88.952914958905239 0 0 0 0 -26.733994439859089 64.843172304621476 0 64.843172304621476 -394.73858318169567 0 0 0 0 230.18804710375935 202.91731939703629 0 202.91731939703629 -516.93797821061889 0 0 0 0 233.43614637756309 215.21690047755806 0 215.21690047755806 -739.91531045036845 0 0 0 0 -138.11589790340804 803.64915136822765 0 803.64915136822765 -1278.1260694254906 0 0 0 0 155.18017396080177 249.10480801831409 0 249.10480801831409 -535.31081161785278 0 0 0 0 -24.715605000994401 404.00136681620961 0 404.00136681620961 -552.79390412066073 0 0 0 0 -157.96434545135889 260.96293445697756 0 260.96293445697756 49.374840399160831 0 0 0 0 -374.14797943615395 126.96707402885477 0 126.96707402885477 53.913497314717461 0 0 0 0 -376.88535178376151 149.46447685283886 0 149.46447685283886 -89.180901519610416 0 0 0 0 -457.21272921126274 137.83227635852381 0 137.83227635852381 74.258943878249738 0 0 0 0 -0.59403243230513514 0.9934608411327801 0 0.9934608411327801 1.6405511961669248 0 0 0 0 -446.79930626393161 -63.712519839138167 0 -63.712519839138167 105.54148155391704 0 0 0 0 -194.43335828891304 177.48415624260042 0 177.48415624260042 105.29396664953492 0 0 0 0 45.725624806007545 -166.25087221598824 0 -166.25087221598824 -71.870330009215195 0 0 0 0 -134.20195200143189 -182.26351479487721 0 -182.26351479487721 -262.61709224566221 0 0 0 0 -114.97711449497001 178.71774639779369 0 178.71774639779369 -323.3709121185085 0 0 0 0 -1445.4164413835897 407.44878590058579 0 407.44878590058579 -44.175362686237349 0 0 0 0 -408.95991252723252 -298.58369587283744 0 -298.58369587283744 -996.43115434664242 0 0 0 0 45.666754664625842 105.12637005330635 0 105.12637005330635 -255.8550363855411 0 0 0 0 -46.536828393477208 134.30921284623662 0 134.30921284623662 -197.47385339875109 0 0 0 0 48.229078306771044 112.16659167964099 0 112.16659167964099 -344.43108824088995 0 0 0 0 17.067171515625887 86.672635785205784 0 86.672635785205784 -171.82200455116708 0 0 0 0 43.756235097300305 38.995653402449989 0 38.995653402449989 -151.23690468025643 0 0 0 0 37.832100584568707 91.173577200589648 0 91.173577200589648 -250.15711626034226 0 0 0 0 -31.123021561762471 98.432216371804998 0 98.432216371804998 -158.29514289132635 0 0 0 0 -31.752263609551846 82.209964040545628 0 82.209964040545628 -154.45151675344414 0 0 0 0 -37.381279524206548 54.128533974631409 0 54.128533974631409 -165.37553901021693 0 0 0 0 -30.722788614775482 41.379094570283655 0 41.379094570283655 -243.93469934224322 0 0 0 0 -12.058415910614713 21.3172861096009 0 21.3172861096009 -241.81769912972516 0 0 0 0 -22.796347410438102 68.19549291813064 0 68.19549291813064 -339.53576441557516 0 0 0 0 30.541916608847998 55.882294020360732 0 55.882294020360732 -330.15748139111656 0 0 0 0 31.485472643968194 70.314629775431072 0 70.314629775431072 -366.33464034649296 0 0 0 0 -24.902371957893592 82.817771473785342 0 82.817771473785342 -341.2174079810643 0 0 0 0 -5.4248579973955202 48.154838389666565 0 48.154838389666565 -355.95147074937495 0 0 0 0 6.4085404082670721 76.376772789428287 0 76.376772789428287 -354.45270280570367 0 0 0 0 4.479803732116288 1.6768681285073779 0 1.6768681285073779 -1.3886220202082065 0 0 0 0 109.64254700472065 -6.4365642644997934 0 -6.4365642644997934 -361.67256668962273 0 0 0 0 97.555500672357084 65.635757198325337 0 65.635757198325337 -360.26390565352358 0 0 0 0 94.314247817935211 83.452885781209602 0 83.452885781209602 -423.64865235678008 0 0 0 0 94.304819310917082 119.94718301007242 0 119.94718301007242 -351.10422642309891 0 0 0 0 135.75984045414589 170.62600793584443 0 170.62600793584443 -268.7947876600374 0 0 0 0 224.93952326914768 56.715642090875917 0 56.715642090875917 -418.31603968516174 0 0 0 0 94.085322324791377 -112.36414125404008 0 -112.36414125404008 -232.7199136410818 0 0 0 0 229.77888600142433 50.592616218059447 0 50.592616218059447 -93.254539194715107 0 0 0 0 46.591014441364678 -17.727647515417175 0 -17.727647515417175 -114.30189313348819 0 0 0 0 171.20020416560601 -69.501672057827363 0 -69.501672057827363 -153.85803598861366 0 0 0 0 168.60753972208204 -49.53578594164469 0 -49.53578594164469 16.992332597727 0 0 0 0 -0.0098396844810864081 -0.053782723362976181 0 -0.053782723362976181 -0.45706667862323869 0 0 0 0 -108.11492776958585 215.74138909495559 0 215.74138909495559 -221.05799160823699 0 0 0 0 132.89042800779316 65.633766003638812 0 65.633766003638812 -1.8205784920974111 0 0 0 0 -6.6171444462597719 9.9443021810266146 0 9.9443021810266146 10.992732505550521 0 0 0 0 1.7265425126711023 0.63765124915678406 0 0.63765124915678406 -0.044611524643441314 0 0 0 0 1.3777634445278579 -1.3955893096518759 0 -1.3955893096518759 -3.2883246910698425 0 0 0 0 1.2066905433912325 -16.404738228357019 0 -16.404738228357019 -20.076611005275254 0 0 0 0 -29.282397919222831 52.944479031858378 0 52.944479031858378 -172.03686812590968 0 0 0 0 -7.2676419372301098 173.64637653926093 0 173.64637653926093 -247.86106660822134 0 0 0 0 -19.025335433322425 102.5915788420175 0 102.5915788420175 83.632907423452707 0 0 0 0 -10.767820488787038 98.258796148745205 0 98.258796148745205 -114.18155262195887 0 0 0 0 -100.12832569022339 63.511702012145633 0 63.511702012145633 -79.62487593485821 0 0 0 0 -43.144821785639579 50.787459911137375 0 50.787459911137375 -158.86088175817076 0 0 0 0 7.3234306256908894 3.0703018182630331 0 3.0703018182630331 -32.162504297013584 0 0 0 0 -56.509472867428485 10.054947899932813 0 10.054947899932813 35.46068527956777 0 0 0 0 -79.490882320783385 102.62069711673894 0 102.62069711673894 -15.406745355347084 0 0 0 0 1.6714584053762653 1.0174460725710235 0 1.0174460725710235 1.2915470096025032 0 0 0 0 5.1242360095443757 -61.234988575079015 0 -61.234988575079015 89.278070810369172 0 0 0 0 100.21379412136048 -8.5854727316159369 0 -8.5854727316159369 -7.1298230158890874 0 0 0 0 11.232050815857292 11.562269441093576 0 11.562269441093576 -5.7686092861267753 0 0 0 0 10.829134878647892 13.241730384725088 0 13.241730384725088 -12.40099144213309 0 0 0 0 2.4013548143883803 5.6933926454896131 0 5.6933926454896131 1.5547228552316881 0 0 0 0 -1.5872601751243565 -5.4643156578881644 0 -5.4643156578881644 34.720096713142794 0 0 0 0 -3.6306558588925384 8.4728340140133405 0 8.4728340140133405 -9.930587798929114 0 0 0 0 -2.204649298431832 41.572143346072608 0 41.572143346072608 16.935596792152978 0 0 0 0 80.577792382644475 63.410446796196084 0 63.410446796196084 12.660721243748412 0 0 0 0 41.303030779008623 22.590970049396674 0 22.590970049396674 -16.309566055704636 0 0 0 0 23.694933314148557 50.221787488752852 0 50.221787488752852 -70.216808984080672 0 0 0 0 -3.2255634049479696 6.362976830768055 0 6.362976830768055 -9.6314675463176762 0 0 0 0 -43.032420731642333 56.811234258978857 0 56.811234258978857 16.218737865674484 0 0 0 0 29.996937960965624 8.3624862922188186 0 8.3624862922188186 -117.52868621832886 0 0 0 0 -0.19336280540511963 0.52119147930543797 0 0.52119147930543797 0.49353837281638135 0 0 0 0 66.089897668017329 -45.166940321841594 0 -45.166940321841594 729.2739509492676 0 0 0 0 -161.67114624565721 25.040189471485601 0 25.040189471485601 -41.899173550958949 0 0 0 0 168.2135197100888 36.224093521823306 0 36.224093521823306 -271.08160266816503 0 0 0 0 111.79942629437573 172.96168554906035 0 172.96168554906035 43.086663940763174 0 0 0 0 183.39793024904793 160.01761967333459 0 160.01761967333459 -110.21909525046885 0 0 0 0 2.5892367102120701 1.1504688829099461 0 1.1504688829099461 0.8649868905956879 0 0 0 0 98.624772148899865 -454.99863300652942 0 -454.99863300652942 601.20856084342449 0 0 0 0 364.32175297170579 -448.39361279059949 0 -448.39361279059949 -561.55137322870723 0 0 0 0 -141.28095249943544 32.382388966042527 0 32.382388966042527 -55.695805463889712 0 0 0 0 -313.47063476291078 68.08075038682091 0 68.08075038682091 -58.417647615343412 0 0 0 0 -117.16345669933548 170.1228711628911 0 170.1228711628911 -188.44396616685935 0 0 0 0 -78.350603172302726 47.166021521745279 0 47.166021521745279 -191.85714461382759 0 0 0 0 -147.37155043653411 45.320389935099456 0 45.320389935099456 -65.042450051638298 0 0 0 0 -116.83221121180031 20.627040027023213 0 20.627040027023213 -64.628979490842596 0 0 0 0 -138.74387052523252 -7.9314922641415251 0 -7.9314922641415251 4.4274881662886401 0 0 0 0 -112.52813813501507 -7.2889028439979029 0 -7.2889028439979029 24.684318688556232 0 0 0 0 -29.505782437312519 31.086018337684891 0 31.086018337684891 -115.33065500809357 0 0 0 0 -96.063653368358246 66.249959714929332 0 66.249959714929332 -124.05249369743706 0 0 0 0 -11.473981405319137 4.5730246924513267 0 4.5730246924513267 -238.01423310510427 0 0 0 0 23.711347986159126 86.988381152847523 0 86.988381152847523 -272.38664762655264 0 0 0 0 9.6036938863371688 -51.232039036261767 0 -51.232039036261767 48.620509100997879 0 0 0 0 149.73544270738785 114.28450801908411 0 114.28450801908411 -151.2077454253963 0 0 0 0 -31.606480636858578 93.962621199818386 0 93.962621199818386 101.04140366787215 0 0 0 0 86.002444976152447 98.622114539607878 0 98.622114539607878 12.237119979452473 0 0 0 0 -1.9639125044286629 44.87147605905011 0 44.87147605905011 -4.6903582558393282 0 0 0 0 -42.829380321802091 76.66342866517607 0 76.66342866517607 25.66931333287539 0 0 0 0 -73.799809263551197 28.346421281568155 0 28.346421281568155 37.495909662364284 0 0 0 0 -89.522112702021332 45.038163341539075 0 45.038163341539075 22.377353017344831 0 0 0 0 -118.0447094915944 4.4599199075908018 0 4.4599199075908018 13.555881176685034 0 0 0 0 -71.632556529222711 38.939378811468487 0 38.939378811468487 -8.6917382898554933 0 0 0 0 -68.322464902650609 35.392641080498834 0 35.392641080498834 -8.0493300882303629 0 0 0 0 220.51750555438775 -10.724552053064144 0 -10.724552053064144 -20.211494310633043 0 0 0 0 145.61188791331915 -72.837986703810884 0 -72.837986703810884 -115.02153142642965 0 0 0 0 -0.056700403525057494 0.89942520563325346 0 0.89942520563325346 -6.579938658244501 0 0 0 0 -126.48248257161595 11.055738865917647 0 11.055738865917647 12.496033059607953 0 0 0 0 233.20338713661931 -36.782918956605272 0 -36.782918956605272 -65.71801638955003 0 0 0 0 0.30532163553128566 -5.0060330926176206 0 -5.0060330926176206 0.47016307386927636 0 0 0 0 127.55982674512779 -41.346558717639255 0 -41.346558717639255 155.97781701847271 0 0 0 0 607.07917870592064 -168.43746407390699 0 -168.43746407390699 48.309375190403443 0 0 0 0 -76.006611177836731 28.3493032259952 0 28.3493032259952 -14.50277222490331 0 0 0 0 294.8023567180544 -77.767430977930189 0 -77.767430977930189 -34.398547128973405 0 0 0 0 1.1922112351400813 1.1890024943972595 0 1.1890024943972595 -14.722439628941769 0 0 0 0 172.77304768980537 -73.49958341391158 0 -73.49958341391158 66.998655964666796 0 0 0 0 -57.559832040553374 30.143749336468318 0 30.143749336468318 -42.54250975157629 0 0 0 0 -36.569503738126514 56.288886122270924 0 56.288886122270924 -11.59840868421702 0 0 0 0 -28.387885380534499 46.942186365864472 0 46.942186365864472 -46.208908273837551 0 0 0 0 141.22467544422034 -132.59486713329125 0 -132.59486713329125 66.570734598954459 0 0 0 0 3.2599286731184591 -7.0997736901875861 0 -7.0997736901875861 -13.310822043041014 0 0 0 0 28.718925517435459 -73.78202364561011 0 -73.78202364561011 133.49506184904703 0 0 0 0 -27.085877573628864 54.134966394962703 0 54.134966394962703 -40.086816977591297 0 0 0 0 28.866042341122011 61.042964503617441 0 61.042964503617441 -75.726593795849453 0 0 0 0 -24.106333719480062 54.604692758076453 0 54.604692758076453 -40.01366377224349 0 0 0 0 -18.388576582526184 68.034870448940183 0 68.034870448940183 -15.806662675354346 0 0 0 0 12.145414467735691 15.349786958933691 0 15.349786958933691 -9.662215107728116 0 0 0 0 -116.52284426225287 43.214016869849729 0 43.214016869849729 15.324779957394639 0 0 0 0 9.5458703070262345 104.64704582511763 0 104.64704582511763 -71.035673628117365 0 0 0 0 -347.61926530037272 -89.973895526728029 0 -89.973895526728029 184.03192329961439 0 0 0 0 -156.72413281365698 190.19483219746508 0 190.19483219746508 -107.09002723139292 0 0 0 0 285.11793307672633 139.26045365385289 0 139.26045365385289 -457.992598920202 0 0 0 0 36.885965090969421 -38.015239805938791 0 -38.015239805938791 -8.3810223429131838 0 0 0 0 1.1891941080368902 -9.3534311592944697 0 -9.3534311592944697 -14.021638152076882 0 0 0 0 30.155707264361695 -28.759057924556373 0 -28.759057924556373 -4.5509996552532357 0 0 0 0 36.661969057213355 -43.593271543788433 0 -43.593271543788433 5.6736396521105235 0 0 0 0 32.833737498042865 -39.222782476891553 0 -39.222782476891553 0.93443141302213917 0 0 0 0 28.821889985047846 -34.772384789665978 0 -34.772384789665978 10.725222732600741 0 0 0 0 41.486776459668363 -39.957865648314964 0 -39.957865648314964 -1.4366547487061325 0 0 0 0 39.127927040059149 -36.293366357198465 0 -36.293366357198465 -3.8954817056246611 0 0 0 0 37.109604479929658 -35.883494462086446 0 -35.883494462086446 -0.90865155029860034 0 0 0 0 49.544924733793778 -46.645660855468122 0 -46.645660855468122 1.7356985072656244 0 0 0 0 124.39205260266863 -36.710712064053041 0 -36.710712064053041 -93.249903891550275 0 0 0 0 1.8559673525404428 -9.4795732471366829 0 -9.4795732471366829 -14.321795925374836 0 0 0 0 47.381004551478327 -63.897732246786745 0 -63.897732246786745 29.881914066223999 0 0 0 0 32.157658848502251 -47.00295001846689 0 -47.00295001846689 28.979610120996313 0 0 0 0 59.979115756204919 -58.40671669783751 0 -58.40671669783751 30.454140634106807 0 0 0 0 57.110685856685905 -50.402791212324246 0 -50.402791212324246 11.382622699520653 0 0 0 0 44.953836281001713 -45.311211430283038 0 -45.311211430283038 12.739414896009407 0 0 0 0 44.671014215788091 -10.415512005696655 0 -10.415512005696655 -38.397794969459483 0 0 0 0 70.584948754345533 -36.702477200538397 0 -36.702477200538397 -14.823362926211303 0 0 0 0 30.33391834895383 -11.044766542441494 0 -11.044766542441494 -21.433538352139294 0 0 0 0 53.039362004511531 -5.5883451155934836 0 -5.5883451155934836 -32.960866235088361 0 0 0 0 29.697421612389007 -11.274283133477184 0 -11.274283133477184 -24.439076676342665 0 0 0 0 9.7332512468829009 45.75141436160402 0 45.75141436160402 -31.892865407554382 0 0 0 0 83.478612398040241 19.903046407933289 0 19.903046407933289 -40.641199948284793 0 0 0 0 75.76503361048799 10.540195136888315 0 10.540195136888315 -29.055551374112838 0 0 0 0 125.78880215449317 -39.673819790420112 0 -39.673819790420112 -21.123309319391183 0 0 0 0 -27.734727626709173 -53.550902401854273 0 -53.550902401854273 -55.042609163064299 0 0 0 0 -82.425571278819007 58.852659038188904 0 58.852659038188904 -36.461536846901254 0 0 0 0 0.32798550403158444 0.51808660599749423 0 0.51808660599749423 0.70053732188139151 0 0 0 0 98.525415314107704 -29.613050523064885 0 -29.613050523064885 -23.022186761285411 0 0 0 0 41.170960100221237 18.034184021756118 0 18.034184021756118 -39.409896954417491 0 0 0 0 61.033315858974674 20.802465009903244 0 20.802465009903244 -29.706020238099882 0 0 0 0 54.453898014973674 5.4351579754320483 0 5.4351579754320483 -33.535788834273262 0 0 0 0 47.09874583632336 5.3033091802581112 0 5.3033091802581112 -19.404379571544837 0 0 0 0 38.602008252346423 18.544643230289466 0 18.544643230289466 -10.302063570639802 0 0 0 0 30.580249068623743 11.24568250584889 0 11.24568250584889 -10.468276171006437 0 0 0 0 -0.13841303942281158 4.0112127065420351 0 4.0112127065420351 -1.0789746376116582 0 0 0 0 -4.9489577932686615 7.0099185230699455 0 7.0099185230699455 -5.3087792057061094 0 0 0 0 10.335488973042629 17.175728286518279 0 17.175728286518279 -11.076304011759021 0 0 0 0 9.2616901128576501 16.290124744735294 0 16.290124744735294 -5.4291659723313614 0 0 0 0 -2.2533998899145296 2.0466143003454498 0 2.0466143003454498 -2.3300976809065865 0 0 0 0 -161.20709764820305 81.163272473401591 0 81.163272473401591 -1.2064376200669358 0 0 0 0 37.355198085149823 1.2532379409503847 0 1.2532379409503847 -61.753972958154463 0 0 0 0 -12.651863404823416 -9.3734506127630084 0 -9.3734506127630084 22.962411754931964 0 0 0 0 -20.638395479098108 55.037858078666432 0 55.037858078666432 -26.007616577746376 0 0 0 0 30.529632527548529 -39.382150487082981 0 -39.382150487082981 -210.81226402597531 0 0 0 0 2.4089178221274778 80.341009736614978 0 80.341009736614978 -217.33692309648904 0 0 0 0 29.5533646875665 -36.176492777033218 0 -36.176492777033218 -227.1614485277878 0 0 0 0 49.479242273146156 47.478230776737291 0 47.478230776737291 -213.20178666635786 0 0 0 0 22.370581272050913 41.449258690604211 0 41.449258690604211 -23.214793714127154 0 0 0 0 1.4275163740285279 -20.479384103946359 0 -20.479384103946359 -7.4697480683498725 0 0 0 0 21.14549832246621 -41.165750399355602 0 -41.165750399355602 5.8902036289673561 0 0 0 0 17.130254805522782 0.40112009323092934 0 0.40112009323092934 -12.240276763997826 0 0 0 0 14.185216837999178 184.43430008462474 0 184.43430008462474 -343.66634966224956 0 0 0 0 -1.0565650561638407 -0.60899875883800725 0 -0.60899875883800725 -0.6067014861955542 0 0 0 0 67.38200910759133 -9.1622647337703711 0 -9.1622647337703711 -159.64757524783454 0 0 0 0 13.087060421210481 -28.939269887371665 0 -28.939269887371665 -70.802076005804338 0 0 0 0 -5.9261165140469529 39.986737560142501 0 39.986737560142501 -222.21163387481829 0 0 0 0 19.419059090047085 -11.617950658942391 0 -11.617950658942391 -3.2621142367797802 0 0 0 0 29.594198000180768 48.785133742585458 0 48.785133742585458 -220.11740353083042 0 0 0 0 -0.79073564301248567 -2.7379914113621862 0 -2.7379914113621862 -3.2061964355127195 0 0 0 0 1.2075474244016693 -0.73983791780730712 0 -0.73983791780730712 -1.2762999639490786 0 0 0 0 -37.877119129949278 91.581280517916184 0 91.581280517916184 -76.943751630002225 0 0 0 0 21.390457429211892 -1.2401643706543837 0 -1.2401643706543837 -169.3809741394989 0 0 0 0 -35.555839253367594 11.625482252784423 0 11.625482252784423 -122.90085540853033 0 0 0 0 -23.794506482157885 -17.551672289566341 0 -17.551672289566341 -122.52993617849279 0 0 0 0 19.368516412041572 0.98151533811051195 0 0.98151533811051195 -87.249021086614448 0 0 0 0 28.26054145172111 6.065226354193328 0 6.065226354193328 -107.29920056941592 0 0 0 0 23.32405146244264 10.010068513485976 0 10.010068513485976 -109.90792154298106 0 0 0 0 5.1941016046384902 11.916539311809629 0 11.916539311809629 -108.42448707009135 0 0 0 0 15.27874251596586 -16.322968154860064 0 -16.322968154860064 -122.39882646573551 0 0 0 0 15.704934377353311 -5.9028487553514424 0 -5.9028487553514424 -87.387801104818209 0 0 0 0 4.5307576917002734 -11.872724367414776 0 -11.872724367414776 -88.431898235194012 0 0 0 0 -7.5237271828391385 -12.631272567828091 0 -12.631272567828091 -60.123393557809322 0 0 0 0 6.6544050830198103 6.9916305524202471 0 6.9916305524202471 -130.26585841987253 0 0 0 0 13.432845847300996 -26.861268285199912 0 -26.861268285199912 -125.44154361881237 0 0 0 0 8.5623706880778627 -15.377952626588467 0 -15.377952626588467 -82.002568385916675 0 0 0 0 15.231392450612475 -16.098638367238891 0 -16.098638367238891 -82.152022468841778 0 0 0 0 8.7526170904811806 -14.483871119648938 0 -14.483871119648938 -46.035718886534596 0 0 0 0 36.974464436438211 15.878149698162815 0 15.878149698162815 -29.462632503995337 0 0 0 0 5.4553704375966845 -20.589639033892126 0 -20.589639033892126 -59.696969196305872 0 0 0 0 -6.891767829125456 -12.744130494940691 0 -12.744130494940691 -60.164790529695892 0 0 0 0 8.3067267725527927 -6.5874975941542289 0 -6.5874975941542289 -50.400882732450555 0 0 0 0 2.9230623196290253 -21.991555727114246 0 -21.991555727114246 -52.239307220868795 0 0 0 0 8.9952065438237696 -14.953221684511846 0 -14.953221684511846 -46.452923634140461 0 0 0 0 -10.043614253476335 -21.319801960597943 0 -21.319801960597943 -44.3518877482893 0 0 0 0 10.997886674428628 -17.567651308993845 0 -17.567651308993845 -43.142599446553504 0 0 0 0 30.576183994778148 6.525172636680054 0 6.525172636680054 -32.702769573767 0 0 0 0 15.177894487917001 -13.252410873197732 0 -13.252410873197732 -43.972089158050949 0 0 0 0 44.111803362924547 2.1057175347650627 0 2.1057175347650627 -34.427119365283033 0 0 0 0 -26.290538620789448 -21.044857678683002 0 -21.044857678683002 -54.829880783195222 0 0 0 0 -36.646928564148766 -28.8022876396426 0 -28.8022876396426 -44.721296850280851 0 0 0 0 -29.792795659852345 -21.312338166308109 0 -21.312338166308109 -35.385795971910738 0 0 0 0 -44.808927010059051 -14.227731047322322 0 -14.227731047322322 -38.584174083291146 0 0 0 0 -26.457697188006932 -19.422023667396388 0 -19.422023667396388 -43.425900286087654 0 0 0 0 -17.195031612895946 -27.525554728435964 0 -27.525554728435964 -44.54078900852619 0 0 0 0 -25.832287538776654 -25.121273156659299 0 -25.121273156659299 -41.512869653288817 0 0 0 0 -29.442897298909884 -20.59619550954767 0 -20.59619550954767 -36.859830675766716 0 0 0 0 -13.440783606269179 -17.878996216646556 0 -17.878996216646556 -46.871194526405816 0 0 0 0 -24.836323305175029 -9.5569458922791455 0 -9.5569458922791455 -53.525317624449599 0 0 0 0 -13.723646103662759 -18.11399526650348 0 -18.11399526650348 -46.942247983076413 0 0 0 0 -24.720382195688217 -12.456403470688201 0 -12.456403470688201 -41.955925409609335 0 0 0 0 -33.628234002852423 -16.801416874486677 0 -16.801416874486677 -32.956842537878401 0 0 0 0 -33.394129368550239 -16.060072206135374 0 -16.060072206135374 -40.318411163221754 0 0 0 0 -26.957211503165126 -7.769749214928197 0 -7.769749214928197 -27.035173633910745 0 0 0 0 -23.006213488296453 -13.170600624815961 0 -13.170600624815961 -40.667404920914123 0 0 0 0 -31.339411292386103 0.11337272938635579 0 0.11337272938635579 -56.292168736355961 0 0 0 0 -35.526999024546967 -2.5546989640861284 0 -2.5546989640861284 -34.584480855392371 0 0 0 0 -24.647810286669483 0.72580109847513086 0 0.72580109847513086 -57.222353684849622 0 0 0 0 -9.8264779992778131 -8.5402320707130457 0 -8.5402320707130457 -64.659554046298581 0 0 0 0 -28.196685556335069 9.3483852151111932 0 9.3483852151111932 -69.226054761834348 0 0 0 0 -80.255718015732782 28.103938667705734 0 28.103938667705734 -69.727021034164864 0 0 0 0 6.9874583131431791 37.885508598766592 0 37.885508598766592 -131.8682947024663 0 0 0 0 -21.302763921061342 0.11992345851058417 0 0.11992345851058417 -53.220250826027041 0 0 0 0 -35.524969309036351 -24.561200704928979 0 -24.561200704928979 -90.524598342217359 0 0 0 0 -29.155353355389707 74.488685171830184 0 74.488685171830184 -169.41034385377498 0 0 0 0 -13.843031662790963 31.21194494926749 0 31.21194494926749 -49.007495224146624 0 0 0 0 12.028157655625364 46.587243619058427 0 46.587243619058427 -68.910933471608587 0 0 0 0 39.857963423484762 28.609796917880885 0 28.609796917880885 -57.881233486175915 0 0 0 0 30.711052689779535 4.506194950425197 0 4.506194950425197 -87.427530187154844 0 0 0 0 45.710998093949456 28.174217332221815 0 28.174217332221815 -55.569766740323757 0 0 0 0 76.469186626785813 31.614796980251413 0 31.614796980251413 -58.442804219066602 0 0 0 0 45.989384722834075 25.434517996678551 0 25.434517996678551 -46.29225798520747 0 0 0 0 46.14828851364291 15.330449852803213 0 15.330449852803213 -64.864882413168743 0 0 0 0 51.713992988054997 20.957543564573825 0 20.957543564573825 -57.970783514021605 0 0 0 0 77.493065137192389 26.998965258928365 0 26.998965258928365 -65.451189483868802 0 0 0 0 39.825945312054955 28.344218499999215 0 28.344218499999215 -33.193100726864941 0 0 0 0 0.41688234270287516 -0.097651992267095977 0 -0.097651992267095977 0.57126173813114178 0 0 0 0 466.63677301312146 102.46518303451194 0 102.46518303451194 -50.822283878906092 0 0 0 0 -4.1052293719253914 13.922040498110228 0 13.922040498110228 -45.172213925269276 0 0 0 0 546.0575406290518 -166.17101584335251 0 -166.17101584335251 277.7633525148849 0 0 0 0 -29.965300840132841 -36.398695138661424 0 -36.398695138661424 28.663594774814555 0 0 0 0 -12.940630190943921 -46.478156953038706 0 -46.478156953038706 -9.3392189505830174 0 0 0 0 97.401072273009731 42.728478281119123 0 42.728478281119123 -60.707184876140673 0 0 0 0 88.884449610206502 11.673084307885802 0 11.673084307885802 -50.552123566503724 0 0 0 0 -0.0075912575048278086 -46.398319300067669 0 -46.398319300067669 -28.022572251138627 0 0 0 0 76.302882881773968 50.636880722960434 0 50.636880722960434 -42.606903562045773 0 0 0 0 52.964408762075891 41.394211807127704 0 41.394211807127704 -17.075088817859069 0 0 0 0 346.39258229860934 620.31860828747085 0 620.31860828747085 -398.72654757611235 0 0 0 0 48.819313078605774 20.835156172575807 0 20.835156172575807 -18.608295718749105 0 0 0 0 64.396345247872887 19.789176973137728 0 19.789176973137728 -32.206223127475823 0 0 0 0 47.703457342672664 24.753605938599321 0 24.753605938599321 -31.782503795882803 0 0 0 0 26.846686421515187 13.311206265272631 0 13.311206265272631 -27.70180457625338 0 0 0 0 1.8607770949784026 1.7872965203623608 0 1.7872965203623608 -31.537346827748479 0 0 0 0 24.944521055525911 16.006339203580865 0 16.006339203580865 -27.809086302662763 0 0 0 0 0.87160574053450546 3.7033885643668327 0 3.7033885643668327 -32.566068432643078 0 0 0 0 6.43153296250469 5.20276217647762 0 5.20276217647762 -41.775245386143069 0 0 0 0 6.523093407311535 1.4841705008184363 0 1.4841705008184363 -55.292384168321405 0 0 0 0 30.456936720380327 16.364364212939108 0 16.364364212939108 -39.561845795019508 0 0 0 0 58.806852346002415 29.604092928954742 0 29.604092928954742 -48.737693360664707 0 0 0 0 29.25590866006678 17.968221831770279 0 17.968221831770279 -28.368368994699267 0 0 0 0 -97.3595985889242 -33.110373612384137 0 -33.110373612384137 79.239058282689257 0 0 0 0 -45.330664433122365 -1.2790284740240168 0 -1.2790284740240168 -36.401046398554172 0 0 0 0 -68.191286670496993 14.614191774319806 0 14.614191774319806 75.069578507962433 0 0 0 0 -32.823783673197795 -32.386255491403062 0 -32.386255491403062 38.86214376299904 0 0 0 0 -4.5148553344879474 -61.909050867740007 0 -61.909050867740007 34.333362586458861 0 0 0 0 8.5004800038041139 -51.769796770069661 0 -51.769796770069661 18.204668847585708 0 0 0 0 -10.017206267430083 -45.609623149477557 0 -45.609623149477557 30.956365052956244 0 0 0 0 -3.5878265433166234 -30.432541249640053 0 -30.432541249640053 -20.888521693108487 0 0 0 0 -5.8325555807205092 -41.07459231591929 0 -41.07459231591929 -25.949567414798366 0 0 0 0 -2.5463477097437135 -30.027810216524813 0 -30.027810216524813 -28.711094253085321 0 0 0 0 -6.8069378062555188 -28.922791587745451 0 -28.922791587745451 -2.644613927564933 0 0 0 0 4.8401661624011467 -38.990999645233387 0 -38.990999645233387 -19.517869709605293 0 0 0 0 3.7890305419532524 -29.809828376612131 0 -29.809828376612131 -23.898835773332394 0 0 0 0 -2.6978987596667139 -38.427299669107015 0 -38.427299669107015 -7.6160155406687409 0 0 0 0 5.8593654658652667 -31.170496603390347 0 -31.170496603390347 -6.2311616727320143 0 0 0 0 -12.369988208582072 -32.428025657547551 0 -32.428025657547551 26.230237087482237 0 0 0 0 39.065270037794107 -8.9608262004840071 0 -8.9608262004840071 34.987941762577975 0 0 0 0 -24.862749567526862 -5.2415759816817626 0 -5.2415759816817626 75.624686282986659 0 0 0 0 17.156644974413211 8.0728214785085584 0 8.0728214785085584 78.555200885446538 0 0 0 0 207.77183794673329 35.551900480408221 0 35.551900480408221 59.125886179370355 0 0 0 0 -26.88797788087868 -147.79114952976488 0 -147.79114952976488 66.782288299909851 0 0 0 0 276.67382474240367 -194.0780951470806 0 -194.0780951470806 52.68139536507806 0 0 0 0 21.547403720864168 -61.650752161107448 0 -61.650752161107448 38.733626580593409 0 0 0 0 162.69668959725277 -59.618119077240408 0 -59.618119077240408 38.127784951248032 0 0 0 0 -76.135349703379688 -70.962341562042639 0 -70.962341562042639 103.5322305495647 0 0 0 0 -65.649946299621661 -107.12025367332171 0 -107.12025367332171 109.38631610657467 0 0 0 0 -177.12766715294856 -124.0128479095365 0 -124.0128479095365 184.57406635842926 0 0 0 0 -259.38445580675943 -21.475572010225733 0 -21.475572010225733 124.00755722136091 0 0 0 0 -348.73246137561364 -81.106537644094715 0 -81.106537644094715 173.88785234088755 0 0 0 0 -219.94216196105117 -346.5858031333737 0 -346.5858031333737 114.50794153694733 0 0 0 0 606.60795766140654 -80.514831249640338 0 -80.514831249640338 -121.06461542711986 0 0 0 0 660.20591760048228 -372.89637560910342 0 -372.89637560910342 866.6947303241177 0 0 0 0 0.49715197296847968 1.0672352760545465 0 1.0672352760545465 -1.7472669302831321 0 0 0 0 448.12782397691262 -538.72974336736843 0 -538.72974336736843 24.147938653812162 0 0 0 0 130.37789065160246 122.73325901927637 0 122.73325901927637 -20.649132460759574 0 0 0 0 -4.1346504064947567 11.714382226245135 0 11.714382226245135 -29.002106157375167 0 0 0 0 -70.856409277776038 932.59965890166495 0 932.59965890166495 -1235.468451473007 0 0 0 0 97.895044166012212 15.981396678915189 0 15.981396678915189 -24.055744933568349 0 0 0 0 -1236.5052537374631 60.502770986176984 0 60.502770986176984 130.41845480291556 0 0 0 0 20.408265101192228 838.62760225374041 0 838.62760225374041 -370.24530927662454 0 0 0 0 -374.43423691635689 -405.77064339817298 0 -405.77064339817298 452.85975975280599 0 0 0 0 18.596640069923524 949.20131657726415 0 949.20131657726415 -1833.2470989799367 0 0 0 0 -373.16272674995571 -481.87456112823702 0 -481.87456112823702 -902.06452218209597 0 0 0 0 -7.8701809434987808 -3.9605946184474305 0 -3.9605946184474305 -26.793619032720017 0 0 0 0 -11.346960763788957 9.7804903708311031 0 9.7804903708311031 -11.088527551781226 0 0 0 0 -7.2790787215453747 6.5773618537223228 0 6.5773618537223228 -19.198273248246551 0 0 0 0 -20.493444871470274 -12.843689968608487 0 -12.843689968608487 -30.158845563171781 0 0 0 0 1.2573620503535494 2.178100909780369 0 2.178100909780369 -25.887261279924132 0 0 0 0 22.971340577783849 20.401977807994626 0 20.401977807994626 -19.947045171000354 0 0 0 0 22.465474256121524 21.134179964119539 0 21.134179964119539 -19.517521074550132 0 0 0 0 74.442231348145469 47.401367957962975 0 47.401367957962975 -25.541597118262871 0 0 0 0 49.597152466618354 32.170367260792773 0 32.170367260792773 -24.70826648216098 0 0 0 0 -4.1600448457958876 14.212591237638271 0 14.212591237638271 -40.113217773754862 0 0 0 0 39.696478907997516 46.76449594076621 0 46.76449594076621 9.6274562419930589 0 0 0 0 11.269510534316396 17.351510478056298 0 17.351510478056298 -18.925894801261165 0 0 0 0 7.2023949778777023 19.990344897205432 0 19.990344897205432 1.5658657486546872 0 0 0 0 45.041224827645237 36.61917546045197 0 36.61917546045197 -16.690653230034513 0 0 0 0 -26.455928201310599 3.1373617884728446 0 3.1373617884728446 -8.9711444270906213 0 0 0 0 -1.0659163286181865 11.991384214716163 0 11.991384214716163 1.8967754694558607 0 0 0 0 42.010687314679672 15.570718084465625 0 15.570718084465625 18.192971747451338 0 0 0 0 35.665688734192372 31.306272668136444 0 31.306272668136444 -12.180609225921216 0 0 0 0 -31.338973353171241 23.187304083590789 0 23.187304083590789 -2.4207400166469597 0 0 0 0 52.105637131096955 53.831314742851646 0 53.831314742851646 -17.719252897306433 0 0 0 0 -36.775999259782111 -8.4879737699684483 0 -8.4879737699684483 -22.817596199523905 0 0 0 0 3.7382524638824179 10.147293631677712 0 10.147293631677712 -29.255845044634043 0 0 0 0 -48.764436396906603 -11.93803152417513 0 -11.93803152417513 -38.215091694936746 0 0 0 0 -17.672810052828027 -12.144846455495554 0 -12.144846455495554 -40.879715599585325 0 0 0 0 -32.506087211317208 -3.5256570936962817 0 -3.5256570936962817 -20.191965124166018 0 0 0 0 -37.176554057070462 -31.687178784973185 0 -31.687178784973185 -57.749508822826101 0 0 0 0 -22.522284910827693 -12.92392793450108 0 -12.92392793450108 -182.469252714307 0 0 0 0 -41.601099371265263 -9.3984066299908591 0 -9.3984066299908591 -92.039700738947431 0 0 0 0 -34.136439216694271 4.0973883300111993 0 4.0973883300111993 -164.51677636005479 0 0 0 0 -22.715966114554249 -7.5179358773657441 0 -7.5179358773657441 -83.646865685586818 0 0 0 0 -33.863182829099969 -50.302828066191069 0 -50.302828066191069 -105.43929178671078 0 0 0 0 -6.9511942083208851 -10.759543437956381 0 -10.759543437956381 -65.520157441937044 0 0 0 0 -46.606566281059713 -15.825635707007677 0 -15.825635707007677 -58.841952248681991 0 0 0 0 12.594813999285179 37.023630234527445 0 37.023630234527445 -30.427041558716155 0 0 0 0 -27.690248180980234 -69.895062397394213 0 -69.895062397394213 -202.10389040708105 0 0 0 0 -79.057386530831536 -47.486126067419718 0 -47.486126067419718 37.962969945492659 0 0 0 0 10.237371266221089 -41.133774836506745 0 -41.133774836506745 -297.26318152582826 0 0 0 0 16.403661205193202 -36.851686228569179 0 -36.851686228569179 -451.89954963713171 0 0 0 0 -15.014021900811713 -36.077454841988583 0 -36.077454841988583 -210.43030912779068 0 0 0 0 -1.2290271765887155 83.159999723565306 0 83.159999723565306 -365.90511584394881 0 0 0 0 53.62835870078743 96.298229282927423 0 96.298229282927423 -376.34747429689196 0 0 0 0 10.482532999094474 54.014342795886478 0 54.014342795886478 -298.60600248833134 0 0 0 0 -32.880874266737123 63.87209764160275 0 63.87209764160275 -228.16063108841627 0 0 0 0 -415.91713177597103 1156.1588938068362 0 1156.1588938068362 -605.25510249718354 0 0 0 0 19.463185339584015 1050.4884527922086 0 1050.4884527922086 -856.91412794156713 0 0 0 0 -1.4415903244577191 3.4109013113352518 0 3.4109013113352518 -0.76267220341698305 0 0 0 0 572.68821754287455 -937.26168382131618 0 -937.26168382131618 1235.1793985433469 0 0 0 0 -27.635141203307285 130.49648897042789 0 130.49648897042789 100.03993304833421 0 0 0 0 -103.21234128419019 -100.03737491725587 0 -100.03737491725587 107.40086639267037 0 0 0 0 -65.403424484273273 -145.43406815434992 0 -145.43406815434992 -217.7339672995422 0 0 0 0 -54.260411074707918 -220.44899383074608 0 -220.44899383074608 -521.70202466594128 0 0 0 0 83.173305709460692 -24.408663711255031 0 -24.408663711255031 -452.896966837543 0 0 0 0 83.403604580704268 64.383229721216594 0 64.383229721216594 -1118.0941158793394 0 0 0 0 -1169.6244283607521 1538.7555978338423 0 1538.7555978338423 -1888.8831741900358 0 0 0 0 -294.27717560290694 875.12132924313937 0 875.12132924313937 -77.631475993701315 0 0 0 0 -807.88618945137932 501.55993531688182 0 501.55993531688182 259.50713268062736 0 0 0 0 -2.6639045761925182 5.2020779720991221 0 5.2020779720991221 -10.620240412689562 0 0 0 0 -641.31106072876901 270.08306035783244 0 270.08306035783244 51.136007738827175 0 0 0 0 -321.92902046744348 722.78529628190154 0 722.78529628190154 -932.7362766647143 0 0 0 0 -133.7350670589899 382.54339905511051 0 382.54339905511051 -356.73879564780873 0 0 0 0 -122.27838692860519 407.17225157328289 0 407.17225157328289 -519.73268252253183 0 0 0 0 -356.6778705380184 362.59964026172293 0 362.59964026172293 -159.61290667674712 0 0 0 0 -166.82509543549668 335.75005486467171 0 335.75005486467171 -316.86777693708427 0 0 0 0 -168.57597780750382 350.3695450625936 0 350.3695450625936 -346.94092756531427 0 0 0 0 -301.76910512702943 -55.02000154194684 0 -55.02000154194684 163.98054034649158 0 0 0 0 -15.669888924371662 149.02531225741996 0 149.02531225741996 -306.87578769643369 0 0 0 0 -18.765896878821877 155.3767929528658 0 155.3767929528658 -319.53490630437523 0 0 0 0 14.060357482145264 182.165191564613 0 182.165191564613 -487.84822179081493 0 0 0 0 60.882536013663412 157.52342823137315 0 157.52342823137315 -759.30601213953196 0 0 0 0 -66.944028162095492 298.30627158380685 0 298.30627158380685 -392.9349566826877 0 0 0 0 -68.22099720584265 282.65151834428798 0 282.65151834428798 -381.59703312843703 0 0 0 0 -55.767003386064971 250.16101573075503 0 250.16101573075503 -349.54486673941938 0 0 0 0 -128.34596437318032 250.71673921601905 0 250.71673921601905 -235.73006359518877 0 0 0 0 -128.25033061633656 249.06605969089696 0 249.06605969089696 -323.32140556924423 0 0 0 0 -47.674650427856932 230.58749770482814 0 230.58749770482814 -364.96047680491756 0 0 0 0 -64.200823321624739 236.4732694497261 0 236.4732694497261 -334.81916375842229 0 0 0 0 -70.62896747220384 200.65733791605226 0 200.65733791605226 -361.1680937511228 0 0 0 0 -62.08362052877419 287.97466471559892 0 287.97466471559892 -372.99254826254582 0 0 0 0 -52.256297493920556 192.42340987090097 0 192.42340987090097 -249.90612950701689 0 0 0 0 -52.387397494630932 160.9147146223554 0 160.9147146223554 -265.13811380115476 0 0 0 0 -49.223851867238409 137.06633554055088 0 137.06633554055088 -209.23038296211234 0 0 0 0 -106.85470350970445 148.70268812824406 0 148.70268812824406 -168.72883281953182 0 0 0 0 -76.065350092319022 55.591586461874613 0 55.591586461874613 -24.413744011271774 0 0 0 0 -118.70843238626458 315.81586253244677 0 315.81586253244677 -202.81357072047649 0 0 0 0 -42.330152916896395 237.07958377446937 0 237.07958377446937 -562.83567739978025 0 0 0 0 -1.1483989394457907 1.7805354031364935 0 1.7805354031364935 -2.8748490559350408 0 0 0 0 -94.985103877130314 -153.94275010581532 0 -153.94275010581532 -777.88240485634367 0 0 0 0 -108.45520818896875 227.85677415994542 0 227.85677415994542 135.46853451198513 0 0 0 0 -96.924124021988973 -160.94692161384228 0 -160.94692161384228 -338.7353724354175 0 0 0 0 -23.965956110021125 -39.109481642867877 0 -39.109481642867877 -150.80475492979167 0 0 0 0 2.1174395963789721 -111.09938327291684 0 -111.09938327291684 -150.65413960672777 0 0 0 0 151.0770919925244 121.56713250930352 0 121.56713250930352 25.677309864811832 0 0 0 0 -2.2158941583337608 4.7130140573158279 0 4.7130140573158279 -7.2558730189171818 0 0 0 0 65.0102339498726 -19.047059195771908 0 -19.047059195771908 -7.0851921636844963 0 0 0 0 41.606739502815572 -7.0209637428740734 0 -7.0209637428740734 -67.449075750717384 0 0 0 0 54.267993583091084 12.681925981698441 0 12.681925981698441 -1.2443116559911687 0 0 0 0 53.751281463517444 25.294451764189944 0 25.294451764189944 -22.761441210292105 0 0 0 0 84.541954733211924 19.608888572058675 0 19.608888572058675 -29.261615935060036 0 0 0 0 10.789781332496432 -20.659481609500972 0 -20.659481609500972 -53.523643805467145 0 0 0 0 50.322386006754641 25.868216306142131 0 25.868216306142131 -25.567818061765138 0 0 0 0 43.620679357323297 -4.8570205089040428 0 -4.8570205089040428 -47.131435783543566 0 0 0 0 15.368335728860984 -1.7042265249201591 0 -1.7042265249201591 -34.946795858182668 0 0 0 0 -13.556086511191097 -9.7033332624769173 0 -9.7033332624769173 -42.202422698926966 0 0 0 0 -19.621722403553576 -22.335624659666792 0 -22.335624659666792 -68.48716231957286 0 0 0 0 -35.576346855856627 2.1876017016998048 0 2.1876017016998048 -83.746535824104285 0 0 0 0 -39.558271175008485 -30.575189412102191 0 -30.575189412102191 -60.010041313688816 0 0 0 0 -42.031022980247144 -5.9067293141233677 0 -5.9067293141233677 -90.473699536370987 0 0 0 0 -38.311526572749244 17.893673963539186 0 17.893673963539186 -169.4257307550688 0 0 0 0 -52.0849953675297 2.264428893033255 0 2.264428893033255 -78.299741165114028 0 0 0 0 -33.58794490537548 24.142019636658915 0 24.142019636658915 -123.51220995093172 0 0 0 0 -30.368921945408033 40.533209154221595 0 40.533209154221595 -150.61570163528086 0 0 0 0 -50.152203368219489 99.108452187737385 0 99.108452187737385 -229.93773835698721 0 0 0 0 -67.142127653661873 59.880655481453914 0 59.880655481453914 -86.07819391288831 0 0 0 0 -26.994725660420954 77.632650891668163 0 77.632650891668163 -61.573915451586799 0 0 0 0 -13.027490657901581 -11.26073905517751 0 -11.26073905517751 -41.878067694284255 0 0 0 0 -41.808355255694551 25.714692205898245 0 25.714692205898245 -65.879844288978234 0 0 0 0 
</DataArray>
<DataArray type="Float64" Name="cross_section_updated" format="ascii">
0.0097876236418194505 1 1 1 1 1 1 1 1 1 1 1 1 0.0088397458903402507 1 0.0098089485076593257 1 1 1 0.0096641143530696357 1 0.0095112144657172257 1 1 1 1 1 1 1 1 1 1 1 0.0095603134626949058 1 1 0.0099929201238119995 0.0087744927244425858 1 1 1 1 1 1 1 1 1 1 1 1 0.010111950451621495 1 1 1 1 1 1 1 1 1 1 1 1 0.010028594409319146 0.0099501762243456131 1 0.008827790463148355 1 0.0084957932256887764 0.010108547684484428 1 1 1 1 1 0.0074654292664613243 1 1 1 1 1 1 0.0097527993094547495 1 0.0097343775778826608 1 1 1 1 1 1 0.0098917178415217581 0.0080911604720944399 1 1 0.010000944316843039 1 0.0096665539107766534 1 1 1 0.0097143670343542259 1 0.0099877256598170476 1 1 1 1 1 1 0.0099441300040139062 1 1 0.0099703157226184811 1 1 1 1 1 1 1 1 1 1 1 1 1 1 1 0.010000358194222715 1 1 1 1 1 1 1 1 1 1 1 1 1 1 0.010086026336768649 1 1 1 1 1 1 0.010142065981288534 1 1 1 1 1 1 1 0.0096084156624831728 1 1 0.0095682151785779369 1 1 1 1 1 1 1 1 1 0.0098725491921319592 1 1 0.008890272586504518 1 1 0.0093672999382953467 1 1 1 1 1 1 1 1 0.0075253696598197826 0.0091308079888494237 1 0.0050736362483764195 1 1 0.010326285721846169 1 1 1 1 1 1 1 1 0.013100764168162015 1 1 1 0.0099984386543448042 1 1 1 1 1 1 1 0.0092494513369075458 1 0.010001219875119795 0.0089506528652118084 1 0.0096724030797800918 0.009364685103665003 1 1 0.009457931012525022 1 1 1 1 1 1 1 1 1 1 0.0081946170507175217 1 1 1 1 1 1 1 1 0.0093070643188442083 0.0099552396699575593 1 1 1 1 1 1 0.009380086604979675 1 1 0.0093563354469354196 1 1 1 0.0098881892669416896 1 1 1 1 1 1 1 1 1 1 1 1 1 1 1 1 1 1 1 1 1 0.0082715142344672882 1 1 1 1 1 1 1 1 1 1 1 1 1 1 1 1 1 1 0.0012813004136878305 1 1 1 1 0.0054084954044604644 1 1 1 1 1 1 1 1 1 1 1 1 1 1 0.0044666568428174845 1 1 1 1 1 1 1 1 1 1 1 1 1 1 1 1 1 1 1 1 1 1 1 1 1 1 1 1 1 1 1 1 1 1 0.012213572575065551 1 1 1 1 1 1 0.002820809222912439 1 1 1 1 1 1 1 1 1 1 1 1 1 1 1 0.0049848266903369503 1 1 1 1 0.0083147976847284706 1 1 0.010344790064440626 1 0.0050207202017208382 1 1 1 1 1 0.0084118653949493243 1 1 1 1 1 1 1 0.011639237092003195 1 1 0.0021079306085659347 1 1 1 0.011033090101810528 1 1 1 1 0.010497452312450752 1 1 1 1 1 1 1 1 1 1 1 1 1 1 1 1 1 1 1 1 1 1 1 1 1 1 1 1 1 1 1 1 1 1 1 1 1 1 1 1 1 1 1 1 1 1 1 1 1 1 1 0.0033549648801660913 1 1 1 1 0.0026042747361004932 1 1 1 1 1 1 1 1 1 1 1 1 1 1 1 1 1 1 1 1 1 1 1 1 1 0.008835860078409901 1 1 1 1 0.0095562585517605242 1 1 1 0.010129380522018252 1 1 1 1 1 1 1 1 1 1 1 1 0.0098950464846729209 1 1 1 1 1 1 1 1 1 0.0095165843236272619 1 1 1 1 1 1 1 1 1 1 1 0.0090862658973361737 1 1 0.0095696815737089137 1 1 1 1 1 1 1 1 1 1 1 1 0.0097922687955374014 1 1 0.0099968161962759455 1 1 1 0.0091357490096726779 1 1 1 1 0.009254553828813173 1 1 1 0.0096780477151974884 1 1 1 1 1 1 1 1 1 1 1 1 1 1 1 1 1 1 0.0074539491531641529 1 1 1 1 1 1 1 1 1 1 1 1 1 1 1 1 1 1 1 1 1 1 1 1 1 1 1 1 0.0069711581849426565 1 1 0.010007508635694716 1 1 1 0.0091473999217559308 1 1 1 1 1 1 1 1 1 1 1 1 1 1 1 1 1 1 0.0089747070629329524 1 1 1 1 1 1 1 1 1 1 1 1 1 1 1 1 1 0.0081698983577749591 1 1 1 1 1 1 0.0092978018871799732 1 1 1 1 1 1 1 1 1 1 1 1 1 1 1 1 1 1 1 1 1 1 1 1 1 1 1 1 1 1 1 1 1 1 1 1 1 1 1 1 1 1 1 1 1 1 1 1 1 1 1 1 1 1 1 1 1 1 1 1 1 1 1 1 1 1 1 1 1 1 1 1 1 1 0.0099960992376068383 1 1 1 1 1 0.0093383225019458317 1 1 0.0088937396736273981 1 1 1 1 1 1 1 1 1 1 1 1 0.0096976437116941105 1 1 1 1 1 1 0.01016784369042598 1 1 1 0.0078402337786475235 1 1 0.0086900466336436583 1 1 1 1 0.0085070655191927559 1 1 0.0091057353740082985 1 1 1 1 1 1 1 1 0.0079574524859986652 1 0.010283119898190311 1 1 1 0.0099937265610665037 0.010052915018415322 1 1 1 1 1 1 1 1 1 1 1 0.009562801669848851 1 1 1 0.010015323140600047 1 1 0.010140386867327591 1 1 1 1 1 1 1 1 1 0.0068804619460018264 1 1 1 1 1 1 1 1 1 1 1 1 0.0090743232174648331 1 0.0096920896399606063 1 1 1 1 1 1 1 1 1 1 1 1 1 1 1 1 1 1 1 0.0085478079559139775 1 1 0.0085213456402577822 1 1 1 1 1 1 0.010041645683060142 1 1 1 0.0084600316362556591 1 0.0099724947901543085 0.010460209591073202 1 1 1 1 1 1 0.0087102855555020869 0.0074619481757105931 0.010622146457161176 0.010710531070917188 1 0.006285257359978709 1 1 1 1 1 0.0062070596500229929 1 1 0.0096468243783540478 1 1 0.0098895899194759336 1 1 1 1 1 1 1 1 1 1 1 1 1 1 1 1 1 0.0057207303029804301 1 1 1 1 1 1 1 0.0097440915565850557 1 1 1 1 1 1 1 1 1 1 1 1 1 1 1 1 1 1 1 1 0.0062840319836640329 1 1 1 0.0093473967938376805 1 0.0089954704194783082 1 1 0.0091827386773404851 1 1 1 1 1 1 1 1 1 1 1 0.0098073098939875127 1 1 1 1 1 1 1 1 1 1 0.0096565190469856434 1 1 1 1 1 1 1 1 1 1 0.010143182779950346 1 1 0.0094231745168863439 1 1 1 1 1 1 1 1 1 1 1 1 1 1 1 1 1 1 1 0.0090609017917506647 0.0099877989109659702 1 0.0086468498816537186 1 1 0.0095333143373256476 0.0076286103709484014 0.0093946933269036682 1 0.0098574333291994339 1 1 1 1 1 0.0058994731080452955 1 1 1 1 1 1 1 1 1 1 1 1 1 1 1 1 1 1 1 1 1 1 0.0094528585857342438 1 1 0.010178890870668516 1 1 1 1 1 1 1 1 0.010546848013646849 1 1 1 0.0096884979218469364 1 1 1 1 1 0.0098962214327154002 1 1 1 0.0096460906272946983 1 1 1 0.010010485963662013 1 0.010018828937210168 0.010554804707388817 1 1 1 1 0.0092989958420475784 1 1 0.0096757843272742457 1 1 1 1 0.01023439410358686 0.0091347861193993313 1 1 0.0096216020307623943 0.0090509261967714402 1 1 1 1 0.0096532122078626728 1 1 1 1 1 1 1 1 1 1 1 1 1 1 1 1 1 1 1 0.0092446508904719428 1 0.0098113947335618443 1 1 1 1 1 1 1 1 0.01014599645038318 0.0095718815536441106 1 1 1 0.0092136627900606706 0.0088993995225654099 1 0.0097681962400706143 1 0.0099726852158924188 1 1 1 1 0.0099987263997045935 1 1 1 1 1 1 1 1 1 1 1 0.0081377697820902706 1 1 1 1 1 1 1 1 0.0089064361611571625 1 1 1 1 1 1 1 1 1 1 1 1 0.0099884274004089797 1 1 1 1 1 1 1 1 1 1 1 1 1 1 0.0096594437354415273 1 1 1 1 1 1 1 1 1 1 1 1 1 1 1 0.0089631961172809919 1 1 1 1 1 1 1 1 1 1 1 1 1 1 1 1 0.0091331856310525334 0.0074852090006753934 1 1 1 0.010549395958351065 1 1 0.0099900227343954345 1 1 1 1 0.010953872747711386 0.0092126657510048712 0.010090687076625041 1 1 1 1 1 1 1 1 1 0.0084174575215412092 1 1 1 1 0.010185773210737306 1 1 1 1 1 0.0097360596069430046 1 1 1 1 1 1 1 1 1 1 1 1 1 1 1 1 1 1 0.0099883784220779533 1 1 1 1 1 1 0.01000643055890376 0.010034457686211683 1 1 1 1 1 1 1 1 0.0091395369043763587 0.010101524398269454 0.0099118696089869913 1 1 1 1 1 1 1 1 1 1 1 1 1 1 1 1 1 1 1 1 0.0097780770900410437 1 1 1 1 1 1 0.0099651105093124994 1 1 1 1 1 0.0096883944664033859 1 1 1 1 1 1 1 1 1 1 1 1 1 1 1 1 0.009401851254628283 1 1 1 0.010136402822008851 1 1 1 1 1 1 1 1 0.0097490070829947192 1 1 1 0.0096973196979801939 1 1 1 1 1 1 1 1 1 1 1 0.0091682452730752952 1 1 1 0.0096231662893828708 1 1 1 1 1 1 1 1 1 1 1 1 1 1 1 0.0098754403955969901 1 0.0090962535070802462 1 1 1 1 1 1 0.0090053294052888713 1 1 1 1 1 1 1 1 0.0041189872372895814 1 0.010114505347993108 1 1 1 1 1 1 1 1 1 1 1 0.0095493042018253219 1 1 1 1 1 1 1 1 1 0.009829108190447397 1 1 1 1 0.009907684402938783 1 1 0.0095302477998840205 1 1 1 1 1 1 1 1 0.0097513299629180261 0.0099994283667256129 1 1 0.0098115543128949878 1 1 1 1 1 1 1 1 1 1 1 1 1 1 1 1 1 1 1 1 1 1 1 1 1 1 1 1 0.00847969464270713 1 1 1 1 0.0076108054632587725 1 1 1 1 1 1 1 1 0.009927851087818608 1 1 1 1 1 1 1 1 1 1 1 1 1 1 1 1 1 1 1 0.010081532815054721 1 1 1 0.01034940493820373 1 1 1 1 1 1 1 1 1 1 1 1 1 1 1 1 1 1 1 1 0.006080382885578127 1 1 1 1 0.0060975673502326275 1 1 1 1 1 1 1 0.0069048567760157881 1 1 1 0.0096649961075856734 1 1 1 0.0064935203324543445 1 1 1 1 1 1 1 1 0.0063926530326567435 1 1 1 1 1 1 1 1 1 0.0089551700216403737 1 1 0.0099745657358001599 0.0069054110789015452 0.0081712490593502749 1 0.010336097108038168 1 1 1 1 1 0.0099523203682801969 1 0.010634973758680808 0.0058668030994080481 1 0.0095555772555357618 1 1 1 1 1 1 1 1 0.0068353169820602171 1 1 1 1 0.010031886409954406 1 1 1 0.008656265898761081 0.010665451821264525 1 1 0.0099854950923470159 0.0064646517895532562 1 1 1 1 1 0.010129302470333187 1 0.008609778054793793 1 1 1 1 1 1 0.0097465682731432447 0.0081985694597378114 1 0.0062713161451637489 1 1 1 1 1 1 1 1 0.006911239849023549 1 1 1 1 0.010007792305894663 1 0.0079161151667426592 1 0.0085300608044991174 1 1 1 1 1 1 1 1 1 1 1 1 1 1 1 1 1 1 1 1 1 0.0089568011359039464 1 0.0057717961203300402 1 1 1 1 1 1 0.0083620271918049688 1 1 1 1 1 1 1 1 1 1 1 0.0042618579897172049 1 1 1 1 1 1 1 1 1 1 1 1 1 1 1 1 1 1 1 1 0.0079605178823226076 1 1 1 1 1 1 1 0.0094283038834726413 0.0069619650879645979 1 1 1 1 1 1 1 1 1 1 1 1 1 0.0091566408912621237 1 1 1 0.0092711194075571195 1 1 1 1 1 1 1 1 1 1 1 1 1 1 1 0.0057526860742315045 1 1 1 1 1 1 1 1 1 0.01002859321186407 1 0.010225123310624702 1 1 1 1 0.0090564016373530145 1 0.0068249323661817175 0.010051016546017788 1 0.010058706424758791 1 1 1 0.010035929693674275 1 1 1 1 1 1 1 1 1 1 1 1 1 0.0074740313376210066 1 1 1 1 0.009539610162241783 1 1 1 1 1 1 1 0.0098463971131278489 1 1 1 0.0084264858843448205 1 0.010026094336790048 1 1 0.0079738924686711486 1 1 1 1 1 1 1 1 1 0.0081240942003637986 1 1 1 1 1 1 1 1 1 1 1 1 1 1 1 0.0089308997549908224 1 1 1 0.010000027437895269 0.0095149426543914284 1 0.0095060527166886816 1 0.0095444000499087921 1 0.010010362837193221 1 1 1 1 1 1 1 0.0084726108067704996 1 1 1 1 1 1 1 1 1 1 1 1 1 1 1 1 1 1 1 1 1 1 1 1 1 1 1 1 1 1 1 1 1 1 1 1 1 1 1 1 1 1 1 1 1 1 1 1 1 1 1 1 1 1 1 1 0.0094493665074526119 1 1 1 1 1 1 1 0.008664948441457019 1 1 1 1 1 1 1 1 1 1 1 1 0.0083879842177229935 1 1 1 1 1 1 1 0.0087031902439086688 1 1 1 1 1 1 1 1 1 0.0092437898955957058 1 1 1 0.010088525372738114 1 1 1 1 1 1 1 1 1 1 1 1 1 1 1 1 1 1 1 1 1 1 1 1 1 1 1 0.0096922087884611877 1 1 1 1 1 0.0043686370106414182 1 1 1 0.0098537935034802241 1 1 0.009783687528415793 1 1 0.0098455777074300949 1 1 1 1 1 0.0095086546855890023 1 1 0.0091070915214522905 1 1 1 1 1 1 1 0.010597462733886074 1 0.0077437493146853891 1 1 0.0099501356642890323 1 1 1 1 1 1 0.0075961299697300394 1 1 1 1 1 1 0.0081362206804064356 1 1 1 1 1 1 1 1 1 1 1 1 0.0074640574295529588 1 1 1 0.0090245683510850414 1 1 1 1 1 1 1 1 1 1 1 1 1 0.0086620158405434251 1 1 1 1 0.0089406717252041301 1 1 1 1 1 1 1 1 0.0098238047796623124 1 1 1 1 1 1 1 1 1 1 1 1 1 1 1 1 1 1 1 1 1 1 1 1 1 1 1 1 0.009803334317389412 1 1 0.0092000436215870975 0.010118825528315032 1 1 1 0.011458361039207037 0.010019046615844161 1 1 1 1 1 1 1 1 1 1 1 0.0097186591241825229 1 1 1 1 1 1 1 1 1 1 1 1 1 1 1 1 1 1 1 0.0092123309005289131 1 1 0.0094563962106782133 1 1 1 1 1 1 1 1 1 1 1 0.0073652078209341309 1 1 0.0098587482217959051 1 1 1 0.007915522880919618 1 1 1 1 1 1 1 1 1 1 1 1 1 1 1 1 1 1 1 1 1 1 1 1 1 1 1 1 1 1 1 1 1 1 1 1 1 1 1 1 1 1 1 1 0.009600083356984682 1 1 1 0.0093124686693426204 1 1 1 1 0.0085810201677431266 1 1 0.0097387101906603133 1 1 0.010076451055240562 1 1 1 1 0.0087945266737289446 0.0095976479888823102 1 1 1 1 1 1 1 1 1 1 0.0093683205501423408 1 0.0092936028323703304 1 1 1 1 1 1 0.0086725351710745663 1 1 0.0095420696848364257 1 1 1 0.010701297226853833 1 1 0.010403762758152147 1 1 1 0.0097355635480441752 1 1 1 1 1 1 1 1 1 1 1 1 1 1 1 1 1 1 1 1 1 1 1 1 1 1 1 1 1 1 1 0.0078213911456416832 1 1 1 1 1 0.0095307879601900826 1 1 1 1 1 1 1 0.0093482535960748205 1 1 1 0.008324312627330438 1 1 1 1 1 1 1 1 1 1 0.009987832042511675 1 1 0.0099832504606159698 1 1 1 1 1 0.0076722678198736221 1 1 0.009327196837777588 1 0.0099218058145115404 1 1 1 1 1 1 1 1 1 1 1 1 1 1 1 1 1 1 1 1 1 1 1 1 1 1 1 0.0089504245671546082 1 0.008912601654662556 1 1 1 1 1 1 1 1 1 1 0.0094788005195790195 1 1 1 1 1 1 1 1 1 1 1 1 1 1 0.0092723716660204659 1 1 1 1 1 1 0.0081310044338640079 1 1 1 1 1 1 1 1 1 1 1 1 1 1 1 0.010092445900642252 1 1 1 1 1 1 0.0092169649259456476 1 1 1 1 1 1 1 1 1 1 0.0074362340178895205 1 1 1 0.0092841057566842439 1 1 1 1 0.0091815400491403309 1 1 1 1 0.009999686782503717 1 1 1 1 1 1 1 1 1 1 0.0096897653754073332 1 1 1 1 1 0.009124077001738987 1 1 1 1 1 1 1 1 1 1 1 1 0.010051758329753149 1 1 0.0086999213551171243 1 1 1 1 1 1 1 1 1 1 1 1 1 1 1 1 1 1 1 1 1 1 1 1 1 1 1 1 1 1 1 1 1 1 1 1 1 1 1 1 1 1 1 1 1 1 1 1 1 1 0.0099651626719828891 0.0091578219623944732 1 1 1 1 1 1 1 1 1 1 1 1 1 1 0.0094014817314709391 1 1 1 1 1 1 0.0094028718001729419 1 1 1 1 1 1 0.0096679454126385143 1 1 1 1 1 1 1 1 1 1 1 0.0084874668629420207 1 1 1 1 0.0095840599177991828 1 1 1 0.0096687911653261446 0.0099984147842146799 1 1 0.0088688893378908989 1 1 0.0097655915710412929 1 1 1 1 0.0091000102369269351 1 1 1 1 1 0.0098634159880127796 1 0.0091769078111050683 1 1 0.0087776218906485126 1 1 0.0084469100736282929 1 1 1 1 1 1 1 1 1 1 0.0098651343786436262 1 1 1 1 1 0.0092815268526896932 1 1 0.0099923678947963102 1 0.0093625590702785116 0.0092740346955967889 1 1 1 1 0.0095717851831061025 1 1 1 1 1 0.008947091557674763 0.009821111407144343 1 1 1 1 1 1 0.0091807364133925269 1 1 0.0083255976760243204 1 0.0095114766384940819 1 1 0.0095874859030783081 1 1 1 1 0.0099451233447219491 0.008636654949803358 1 1 1 1 1 1 1 1 1 1 1 1 1 1 1 1 1 1 1 1 1 1 1 1 1 1 1 1 1 1 1 1 0.0099247761881045213 0.0098488636170351966 1 0.0074239048371001846 1 1 1 1 1 1 0.0082629970739928893 1 1 1 1 1 0.0097647134217368602 1 1 1 1 1 1 1 1 0.0077664713863265364 1 1 1 0.0075622598725928452 1 1 1 1 1 1 1 1 1 1 0.008070663544189189 1 1 0.0084966956303928493 1 1 1 1 1 1 1 1 1 0.0098371556395877337 1 1 1 1 0.0095659966750074252 1 1 1 1 1 1 0.0076108809474616634 1 1 1 1 1 1 1 0.0085345103998132749 1 1 1 1 1 1 1 1 1 1 1 1 1 1 1 1 1 1 1 1 1 1 1 1 1 0.0090236149050388487 1 1 1 1 0.010317448951347287 1 0.010836637216011394 1 1 1 1 1 1 0.0099118608618003722 1 1 0.0052227637821011946 1 1 1 1 1 1 1 1 1 1 0.0096290332172331919 1 1 1 1 1 1 1 1 0.0094852582003246821 1 1 1 1 0.0097928857981318916 1 1 1 1 1 1 1 1 1 0.0096699871065842394 1 1 0.009413771325118038 1 1 1 1 1 0.0097437842185337988 0.0098434559608523674 1 1 1 1 1 1 1 1 1 1 1 1 1 0.0091700597618698653 1 0.0098263287556814398 0.0094713336098235564 1 1 1 1 1 1 1 1 1 1 1 1 1 0.010025611929686483 1 1 1 0.010111668594072223 0.010125523119025913 1 1 1 1 1 1 1 1 1 0.0086356435041132287 1 1 1 1 1 1 1 1 0.0082349099115998931 1 0.009850841218466834 1 0.010936341910311918 0.0078548863540579255 1 1 0.010379757702961269 0.0091406675183952815 1 1 1 1 1 1 1 1 1 1 0.008978347733839747 1 0.0088598060021753099 1 1 1 0.0089914196411983432 1 0.0096839376837689027 0.009412978114997592 0.009225236073818064 1 1 0.0090330534988156217 1 1 1 1 1 1 1 1 1 0.00980064039797603 1 1 1 1 1 1 1 1 1 1 1 1 1 1 1 0.0096923724021927907 1 1 1 1 0.0087147946521629396 0.0087663364062969297 0.0097501956721727269 1 1 1 1 0.0089468152017398959 1 1 1 1 1 1 0.0099023624149191681 1 1 1 1 1 1 1 1 1 1 1 1 1 1 1 1 1 1 1 1 1 1 1 1 1 1 1 1 1 0.0091103980726708403 1 1 1 1 1 1 1 1 1 1 1 1 0.0095848879144068526 1 1 1 1 1 1 0.0090333640958554333 1 1 1 1 1 1 0.0094462318616838591 1 1 1 1 1 1 1 1 1 1 0.0095959526337981126 1 1 1 0.0098942765048000876 1 0.0097832461832132629 1 1 1 1 1 1 1 1 1 1 1 1 1 1 1 1 1 1 1 1 1 1 1 0.009596623180010689 0.0098889696784131859 1 1 1 1 1 1 0.0091110686188834236 1 1 1 1 1 1 1 1 1 1 1 1 1 1 1 1 1 1 1 1 1 1 1 1 1 1 1 1 1 1 1 1 1 0.0085537753153778345 1 1 0.0034112221616385621 0.011147941233712343 1 1 0.0095037441593093085 1 1 1 1 1 1 1 1 0.0037238736998426777 1 1 1 1 1 1 1 1 1 1 1 1 1 1 1 0.010012042679796856 1 1 1 1 1 1 1 1 1 1 1 1 1 1 0.0088156275122856977 1 1 1 1 0.010013700907235523 1 0.0091370044495709853 0.0069587479742609544 1 1 0.0048143088831262195 1 1 0.01007294339161692 1 1 1 1 0.0095545682617107427 1 1 1 1 1 0.0092096323984518363 1 1 0.0092657050577336069 1 1 1 1 1 1 1 1 1 0.010082518116914846 1 1 1 0.0089941635834895305 1 1 1 1 1 1 1 1 1 1 1 1 1 1 1 1 1 1 1 1 1 1 1 1 1 1 1 1 1 1 1 1 1 1 0.0092326219064208497 1 1 0.0098554578537973121 1 1 1 1 1 1 1 1 0.0096569241769861869 1 1 1 1 1 1 1 1 1 0.01038662305405948 1 1 1 1 0.0098809216797173909 1 1 1 1 1 1 1 1 1 1 1 1 1 1 1 1 1 1 1 1 0.0097185183550813157 1 0.0088420880089133992 1 1 1 1 1 0.0097653239309772408 1 1 1 1 1 1 1 1 1 0.0090129660047511898 1 1 1 1 1 1 1 1 1 1 1 1 1 1 0.0080795454319284171 1 1 1 1 0.0092679662211324655 1 1 1 0.0089479955059078922 1 1 1 1 1 1 1 0.0097299938998495483 1 1 1 0.0091148576348843401 1 1 1 0.010006931259928438 1 0.010387873122437628 1 1 1 1 1 1 1 1 0.0085523284509654504 1 1 0.0063086625911215298 1 1 1 0.0074230908496626235 1 0.0073865788014637734 1 1 1 0.011057995132802655 1 1 1 0.0090950930961541908 1 1 0.010986756294301339 1 0.0088566912593223343 1 1 0.0084566669785821856 1 1 0.010006535848240593 1 1 1 1 1 1 1 1 1 1 1 1 1 1 1 1 1 1 0.010168503669287085 1 1 1 1 1 0.0090436799418231878 1 1 0.0099765560553133573 1 1 1 1 1 0.0099388194965217506 1 1 1 1 1 0.0099323395256687361 1 1 1 1 1 1 1 1 0.011081893536567678 1 1 0.0061630758575750965 1 0.0058238162189918098 1 1 1 0.0094431348125695747 1 1 1 1 1 1 0.0090396104735917839 1 1 0.0057333755880969936 1 1 1 1 0.0097289884588365096 1 1 1 0.010019674554174391 0.0092136726585667419 1 1 1 1 1 1 0.0077463911198589509 0.0088575700881352512 1 1 1 1 0.0081306761297145931 1 1 1 0.0092997372517138327 1 1 1 1 1 1 1 1 1 1 1 1 1 1 1 1 1 1 1 1 1 1 1 1 1 1 1 1 1 1 1 1 1 1 1 1 1 1 1 1 1 1 1 1 1 1 1 1 1 1 1 1 1 1 1 1 1 1 1 1 1 1 1 1 1 0.0098244766636947974 1 1 1 0.010459594949990223 1 1 1 1 1 1 1 1 1 1 1 0.010074715727000671 1 0.010031657908673561 1 1 1 1 1 1 1 0.010161623910027208 1 1 1 1 1 1 1 1 1 1 1 1 1 1 1 1 0.0099257707768345797 1 1 0.010033102328889253 1 1 1 0.010064354254049961 1 1 1 1 1 0.010021311540089143 1 1 1 1 1 1 1 1 1 1 0.0099085816188893144 1 0.0098343523957238974 1 1 1 1 1 1 1 1 1 1 1 1 1 1 1 1 1 0.009902253327847407 1 1 1 1 1 1 1 1 1 1 1 1 0.01001480405563179 1 1 1 1 0.0096439659859069316 1 1 0.0098240648047314104 1 0.0090166119507865787 1 1 1 0.0096280190375833425 1 1 1 1 1 1 0.010084501235203169 1 1 1 1 1 1 1 1 1 1 1 1 0.0096046810710255764 1 1 1 1 1 1 1 1 1 1 1 1 1 1 1 1 0.0089025484789913775 1 1 1 1 1 0.010398810796626426 0.009597380413837113 1 1 0.0098587071680367039 1 1 1 1 1 1 1 1 1 1 1 1 1 1 1 1 1 1 1 0.0091677446453702453 1 1 1 1 1 1 1 1 1 1 0.0097242046632577354 1 1 1 1 1 1 0.0099122822056685739 1 1 0.010450228574304969 1 1 1 1 1 1 1 1 1 1 1 1 1 1 1 1 1 1 1 1 0.0096687725049117157 1 1 1 1 1 1 0.0087939116376645476 1 1 1 1 1 0.0095488178776969319 1 1 0.0095325829728706256 1 0.010008252720852692 1 0.0084701293021047803 1 0.010172775227422199 1 1 1 1 0.0079771421566195537 1 1 1 1 1 0.0080837295125959479 1 1 1 1 0.0066862642255036478 1 1 1 1 1 0.010116824162282833 1 1 0.0094193176015193135 1 1 1 1 0.0091459527215549882 1 1 1 1 0.0077070536552014367 1 1 1 1 1 1 1 1 1 1 1 1 1 1 1 1 1 1 1 1 1 0.011042710639821336 1 1 1 1 1 1 1 1 0.010005328309220199 1 1 1 0.0070058689824763314 1 1 1 1 1 0.011953204070493204 1 1 1 1 1 0.0065513136109820857 1 1 1 1 1 1 0.0084475876019659123 1 1 1 1 1 1 1 1 1 1 1 1 1 1 1 1 1 1 1 1 1 1 1 0.0070454370738107716 0.010782455915487427 1 1 1 1 1 1 0.0080440995570617031 1 1 1 1 0.009997560150077545 1 1 1 0.010918187594926382 1 1 1 1 1 0.0086528724976371457 0.010001182809452943 1 1 1 0.0090278158789595404 1 1 0.0087563801426314043 1 1 1 1 1 1 1 1 1 1 0.0095604675579573778 0.0087403721762572464 1 1 1 1 1 1 1 1 1 1 1 1 1 1 1 1 1 1 1 1 1 1 0.0091019881857393493 1 0.0075992584254117581 1 1 1 1 0.0067040179339467225 1 1 1 1 1 1 1 1 1 0.0090316088224783823 1 1 0.010043390696549958 1 1 1 1 1 1 1 1 1 1 1 1 1 1 1 1 1 1 1 1 1 1 1 1 1 1 1 1 1 1 1 0.0084028754475313494 1 1 1 0.008892923594899375 1 1 1 1 0.0092468733973774687 1 1 1 1 0.0077005860051303186 1 1 1 1 1 1 1 1 1 1 1 1 1 1 1 0.009469138763016199 1 1 1 1 1 1 1 1 1 1 1 1 1 1 1 1 1 1 1 1 1 0.01007374639168326 1 1 0.009342388619986583 1 1 1 0.010331889352005397 1 0.010884106207905992 1 1 1 1 1 0.0097780322747452915 1 1 1 1 1 1 1 1 1 1 1 1 1 1 1 1 1 1 1 0.0092398076771936493 1 0.010154117646670466 1 0.0079224686131607758 1 1 1 1 1 1 1 1 1 0.0098290715699818239 1 1 0.0093934279152231119 1 1 1 1 1 1 1 1 1 1 1 1 1 1 1 1 1 1 1 1 1 1 1 1 1 1 1 1 1 1 1 1 1 1 1 1 1 1 1 0.0093810716718355867 1 1 1 1 1 1 1 1 1 0.0091801495599121759 0.0097541548853018363 1 1 1 1 1 1 1 1 1 1 1 1 1 1 1 1 1 1 0.0095655118608093809 1 1 1 1 1 1 1 1 1 1 1 1 1 1 1 1 1 1 1 1 1 1 1 1 1 1 1 1 1 1 1 1 1 1 1 1 1 1 1 1 1 1 1 1 1 1 1 0.010113895116691682 1 0.0019139302371974625 1 0.0016363362633335186 1 1 1 0.010277698842339499 1 1 0.0054639200217127173 1 0.0074084151182408076 1 1 1 1 1 0.0098663542927573018 1 1 1 0.010130620589138443 1 0.0096061452359105653 1 1 1 0.0096068530873248941 1 0.010078130291921818 1 1 1 1 0.008431184540028067 1 1 1 1 1 1 1 0.0086887111712914741 1 1 1 1 1 0.0090412125034493793 1 1 0.0096254244356687117 1 1 1 1 1 1 1 1 1 1 1 1 1 1 1 1 1 1 1 1 1 1 1 1 1 1 1 1 1 1 1 0.0037581383244993626 1 1 1 1 1 1 1 1 1 1 1 1 1 1 1 1 1 1 1 1 1 1 1 1 1 1 1 1 0.0025966635477892141 1 1 1 0.0093213313464857589 1 1 1 1 1 1 1 1 1 1 1 1 1 1 1 1 1 1 1 1 1 1 1 0.0078268100256423043 1 1 1 1 1 1 1 1 1 1 1 0.0094986738038051674 1 1 1 1 1 0.0085865342981163856 1 1 1 1 1 1 1 0.0075953045528650235 1 1 1 1 1 1 0.0073417989355077842 1 1 1 1 0.0072431011554119906 0.010010626655518034 1 0.0099644922357979178 1 1 1 1 1 0.0098612711115258558 1 1 1 1 1 1 1 0.0095940170817676376 1 1 1 1 0.0097118539596362952 1 1 1 1 1 1 1 1 0.0073269358852521213 1 1 1 1 1 1 0.0075165026304148119 1 1 1 1 1 1 1 0.0089285162764937732 1 1 1 1 1 0.010022325278556475 1 1 1 1 1 1 1 1 1 1 1 1 0.010064282197487184 1 1 1 1 1 1 1 1 0.0099935516694601521 1 1 1 1 1 1 1 0.0099712263909036789 1 1 1 1 0.0095508765982337176 1 1 1 1 1 1 1 0.0079869449558642031 1 1 0.0087172558082717864 1 1 1 1 1 0.0088527910475459451 1 1 1 0.0099151358304585581 0.0090026399623006799 1 1 1 1 1 0.0097730764044809647 1 1 1 1 1 1 1 1 0.010249202468056171 1 1 0.0088475096666759592 1 1 1 1 1 1 1 1 1 1 1 0.0096473665230903602 1 0.009419295124871236 1 1 1 1 0.0097895912111540355 1 1 1 1 1 1 1 1 1 0.0098981812067880752 1 1 1 1 0.0078956764943492967 1 1 1 1 0.008099804362647841 1 1 1 1 0.010000346208667923 1 1 1 1 1 1 1 1 1 1 1 1 1 1 1 1 1 1 1 1 1 1 0.0076741867556156772 1 1 1 1 1 0.0099780792646605825 1 1 1 0.0064376536868960728 1 1 0.010208096652850371 1 1 1 1 1 1 1 1 1 1 1 1 1 0.0063824847129727484 1 1 0.0040218506651606353 1 1 1 0.0098903879644139138 1 1 0.0044083917122099796 1 0.0098507879976408794 1 1 1 0.0083919325967265011 1 1 1 1 0.0078111240037800744 1 1 1 1 1 1 0.0099452537807931674 1 1 1 1 1 1 1 1 1 1 0.0078746405483439332 1 1 0.0068064025001248491 1 0.0099729134643601267 0.008714586272957292 1 0.0088406330002619438 0.0082381301241310993 1 1 1 0.010319641770546964 1 1 1 1 1 1 1 1 1 1 1 1 1 1 1 1 1 1 1 0.008775988510669205 1 1 1 1 1 1 1 1 1 1 1 1 0.007787249183544424 1 1 1 0.0043363043661369663 1 1 1 1 1 1 1 1 1 1 1 1 1 1 1 1 1 1 1 1 1 1 1 1 1 1 1 1 1 1 1 1 1 1 1 1 1 1 1 1 1 1 1 1 1 0.01017997983760475 1 1 0.0067047660987179687 1 1 1 0.0093465845609272437 1 0.010394444704452313 1 1 1 1 1 1 1 1 1 1 1 1 1 1 1 1 0.0099523557547817852 1 0.01051222776323567 1 1 1 1 1 1 1 1 1 1 1 0.0048782279055130844 1 0.0057263779200234996 1 0.010863080046187175 1 0.0099760832744084441 1 0.0090075505395204106 0.0071075893373276017 1 1 1 1 0.010124847694433413 1 1 1 1 0.0067154275893452492 1 0.0099936158356191268 0.0087465248768192026 1 0.004723975087947167 1 0.0061779405738205517 1 1 1 1 1 1 1 1 1 1 1 1 1 1 1 0.010256787175227405 1 1 0.01009135782180889 1 1 0.0089641958589412891 1 1 1 0.0022430403590148742 1 1 1 0.0099333745084389368 1 1 1 1 1 1 1 1 1 1 1 1 1 1 1 1 1 1 1 0.0095723615272121435 1 1 1 1 1 1 1 1 1 1 1 1 1 1 1 1 0.0097947804441280654 1 1 1 1 0.0095367693582988893 0.0097009300537513332 1 1 1 1 1 1 1 0.0087490214060407627 0.010388759111305722 1 1 1 1 1 1 1 1 1 1 1 1 1 1 1 1 1 1 1 0.0098614621056996327 1 1 1 0.009724568771343851 1 1 1 1 0.010207696730322763 1 1 0.0089576446464884728 1 1 0.0096181134894642584 1 1 1 1 1 1 1 1 0.0098631066656442237 1 1 1 1 1 1 1 1 1 0.010001546231941952 1 1 1 0.0084411119872089997 1 1 1 1 1 1 1 1 1 1 1 1 1 1 1 1 1 1 1 1 1 1 1 1 1 1 1 1 0.010003560171463623 0.010618066722276297 1 1 1 1 1 1 0.010140607439755749 1 1 1 1 1 0.010055204222240459 1 1 1 1 0.0093220685258706554 1 1 1 0.0080121049090932425 1 1 1 1 1 0.011472012106341953 1 1 1 0.011027676629391771 1 1 1 1 1 1 1 1 1 1 1 1 1 1 1 1 1 0.010078906802817146 1 1 1 0.010035253480871271 1 1 1 1 1 1 1 1 1 0.010490154445449951 1 1 1 0.0090209196530688738 1 1 1 1 1 1 0.0089646599408621588 1 1 1 1 1 1 1 1 1 0.011785064399677293 1 1 1 1 0.0096486103476678218 1 1 1 1 1 0.0099855962483987922 1 1 0.011042261536268375 1 1 1 1 1 1 1 1 1 1 1 1 1 1 1 1 1 1 1 1 0.010083316596856802 1 1 1 1 1 1 1 1 1 0.009912211111978585 1 1 0.011213709936497687 1 1 1 0.0093592487588756157 1 1 1 1 1 1 1 1 0.0097889042098213124 1 1 1 1 1 0.010880734455936578 1 1 1 1 1 0.011481623040125111 1 0.0082393145147151865 1 1 1 1 0.011247211660325562 1 1 0.0099990580041989276 1 0.0096925960201237494 1 0.010078136855793495 1 1 1 1 1 0.011604863436926925 1 0.0097793069418235616 0.0098620239885160253 1 1 0.009948389800020779 1 1 1 0.010078086155609206 1 1 1 1 1 1 1 0.010222692167034614 0.0098720423071841732 1 1 1 1 1 1 1 0.0099994759854445288 1 1 1 0.0096166074965410037 1 1 1 1 1 1 1 1 0.0094683602898672 1 1 0.0093836839105506682 1 1 1 1 1 1 0.01002199329095927 1 1 1 1 1 1 1 1 0.010733152504409595 1 0.010343206864869916 1 0.008021934447318857 1 1 0.0086882933411947996 0.0082035824612925537 1 1 0.0088209918742495758 1 0.0093198937671201496 0.0078411902471205112 1 1 1 0.010588421525688778 1 0.0082051631009548206 1 1 1 0.0086393475137211736 0.010807153074064661 0.0095908144841571827 1 1 0.010607498531907948 0.0076511141639816448 1 0.0099934002963149408 1 0.0099091627608443311 1 1 1 0.0077095500200382392 1 1 1 1 1 0.0075282281097922513 1 1 1 0.011315027533266653 1 1 0.0074127299177426092 0.010958813454743012 1 1 1 1 1 1 0.0098054216066502005 1 1 1 1 0.0099583885188356171 1 1 1 1 1 1 1 1 1 1 0.0098895835732262585 1 0.0075790911616224858 0.0083224692466072371 1 1 0.0086832646347251678 1 0.009139948458898357 0.0080175191515703542 1 1 0.0094142802306655948 1 0.0091804634562983965 0.0099284459705129904 1 1 1 1 1 1 1 0.0093308331948594031 1 1 1 0.0086669074868149856 1 1 1 1 1 1 1 1 1 1 1 0.0099857521158910022 1 1 0.0071541477573396845 1 1 1 1 1 0.01103591955330285 1 1 1 0.0085234187605485422 1 1 0.0088762430716274061 1 1 1 0.0089989441600684672 1 1 1 1 1 0.010051240716409756 1 1 1 1 0.010865519057940681 0.0065331954539678966 1 0.010001976034523182 1 0.010721548119577391 1 0.0067005032965230353 0.0077186667151518291 1 1 1 1 1 0.0099398170674285767 0.0097640201300970685 1 0.011344443822051849 0.010558147861413845 1 0.010487910249973784 1 1 1 0.010207385735776224 0.0099626063292623367 1 0.0093217858757535816 1 1 0.0082652061557633126 1 1 1 1 0.0078129038499529894 1 0.0099367541963227418 1 1 1 0.0083569710578504375 1 1 0.0091782836575614452 1 1 1 1 0.0072888473353910884 1 1 1 1 0.0067618496847640132 1 1 1 1 1 1 1 1 1 1 1 1 0.0098895111993669519 1 1 1 1 1 1 1 1 1 0.00993220161068014 1 1 1 0.0099787872084503397 1 1 1 1 1 1 1 1 1 1 1 1 1 1 1 1 1 1 1 1 1 1 1 1 1 1 1 1 1 1 1 1 1 1 1 1 1 1 1 1 1 1 1 1 1 1 1 1 1 1 1 1 1 1 1 1 1 1 1 0.0093105906334644949 1 1 1 1 1 1 1 1 0.010003230028889157 1 1 1 1 1 1 0.0098282782726248803 1 1 1 0.0097664339727327899 1 1 1 1 1 1 1 0.0089461457676300576 1 1 1 1 1 0.010023026582585158 0.0096396896958500667 1 1 1 0.0096475267736532977 1 0.0096004491052263784 1 0.0090960755026930473 1 1 1 1 1 1 0.0092322730290262302 0.009771743882233376 1 1 1 1 1 1 0.0095968823810238853 1 1 1 1 1 1 1 1 0.010487002083537027 0.0084174147411384004 1 1 1 0.010030365383912842 0.0090249047559088167 1 1 1 1 1 0.010013180047626405 1 1 1 1 1 1 1 1 1 0.010246248212138022 1 1 1 0.010062506063027934 1 1 1 1 1 0.0094039897914161286 1 1 1 1 1 1 1 1 1 1 1 1 1 1 1 0.010392520485854359 1 1 1 0.010940129859137632 1 0.0098906483361210495 1 1 1 1 1 1 1 1 1 1 1 1 1 1 1 1 1 1 1 1 1 1 1 1 0.010095989907138645 1 0.0095882823197528302 1 1 1 1 1 1 1 0.0089712879099544899 1 1 1 1 1 1 1 0.0098456341876126657 1 0.010519360841128143 1 1 1 1 1 1 1 1 1 1 1 1 1 0.0095656149126467083 1 1 0.0095071309397754804 0.010001224300904804 1 1 1 1 1 1 1 1 1 1 1 1 1 1 0.0095376450921176633 1 1 1 1 1 0.0096659988393100679 1 0.009878831494163921 1 1 1 1 1 1 1 1 1 1 1 1 1 1 1 1 1 1 1 1 0.0086579731084792562 0.0090067838551338656 1 1 1 1 1 1 1 1 1 1 1 1 1 0.0095019710583253772 1 1 1 1 1 1 1 1 1 1 1 1 1 1 1 1 1 1 1 1 1 1 1 1 1 1 1 1 1 1 1 1 1 1 1 1 1 1 1 0.008866829810376238 1 1 0.0095894854299092436 1 1 1 1 1 1 1 1 1 1 1 0.0083042341976872942 1 1 1 1 1 1 1 1 1 0.010008482617307825 1 1 0.010683568887039648 1 1 1 1 1 1 0.010157255683782625 1 1 1 1 1 1 1 1 1 1 1 1 1 1 1 1 1 1 1 1 1 1 1 1 1 1 1 1 1 1 1 1 1 1 1 0.010092080475621171 0.01064847345448861 1 1 1 1 1 0.0089367260873147326 1 1 1 1 1 1 1 1 1 1 1 1 1 0.0097375536456464611 1 1 1 1 1 1 1 1 0.0084668273608303635 1 1 1 1 1 1 1 1 1 1 1 1 1 1 1 1 1 1 1 1 1 1 1 1 1 1 1 1 1 1 1 1 1 1 1 1 1 1 1 1 1 1 1 1 1 1 1 1 1 1 1 1 1 1 1 1 1 1 1 1 1 1 1 1 1 1 1 1 0.0093901104486219401 0.0096186630267823155 1 1 1 1 1 1 1 1 1 1 1 1 1 1 1 1 0.010337100843198752 1 1 0.0091760033377880634 1 0.0092797322947265667 1 0.010038207191061623 1 1 0.0095321200985811986 1 1 1 1 1 1 1 0.0092688732245415489 1 1 1 1 1 1 1 1 1 1 1 1 0.0098961953897792505 1 1 1 1 1 1 1 1 1 1 1 1 1 1 0.0099637615611398635 1 1 1 1 1 1 1 1 1 1 1 1 1 1 1 1 1 1 1 1 1 1 1 1 1 1 1 1 1 1 1 1 1 1 1 1 1 1 1 1 1 1 1 1 1 1 1 1 1 1 1 1 1 1 1 1 1 1 1 1 1 1 1 1 1 1 1 1 1 1 1 1 1 1 1 1 1 1 1 1 1 1 1 1 1 1 1 1 1 1 0.0096848459918129903 1 0.0099106963473746951 1 1 1 1 1 1 1 1 1 1 1 1 1 1 1 1 0.0094848651632341904 0.0099102390729639573 1 1 1 1 1 1 1 1 1 1 1 1 1 1 1 1 1 1 1 1 1 1 1 1 1 1 1 1 1 1 1 1 1 1 1 1 1 1 1 0.0088398011207945458 1 1 1 1 0.0091801381422108586 1 1 1 1 1 1 1 1 1 0.0097454499016488613 1 0.0084329606829953649 1 1 1 1 1 1 1 0.0083015790036931013 1 1 1 1 1 1 1 1 1 1 1 1 1 1 0.0099929806184452415 1 1 1 1 0.0097916142708634156 1 1 1 1 1 1 1 1 1 1 1 1 1 0.0098835382623825574 1 1 1 0.0099911329858153285 1 1 1 1 1 1 1 1 1 1 1 1 1 1 1 1 1 1 1 1 1 1 1 0.0085113037102748715 1 1 1 1 0.0093254271566047819 1 1 1 1 1 1 0.010026161401131932 1 1 1 1 0.0097886220829196714 1 1 1 1 1 1 0.0074385211019753171 1 1 1 1 1 0.007939533685348981 1 1 0.009939803265648077 0.0096159724140199108 1 1 1 1 0.0095735306302267738 1 1 1 1 1 1 1 1 1 0.0098459548159139272 1 1 0.0099043400255899548 1 1 1 1 1 1 1 1 1 1 1 1 1 1 0.0098929342017315073 1 1 1 1 1 0.0099902401819032087 1 1 1 1 0.0099643665391983827 1 1 1 1 1 1 1 1 1 1 1 1 1 1 0.0099804267307023412 1 1 1 1 1 0.0099715597165176729 1 1 1 1 1 1 0.0099361276677705484 1 1 1 1 1 1 1 1 1 1 1 1 1 0.0099261672724598841 1 1 1 1 1 1 0.0098086588737633269 1 1 0.010105045960142224 1 1 1 1 1 1 1 1 1 1 1 0.010031311176961101 1 1 1 1 1 1 1 1 1 1 1 0.0099983511240083998 1 0.0099486686049273347 1 1 1 1 1 0.0096730392107663241 0.010193925459060406 1 1 0.0099902213652653497 0.0070358801736421575 1 1 0.0099980149299879785 1 1 1 1 0.00974022246031854 1 1 1 1 1 1 0.010102174180012236 1 1 0.007927199333322258 1 1 1 1 1 1 1 0.0098611921905330437 1 1 1 1 1 1 0.0073659419033306056 1 1 1 1 1 1 1 1 1 1 1 1 1 1 1 1 1 0.0094423835452565053 1 1 1 0.0097710073418786868 1 1 1 1 1 1 1 1 1 1 1 1 1 1 1 1 1 1 1 1 1 0.0096555921212829049 1 1 1 1 0.0070150499235922328 1 0.009920053791077188 1 1 0.010045713924074127 1 1 0.0054503433877021151 1 1 1 1 1 0.0099792651230518094 1 1 1 0.01019906930031215 1 1 0.0068124106419226206 1 1 1 1 0.0099278996911341764 1 1 1 1 0.0098332107550969661 1 1 1 1 1 1 1 1 1 1 1 1 1 1 1 1 1 1 1 0.0096430110280759287 1 1 1 1 1 1 0.0099417691579861481 1 1 1 1 1 0.0098880418409349226 1 1 1 0.010237093866933677 1 1 0.010092734354887266 1 1 1 1 1 1 1 1 1 1 1 1 1 0.0087425200859604178 1 0.010107932935611892 1 1 1 1 1 1 1 1 1 1 1 1 1 1 1 1 0.0099633042867291275 1 1 1 0.0093675907645782742 1 1 1 1 1 1 1 1 1 1 1 1 1 1 1 1 1 1 1 1 1 1 1 1 1 1 1 1 1 1 0.0086669162221446709 1 1 0.00869452487935677 1 1 1 1 1 1 1 1 1 1 1 1 1 1 0.0086461264722175746 1 1 1 1 1 0.0095854302952149383 1 1 1 1 1 1 1 1 1 0.0099988895749638807 1 1 1 1 1 1 1 1 1 1 1 1 1 1 1 1 1 1 1 1 1 0.00999354902648294 1 0.0096068932761336455 1 0.0098658839387144991 1 1 1 1 1 1 1 1 1 0.0098500592078778048 1 1 1 1 1 1 1 1 1 1 1 1 1 1 1 1 0.010000958020953047 0.009999487300173953 1 1 1 1 1 1 1 0.0099713237335332088 1 1 1 1 1 1 1 1 1 1 1 1 1 1 1 1 1 0.010093804923255394 0.0099827652264373873 1 1 1 1 1 1 1 1 1 1 1 1 1 1 1 1 1 1 1 1 1 1 1 1 1 1 1 1 1 1 1 1 1 1 1 1 1 1 1 1 1 1 0.010036492543488628 1 1 1 1 1 1 1 1 1 1 1 1 1 1 1 1 1 1 1 0.01000679933756529 1 1 1 1 1 1 1 1 0.010033032568514733 1 1 1 1 1 1 0.0082114560658972605 0.010260114322519066 1 0.010153802786929997 1 1 0.0078906525274805676 1 1 1 0.0099995406737185856 1 0.009495976738951608 1 1 0.0099239518089227364 1 1 0.009973437911869389 1 1 1 1 1 1 1 1 1 1 1 0.0095218238361675939 1 1 1 1 0.0095230154479539007 1 1 1 1 1 1 1 1 1 1 0.0099641906625532722 1 1 0.0099544795098023484 1 1 1 1 1 1 1 1 1 1 1 1 1 1 1 1 1 1 1 1 1 0.0092355895076016749 1 1 0.0080350060636112941 1 1 1 1 1 1 1 1 0.010216021584416403 0.0099004907533695296 1 1 1 1 1 0.0089013929524605108 1 1 1 0.0099475437515434764 1 1 1 1 0.01000752533410312 1 1 1 1 1 1 1 1 1 1 1 1 1 1 1 1 1 1 1 1 1 1 1 1 1 1 1 1 1 1 1 1 1 1 0.0093104396083837325 0.0095062562512316442 1 1 1 1 1 0.0099601740332150128 1 1 1 1 0.0099547475256095315 1 1 1 1 1 1 1 1 0.0098935926665018551 1 1 1 1 1 0.010199077337182234 1 1 1 0.010442894597793408 1 1 1 1 1 1 1 1 1 1 1 1 0.010335301432204414 0.009686394483020222 1 1 1 1 0.010011590422714501 0.0098774833724967533 1 0.0093808450094876508 0.0099970258778322892 1 0.0099804910539792492 1 0.0094584776669123793 1 1 0.0090463041640423663 0.010033388851990991 1 1 1 1 0.010159633868240106 0.0087537196339426675 1 1 0.0094187704001629843 0.0085707552338806173 1 1 0.0087022631258827574 1 1 0.0099957742664220917 1 1 1 1 1 1 1 1 1 1 1 1 1 1 1 1 1 1 1 1 1 0.010161245961983475 1 1 1 0.0099021238905473118 1 1 0.0098262647445745144 1 1 1 0.0099018253826183549 1 0.010081604828468982 0.0099657789073736621 1 0.0094464272616626103 1 1 1 1 1 0.010608263496262864 0.0067025135617987293 1 1 0.0094555003883358274 1 1 1 0.0097674322745925461 1 1 1 1 1 1 1 1 0.0080363708524450912 1 1 0.0099987696751300034 1 1 1 1 0.0098566610533709267 0.0098660451472759418 1 0.010018923214369533 1 1 1 1 0.0093911371498797171 1 1 1 1 1 1 1 0.010017954351016628 1 1 1 1 1 1 0.0099995252346984902 1 1 1 1 1 1 1 1 1 1 1 1 1 0.0098002209640586022 0.0091926012771336718 0.0099175054417350566 0.01014401401627721 1 1 0.0099983214402998444 0.010006992257280663 1 1 1 1 1 0.0086475189197863771 0.0099997850693119249 1 0.010001151453941086 1 0.01000563768333727 1 0.0088878210942454974 1 1 0.0076853129758449965 1 1 0.0099623902400186246 1 0.0081850781420431291 0.010004020897223524 1 1 1 1 1 1 1 1 1 1 0.0072222939006985672 1 1 0.0069897887793952188 1 1 1 1 1 1 1 1 1 1 1 1 1 1 0.010005148404733853 1 1 1 0.0051924868631342807 1 1 0.0061052495604967654 1 1 1 1 0.010068558530444348 1 1 1 1 0.0080311007275323774 1 1 1 0.010001063306489319 1 1 1 1 1 0.0054409291214137043 1 1 1 1 1 1 0.0078332686743854373 1 0.0097552976682362732 1 1 1 1 1 1 1 1 1 1 1 1 1 1 0.0063994653424708399 1 1 0.0098483587142383575 1 0.0057076507935008135 0.010127262079611749 1 1 1 1 1 1 0.0064152334263946646 1 1 0.011152447242755822 1 1 1 0.0084697677502729753 0.0088093226874416918 1 0.0093533736246828401 1 1 1 1 1 0.0096022101370452344 1 1 1 0.0090931540050188144 1 1 1 1 1 1 1 0.0099679712021226163 1 1 1 1 1 1 0.011749901859858625 1 1 1 1 1 1 0.0097578894508374252 1 1 1 1 1 1 1 1 1 1 0.0096919511683610758 1 1 1 1 1 1 1 1 1 1 1 1 1 1 1 0.0097044845603656612 0.0098869191833777046 1 1 1 1 1 1 1 1 1 0.010026095099888301 1 1 1 1 1 1 1 1 0.008062285966738459 1 1 0.0099002293594886732 1 0.0098813401957755596 1 1 1 0.0081478542603539011 1 0.0099543668924501998 1 1 1 0.0072421923725433631 1 0.0090458787505192477 1 1 1 0.0050018476163399741 0.010008688724985835 1 0.0098842482666095782 1 1 1 1 1 1 1 1 1 1 1 0.0055564626758474534 0.01000047682985474 1 0.0098793518535671872 1 1 1 0.010000099295759632 0.0084475034640804011 1 0.0094879748839396989 1 1 1 1 0.010043199881010901 0.0091333970409071524 1 0.0090891121739537679 1 1 1 1 1 1 0.010161052728349622 1 0.0094725487488123376 1 1 1 1 0.0094514696546345225 0.010904308086903496 1 1 0.0074129049447035356 1 1 0.010055168460403396 1 1 0.0099583914667114911 1 1 0.0094647134010742741 0.0099997036017478898 1 1 0.0098168016468521066 1 0.01029291852920329 0.0083240784189085731 1 1 0.0083315093434842957 1 1 1 1 1 1 0.010637743161950267 0.0099212586129184942 0.009999832026574328 1 1 1 0.0094452706092520069 1 0.01001528113179747 1 1 1 1 0.0089563440303808989 0.0089902951232363817 1 0.01036900644601956 0.0084212811337635377 0.0098692382080891108 1 1 1 1 1 1 1 1 1 1 1 1 1 1 1 1 1 1 1 1 1 1 1 1 1 1 0.009971730117835002 1 1 1 0.010083094177304231 1 1 1 1 1 1 1 1 1 1 1 0.0096253070272642755 1 1 1 1 1 0.0098665364762185181 1 0.0093549148319142343 1 1 0.0099767022488362368 1 1 1 1 1 0.0099991558753732314 0.0097522174646516042 1 1 1 1 1 0.0098091647206474952 1 1 0.0099264341410585794 1 1 1 1 1 1 1 1 1 1 1 1 1 1 1 1 1 1 1 1 0.0097122568672823768 1 1 1 1 1 1 1 1 1 1 1 0.0099827920376862611 0.0095812614520229579 1 1 1 1 1 1 1 1 1 0.0099307136477101311 1 1 1 1 1 1 1 0.0094051996823052673 1 1 1 1 1 1 1 1 1 1 1 1 0.0097426274490655419 1 0.0099069601007787771 1 1 1 1 1 1 1 1 1 0.0099540888526774875 1 0.0096062195331506582 1 1 1 1 1 1 1 1 1 0.0094536460283098402 0.0097762615386760253 1 1 1 1 1 1 1 1 1 1 1 1 1 1 1 1 1 1 1 1 1 1 1 1 1 1 1 1 1 1 1 1 1 0.010026090643270077 1 1 1 1 1 1 1 1 1 1 1 1 1 0.0095692793597709075 1 1 1 1 1 1 1 1 1 1 1 1 1 1 1 1 1 1 1 1 1 1 1 0.0088167126505331699 0.010066875787346878 1 1 1 1 1 1 1 1 1 1 1 1 1 1 1 0.010043650004637885 1 1 1 1 1 1 1 1 1 1 1 1 1 1 1 1 1 0.0099943487580134924 1 1 1 1 0.010005105799176588 1 1 1 1 1 1 1 1 1 1 1 0.0089594779130724132 0.010492213887798852 1 1 1 1 1 1 1 1 1 1 1 1 1 1 1 1 1 1 1 0.0093991074965241762 1 1 1 0.0097418596807828939 1 1 1 0.0085532421196630407 0.009075545147587908 1 1 0.0099976044675071738 0.0099319661781646709 1 0.0099329449647512485 1 1 1 0.0095711388458584318 1 1 0.009892298492267932 0.0095106983621400625 1 1 0.0093834542667784182 1 1 0.0090142558758813749 0.0087354562685796368 1 1 1 1 0.0098752663850743393 1 1 1 0.0092559513586374167 0.0099309497398453427 1 1 1 1 1 1 1 1 0.0091786650133545856 1 1 0.010077556908821561 1 1 1 1 0.0058916701187221848 1 1 1 1 1 0.0055961641217923495 1 1 0.0096174142333533986 1 1 1 1 1 0.0088373975949183857 1 1 1 1 0.0097827310192576469 1 1 0.0080347155461631299 1 0.0096912609535166373 1 1 1 1 1 1 1 0.0056781037407670383 1 1 1 0.0085708139669196208 1 1 0.0099292587808012204 1 1 1 1 1 1 1 1 1 1 1 1 1 1 1 1 0.0097782572322336996 1 0.0093531436916570888 1 1 1 1 1 1 1 1 1 0.0094529365041887414 1 1 1 0.0098323189264085398 0.0093883424099528469 0.0098245096104462824 1 1 1 0.0097964143092245104 0.01004517542181459 1 0.0096974207810719276 1 0.0093315472932731271 0.0097438824578603232 1 1 1 0.0094407167123958993 1 0.010245802310168075 1 1 1 1 1 1 1 1 1 1 0.010055974980054609 1 1 1 0.0085929773174624087 1 1 1 0.0093786660424607891 1 1 1 1 1 1 1 1 1 1 1 1 1 1 1 1 1 1 1 0.011231024311545138 1 1 1 1 0.010004726577445647 1 0.0094916483855622229 1 1 1 1 1 1 1 1 1 1 1 0.0099970489671461753 1 0.0099554166852931902 1 1 0.0094310588850249639 1 0.010821393759167165 0.0097162128347747807 0.0099909561680461782 1 1 1 0.010002725775343165 1 1 1 0.0094176598853373573 0.0076870701265187562 1 1 1 1 1 1 0.010033835515453341 1 1 1 1 1 1 1 1 1 0.0088572302084100555 1 1 0.0071525987890150187 1 1 1 0.0062323135168765751 1 1 1 1 1 1 1 1 1 1 1 1 1 1 1 1 1 0.010736648877815416 1 1 1 1 1 1 0.011534390618582115 0.0047801320843838561 1 1 1 0.0048829657474699344 1 1 1 1 1 1 1 0.0080652104397414288 1 1 1 1 1 1 1 1 1 1 1 1 1 0.0076512900762821592 1 1 1 1 1 1 1 1 1 1 1 1 1 1 1 1 1 1 0.010114430019872708 1 1 1 1 1 0.01032197948391406 1 1 1 1 1 1 1 1 0.0050335596128263903 1 1 1 1 1 1 1 1 1 1 1 1 1 1 1 1 1 1 1 1 1 0.0053336229017070698 0.0097356075959550738 1 1 0.0058812997328009826 1 0.0098648757674340247 1 1 1 1 1 1 1 1 0.0099206959715118781 1 1 1 1 0.0092483153724822534 1 1 1 1 0.01057751540716291 1 1 1 0.0097944911743373664 1 0.010003498857884844 1 1 1 0.010582542049906773 0.010728156506390025 1 0.010001118849357522 1 0.0080065014267721203 0.0094701985515919136 1 1 1 1 1 0.0098465426008916036 1 1 1 0.010130856186140154 1 1 1 1 0.0090844294250962219 1 1 1 1 1 1 1 1 1 1 1 1 1 1 1 1 1 1 0.01039632490580307 1 1 1 1 1 0.010666649228861317 1 1 1 1 0.0099818517637264743 1 1 1 1 1 1 0.010513686946429084 1 1 1 1 1 1 1 1 1 1 1 1 1 1 1 1 1 1 1 1 1 1 1 1 0.010168695912214103 1 1 1 0.0096462594239970535 1 1 0.0084777130212012122 1 1 0.010412365609648255 1 1 1 0.0080027663010429385 1 1 0.010872668164861283 1 0.0085155739828279061 1 1 0.0099467053850401839 1 1 1 1 1 1 1 1 1 1 1 1 1 1 1 0.011724714926656561 1 1 0.0099885452890331981 1 0.0049583711934347002 1 1 1 1 1 1 1 0.0099062629349896507 1 1 0.0097552958180120129 1 0.010380613558762762 1 1 1 0.010344140905426482 1 1 1 1 0.010694882708404276 1 1 0.010717454048741588 1 1 0.01048539545431108 1 1 0.010607526440155482 1 1 1 1 1 1 1 1 1 0.0097657073499555491 1 1 0.0074158166868787427 1 0.010892367992730089 0.010674121886114562 0.0094775448778665131 1 1 1 1 1 1 1 0.0099997201767189833 1 0.0092111493069343912 1 0.010161305295004372 0.0092839696029394635 1 1 1 1 1 1 1 1 1 1 1 0.010015306521987902 1 1 1 1 1 1 1 1 1 1 1 1 1 1 1 1 1 1 1 1 1 1 1 1 1 1 1 1 0.0097293239511252929 1 1 1 1 1 1 0.0097524220501889955 1 1 1 1 1 1 1 1 1 1 1 1 1 1 1 1 0.0099800707550476327 1 1 1 1 1 1 1 1 1 1 1 1 1 1 1 1 1 1 1 1 1 1 1 0.010001491671884929 0.01058904670746038 1 1 1 1 1 1 1 0.009849642256848451 1 1 1 0.0092389580888653528 0.0084888689723376081 1 1 0.0079653134403960615 1 1 1 1 1 1 1 1 1 1 1 1 1 0.0095406402168680404 1 1 1 1 1 1 1 1 1 1 1 1 1 1 1 1 1 1 1 1 1 1 0.0098695361660756219 1 1 1 0.0096219582162646172 1 1 1 1 1 1 1 1 1 1 1 1 1 1 1 1 1 1 1 1 1 1 0.010209762002633106 1 1 1 1 1 1 1 1 1 1 1 1 1 1 1 1 1 1 1 1 1 1 1 0.0099535488960486723 1 1 1 1 1 1 1 1 1 1 1 1 1 1 1 1 1 1 1 0.0099874815432663151 1 1 1 1 1 1 1 1 1 1 1 1 1 1 1 1 1 1 1 1 1 1 1 1 1 1 1 1 1 1 1 1 1 1 1 1 1 1 1 1 0.0095577427421198024 1 1 1 1 1 1 1 0.0092222676804389649 1 1 0.009288472769015033 1 1 0.0096645249383191627 1 1 1 1 1 1 1 1 1 1 1 1 1 1 1 1 1 1 1 1 1 1 1 1 1 1 1 1 1 1 0.010129875683848816 1 1 1 1 0.010501608941039371 1 1 1 1 1 1 1 1 0.0088029028169105093 1 1 1 1 1 1 1 1 1 1 1 1 1 1 1 1 1 1 0.0087596903835675984 0.010755998527481041 1 0.010572524142409627 1 0.0080319742391163681 1 1 1 0.0089916810131228115 1 1 1 1 1 1 0.011603298567190987 1 1 1 0.0081412285691250877 1 1 1 1 0.0071886750580729668 1 1 1 0.0098890797186607891 1 1 1 1 1 0.0096689758417270247 1 1 0.0089340410769369882 1 1 1 1 1 1 1 1 1 1 1 1 1 1 1 1 1 1 0.0089736015883144209 1 1 1 1 1 1 1 1 1 1 1 1 1 0.010056510666923694 1 0.0098821616852844529 1 1 1 0.0074206929619422841 1 0.0093691651816423371 1 1 1 1 1 1 1 1 1 1 1 1 1 1 1 0.0072159150124999488 1 1 0.0070221497737810949 1 1 1 1 1 1 1 1 1 1 1 1 1 1 1 1 1 1 1 1 1 1 1 1 1 1 1 1 1 1 1 1 1 0.0097590688172463132 1 1 1 1 1 1 1 1 1 1 1 1 1 1 1 1 1 1 1 1 1 1 1 1 1 1 1 1 1 1 1 1 1 1 1 1 1 1 1 1 1 1 1 1 1 1 1 1 1 0.0085944666469488229 1 1 1 1 1 0.0089724987725367609 1 0.010250881588522066 1 1 1 1 1 1 1 1 1 1 1 1 1 1 1 1 0.0097615022169346977 1 1 1 1 1 1 1 1 1 1 1 1 1 1 1 1 1 1 1 0.010517917009782302 1 1 1 1 1 0.01005295741976291 1 1 1 1 0.010164049932574535 1 1 1 1 1 1 1 1 1 1 1 1 1 1 1 1 1 1 1 1 1 1 1 1 1 1 1 1 1 1 1 1 1 1 1 1 1 1 1 0.0099074264951842569 1 1 1 1 1 1 1 1 1 1 1 1 1 1 1 1 1 1 1 1 1 1 1 1 1 1 1 1 0.010725001822106027 1 0.010495598235716896 1 0.01032059367887744 1 1 1 1 1 0.010851082210778804 0.010657277401300756 1 0.0077466176577043518 1 1 0.010014408312457382 1 1 0.010427856621662322 1 1 0.0092322294237147905 1 1 1 1 1 1 1 1 1 1 1 1 1 1 1 1 1 0.00956032820750553 1 1 1 1 1 0.010100954208245513 1 1 1 1 1 1 1 1 1 1 1 0.0099943185633892574 1 1 0.0099851693571830352 1 1 1 1 1 1 1 0.0089918076264431969 1 1 1 1 1 1 1 1 0.0098228547565497749 1 1 1 0.0096584788673609156 1 0.010009098325780303 1 1 1 1 1 1 1 1 1 1 1 1 1 1 1 1 1 1 1 1 1 1 1 1 1 0.009123223875818369 1 1 1 0.0096917444568807107 1 1 1 1 1 1 1 1 1 0.0098011577805810525 1 1 1 1 1 1 1 0.0099109032234451742 1 1 1 1 1 1 1 1 1 1 1 1 1 1 1 1 1 1 1 1 1 1 1 1 1 1 1 1 1 1 1 1 1 1 1 0.0098356241108111357 1 1 1 1 1 1 1 1 1 1 1 1 1 1 1 1 1 1 1 1 1 1 1 1 1 1 1 1 1 1 1 1 1 1 1 1 1 1 1 1 1 1 1 1 1 1 1 1 1 1 0.008359698777745667 1 1 1 1 1 0.0086763653042794663 1 1 1 1 1 1 1 0.0097277445490382333 1 1 1 1 1 1 1 1 0.0099105137315858294 1 0.0089125370112221897 1 1 1 1 0.011735085165548506 1 1 0.005824969486747383 1 1 1 0.010016817803543229 0.011788140798753313 1 1 1 0.010209902646282281 0.0099999590845307532 1 0.0072206257665124104 1 1 1 1 1 1 1 1 1 1 1 1 1 1 1 1 1 1 1 1 1 1 1 0.010000944674776691 0.0097757853006460206 1 0.0090309946487042506 1 1 1 1 1 0.0092656862304356727 1 1 1 1 0.0096122289851825228 1 1 1 0.0095287349139448613 1 0.0097997791298779641 1 1 1 1 1 1 1 1 1 1 1 1 1 1 1 1 1 1 1 1 1 1 1 1 1 0.0093248935642131197 1 1 1 1 1 1 1 1 1 1 0.010389122491425574 1 1 1 1 1 1 1 1 0.010014075984319946 0.011164803811639442 1 1 1 1 1 1 1 1 1 1 1 1 1 1 1 1 1 0.010546650694807055 1 1 0.011301958593406332 0.0094552086493802767 1 1 1 1 1 0.0094230429436631957 1 1 1 1 1 1 1 1 1 0.0095587092181827742 1 1 1 0.009977687411869593 1 1 1 1 1 0.0099864074040471578 1 0.0088247398101844905 1 0.01154768320401478 0.007048864416500298 1 1 0.010000137099766149 1 1 1 1 1 0.012403129593409081 1 1 1 1 1 0.0054365798461943129 0.010023520437340762 1 1 1 1 0.0058194067850169517 1 1 1 1 1 1 0.0066552056901982362 1 1 1 1 1 1 1 1 1 1 1 1 1 1 1 1 1 1 1 1 1 1 1 1 1 1 1 1 1 1 1 1 1 1 1 1 1 1 1 1 1 1 1 1 1 1 1 1 1 1 1 1 1 0.0087826849799143465 1 1 0.010474429542217631 1 1 0.010047086927306889 1 0.0090423608084957592 1 1 1 1 1 1 1 1 1 0.0087972979246470837 1 1 0.0096976119525286862 1 1 1 1 1 1 1 1 1 1 0.0057234764047897329 1 1 1 1 0.0079693970574355212 1 1 1 0.0086367481859974601 1 1 1 1 0.0098000082979358815 1 1 1 1 1 1 1 1 1 0.0098031813049946834 1 1 1 1 0.0095634643930157977 1 1 1 1 1 1 1 1 1 1 1 1 1 1 1 1 1 1 1 1 1 1 1 0.0097600583372789498 1 1 1 1 1 1 1 1 1 0.0099246492102262589 1 1 1 1 1 1 0.0094908832604608511 1 1 1 1 1 1 1 1 1 1 1 1 1 1 1 1 1 1 1 1 1 1 1 1 1 1 1 1 1 1 1 1 0.0086706400059985925 1 1 1 0.0089993943336803463 1 1 0.0096313077149177799 0.0098968795332022609 1 1 1 1 1 1 1 1 1 0.01045244503598515 1 1 1 0.0063009479752651337 0.010345709383869899 1 1 0.0099371410460405429 1 1 1 0.010665904120804579 0.010123765102794561 0.008351499754031929 1 1 1 1 1 1 1 1 1 1 1 1 1 1 1 1 1 1 1 1 1 1 1 1 1 1 0.0081433366573335341 1 1 0.010260204457055968 1 1 0.010083468622597938 1 1 1 1 1 1 1 0.0095578887385374851 1 1 1 1 1 1 1 1 1 1 1 1 1 0.010043761283719104 1 1 0.010276434884843044 1 1 1 1 1 1 1 1 0.010405897032421556 1 1 1 1 1 1 1 1 1 1 1 1 1 1 1 1 1 1 1 1 1 1 1 1 1 1 1 1 1 1 1 1 1 1 1 1 1 1 1 1 1 1 1 1 1 1 1 1 0.010001755759816397 1 1 1 1 1 1 1 1 1 1 1 1 1 1 1 0.0095527539172244776 1 1 1 1 1 0.00996342761448628 1 1 1 1 1 1 1 0.0099849963340653079 1 1 1 1 0.0099850082102898516 1 1 1 1 1 1 1 1 1 1 0.0097065359288394399 1 1 0.0091509059818350516 1 1 1 1 1 1 1 1 0.010006536221174023 0.0084651374374269932 1 1 1 0.0098928350448648818 1 1 1 1 1 1 1 1 1 1 0.009996025673102555 1 1 1 0.010140774332030179 1 1 1 0.0098306203108379352 1 1 1 1 1 1 1 1 1 1 0.0061252910893939659 1 1 1 1 1 1 0.0061400807500592482 1 1 0.0063027324899701011 1 1 1 1 1 1 1 1 1 1 1 1 1 0.0065535241346843399 1 1 0.0072764972060953351 1 1 1 0.009254614091093025 0.008894548710494117 1 1 1 1 1 1 0.0099848166786081407 1 1 1 1 1 1 1 1 1 1 0.0095208095658069342 1 1 1 1 1 1 1 1 1 0.0097176993506803422 1 1 0.0098002765741438055 1 1 1 1 1 1 0.0091804753926395671 1 1 1 1 1 1 1 1 1 1 1 1 1 1 0.0096677087213944725 1 1 1 1 1 0.0081175452145675672 1 1 0.010143220938730758 1 1 1 1 1 1 1 1 1 1 1 0.0097056571984514665 1 1 1 1 1 0.0091153164830811359 1 0.0098429987379346027 1 0.010000388651047031 1 1 0.0098203161072012608 1 1 1 1 0.0087255021475386649 1 0.0099983194507899786 1 0.010000022815031085 0.010003279587941036 1 1 0.0079969725048006021 1 1 0.010028175666044336 1 1 1 1 1 1 1 1 1 1 1 1 1 1 0.010209273827500677 1 1 1 1 1 0.0050066583843493967 1 1 1 1 1 1 1 1 0.0098556034066311082 1 1 1 1 1 1 1 1 1 1 1 0.0085582298686055248 1 1 1 1 1 0.0063123092159597365 1 1 1 1 1 1 0.010542868632561916 1 1 1 1 1 0.009079902976488077 0.0086950348226691385 1 1 1 0.0053838783885129613 1 1 1 1 1 1 1 1 1 1 1 1 1 1 1 1 1 1 1 1 1 1 1 0.0099730824402428121 1 1 1 1 0.0095690020467668804 0.0096509919108668917 1 0.0099154841446544087 1 1 1 1 1 1 0.010169994598232746 1 1 1 0.010722105305782909 1 1 1 1 1 1 1 0.0097402714927219275 1 1 1 0.0095976184137161399 1 1 1 1 0.0054848734444328754 1 1 0.0054414078640646329 1 1 1 0.0092576752226211922 1 1 0.0091919315301861558 1 1 0.0065399104783999164 0.0096456664170475447 0.0094063281304560126 1 0.0072576035859783575 0.01027565386936705 1 1 0.0099972048960281518 1 1 0.010096241644043829 1 1 1 1 1 1 1 0.0048328554751273182 1 1 0.0098599629984082778 1 1 1 1 1 1 1 1 1 1 1 1 1 1 1 1 1 1 1 0.01000435959177717 0.0094726260512434136 1 1 1 1 1 1 1 1 1 1 1 1 1 1 1 1 1 1 1 1 1 1 1 1 1 1 1 1 1 1 1 1 1 1 1 1 1 1 1 1 1 1 1 1 1 1 1 1 1 1 1 1 1 1 1 0.0098484314034341779 1 1 1 1 1 1 1 1 1 1 1 1 1 1 1 1 1 1 1 1 1 1 1 1 0.0096774479163746208 1 1 1 1 1 1 1 1 1 1 1 1 1 1 1 1 1 1 1 1 1 1 1 1 1 1 1 1 1 1 1 1 1 1 1 1 1 1 1 1 0.0097061394298100737 1 0.0098771229168696326 1 1 1 1 0.0073793725419364726 1 1 1 0.0078471525444358797 1 1 1 1 1 1 1 1 1 1 1 1 1 1 1 0.005644736603102901 1 1 1 1 1 1 1 1 1 1 1 0.0064873184020726362 1 1 1 0.0086897343434056157 1 1 1 1 1 1 1 1 1 0.010612521583227652 1 0.0097523435741972073 1 1 0.010216841195270377 1 1 1 1 1 1 1 1 1 1 1 0.010163627715564361 1 1 1 1 1 1 1 1 1 1 1 1 1 1 1 1 1 1 1 1 1 1 1 1 0.010479965938782553 1 1 1 1 1 1 1 1 1 1 1 0.0099767822774722102 1 1 1 0.010185509166760965 0.0098247809837656661 1 1 1 1 1 1 1 1 1 1 0.010248970226006834 1 1 1 1 0.010764756967514357 1 0.008471404051896534 1 1 1 1 0.0087175333942188307 1 1 0.010049129835213295 1 1 1 1 1 0.010316411494567204 1 1 1 1 1 1 1 1 1 1 1 1 1 1 1 1 1 1 1 1 1 1 1 1 1 1 1 0.0093416231214058561 1 1 0.010049159487575473 1 1 1 1 0.0085272527373403632 1 1 1 1 1 0.0090839877058375151 1 1 1 1 1 1 1 1 1 1 1 1 0.0087095947630940369 1 1 1 1 1 1 1 1 1 0.0087311518838612771 1 1 1 1 1 1 1 1 1 1 1 1 1 1 1 1 0.010103997483889902 1 1 1 1 1 1 1 0.010337820868930885 0.0087859713960483192 1 1 0.0095661347647087586 1 1 1 1 1 1 1 1 1 1 1 1 1 0.0098535822790380943 1 1 1 1 1 0.0095438142856494809 0.0099642254309875635 1 1 1 1 1 1 1 1 1 1 1 1 1 1 1 1 1 1 1 1 1 1 1 1 1 1 1 1 1 1 1 1 1 1 1 1 1 1 1 1 1 1 1 1 1 1 1 1 1 1 1 1 1 1 1 1 1 1 1 1 1 1 1 1 1 0.010061317167561052 1 0.0050626534418327694 1 1 1 1 1 1 1 1 1 1 1 1 1 1 1 1 1 1 1 1 1 1 1 1 1 1 1 1 1 1 1 1 1 1 1 1 1 1 1 1 1 1 1 1 1 1 1 1 1 1 1 1 1 0.00978444596095847 1 1 0.0066407306277527067 1 1 1 1 1 1 1 1 1 1 1 1 1 1 1 1 0.0054947265135932436 1 1 1 1 1 1 1 1 1 1 1 1 1 1 1 1 1 1 1 1 1 1 1 1 1 1 1 1 1 1 1 1 1 1 1 0.0097231287933974217 1 1 1 1 1 1 1 1 1 1 0.0087004861449716808 1 1 1 1 1 1 1 1 1 1 1 1 1 1 1 1 1 1 1 1 1 1 1 1 1 1 1 1 0.0096198903563827366 1 1 1 1 1 1 0.0090524986154116166 1 1 1 1 1 1 1 1 1 1 1 1 1 1 1 1 1 1 1 1 1 1 1 
</DataArray>
</CellData>
</Piece>
</UnstructuredGrid>
</VTKFile>
