<?xml version="1.0"?>
<VTKFile type="UnstructuredGrid" version="0.1" byte_order="LittleEndian">
<UnstructuredGrid>
<Piece NumberOfPoints="30408" NumberOfCells="10660">
<Points>
<DataArray type="Float64" NumberOfComponents="3" format="ascii">
-0.5 -0.5 0 -0.48728920567917788 -0.47812354948905478 0 -0.47457841135835821 -0.49999999999999889 0 -0.5 -0.5 0 -0.48728920567917788 -0.47812354948905478 0 -0.49999999999999878 -0.45624709897811161 0 -0.48728920567917788 -0.47812354948905478 0 -0.45796865371873302 -0.47359212681047042 0 -0.4753129816133379 -0.45509707814115657 0 -0.48728920567917788 -0.47812354948905478 0 -0.47457841135835821 -0.49999999999999889 0 -0.45796865371873302 -0.47359212681047042 0 -0.48728920567917788 -0.47812354948905478 0 -0.47457841135835821 -0.49999999999999889 0 -0.47457841135835821 -0.49999999999999889 0 -0.45796865371873302 -0.47359212681047042 0 -0.44554127646562608 -0.5 0 -0.45796865371873302 -0.47359212681047042 0 -0.43895256107788272 -0.46418604935823582 0 -0.431143392866355 -0.4829056483630087 0 -0.45796865371873302 -0.47359212681047042 0 -0.44554127646562608 -0.5 0 -0.431143392866355 -0.4829056483630087 0 -0.44406115625028347 -0.44557703332384968 0 -0.43895256107788272 -0.46418604935823582 0 -0.45755621545568831 -0.45508379997785497 0 -0.45796865371873302 -0.47359212681047042 0 -0.43895256107788272 -0.46418604935823582 0 -0.45755621545568831 -0.45508379997785497 0 -0.45796865371873302 -0.47359212681047042 0 -0.45755621545568831 -0.45508379997785497 0 -0.4753129816133379 -0.45509707814115657 0 -0.44406115625028347 -0.44557703332384968 0 -0.46270743750018922 -0.43383980450693532 0 -0.45755621545568831 -0.45508379997785497 0 -0.4753129816133379 -0.45509707814115657 0 -0.46270743750018922 -0.43383980450693532 0 -0.44406115625028347 -0.44557703332384968 0 -0.45755621545568831 -0.45508379997785497 0 -0.46270743750018922 -0.43383980450693532 0 -0.48355582246932982 -0.43955597354456699 0 -0.4753129816133379 -0.45509707814115657 0 -0.46270743750018922 -0.43383980450693532 0 -0.48728920567917788 -0.47812354948905478 0 -0.4753129816133379 -0.45509707814115657 0 -0.49999999999999878 -0.45624709897811161 0 -0.48728920567917788 -0.47812354948905478 0 -0.49999999999999878 -0.45624709897811161 0 -0.48355582246932982 -0.43955597354456699 0 -0.4753129816133379 -0.45509707814115657 0 -0.49999999999999878 -0.45624709897811161 0 -0.48355582246932982 -0.43955597354456699 0 -0.49999999999999878 -0.45624709897811161 0 -0.5 -0.43330622292560877 0 -0.5 -0.43330622292560877 0 -0.50000000000000033 -0.41036534687310622 0 -0.48135371875009481 -0.42210257569002091 0 -0.48355582246932982 -0.43955597354456699 0 -0.5 -0.43330622292560877 0 -0.48135371875009481 -0.42210257569002091 0 -0.50000000000000033 -0.41036534687310622 0 -0.48135371875009481 -0.42210257569002091 0 -0.48119457335462751 -0.39876517600984052 0 -0.50000000000000033 -0.41036534687310622 0 -0.48135371875009481 -0.42210257569002091 0 -0.48135371875009481 -0.42210257569002091 0 -0.48119457335462751 -0.39876517600984052 0 -0.46213276538250309 -0.40907779854437148 0 -0.48355582246932982 -0.43955597354456699 0 -0.48135371875009481 -0.42210257569002091 0 -0.46270743750018922 -0.43383980450693532 0 -0.48135371875009481 -0.42210257569002091 0 -0.46270743750018922 -0.43383980450693532 0 -0.5 -0.3866586425210472 0 -0.48119457335462751 -0.39876517600984052 0 -0.48214980597205981 -0.37354478465247692 0 -0.50000000000000033 -0.41036534687310622 0 -0.5 -0.3866586425210472 0 -0.48119457335462751 -0.39876517600984052 0 -0.48119457335462751 -0.39876517600984052 0 -0.45965944934187197 -0.3835265264780266 0 -0.48214980597205981 -0.37354478465247692 0 -0.45965944934187197 -0.3835265264780266 0 -0.44512036584187192 -0.39515352896851152 0 -0.46213276538250309 -0.40907779854437148 0 -0.48119457335462751 -0.39876517600984052 0 -0.45965944934187197 -0.3835265264780266 0 -0.46213276538250309 -0.40907779854437148 0 -0.44512036584187192 -0.39515352896851152 0 -0.46213276538250309 -0.40907779854437148 0 -0.44219295780541518 -0.4127650862795158 0 -0.45965944934187197 -0.3835265264780266 0 -0.43773489970876062 -0.37893272234885411 0 -0.44595923176202978 -0.36285224699860202 0 -0.45965944934187197 -0.3835265264780266 0 -0.44512036584187192 -0.39515352896851152 0 -0.43773489970876062 -0.37893272234885411 0 -0.48135371875009481 -0.42210257569002091 0 -0.46270743750018922 -0.43383980450693532 0 -0.46213276538250309 -0.40907779854437148 0 -0.46270743750018922 -0.43383980450693532 0 -0.46213276538250309 -0.40907779854437148 0 -0.44219295780541518 -0.4127650862795158 0 -0.44406115625028347 -0.44557703332384968 0 -0.46270743750018922 -0.43383980450693532 0 -0.43613018164064621 -0.43054320296919629 0 -0.46270743750018922 -0.43383980450693532 0 -0.44219295780541518 -0.4127650862795158 0 -0.43613018164064621 -0.43054320296919629 0 -0.43613018164064621 -0.43054320296919629 0 -0.41580689616692151 -0.41931562626284641 0 -0.42127618011461121 -0.44494189178820998 0 -0.44219295780541518 -0.4127650862795158 0 -0.41580689616692151 -0.41931562626284641 0 -0.42388175697080882 -0.39146551119179002 0 -0.44219295780541518 -0.4127650862795158 0 -0.43613018164064621 -0.43054320296919629 0 -0.41580689616692151 -0.41931562626284641 0 -0.41580689616692151 -0.41931562626284641 0 -0.40492669662672248 -0.43798144108999898 0 -0.42127618011461121 -0.44494189178820998 0 -0.43773489970876062 -0.37893272234885411 0 -0.42388175697080882 -0.39146551119179002 0 -0.42164047719416831 -0.36571281550079932 0 -0.44512036584187192 -0.39515352896851152 0 -0.43773489970876062 -0.37893272234885411 0 -0.42388175697080882 -0.39146551119179002 0 -0.44512036584187192 -0.39515352896851152 0 -0.44219295780541518 -0.4127650862795158 0 -0.42388175697080882 -0.39146551119179002 0 -0.41580689616692151 -0.41931562626284641 0 -0.42388175697080882 -0.39146551119179002 0 -0.40466629537859061 -0.39383192658213789 0 -0.42388175697080882 -0.39146551119179002 0 -0.40466629537859061 -0.39383192658213789 0 -0.40041477615190257 -0.37421588034056702 0 -0.42388175697080882 -0.39146551119179002 0 -0.42164047719416831 -0.36571281550079932 0 -0.40041477615190257 -0.37421588034056702 0 -0.40466629537859061 -0.39383192658213789 0 -0.38418505506694889 -0.38324518264567631 0 -0.40041477615190257 -0.37421588034056702 0 -0.40466629537859061 -0.39383192658213789 0 -0.38418505506694889 -0.38324518264567631 0 -0.39240925305874041 -0.4075924160768542 0 -0.39240925305874041 -0.4075924160768542 0 -0.36901160995055871 -0.39586920589086277 0 -0.38418505506694889 -0.38324518264567631 0 -0.39240925305874041 -0.4075924160768542 0 -0.36901160995055871 -0.39586920589086277 0 -0.39040948516682877 -0.42707199842964833 0 -0.40492669662672248 -0.43798144108999898 0 -0.39349440114382189 -0.44640943604882938 0 -0.41580689616692151 -0.41931562626284641 0 -0.39040948516682877 -0.42707199842964833 0 -0.40492669662672248 -0.43798144108999898 0 -0.41580689616692151 -0.41931562626284641 0 -0.40466629537859061 -0.39383192658213789 0 -0.39240925305874041 -0.4075924160768542 0 -0.41580689616692151 -0.41931562626284641 0 -0.39240925305874041 -0.4075924160768542 0 -0.41580689616692151 -0.41931562626284641 0 -0.39240925305874041 -0.4075924160768542 0 -0.39040948516682877 -0.42707199842964833 0 -0.39240925305874041 -0.4075924160768542 0 -0.37131414953934072 -0.41650685080044397 0 -0.36901160995055871 -0.39586920589086277 0 -0.39240925305874041 -0.4075924160768542 0 -0.39040948516682877 -0.42707199842964833 0 -0.37131414953934072 -0.41650685080044397 0 -0.39040948516682877 -0.42707199842964833 0 -0.3736166891281224 -0.43714449571002539 0 -0.37131414953934072 -0.41650685080044397 0 -0.39040948516682877 -0.42707199842964833 0 -0.39349440114382189 -0.44640943604882938 0 -0.3736166891281224 -0.43714449571002539 0 -0.39349440114382189 -0.44640943604882938 0 -0.3736166891281224 -0.43714449571002539 0 -0.39349440114382189 -0.44640943604882938 0 -0.37555412519250708 -0.45450972049335719 0 -0.3736166891281224 -0.43714449571002539 0 -0.40492669662672248 -0.43798144108999898 0 -0.39349440114382189 -0.44640943604882938 0 -0.40542061812618552 -0.45850642187159429 0 -0.39349440114382189 -0.44640943604882938 0 -0.40542061812618552 -0.45850642187159429 0 -0.39345103148875782 -0.47157122915297589 0 -0.39349440114382189 -0.44640943604882938 0 -0.37555412519250708 -0.45450972049335719 0 -0.39345103148875782 -0.47157122915297589 0 -0.37555412519250708 -0.45450972049335719 0 -0.37709726016953132 -0.48180856267781452 0 -0.39345103148875782 -0.47157122915297589 0 -0.37709726016953132 -0.48180856267781452 0 -0.38746700668016187 -0.5 0 -0.39345103148875782 -0.47157122915297589 0 -0.38746700668016187 -0.5 0 -0.39345103148875782 -0.47157122915297589 0 -0.40906861719514143 -0.48213408807100161 0 -0.38746700668016187 -0.5 0 -0.40906861719514143 -0.48213408807100161 0 -0.416504141572894 -0.5 0 -0.40542061812618552 -0.45850642187159429 0 -0.39345103148875782 -0.47157122915297589 0 -0.40906861719514143 -0.48213408807100161 0 -0.40542061812618552 -0.45850642187159429 0 -0.40906861719514143 -0.48213408807100161 0 -0.41912587376411509 -0.46713929473837967 0 -0.40906861719514143 -0.48213408807100161 0 -0.431143392866355 -0.4829056483630087 0 -0.41912587376411509 -0.46713929473837967 0 -0.40906861719514143 -0.48213408807100161 0 -0.416504141572894 -0.5 0 -0.431143392866355 -0.4829056483630087 0 -0.44554127646562608 -0.5 0 -0.416504141572894 -0.5 0 -0.431143392866355 -0.4829056483630087 0 -0.43895256107788272 -0.46418604935823582 0 -0.431143392866355 -0.4829056483630087 0 -0.41912587376411509 -0.46713929473837967 0 -0.43895256107788272 -0.46418604935823582 0 -0.42127618011461121 -0.44494189178820998 0 -0.41912587376411509 -0.46713929473837967 0 -0.44406115625028347 -0.44557703332384968 0 -0.43613018164064621 -0.43054320296919629 0 -0.42127618011461121 -0.44494189178820998 0 -0.44406115625028347 -0.44557703332384968 0 -0.43895256107788272 -0.46418604935823582 0 -0.42127618011461121 -0.44494189178820998 0 -0.40492669662672248 -0.43798144108999898 0 -0.40542061812618552 -0.45850642187159429 0 -0.42127618011461121 -0.44494189178820998 0 -0.40542061812618552 -0.45850642187159429 0 -0.42127618011461121 -0.44494189178820998 0 -0.41912587376411509 -0.46713929473837967 0 -0.45306907230782462 -0.25232251681507711 0 -0.43642607967142238 -0.26084114430695871 0 -0.44556350724894189 -0.24364468854636981 0 -0.4601638118973807 -0.26095674556806048 0 -0.43642607967142238 -0.26084114430695871 0 -0.45177169662763128 -0.26744155642670331 0 -0.4601638118973807 -0.26095674556806048 0 -0.43642607967142238 -0.26084114430695871 0 -0.45306907230782462 -0.25232251681507711 0 -0.4601638118973807 -0.26095674556806048 0 -0.43642607967142238 -0.26084114430695871 0 -0.43642607967142238 -0.26084114430695871 0 -0.44556350724894189 -0.24364468854636981 0 -0.43773347345645452 -0.27882328016866909 0 -0.44844563566162898 -0.27619093183111632 0 -0.43642607967142238 -0.26084114430695871 0 -0.44844563566162898 -0.27619093183111632 0 -0.45177169662763128 -0.26744155642670331 0 -0.43642607967142238 -0.26084114430695871 0 -0.45177169662763128 -0.26744155642670331 0 -0.46205125928009272 -0.27177740400067751 0 -0.4601638118973807 -0.26095674556806048 0 -0.44844563566162898 -0.27619093183111632 0 -0.45177169662763128 -0.26744155642670331 0 -0.46205125928009272 -0.27177740400067751 0 -0.44844563566162898 -0.27619093183111632 0 -0.46205125928009272 -0.27177740400067751 0 -0.45755368472981989 -0.28177162452524013 0 -0.46205125928009272 -0.27177740400067751 0 -0.47237052497863391 -0.27554062894489578 0 -0.45755368472981989 -0.28177162452524013 0 -0.46205125928009272 -0.27177740400067751 0 -0.4601638118973807 -0.26095674556806048 0 -0.46926761239268561 -0.26583050654418677 0 -0.46205125928009272 -0.27177740400067751 0 -0.46926761239268561 -0.26583050654418677 0 -0.47237052497863391 -0.27554062894489578 0 -0.4601638118973807 -0.26095674556806048 0 -0.46988654323412399 -0.25376486017055988 0 -0.46926761239268561 -0.26583050654418677 0 -0.45306907230782462 -0.25232251681507711 0 -0.4601638118973807 -0.26095674556806048 0 -0.46250353458280602 -0.25195211531325362 0 -0.4601638118973807 -0.26095674556806048 0 -0.46250353458280602 -0.25195211531325362 0 -0.46988654323412399 -0.25376486017055988 0 -0.46250353458280602 -0.25195211531325362 0 -0.46988654323412399 -0.25376486017055988 0 -0.46850526789622282 -0.24757318136594539 0 -0.4853898169762606 -0.26134351903538899 0 -0.48502007583338758 -0.2469378092922189 0 -0.47077963395251871 -0.24473077581834859 0 -0.46988654323412399 -0.25376486017055988 0 -0.47058323640597721 -0.24671744073993451 0 -0.46988654323412399 -0.25376486017055988 0 -0.48186592257319688 -0.26711289403674032 0 -0.47058323640597721 -0.24671744073993451 0 -0.4853898169762606 -0.26134351903538899 0 -0.47077963395251871 -0.24473077581834859 0 -0.47058323640597721 -0.24671744073993451 0 -0.4853898169762606 -0.26134351903538899 0 -0.48186592257319688 -0.26711289403674032 0 -0.47058323640597721 -0.24671744073993451 0 -0.48186592257319688 -0.26711289403674032 0 -0.47058323640597721 -0.24671744073993451 0 -0.4853898169762606 -0.26134351903538899 0 -0.47077963395251871 -0.24473077581834859 0 -0.46988654323412399 -0.25376486017055988 0 -0.48186592257319688 -0.26711289403674032 0 -0.46926761239268561 -0.26583050654418677 0 -0.4853898169762606 -0.26134351903538899 0 -0.5 -0.24798632218469371 0 -0.48502007583338758 -0.2469378092922189 0 -0.4853898169762606 -0.26134351903538899 0 -0.500000000000002 -0.27795626225243009 0 -0.5 -0.24798632218469371 0 -0.4853898169762606 -0.26134351903538899 0 -0.500000000000002 -0.27795626225243009 0 -0.48186592257319688 -0.26711289403674032 0 -0.4853898169762606 -0.26134351903538899 0 -0.500000000000002 -0.27795626225243009 0 -0.500000000000002 -0.27795626225243009 0 -0.48186592257319688 -0.26711289403674032 0 -0.49314860874041599 -0.28750834733354641 0 -0.48186592257319688 -0.26711289403674032 0 -0.49314860874041599 -0.28750834733354641 0 -0.48186592257319688 -0.26711289403674032 0 -0.47237052497863391 -0.27554062894489578 0 -0.47798203895346081 -0.28943359688390791 0 -0.48186592257319688 -0.26711289403674032 0 -0.46926761239268561 -0.26583050654418677 0 -0.47237052497863391 -0.27554062894489578 0 -0.47237052497863391 -0.27554062894489578 0 -0.47798203895346081 -0.28943359688390791 0 -0.46281546916650529 -0.29135884643426768 0 -0.48186592257319688 -0.26711289403674032 0 -0.47798203895346081 -0.28943359688390791 0 -0.49314860874041599 -0.28750834733354641 0 -0.47798203895346081 -0.28943359688390791 0 -0.47028789284089778 -0.30391230291447102 0 -0.46281546916650529 -0.29135884643426768 0 -0.47798203895346081 -0.28943359688390791 0 -0.46281546916650529 -0.29135884643426768 0 -0.47798203895346081 -0.28943359688390791 0 -0.49314860874041599 -0.28750834733354641 0 -0.47798203895346081 -0.28943359688390791 0 -0.4884094073795705 -0.2962869496338506 0 -0.49314860874041599 -0.28750834733354641 0 -0.50000000000000089 -0.28663862938630102 0 -0.49314860874041599 -0.28750834733354641 0 -0.49999999999999911 -0.2998934503473053 0 -0.4884094073795705 -0.2962869496338506 0 -0.49314860874041599 -0.28750834733354641 0 -0.49999999999999911 -0.2998934503473053 0 -0.49314860874041599 -0.28750834733354641 0 -0.49999999999999911 -0.2998934503473053 0 -0.500000000000002 -0.27795626225243009 0 -0.50000000000000089 -0.28663862938630102 0 -0.49314860874041599 -0.28750834733354641 0 -0.50000000000000089 -0.28663862938630102 0 -0.49314860874041599 -0.28750834733354641 0 -0.49999999999999911 -0.2998934503473053 0 -0.48250698182440682 -0.30831240397064219 0 -0.5 -0.31673135759397542 0 -0.4884094073795705 -0.2962869496338506 0 -0.49999999999999911 -0.2998934503473053 0 -0.48250698182440682 -0.30831240397064219 0 -0.47798203895346081 -0.28943359688390791 0 -0.48250698182440682 -0.30831240397064219 0 -0.47028789284089778 -0.30391230291447102 0 -0.47798203895346081 -0.28943359688390791 0 -0.4884094073795705 -0.2962869496338506 0 -0.48250698182440682 -0.30831240397064219 0 -0.47028789284089778 -0.30391230291447102 0 -0.45477135442168509 -0.3046757290401737 0 -0.4733636198384315 -0.32578093824336402 0 -0.45477135442168509 -0.3046757290401737 0 -0.46281546916650529 -0.29135884643426768 0 -0.47028789284089778 -0.30391230291447102 0 -0.45477135442168509 -0.3046757290401737 0 -0.46281546916650529 -0.29135884643426768 0 -0.47237052497863391 -0.27554062894489578 0 -0.46281546916650529 -0.29135884643426768 0 -0.45755368472981989 -0.28177162452524013 0 -0.46281546916650529 -0.29135884643426768 0 -0.45755368472981989 -0.28177162452524013 0 -0.44208553456223998 -0.29399031141524368 0 -0.45477135442168509 -0.3046757290401737 0 -0.46281546916650529 -0.29135884643426768 0 -0.44208553456223998 -0.29399031141524368 0 -0.47237052497863391 -0.27554062894489578 0 -0.46281546916650529 -0.29135884643426768 0 -0.43773347345645452 -0.27882328016866909 0 -0.44844563566162898 -0.27619093183111632 0 -0.44208553456223998 -0.29399031141524368 0 -0.44844563566162898 -0.27619093183111632 0 -0.45755368472981989 -0.28177162452524013 0 -0.44208553456223998 -0.29399031141524368 0 -0.46281546916650529 -0.29135884643426768 0 -0.44208553456223998 -0.29399031141524368 0 -0.44092437754663372 -0.30620894631917928 0 -0.44672723967686617 -0.31799261164608028 0 -0.42912722393324793 -0.31284646679091871 0 -0.44208553456223998 -0.29399031141524368 0 -0.44092437754663372 -0.30620894631917928 0 -0.43337318400002411 -0.30241687523039001 0 -0.45477135442168509 -0.3046757290401737 0 -0.44672723967686617 -0.31799261164608028 0 -0.45477135442168509 -0.3046757290401737 0 -0.44092437754663372 -0.30620894631917928 0 -0.44672723967686617 -0.31799261164608028 0 -0.45477135442168509 -0.3046757290401737 0 -0.44208553456223998 -0.29399031141524368 0 -0.44092437754663372 -0.30620894631917928 0 -0.44672723967686617 -0.31799261164608028 0 -0.44314292796841043 -0.32392637312992939 0 -0.42912722393324793 -0.31284646679091871 0 -0.44672723967686617 -0.31799261164608028 0 -0.42912722393324793 -0.31284646679091871 0 -0.44672723967686617 -0.31799261164608028 0 -0.44314292796841043 -0.32392637312992939 0 -0.44314292796841043 -0.32392637312992939 0 -0.45108534153434932 -0.34399523408449367 0 -0.43017040959876479 -0.34540213643163997 0 -0.44314292796841043 -0.32392637312992939 0 -0.47157146398420757 -0.33158580347342831 0 -0.45108534153434932 -0.34399523408449367 0 -0.45477135442168509 -0.3046757290401737 0 -0.44672723967686617 -0.31799261164608028 0 -0.4733636198384315 -0.32578093824336402 0 -0.44672723967686617 -0.31799261164608028 0 -0.44314292796841043 -0.32392637312992939 0 -0.47157146398420757 -0.33158580347342831 0 -0.44672723967686617 -0.31799261164608028 0 -0.4733636198384315 -0.32578093824336402 0 -0.47157146398420757 -0.33158580347342831 0 -0.44314292796841043 -0.32392637312992939 0 -0.47157146398420757 -0.33158580347342831 0 -0.44672723967686617 -0.31799261164608028 0 -0.4733636198384315 -0.32578093824336402 0 -0.48250698182440682 -0.30831240397064219 0 -0.47028789284089778 -0.30391230291447102 0 -0.4733636198384315 -0.32578093824336402 0 -0.4733636198384315 -0.32578093824336402 0 -0.5 -0.31673135759397542 0 -0.49999999999999761 -0.33356926484064559 0 -0.48250698182440682 -0.30831240397064219 0 -0.4733636198384315 -0.32578093824336402 0 -0.5 -0.31673135759397542 0 -0.4733636198384315 -0.32578093824336402 0 -0.49999999999999761 -0.33356926484064559 0 -0.49999999999999761 -0.33356926484064559 0 -0.50000000000000422 -0.33924523381692923 0 -0.47157146398420757 -0.33158580347342831 0 -0.50000000000000422 -0.33924523381692923 0 -0.47157146398420757 -0.33158580347342831 0 -0.50000000000000422 -0.33924523381692923 0 -0.47157146398420757 -0.33158580347342831 0 -0.48455114907446672 -0.35254182440596232 0 -0.4733636198384315 -0.32578093824336402 0 -0.49999999999999761 -0.33356926484064559 0 -0.47157146398420757 -0.33158580347342831 0 -0.47157146398420757 -0.33158580347342831 0 -0.48455114907446672 -0.35254182440596232 0 -0.4659528527067241 -0.35826783874400381 0 -0.50000000000000422 -0.33924523381692923 0 -0.48455114907446672 -0.35254182440596232 0 -0.5 -0.36295193816898819 0 -0.48455114907446672 -0.35254182440596232 0 -0.5 -0.36295193816898819 0 -0.48214980597205981 -0.37354478465247692 0 -0.5 -0.3866586425210472 0 -0.5 -0.36295193816898819 0 -0.48214980597205981 -0.37354478465247692 0 -0.45965944934187197 -0.3835265264780266 0 -0.48214980597205981 -0.37354478465247692 0 -0.4659528527067241 -0.35826783874400381 0 -0.48455114907446672 -0.35254182440596232 0 -0.48214980597205981 -0.37354478465247692 0 -0.4659528527067241 -0.35826783874400381 0 -0.45965944934187197 -0.3835265264780266 0 -0.4659528527067241 -0.35826783874400381 0 -0.44595923176202978 -0.36285224699860202 0 -0.4659528527067241 -0.35826783874400381 0 -0.45108534153434932 -0.34399523408449367 0 -0.44595923176202978 -0.36285224699860202 0 -0.47157146398420757 -0.33158580347342831 0 -0.4659528527067241 -0.35826783874400381 0 -0.45108534153434932 -0.34399523408449367 0 -0.45108534153434932 -0.34399523408449367 0 -0.44595923176202978 -0.36285224699860202 0 -0.43017040959876479 -0.34540213643163997 0 -0.43773489970876062 -0.37893272234885411 0 -0.44595923176202978 -0.36285224699860202 0 -0.42164047719416831 -0.36571281550079932 0 -0.44595923176202978 -0.36285224699860202 0 -0.43017040959876479 -0.34540213643163997 0 -0.42164047719416831 -0.36571281550079932 0 -0.43017040959876479 -0.34540213643163997 0 -0.4137007919686273 -0.34795390930449799 0 -0.42164047719416831 -0.36571281550079932 0 -0.4137007919686273 -0.34795390930449799 0 -0.42164047719416831 -0.36571281550079932 0 -0.39874848736444218 -0.35585322567844058 0 -0.42164047719416831 -0.36571281550079932 0 -0.40041477615190257 -0.37421588034056702 0 -0.39874848736444218 -0.35585322567844058 0 -0.40041477615190257 -0.37421588034056702 0 -0.38147600501456802 -0.36607062237383597 0 -0.39874848736444218 -0.35585322567844058 0 -0.38418505506694889 -0.38324518264567631 0 -0.40041477615190257 -0.37421588034056702 0 -0.38147600501456802 -0.36607062237383597 0 -0.38418505506694889 -0.38324518264567631 0 -0.38147600501456802 -0.36607062237383597 0 -0.36624000729476319 -0.37102735226134842 0 -0.38147600501456802 -0.36607062237383597 0 -0.38259616395170443 -0.35187851899127759 0 -0.39874848736444218 -0.35585322567844058 0 -0.38259616395170443 -0.35187851899127759 0 -0.39874848736444218 -0.35585322567844058 0 -0.38739516668892748 -0.33934841135936261 0 -0.38259616395170443 -0.35187851899127759 0 -0.38739516668892748 -0.33934841135936261 0 -0.37578914977814259 -0.34132583244091969 0 -0.38259616395170443 -0.35187851899127759 0 -0.37578914977814259 -0.34132583244091969 0 -0.37141059817626459 -0.35401489111333162 0 -0.38147600501456802 -0.36607062237383597 0 -0.38259616395170443 -0.35187851899127759 0 -0.37141059817626459 -0.35401489111333162 0 -0.4137007919686273 -0.34795390930449799 0 -0.39874848736444218 -0.35585322567844058 0 -0.40190673677085642 -0.33992512952839699 0 -0.39874848736444218 -0.35585322567844058 0 -0.40190673677085642 -0.33992512952839699 0 -0.38739516668892748 -0.33934841135936261 0 -0.40190673677085642 -0.33992512952839699 0 -0.38739516668892748 -0.33934841135936261 0 -0.38892882549769858 -0.32721379087612501 0 -0.38739516668892748 -0.33934841135936261 0 -0.38103920531867941 -0.32889311645013108 0 -0.38892882549769858 -0.32721379087612501 0 -0.38103920531867941 -0.32889311645013108 0 -0.37578914977814259 -0.34132583244091969 0 -0.3687881979006094 -0.33168631059635417 0 -0.38739516668892748 -0.33934841135936261 0 -0.38103920531867941 -0.32889311645013108 0 -0.37578914977814259 -0.34132583244091969 0 -0.38014324619299489 -0.31717333467557429 0 -0.38892882549769858 -0.32721379087612501 0 -0.3941597725170336 -0.31072896236716419 0 -0.38103920531867941 -0.32889311645013108 0 -0.38014324619299489 -0.31717333467557429 0 -0.3722314511169254 -0.32243981616541317 0 -0.38103920531867941 -0.32889311645013108 0 -0.38014324619299489 -0.31717333467557429 0 -0.38892882549769858 -0.32721379087612501 0 -0.40190673677085642 -0.33992512952839699 0 -0.38892882549769858 -0.32721379087612501 0 -0.3941597725170336 -0.31072896236716419 0 -0.40190673677085642 -0.33992512952839699 0 -0.3941597725170336 -0.31072896236716419 0 -0.40190673677085642 -0.33992512952839699 0 -0.40345428040220982 -0.32289341040371389 0 -0.3941597725170336 -0.31072896236716419 0 -0.40794448118655352 -0.31444294242582199 0 -0.3941597725170336 -0.31072896236716419 0 -0.40345428040220982 -0.32289341040371389 0 -0.40794448118655352 -0.31444294242582199 0 -0.40345428040220982 -0.32289341040371389 0 -0.40794448118655352 -0.31444294242582199 0 -0.3941597725170336 -0.31072896236716419 0 -0.40794448118655352 -0.31444294242582199 0 -0.41363061931460432 -0.32288248188488838 0 -0.42554370457748208 -0.31918465777787502 0 -0.40794448118655352 -0.31444294242582199 0 -0.42554370457748208 -0.31918465777787502 0 -0.40345428040220982 -0.32289341040371389 0 -0.40794448118655352 -0.31444294242582199 0 -0.41363061931460432 -0.32288248188488838 0 -0.40794448118655352 -0.31444294242582199 0 -0.42554370457748208 -0.31918465777787502 0 -0.41152720818962979 -0.30770032193575653 0 -0.41363061931460432 -0.32288248188488838 0 -0.4160378489149047 -0.33287623938321292 0 -0.42554370457748208 -0.31918465777787502 0 -0.40345428040220982 -0.32289341040371389 0 -0.41363061931460432 -0.32288248188488838 0 -0.4160378489149047 -0.33287623938321292 0 -0.40190673677085642 -0.33992512952839699 0 -0.40345428040220982 -0.32289341040371389 0 -0.4160378489149047 -0.33287623938321292 0 -0.43017040959876479 -0.34540213643163997 0 -0.4137007919686273 -0.34795390930449799 0 -0.4160378489149047 -0.33287623938321292 0 -0.4137007919686273 -0.34795390930449799 0 -0.40190673677085642 -0.33992512952839699 0 -0.4160378489149047 -0.33287623938321292 0 -0.44314292796841043 -0.32392637312992939 0 -0.43017040959876479 -0.34540213643163997 0 -0.43017040959876479 -0.34540213643163997 0 -0.4160378489149047 -0.33287623938321292 0 -0.42554370457748208 -0.31918465777787502 0 -0.44314292796841043 -0.32392637312992939 0 -0.43017040959876479 -0.34540213643163997 0 -0.42554370457748208 -0.31918465777787502 0 -0.44314292796841043 -0.32392637312992939 0 -0.42912722393324793 -0.31284646679091871 0 -0.42554370457748208 -0.31918465777787502 0 -0.42912722393324793 -0.31284646679091871 0 -0.42554370457748208 -0.31918465777787502 0 -0.41152720818962979 -0.30770032193575653 0 -0.44314292796841043 -0.32392637312992939 0 -0.42554370457748208 -0.31918465777787502 0 -0.44208553456223998 -0.29399031141524368 0 -0.43337318400002411 -0.30241687523039001 0 -0.42135559995797472 -0.29662177639621828 0 -0.42912722393324793 -0.31284646679091871 0 -0.43337318400002411 -0.30241687523039001 0 -0.42135559995797472 -0.29662177639621828 0 -0.44092437754663372 -0.30620894631917928 0 -0.42912722393324793 -0.31284646679091871 0 -0.43337318400002411 -0.30241687523039001 0 -0.43773347345645452 -0.27882328016866909 0 -0.44208553456223998 -0.29399031141524368 0 -0.42397664393052642 -0.2842707331213577 0 -0.44208553456223998 -0.29399031141524368 0 -0.42135559995797472 -0.29662177639621828 0 -0.44208553456223998 -0.29399031141524368 0 -0.42397664393052642 -0.2842707331213577 0 -0.42135559995797472 -0.29662177639621828 0 -0.42397664393052642 -0.2842707331213577 0 -0.41152720818962979 -0.30770032193575653 0 -0.40478388182378189 -0.2874318939528166 0 -0.42397664393052642 -0.2842707331213577 0 -0.41152720818962979 -0.30770032193575653 0 -0.42397664393052642 -0.2842707331213577 0 -0.42135559995797472 -0.29662177639621828 0 -0.41152720818962979 -0.30770032193575653 0 -0.42912722393324793 -0.31284646679091871 0 -0.42135559995797472 -0.29662177639621828 0 -0.41152720818962979 -0.30770032193575653 0 -0.42912722393324793 -0.31284646679091871 0 -0.41152720818962979 -0.30770032193575653 0 -0.40794448118655352 -0.31444294242582199 0 -0.41152720818962979 -0.30770032193575653 0 -0.41152720818962979 -0.30770032193575653 0 -0.39182777818532949 -0.3019403202492193 0 -0.3941597725170336 -0.31072896236716419 0 -0.41152720818962979 -0.30770032193575653 0 -0.39182777818532949 -0.3019403202492193 0 -0.40478388182378189 -0.2874318939528166 0 -0.40794448118655352 -0.31444294242582199 0 -0.41152720818962979 -0.30770032193575653 0 -0.3941597725170336 -0.31072896236716419 0 -0.41152720818962979 -0.30770032193575653 0 -0.39182777818532949 -0.3019403202492193 0 -0.39182777818532949 -0.3019403202492193 0 -0.3941597725170336 -0.31072896236716419 0 -0.39182777818532949 -0.3019403202492193 0 -0.3941597725170336 -0.31072896236716419 0 -0.37162869704854778 -0.3046584702736127 0 -0.39182777818532949 -0.3019403202492193 0 -0.36701298646514702 -0.29468461578832789 0 -0.37162869704854778 -0.3046584702736127 0 -0.3941597725170336 -0.31072896236716419 0 -0.37162869704854778 -0.3046584702736127 0 -0.39182777818532949 -0.3019403202492193 0 -0.36701298646514702 -0.29468461578832789 0 -0.38014324619299489 -0.31717333467557429 0 -0.3941597725170336 -0.31072896236716419 0 -0.37162869704854778 -0.3046584702736127 0 -0.39182777818532949 -0.3019403202492193 0 -0.38633920578722653 -0.28125540781626862 0 -0.36701298646514702 -0.29468461578832789 0 -0.39182777818532949 -0.3019403202492193 0 -0.38633920578722653 -0.28125540781626862 0 -0.39182777818532949 -0.3019403202492193 0 -0.38633920578722653 -0.28125540781626862 0 -0.40478388182378189 -0.2874318939528166 0 -0.38633920578722653 -0.28125540781626862 0 -0.38085063338912112 -0.26057049538331861 0 -0.40863835653027181 -0.26070581984513841 0 -0.38633920578722653 -0.28125540781626862 0 -0.40478388182378189 -0.2874318939528166 0 -0.40863835653027181 -0.26070581984513841 0 -0.38633920578722653 -0.28125540781626862 0 -0.37561428764208421 -0.2702805404012773 0 -0.36810881758400998 -0.27707677843406447 0 -0.38633920578722653 -0.28125540781626862 0 -0.37561428764208421 -0.2702805404012773 0 -0.38085063338912112 -0.26057049538331861 0 -0.38633920578722653 -0.28125540781626862 0 -0.38085063338912112 -0.26057049538331861 0 -0.38085063338912112 -0.26057049538331861 0 -0.39247053923710551 -0.24939716594219299 0 -0.37678112187297758 -0.2452336312134257 0 -0.38085063338912112 -0.26057049538331861 0 -0.37678112187297758 -0.2452336312134257 0 -0.38085063338912112 -0.26057049538331861 0 -0.37334034393729149 -0.25338721452093371 0 -0.37678112187297758 -0.2452336312134257 0 -0.37542120140629098 -0.2605440543914706 0 -0.38085063338912112 -0.26057049538331861 0 -0.37334034393729149 -0.25338721452093371 0 -0.37542120140629098 -0.2605440543914706 0 -0.38085063338912112 -0.26057049538331861 0 -0.37561428764208421 -0.2702805404012773 0 -0.37542120140629098 -0.2605440543914706 0 -0.38085063338912112 -0.26057049538331861 0 -0.38085063338912112 -0.26057049538331861 0 -0.40863835653027181 -0.26070581984513841 0 -0.39247053923710551 -0.24939716594219299 0 -0.38085063338912112 -0.26057049538331861 0 -0.40863835653027181 -0.26070581984513841 0 -0.42397664393052642 -0.2842707331213577 0 -0.40478388182378189 -0.2874318939528166 0 -0.40863835653027181 -0.26070581984513841 0 -0.42397664393052642 -0.2842707331213577 0 -0.43642607967142238 -0.26084114430695871 0 -0.42397664393052642 -0.2842707331213577 0 -0.40863835653027181 -0.26070581984513841 0 -0.43642607967142238 -0.26084114430695871 0 -0.43773347345645452 -0.27882328016866909 0 -0.42397664393052642 -0.2842707331213577 0 -0.43642607967142238 -0.26084114430695871 0 -0.40863835653027181 -0.26070581984513841 0 -0.42087927690535393 -0.25302945043118802 0 -0.43642607967142238 -0.26084114430695871 0 -0.42087927690535393 -0.25302945043118802 0 -0.43642607967142238 -0.26084114430695871 0 -0.431324128147276 -0.242745006165792 0 -0.40863835653027181 -0.26070581984513841 0 -0.43642607967142238 -0.26084114430695871 0 -0.32744647364846552 -0.26526278717815183 0 -0.31077711748131492 -0.25702282537168147 0 -0.33027266425927859 -0.24683834036247571 0 -0.32744647364846552 -0.26526278717815183 0 -0.31738340302478291 -0.28017320686654179 0 -0.31077711748131492 -0.25702282537168147 0 -0.32744647364846552 -0.26526278717815183 0 -0.31738340302478291 -0.28017320686654179 0 -0.34219819474496488 -0.28742891132743492 0 -0.32744647364846552 -0.26526278717815183 0 -0.34375743979390472 -0.26972389253507878 0 -0.34219819474496488 -0.28742891132743492 0 -0.32744647364846552 -0.26526278717815183 0 -0.34375743979390472 -0.26972389253507878 0 -0.33027266425927859 -0.24683834036247571 0 -0.34375743979390472 -0.26972389253507878 0 -0.33027266425927859 -0.24683834036247571 0 -0.34725443873700851 -0.254199054228685 0 -0.34375743979390472 -0.26972389253507878 0 -0.33027266425927859 -0.24683834036247571 0 -0.34725443873700851 -0.254199054228685 0 -0.35658580806150242 -0.26135137822880039 0 -0.34375743979390472 -0.26972389253507878 0 -0.34725443873700851 -0.254199054228685 0 -0.35658580806150242 -0.26135137822880039 0 -0.35708983411506928 -0.24930836992724159 0 -0.36619617595168802 -0.25617942411453182 0 -0.36587464758802812 -0.24575550255018591 0 -0.35708983411506928 -0.24930836992724159 0 -0.35658580806150242 -0.26135137822880039 0 -0.36619617595168802 -0.25617942411453182 0 -0.35708983411506928 -0.24930836992724159 0 -0.35658580806150242 -0.26135137822880039 0 -0.36619617595168802 -0.25617942411453182 0 -0.36692553593806471 -0.26571789802540902 0 -0.37561428764208421 -0.2702805404012773 0 -0.37542120140629098 -0.2605440543914706 0 -0.36692553593806471 -0.26571789802540902 0 -0.37542120140629098 -0.2605440543914706 0 -0.36619617595168802 -0.25617942411453182 0 -0.36692553593806471 -0.26571789802540902 0 -0.36619617595168802 -0.25617942411453182 0 -0.37334034393729149 -0.25338721452093371 0 -0.36587464758802812 -0.24575550255018591 0 -0.37542120140629098 -0.2605440543914706 0 -0.36619617595168802 -0.25617942411453182 0 -0.37334034393729149 -0.25338721452093371 0 -0.37561428764208421 -0.2702805404012773 0 -0.36810881758400998 -0.27707677843406447 0 -0.36692553593806471 -0.26571789802540902 0 -0.36810881758400998 -0.27707677843406447 0 -0.36692553593806471 -0.26571789802540902 0 -0.35814408935303188 -0.27074443700424461 0 -0.35658580806150242 -0.26135137822880039 0 -0.36692553593806471 -0.26571789802540902 0 -0.35814408935303188 -0.27074443700424461 0 -0.36810881758400998 -0.27707677843406447 0 -0.35534284538767807 -0.27985223779787022 0 -0.35814408935303188 -0.27074443700424461 0 -0.35534284538767807 -0.27985223779787022 0 -0.34375743979390472 -0.26972389253507878 0 -0.34219819474496488 -0.28742891132743492 0 -0.35534284538767807 -0.27985223779787022 0 -0.35814408935303188 -0.27074443700424461 0 -0.34375743979390472 -0.26972389253507878 0 -0.35658580806150242 -0.26135137822880039 0 -0.35814408935303188 -0.27074443700424461 0 -0.34375743979390472 -0.26972389253507878 0 -0.36701298646514702 -0.29468461578832789 0 -0.34909762158006091 -0.29858797818006572 0 -0.34219819474496488 -0.28742891132743492 0 -0.36701298646514702 -0.29468461578832789 0 -0.34219819474496488 -0.28742891132743492 0 -0.35534284538767807 -0.27985223779787022 0 -0.36701298646514702 -0.29468461578832789 0 -0.34219819474496488 -0.28742891132743492 0 -0.36810881758400998 -0.27707677843406447 0 -0.35534284538767807 -0.27985223779787022 0 -0.36701298646514702 -0.29468461578832789 0 -0.38633920578722653 -0.28125540781626862 0 -0.36810881758400998 -0.27707677843406447 0 -0.36701298646514702 -0.29468461578832789 0 -0.37162869704854778 -0.3046584702736127 0 -0.36505757428823998 -0.3052957683531895 0 -0.34909762158006091 -0.29858797818006572 0 -0.36701298646514702 -0.29468461578832789 0 -0.37162869704854778 -0.3046584702736127 0 -0.34909762158006091 -0.29858797818006572 0 -0.37162869704854778 -0.3046584702736127 0 -0.34909762158006091 -0.29858797818006572 0 -0.37162869704854778 -0.3046584702736127 0 -0.36505757428823998 -0.3052957683531895 0 -0.37011105994908639 -0.31413857189152028 0 -0.38014324619299489 -0.31717333467557429 0 -0.37162869704854778 -0.3046584702736127 0 -0.37011105994908639 -0.31413857189152028 0 -0.36505757428823998 -0.3052957683531895 0 -0.35256863728084598 -0.31030061623748328 0 -0.36107554622325688 -0.32030774721348609 0 -0.36505757428823998 -0.3052957683531895 0 -0.35256863728084598 -0.31030061623748328 0 -0.34909762158006091 -0.29858797818006572 0 -0.35256863728084598 -0.31030061623748328 0 -0.34158629282979081 -0.30662105060640682 0 -0.34256388774235758 -0.31987923251974942 0 -0.35256863728084598 -0.31030061623748328 0 -0.34909762158006091 -0.29858797818006572 0 -0.34158629282979081 -0.30662105060640682 0 -0.34158629282979081 -0.30662105060640682 0 -0.32803425732643948 -0.30443873896571688 0 -0.34256388774235758 -0.31987923251974942 0 -0.34909762158006091 -0.29858797818006572 0 -0.33699477366573122 -0.3008488971569247 0 -0.32938762360542689 -0.29327756203787242 0 -0.32803425732643948 -0.30443873896571688 0 -0.34256388774235758 -0.31987923251974942 0 -0.33699477366573122 -0.3008488971569247 0 -0.32938762360542689 -0.29327756203787242 0 -0.32803425732643948 -0.30443873896571688 0 -0.34158629282979081 -0.30662105060640682 0 -0.33699477366573122 -0.3008488971569247 0 -0.32803425732643948 -0.30443873896571688 0 -0.34909762158006091 -0.29858797818006572 0 -0.34158629282979081 -0.30662105060640682 0 -0.33699477366573122 -0.3008488971569247 0 -0.34909762158006091 -0.29858797818006572 0 -0.32938762360542689 -0.29327756203787242 0 -0.31738340302478291 -0.28017320686654179 0 -0.34219819474496488 -0.28742891132743492 0 -0.32656654611157382 -0.2925174860865194 0 -0.34909762158006091 -0.29858797818006572 0 -0.34219819474496488 -0.28742891132743492 0 -0.32938762360542689 -0.29327756203787242 0 -0.34219819474496488 -0.28742891132743492 0 -0.32938762360542689 -0.29327756203787242 0 -0.32656654611157382 -0.2925174860865194 0 -0.31738340302478291 -0.28017320686654179 0 -0.34219819474496488 -0.28742891132743492 0 -0.32656654611157382 -0.2925174860865194 0 -0.31350462691052289 -0.28899824541168301 0 -0.31058869305430947 -0.28522151012657648 0 -0.31738340302478291 -0.28017320686654179 0 -0.32656654611157382 -0.2925174860865194 0 -0.31058869305430947 -0.28522151012657648 0 -0.32656654611157382 -0.2925174860865194 0 -0.31350462691052289 -0.28899824541168301 0 -0.32803425732643948 -0.30443873896571688 0 -0.32938762360542689 -0.29327756203787242 0 -0.32656654611157382 -0.2925174860865194 0 -0.32803425732643948 -0.30443873896571688 0 -0.32656654611157382 -0.2925174860865194 0 -0.31058869305430947 -0.28522151012657648 0 -0.31350462691052289 -0.28899824541168301 0 -0.32803425732643948 -0.30443873896571688 0 -0.32938762360542689 -0.29327756203787242 0 -0.32656654611157382 -0.2925174860865194 0 -0.32656654611157382 -0.2925174860865194 0 -0.31350462691052289 -0.28899824541168301 0 -0.31350462691052289 -0.28899824541168301 0 -0.31418631161874522 -0.30262933336260223 0 -0.32803425732643948 -0.30443873896571688 0 -0.31418631161874522 -0.30262933336260223 0 -0.31917735588185442 -0.31184114957948172 0 -0.30759438255479182 -0.31072178825974578 0 -0.31418631161874522 -0.30262933336260223 0 -0.31917735588185442 -0.31184114957948172 0 -0.32803425732643948 -0.30443873896571688 0 -0.31917735588185442 -0.31184114957948172 0 -0.32803425732643948 -0.30443873896571688 0 -0.32773387964692668 -0.31985859573326691 0 -0.32773387964692668 -0.31985859573326691 0 -0.31540161318342852 -0.32212682161183159 0 -0.32325377842787051 -0.33367916054834329 0 -0.31917735588185442 -0.31184114957948172 0 -0.32773387964692668 -0.31985859573326691 0 -0.31540161318342852 -0.32212682161183159 0 -0.31917735588185442 -0.31184114957948172 0 -0.31540161318342852 -0.32212682161183159 0 -0.30759438255479182 -0.31072178825974578 0 -0.31540161318342852 -0.32212682161183159 0 -0.32325377842787051 -0.33367916054834329 0 -0.31173073947322227 -0.33253608309906851 0 -0.31444239463721041 -0.34228988053731008 0 -0.32325377842787051 -0.33367916054834329 0 -0.31173073947322227 -0.33253608309906851 0 -0.31444239463721041 -0.34228988053731008 0 -0.32325377842787051 -0.33367916054834329 0 -0.32338879346967808 -0.34911347729272318 0 -0.32325377842787051 -0.33367916054834329 0 -0.33486058731380758 -0.34168459823808228 0 -0.32338879346967808 -0.34911347729272318 0 -0.32325377842787051 -0.33367916054834329 0 -0.33486058731380758 -0.34168459823808228 0 -0.33531237872231501 -0.32801786945355899 0 -0.33486058731380758 -0.34168459823808228 0 -0.34291647167388528 -0.33397465719449482 0 -0.34475198643267202 -0.34497185968730087 0 -0.33486058731380758 -0.34168459823808228 0 -0.34291647167388528 -0.33397465719449482 0 -0.33531237872231501 -0.32801786945355899 0 -0.34291647167388528 -0.33397465719449482 0 -0.33531237872231501 -0.32801786945355899 0 -0.34256388774235758 -0.31987923251974942 0 -0.32773387964692668 -0.31985859573326691 0 -0.32325377842787051 -0.33367916054834329 0 -0.33531237872231501 -0.32801786945355899 0 -0.32773387964692668 -0.31985859573326691 0 -0.33531237872231501 -0.32801786945355899 0 -0.34256388774235758 -0.31987923251974942 0 -0.32803425732643948 -0.30443873896571688 0 -0.32773387964692668 -0.31985859573326691 0 -0.34256388774235758 -0.31987923251974942 0 -0.34256388774235758 -0.31987923251974942 0 -0.36107554622325688 -0.32030774721348609 0 -0.35709351815827461 -0.3353197260737828 0 -0.35256863728084598 -0.31030061623748328 0 -0.34256388774235758 -0.31987923251974942 0 -0.36107554622325688 -0.32030774721348609 0 -0.34256388774235758 -0.31987923251974942 0 -0.35709351815827461 -0.3353197260737828 0 -0.36107554622325688 -0.32030774721348609 0 -0.35709351815827461 -0.3353197260737828 0 -0.36505757428823998 -0.3052957683531895 0 -0.36107554622325688 -0.32030774721348609 0 -0.36505757428823998 -0.3052957683531895 0 -0.36107554622325688 -0.32030774721348609 0 -0.37011105994908639 -0.31413857189152028 0 -0.36107554622325688 -0.32030774721348609 0 -0.3722314511169254 -0.32243981616541317 0 -0.3687881979006094 -0.33168631059635417 0 -0.38103920531867941 -0.32889311645013108 0 -0.3722314511169254 -0.32243981616541317 0 -0.3687881979006094 -0.33168631059635417 0 -0.36107554622325688 -0.32030774721348609 0 -0.3722314511169254 -0.32243981616541317 0 -0.37011105994908639 -0.31413857189152028 0 -0.38014324619299489 -0.31717333467557429 0 -0.3722314511169254 -0.32243981616541317 0 -0.37011105994908639 -0.31413857189152028 0 -0.3635055666326707 -0.3421337461350612 0 -0.35709351815827461 -0.3353197260737828 0 -0.36098771615997433 -0.35231767343354559 0 -0.37578914977814259 -0.34132583244091969 0 -0.3687881979006094 -0.33168631059635417 0 -0.3635055666326707 -0.3421337461350612 0 -0.36107554622325688 -0.32030774721348609 0 -0.3687881979006094 -0.33168631059635417 0 -0.35709351815827461 -0.3353197260737828 0 -0.3687881979006094 -0.33168631059635417 0 -0.3635055666326707 -0.3421337461350612 0 -0.35709351815827461 -0.3353197260737828 0 -0.3635055666326707 -0.3421337461350612 0 -0.35709351815827461 -0.3353197260737828 0 -0.34291647167388528 -0.33397465719449482 0 -0.34256388774235758 -0.31987923251974942 0 -0.35709351815827461 -0.3353197260737828 0 -0.34291647167388528 -0.33397465719449482 0 -0.35709351815827461 -0.3353197260737828 0 -0.34475198643267202 -0.34497185968730087 0 -0.35709351815827461 -0.3353197260737828 0 -0.35070410976805427 -0.35940736737577439 0 -0.35709351815827461 -0.3353197260737828 0 -0.34475198643267202 -0.34497185968730087 0 -0.35070410976805427 -0.35940736737577439 0 -0.35709351815827461 -0.3353197260737828 0 -0.36098771615997433 -0.35231767343354559 0 -0.35070410976805427 -0.35940736737577439 0 -0.34475198643267202 -0.34497185968730087 0 -0.35070410976805427 -0.35940736737577439 0 -0.33649544125317499 -0.35473366200322781 0 -0.36098771615997433 -0.35231767343354559 0 -0.37141059817626459 -0.35401489111333162 0 -0.36624000729476319 -0.37102735226134842 0 -0.3635055666326707 -0.3421337461350612 0 -0.36098771615997433 -0.35231767343354559 0 -0.37141059817626459 -0.35401489111333162 0 -0.37578914977814259 -0.34132583244091969 0 -0.3635055666326707 -0.3421337461350612 0 -0.37141059817626459 -0.35401489111333162 0 -0.38147600501456802 -0.36607062237383597 0 -0.37141059817626459 -0.35401489111333162 0 -0.36624000729476319 -0.37102735226134842 0 -0.36624000729476319 -0.37102735226134842 0 -0.35070410976805427 -0.35940736737577439 0 -0.34431470137783549 -0.38349500867776609 0 -0.36098771615997433 -0.35231767343354559 0 -0.36624000729476319 -0.37102735226134842 0 -0.35070410976805427 -0.35940736737577439 0 -0.35070410976805427 -0.35940736737577439 0 -0.34431470137783549 -0.38349500867776609 0 -0.33571652770319421 -0.36651904378918548 0 -0.32259445173442192 -0.37261224366230589 0 -0.34431470137783549 -0.38349500867776609 0 -0.35070410976805427 -0.35940736737577439 0 -0.33571652770319421 -0.36651904378918548 0 -0.34431470137783549 -0.38349500867776609 0 -0.33571652770319421 -0.36651904378918548 0 -0.33649544125317499 -0.35473366200322781 0 -0.32447393438248351 -0.36234693722685452 0 -0.35070410976805427 -0.35940736737577439 0 -0.33571652770319421 -0.36651904378918548 0 -0.33649544125317499 -0.35473366200322781 0 -0.33486058731380758 -0.34168459823808228 0 -0.34475198643267202 -0.34497185968730087 0 -0.33649544125317499 -0.35473366200322781 0 -0.33486058731380758 -0.34168459823808228 0 -0.33649544125317499 -0.35473366200322781 0 -0.32338879346967808 -0.34911347729272318 0 -0.32338879346967808 -0.34911347729272318 0 -0.31573431075054681 -0.35979419462341478 0 -0.32447393438248351 -0.36234693722685452 0 -0.33649544125317499 -0.35473366200322781 0 -0.32338879346967808 -0.34911347729272318 0 -0.32447393438248351 -0.36234693722685452 0 -0.31444239463721041 -0.34228988053731008 0 -0.32338879346967808 -0.34911347729272318 0 -0.30984034666765248 -0.35250842179575892 0 -0.32338879346967808 -0.34911347729272318 0 -0.31573431075054681 -0.35979419462341478 0 -0.30984034666765248 -0.35250842179575892 0 -0.31573431075054681 -0.35979419462341478 0 -0.31514536094684842 -0.36887993367734201 0 -0.32447393438248351 -0.36234693722685452 0 -0.31573431075054681 -0.35979419462341478 0 -0.31514536094684842 -0.36887993367734201 0 -0.30863334079851629 -0.36393311510903043 0 -0.31514536094684842 -0.36887993367734201 0 -0.32259445173442192 -0.37261224366230589 0 -0.31269913186774922 -0.38092642264478482 0 -0.31514536094684842 -0.36887993367734201 0 -0.32259445173442192 -0.37261224366230589 0 -0.32259445173442192 -0.37261224366230589 0 -0.32447393438248351 -0.36234693722685452 0 -0.31514536094684842 -0.36887993367734201 0 -0.32259445173442192 -0.37261224366230589 0 -0.32447393438248351 -0.36234693722685452 0 -0.33571652770319421 -0.36651904378918548 0 -0.32259445173442192 -0.37261224366230589 0 -0.32447393438248351 -0.36234693722685452 0 -0.30030967689149368 -0.36979027098741662 0 -0.30863334079851629 -0.36393311510903043 0 -0.29552124608827512 -0.35883183815842751 0 -0.30030967689149368 -0.36979027098741662 0 -0.30737726539865362 -0.37391898705534088 0 -0.30042840125952142 -0.38003282923802978 0 -0.30030967689149368 -0.36979027098741662 0 -0.29017949205416899 -0.3744244319803095 0 -0.30042840125952142 -0.38003282923802978 0 -0.30030967689149368 -0.36979027098741662 0 -0.30737726539865362 -0.37391898705534088 0 -0.30863334079851629 -0.36393311510903043 0 -0.31514536094684842 -0.36887993367734201 0 -0.30737726539865362 -0.37391898705534088 0 -0.31269913186774922 -0.38092642264478482 0 -0.31514536094684842 -0.36887993367734201 0 -0.30737726539865362 -0.37391898705534088 0 -0.30863334079851629 -0.36393311510903043 0 -0.31573431075054681 -0.35979419462341478 0 -0.30863334079851629 -0.36393311510903043 0 -0.30984034666765248 -0.35250842179575892 0 -0.30984034666765248 -0.35250842179575892 0 -0.29552124608827512 -0.35883183815842751 0 -0.30131347000612058 -0.34052458544346059 0 -0.31444239463721041 -0.34228988053731008 0 -0.30984034666765248 -0.35250842179575892 0 -0.30131347000612058 -0.34052458544346059 0 -0.30863334079851629 -0.36393311510903043 0 -0.30984034666765248 -0.35250842179575892 0 -0.29552124608827512 -0.35883183815842751 0 -0.28408383351902788 -0.34404045229897451 0 -0.29552124608827512 -0.35883183815842751 0 -0.27419708534123688 -0.37097845268904461 0 -0.28408383351902788 -0.34404045229897451 0 -0.29552124608827512 -0.35883183815842751 0 -0.30131347000612058 -0.34052458544346059 0 -0.29552124608827512 -0.35883183815842751 0 -0.29017949205416899 -0.3744244319803095 0 -0.27419708534123688 -0.37097845268904461 0 -0.30030967689149368 -0.36979027098741662 0 -0.29552124608827512 -0.35883183815842751 0 -0.29017949205416899 -0.3744244319803095 0 -0.28408383351902788 -0.34404045229897451 0 -0.27419708534123688 -0.37097845268904461 0 -0.26852672732833638 -0.3387342355917044 0 -0.27419708534123688 -0.37097845268904461 0 -0.25263603996196682 -0.35983020372759678 0 -0.26852672732833638 -0.3387342355917044 0 -0.25263603996196682 -0.35983020372759678 0 -0.2617319666873229 -0.38217200062901441 0 -0.23674535259559709 -0.38092617186348909 0 -0.27419708534123688 -0.37097845268904461 0 -0.25263603996196682 -0.35983020372759678 0 -0.2617319666873229 -0.38217200062901441 0 -0.25263603996196682 -0.35983020372759678 0 -0.26852672732833638 -0.3387342355917044 0 -0.25263603996196682 -0.35983020372759678 0 -0.26852672732833638 -0.3387342355917044 0 -0.2443662862232685 -0.33543777652794871 0 -0.26852672732833638 -0.3387342355917044 0 -0.25884736599227742 -0.32368332841539421 0 -0.27550677447963628 -0.32280518003576442 0 -0.28408383351902788 -0.34404045229897451 0 -0.26852672732833638 -0.3387342355917044 0 -0.27550677447963628 -0.32280518003576442 0 -0.26852672732833638 -0.3387342355917044 0 -0.25884736599227742 -0.32368332841539421 0 -0.2443662862232685 -0.33543777652794871 0 -0.25884736599227742 -0.32368332841539421 0 -0.27550677447963628 -0.32280518003576442 0 -0.261188352125235 -0.30716146603306982 0 -0.25884736599227742 -0.32368332841539421 0 -0.261188352125235 -0.30716146603306982 0 -0.24517663357371999 -0.3126795376765571 0 -0.27550677447963628 -0.32280518003576442 0 -0.27529061723375742 -0.30828424123988912 0 -0.261188352125235 -0.30716146603306982 0 -0.27550677447963628 -0.32280518003576442 0 -0.29051368135508449 -0.30903453243005041 0 -0.27529061723375742 -0.30828424123988912 0 -0.29009684380373568 -0.32869800424126883 0 -0.30291954311590602 -0.3241241524510835 0 -0.29051368135508449 -0.30903453243005041 0 -0.27550677447963628 -0.32280518003576442 0 -0.29009684380373568 -0.32869800424126883 0 -0.29051368135508449 -0.30903453243005041 0 -0.28408383351902788 -0.34404045229897451 0 -0.29009684380373568 -0.32869800424126883 0 -0.30131347000612058 -0.34052458544346059 0 -0.28408383351902788 -0.34404045229897451 0 -0.27550677447963628 -0.32280518003576442 0 -0.29009684380373568 -0.32869800424126883 0 -0.30131347000612058 -0.34052458544346059 0 -0.31173073947322227 -0.33253608309906851 0 -0.30291954311590602 -0.3241241524510835 0 -0.29009684380373568 -0.32869800424126883 0 -0.30131347000612058 -0.34052458544346059 0 -0.30291954311590602 -0.3241241524510835 0 -0.31444239463721041 -0.34228988053731008 0 -0.30131347000612058 -0.34052458544346059 0 -0.31173073947322227 -0.33253608309906851 0 -0.31540161318342852 -0.32212682161183159 0 -0.31173073947322227 -0.33253608309906851 0 -0.30291954311590602 -0.3241241524510835 0 -0.30291954311590602 -0.3241241524510835 0 -0.30759438255479182 -0.31072178825974578 0 -0.29051368135508449 -0.30903453243005041 0 -0.31540161318342852 -0.32212682161183159 0 -0.30291954311590602 -0.3241241524510835 0 -0.30759438255479182 -0.31072178825974578 0 -0.30400971236293339 -0.29875741571292053 0 -0.30759438255479182 -0.31072178825974578 0 -0.29051368135508449 -0.30903453243005041 0 -0.31418631161874522 -0.30262933336260223 0 -0.30400971236293339 -0.29875741571292053 0 -0.30759438255479182 -0.31072178825974578 0 -0.31350462691052289 -0.28899824541168301 0 -0.31058869305430947 -0.28522151012657648 0 -0.29393125729602498 -0.28372464071158282 0 -0.31058869305430947 -0.28522151012657648 0 -0.30696230393585527 -0.28356559003926468 0 -0.29393125729602498 -0.28372464071158282 0 -0.31350462691052289 -0.28899824541168301 0 -0.30400971236293339 -0.29875741571292053 0 -0.29393125729602498 -0.28372464071158282 0 -0.31350462691052289 -0.28899824541168301 0 -0.31418631161874522 -0.30262933336260223 0 -0.30400971236293339 -0.29875741571292053 0 -0.31350462691052289 -0.28899824541168301 0 -0.29393125729602498 -0.28372464071158282 0 -0.31738340302478291 -0.28017320686654179 0 -0.31058869305430947 -0.28522151012657648 0 -0.30696230393585527 -0.28356559003926468 0 -0.31058869305430947 -0.28522151012657648 0 -0.30696230393585527 -0.28356559003926468 0 -0.31350462691052289 -0.28899824541168301 0 -0.31058869305430947 -0.28522151012657648 0 -0.29393125729602498 -0.28372464071158282 0 -0.29051368135508449 -0.30903453243005041 0 -0.27556460309211578 -0.29426752217079022 0 -0.29393125729602498 -0.28372464071158282 0 -0.27556460309211578 -0.29426752217079022 0 -0.27435788768152652 -0.27845103601148419 0 -0.30400971236293339 -0.29875741571292053 0 -0.29393125729602498 -0.28372464071158282 0 -0.29051368135508449 -0.30903453243005041 0 -0.261188352125235 -0.30716146603306982 0 -0.26281729789187241 -0.29097142823340288 0 -0.27556460309211578 -0.29426752217079022 0 -0.29051368135508449 -0.30903453243005041 0 -0.27529061723375742 -0.30828424123988912 0 -0.27556460309211578 -0.29426752217079022 0 -0.27529061723375742 -0.30828424123988912 0 -0.261188352125235 -0.30716146603306982 0 -0.27556460309211578 -0.29426752217079022 0 -0.261188352125235 -0.30716146603306982 0 -0.24517663357371999 -0.3126795376765571 0 -0.24982321733019161 -0.2926732244013186 0 -0.261188352125235 -0.30716146603306982 0 -0.26281729789187241 -0.29097142823340288 0 -0.24982321733019161 -0.2926732244013186 0 -0.25738976938608688 -0.28280643263743932 0 -0.26281729789187241 -0.29097142823340288 0 -0.27435788768152652 -0.27845103601148419 0 -0.25738976938608688 -0.28280643263743932 0 -0.24527176736350911 -0.27940943772398658 0 -0.24982321733019161 -0.2926732244013186 0 -0.25738976938608688 -0.28280643263743932 0 -0.26281729789187241 -0.29097142823340288 0 -0.24982321733019161 -0.2926732244013186 0 -0.26281729789187241 -0.29097142823340288 0 -0.27556460309211578 -0.29426752217079022 0 -0.27435788768152652 -0.27845103601148419 0 -0.27435788768152652 -0.27845103601148419 0 -0.2667186563850279 -0.26535912209205109 0 -0.28735806176013728 -0.2746136939920093 0 -0.2667186563850279 -0.26535912209205109 0 -0.29256861130460071 -0.27291750240564872 0 -0.2667186563850279 -0.26535912209205109 0 -0.28735806176013728 -0.2746136939920093 0 -0.27435788768152652 -0.27845103601148419 0 -0.25478451806702729 -0.27317743131138811 0 -0.2667186563850279 -0.26535912209205109 0 -0.27435788768152652 -0.27845103601148419 0 -0.25478451806702729 -0.27317743131138811 0 -0.25478451806702729 -0.27317743131138811 0 -0.2667186563850279 -0.26535912209205109 0 -0.2473327590956359 -0.25969079559440661 0 -0.25738976938608688 -0.28280643263743932 0 -0.27435788768152652 -0.27845103601148419 0 -0.25478451806702729 -0.27317743131138811 0 -0.25478451806702729 -0.27317743131138811 0 -0.2667186563850279 -0.26535912209205109 0 -0.25478451806702729 -0.27317743131138811 0 -0.24527176736350911 -0.27940943772398658 0 -0.25738976938608688 -0.28280643263743932 0 -0.25478451806702729 -0.27317743131138811 0 -0.24527176736350911 -0.27940943772398658 0 -0.2667186563850279 -0.26535912209205109 0 -0.24877741707925849 -0.25699659267671021 0 -0.2667186563850279 -0.26535912209205109 0 -0.2473327590956359 -0.25969079559440661 0 -0.2667186563850279 -0.26535912209205109 0 -0.24877741707925849 -0.25699659267671021 0 -0.26882451759658699 -0.24897340204124699 0 -0.2667186563850279 -0.26535912209205109 0 -0.24877741707925849 -0.25699659267671021 0 -0.2473327590956359 -0.25969079559440661 0 -0.2667186563850279 -0.26535912209205109 0 -0.28986894035655097 -0.25019287600188372 0 -0.2667186563850279 -0.26535912209205109 0 -0.28986894035655097 -0.25019287600188372 0 -0.26882451759658699 -0.24897340204124699 0 -0.2667186563850279 -0.26535912209205109 0 -0.28986894035655097 -0.25019287600188372 0 -0.29256861130460071 -0.27291750240564872 0 -0.2667186563850279 -0.26535912209205109 0 -0.29256861130460071 -0.27291750240564872 0 -0.28735806176013728 -0.2746136939920093 0 -0.29393125729602498 -0.28372464071158282 0 -0.27435788768152652 -0.27845103601148419 0 -0.28735806176013728 -0.2746136939920093 0 -0.30696230393585527 -0.28356559003926468 0 -0.29393125729602498 -0.28372464071158282 0 -0.28735806176013728 -0.2746136939920093 0 -0.30696230393585527 -0.28356559003926468 0 -0.29256861130460071 -0.27291750240564872 0 -0.28735806176013728 -0.2746136939920093 0 -0.29393125729602498 -0.28372464071158282 0 -0.27435788768152652 -0.27845103601148419 0 -0.31738340302478291 -0.28017320686654179 0 -0.29256861130460071 -0.27291750240564872 0 -0.31738340302478291 -0.28017320686654179 0 -0.29256861130460071 -0.27291750240564872 0 -0.31077711748131492 -0.25702282537168147 0 -0.31738340302478291 -0.28017320686654179 0 -0.30696230393585527 -0.28356559003926468 0 -0.29256861130460071 -0.27291750240564872 0 -0.30696230393585527 -0.28356559003926468 0 -0.28735806176013728 -0.2746136939920093 0 -0.28986894035655097 -0.25019287600188372 0 -0.29256861130460071 -0.27291750240564872 0 -0.31077711748131492 -0.25702282537168147 0 -0.32928450393222208 -0.4566019531530392 0 -0.34210430620535182 -0.46561314448698532 0 -0.32419891683980018 -0.47627722783710691 0 -0.32928450393222208 -0.4566019531530392 0 -0.34210430620535182 -0.46561314448698532 0 -0.34330713809792568 -0.45228902363811613 0 -0.32928450393222208 -0.4566019531530392 0 -0.34330713809792568 -0.45228902363811613 0 -0.33714146307455389 -0.44312640222313049 0 -0.33714146307455389 -0.44312640222313049 0 -0.35110198154051842 -0.44114104786402369 0 -0.34042778395159728 -0.43236099923739668 0 -0.33714146307455389 -0.44312640222313049 0 -0.3257384876701811 -0.44305968925551331 0 -0.32615714257823741 -0.43140901003724541 0 -0.32928450393222208 -0.4566019531530392 0 -0.33714146307455389 -0.44312640222313049 0 -0.3257384876701811 -0.44305968925551331 0 -0.32928450393222208 -0.4566019531530392 0 -0.3257384876701811 -0.44305968925551331 0 -0.31868082192295372 -0.45143246198372811 0 -0.31965079159707382 -0.43792043992281188 0 -0.31437537514625469 -0.44210471676305929 0 -0.31097360293819648 -0.43608267477062412 0 -0.3257384876701811 -0.44305968925551331 0 -0.31965079159707382 -0.43792043992281188 0 -0.31437537514625469 -0.44210471676305929 0 -0.31437537514625469 -0.44210471676305929 0 -0.31097360293819648 -0.43608267477062412 0 -0.3257384876701811 -0.44305968925551331 0 -0.31437537514625469 -0.44210471676305929 0 -0.31868082192295372 -0.45143246198372811 0 -0.31437537514625469 -0.44210471676305929 0 -0.31868082192295372 -0.45143246198372811 0 -0.30782488117713819 -0.45328027635025447 0 -0.32928450393222208 -0.4566019531530392 0 -0.31618086168897208 -0.46211567439677398 0 -0.32419891683980018 -0.47627722783710691 0 -0.31868082192295372 -0.45143246198372811 0 -0.31618086168897208 -0.46211567439677398 0 -0.30782488117713819 -0.45328027635025447 0 -0.32928450393222208 -0.4566019531530392 0 -0.31868082192295372 -0.45143246198372811 0 -0.31618086168897208 -0.46211567439677398 0 -0.31618086168897208 -0.46211567439677398 0 -0.32419891683980018 -0.47627722783710691 0 -0.30467615941607928 -0.47047787792988482 0 -0.32419891683980018 -0.47627722783710691 0 -0.31056415245446062 -0.48641680213067201 0 -0.30467615941607928 -0.47047787792988482 0 -0.32419891683980018 -0.47627722783710691 0 -0.3293927368946975 -0.5 0 -0.31056415245446062 -0.48641680213067201 0 -0.3293927368946975 -0.5 0 -0.30035560200196521 -0.5 0 -0.31056415245446062 -0.48641680213067201 0 -0.3293927368946975 -0.5 0 -0.34246048115426908 -0.48354849250470727 0 -0.3584298717874298 -0.5 0 -0.32419891683980018 -0.47627722783710691 0 -0.3293927368946975 -0.5 0 -0.34246048115426908 -0.48354849250470727 0 -0.34210430620535182 -0.46561314448698532 0 -0.32419891683980018 -0.47627722783710691 0 -0.34246048115426908 -0.48354849250470727 0 -0.34210430620535182 -0.46561314448698532 0 -0.34246048115426908 -0.48354849250470727 0 -0.35993753400891021 -0.47314548716992322 0 -0.34246048115426908 -0.48354849250470727 0 -0.3584298717874298 -0.5 0 -0.35993753400891021 -0.47314548716992322 0 -0.37709726016953132 -0.48180856267781452 0 -0.38746700668016187 -0.5 0 -0.3584298717874298 -0.5 0 -0.37709726016953132 -0.48180856267781452 0 -0.3584298717874298 -0.5 0 -0.35993753400891021 -0.47314548716992322 0 -0.37555412519250708 -0.45450972049335719 0 -0.37709726016953132 -0.48180856267781452 0 -0.35993753400891021 -0.47314548716992322 0 -0.37555412519250708 -0.45450972049335719 0 -0.35993753400891021 -0.47314548716992322 0 -0.35780102746324838 -0.45377602925268551 0 -0.34210430620535182 -0.46561314448698532 0 -0.34330713809792568 -0.45228902363811613 0 -0.35780102746324838 -0.45377602925268551 0 -0.34210430620535182 -0.46561314448698532 0 -0.35993753400891021 -0.47314548716992322 0 -0.35780102746324838 -0.45377602925268551 0 -0.34330713809792568 -0.45228902363811613 0 -0.33714146307455389 -0.44312640222313049 0 -0.35110198154051842 -0.44114104786402369 0 -0.34330713809792568 -0.45228902363811613 0 -0.35780102746324838 -0.45377602925268551 0 -0.35110198154051842 -0.44114104786402369 0 -0.35780102746324838 -0.45377602925268551 0 -0.35110198154051842 -0.44114104786402369 0 -0.3736166891281224 -0.43714449571002539 0 -0.37555412519250708 -0.45450972049335719 0 -0.3736166891281224 -0.43714449571002539 0 -0.37555412519250708 -0.45450972049335719 0 -0.35780102746324838 -0.45377602925268551 0 -0.3736166891281224 -0.43714449571002539 0 -0.3736166891281224 -0.43714449571002539 0 -0.37131414953934072 -0.41650685080044397 0 -0.35431778752766319 -0.42814933712278769 0 -0.3736166891281224 -0.43714449571002539 0 -0.35431778752766319 -0.42814933712278769 0 -0.35110198154051842 -0.44114104786402369 0 -0.3736166891281224 -0.43714449571002539 0 -0.35431778752766319 -0.42814933712278769 0 -0.3736166891281224 -0.43714449571002539 0 -0.37131414953934072 -0.41650685080044397 0 -0.37131414953934072 -0.41650685080044397 0 -0.35406432254286968 -0.41139113048679371 0 -0.36901160995055871 -0.39586920589086277 0 -0.37131414953934072 -0.41650685080044397 0 -0.35406432254286968 -0.41139113048679371 0 -0.35431778752766319 -0.42814933712278769 0 -0.35406432254286968 -0.41139113048679371 0 -0.35431778752766319 -0.42814933712278769 0 -0.33501888592720441 -0.41915417853554898 0 -0.35431778752766319 -0.42814933712278769 0 -0.33501888592720441 -0.41915417853554898 0 -0.35110198154051842 -0.44114104786402369 0 -0.35431778752766319 -0.42814933712278769 0 -0.34042778395159728 -0.43236099923739668 0 -0.38418505506694889 -0.38324518264567631 0 -0.36624000729476319 -0.37102735226134842 0 -0.36901160995055871 -0.39586920589086277 0 -0.36624000729476319 -0.37102735226134842 0 -0.36901160995055871 -0.39586920589086277 0 -0.34431470137783549 -0.38349500867776609 0 -0.36624000729476319 -0.37102735226134842 0 -0.36901160995055871 -0.39586920589086277 0 -0.37131414953934072 -0.41650685080044397 0 -0.36901160995055871 -0.39586920589086277 0 -0.35406432254286968 -0.41139113048679371 0 -0.36901160995055871 -0.39586920589086277 0 -0.34065917976958149 -0.39727608008432552 0 -0.36901160995055871 -0.39586920589086277 0 -0.34431470137783549 -0.38349500867776609 0 -0.34065917976958149 -0.39727608008432552 0 -0.36901160995055871 -0.39586920589086277 0 -0.34431470137783549 -0.38349500867776609 0 -0.32259445173442192 -0.37261224366230589 0 -0.34431470137783549 -0.38349500867776609 0 -0.33087156467433781 -0.3894815314040796 0 -0.32259445173442192 -0.37261224366230589 0 -0.34431470137783549 -0.38349500867776609 0 -0.34431470137783549 -0.38349500867776609 0 -0.34065917976958149 -0.39727608008432552 0 -0.34431470137783549 -0.38349500867776609 0 -0.33087156467433781 -0.3894815314040796 0 -0.34065917976958149 -0.39727608008432552 0 -0.33087156467433781 -0.3894815314040796 0 -0.34065917976958149 -0.39727608008432552 0 -0.32763227245926868 -0.4026386927906922 0 -0.31915721803058111 -0.39138563180530911 0 -0.31571998432674409 -0.41015901994831322 0 -0.31915721803058111 -0.39138563180530911 0 -0.31571998432674409 -0.41015901994831322 0 -0.31102358111132161 -0.39588373843850938 0 -0.32763227245926868 -0.4026386927906922 0 -0.31915721803058111 -0.39138563180530911 0 -0.31571998432674409 -0.41015901994831322 0 -0.31915721803058111 -0.39138563180530911 0 -0.31218806977614089 -0.38893289940203601 0 -0.31102358111132161 -0.39588373843850938 0 -0.33087156467433781 -0.3894815314040796 0 -0.32763227245926868 -0.4026386927906922 0 -0.31915721803058111 -0.39138563180530911 0 -0.32259445173442192 -0.37261224366230589 0 -0.31915721803058111 -0.39138563180530911 0 -0.31269913186774922 -0.38092642264478482 0 -0.32259445173442192 -0.37261224366230589 0 -0.31915721803058111 -0.39138563180530911 0 -0.32259445173442192 -0.37261224366230589 0 -0.33087156467433781 -0.3894815314040796 0 -0.31915721803058111 -0.39138563180530911 0 -0.31915721803058111 -0.39138563180530911 0 -0.31269913186774922 -0.38092642264478482 0 -0.31218806977614089 -0.38893289940203601 0 -0.35431778752766319 -0.42814933712278769 0 -0.34042778395159728 -0.43236099923739668 0 -0.33501888592720441 -0.41915417853554898 0 -0.34042778395159728 -0.43236099923739668 0 -0.33501888592720441 -0.41915417853554898 0 -0.32615714257823741 -0.43140901003724541 0 -0.33714146307455389 -0.44312640222313049 0 -0.34042778395159728 -0.43236099923739668 0 -0.32615714257823741 -0.43140901003724541 0 -0.35406432254286968 -0.41139113048679371 0 -0.34065917976958149 -0.39727608008432552 0 -0.33501888592720441 -0.41915417853554898 0 -0.34065917976958149 -0.39727608008432552 0 -0.32763227245926868 -0.4026386927906922 0 -0.33501888592720441 -0.41915417853554898 0 -0.33501888592720441 -0.41915417853554898 0 -0.31571998432674409 -0.41015901994831322 0 -0.33501888592720441 -0.41915417853554898 0 -0.31571998432674409 -0.41015901994831322 0 -0.32615714257823741 -0.43140901003724541 0 -0.32763227245926868 -0.4026386927906922 0 -0.33501888592720441 -0.41915417853554898 0 -0.31571998432674409 -0.41015901994831322 0 -0.31571998432674409 -0.41015901994831322 0 -0.32615714257823741 -0.43140901003724541 0 -0.31097360293819648 -0.43608267477062412 0 -0.31571998432674409 -0.41015901994831322 0 -0.31097360293819648 -0.43608267477062412 0 -0.3257384876701811 -0.44305968925551331 0 -0.31965079159707382 -0.43792043992281188 0 -0.32615714257823741 -0.43140901003724541 0 -0.31965079159707382 -0.43792043992281188 0 -0.32615714257823741 -0.43140901003724541 0 -0.31097360293819648 -0.43608267477062412 0 -0.31097360293819648 -0.43608267477062412 0 -0.30790661111446982 -0.41683014859403422 0 -0.29945654968645141 -0.41569442591997902 0 -0.31097360293819648 -0.43608267477062412 0 -0.29945654968645141 -0.41569442591997902 0 -0.31097360293819648 -0.43608267477062412 0 -0.29945654968645141 -0.41569442591997902 0 -0.29892384914907338 -0.44090045908608289 0 -0.31571998432674409 -0.41015901994831322 0 -0.31097360293819648 -0.43608267477062412 0 -0.30790661111446982 -0.41683014859403422 0 -0.29945654968645141 -0.41569442591997902 0 -0.30547630750648769 -0.40538447373722097 0 -0.29145879103551509 -0.39885095248994878 0 -0.31571998432674409 -0.41015901994831322 0 -0.30547630750648769 -0.40538447373722097 0 -0.31571998432674409 -0.41015901994831322 0 -0.30790661111446982 -0.41683014859403422 0 -0.30547630750648769 -0.40538447373722097 0 -0.29945654968645141 -0.41569442591997902 0 -0.30547630750648769 -0.40538447373722097 0 -0.30790661111446982 -0.41683014859403422 0 -0.29945654968645141 -0.41569442591997902 0 -0.30547630750648769 -0.40538447373722097 0 -0.29945654968645141 -0.41569442591997902 0 -0.28632070573227381 -0.40855759585399698 0 -0.28535313696676268 -0.42100500675425329 0 -0.28632070573227381 -0.40855759585399698 0 -0.28535313696676268 -0.42100500675425329 0 -0.27794069697457108 -0.41398265575756099 0 -0.29945654968645141 -0.41569442591997902 0 -0.28500697382397622 -0.44044200558296848 0 -0.29945654968645141 -0.41569442591997902 0 -0.28535313696676268 -0.42100500675425329 0 -0.28500697382397622 -0.44044200558296848 0 -0.28535313696676268 -0.42100500675425329 0 -0.27560988946665771 -0.42593628029397668 0 -0.28500697382397622 -0.44044200558296848 0 -0.29945654968645141 -0.41569442591997902 0 -0.28500697382397622 -0.44044200558296848 0 -0.29892384914907338 -0.44090045908608289 0 -0.30042840125952142 -0.38003282923802978 0 -0.30658597841497698 -0.37995867962412788 0 -0.30587234809491171 -0.38753580471954052 0 -0.30737726539865362 -0.37391898705534088 0 -0.30042840125952142 -0.38003282923802978 0 -0.30658597841497698 -0.37995867962412788 0 -0.30737726539865362 -0.37391898705534088 0 -0.31269913186774922 -0.38092642264478482 0 -0.30658597841497698 -0.37995867962412788 0 -0.31269913186774922 -0.38092642264478482 0 -0.30658597841497698 -0.37995867962412788 0 -0.30587234809491171 -0.38753580471954052 0 -0.31269913186774922 -0.38092642264478482 0 -0.31218806977614089 -0.38893289940203601 0 -0.30587234809491171 -0.38753580471954052 0 -0.30587234809491171 -0.38753580471954052 0 -0.29882578010107469 -0.38698442491492802 0 -0.30002776144171689 -0.3919244127745195 0 -0.30042840125952142 -0.38003282923802978 0 -0.30587234809491171 -0.38753580471954052 0 -0.29882578010107469 -0.38698442491492802 0 -0.30042840125952142 -0.38003282923802978 0 -0.29882578010107469 -0.38698442491492802 0 -0.29356547211168971 -0.38491419290466949 0 -0.29882578010107469 -0.38698442491492802 0 -0.30002776144171689 -0.3919244127745195 0 -0.29428187130346778 -0.39221835365966501 0 -0.30587234809491171 -0.38753580471954052 0 -0.30002776144171689 -0.3919244127745195 0 -0.30430204155385571 -0.39558195951528452 0 -0.30002776144171689 -0.3919244127745195 0 -0.29911020961484031 -0.39718136790663189 0 -0.29428187130346778 -0.39221835365966501 0 -0.30002776144171689 -0.3919244127745195 0 -0.29911020961484031 -0.39718136790663189 0 -0.30430204155385571 -0.39558195951528452 0 -0.30587234809491171 -0.38753580471954052 0 -0.30430204155385571 -0.39558195951528452 0 -0.31102358111132161 -0.39588373843850938 0 -0.31218806977614089 -0.38893289940203601 0 -0.30587234809491171 -0.38753580471954052 0 -0.31102358111132161 -0.39588373843850938 0 -0.31571998432674409 -0.41015901994831322 0 -0.31102358111132161 -0.39588373843850938 0 -0.30547630750648769 -0.40538447373722097 0 -0.31102358111132161 -0.39588373843850938 0 -0.30547630750648769 -0.40538447373722097 0 -0.30430204155385571 -0.39558195951528452 0 -0.31102358111132161 -0.39588373843850938 0 -0.30547630750648769 -0.40538447373722097 0 -0.29911020961484031 -0.39718136790663189 0 -0.30430204155385571 -0.39558195951528452 0 -0.30547630750648769 -0.40538447373722097 0 -0.30547630750648769 -0.40538447373722097 0 -0.29145879103551509 -0.39885095248994878 0 -0.29911020961484031 -0.39718136790663189 0 -0.30547630750648769 -0.40538447373722097 0 -0.29145879103551509 -0.39885095248994878 0 -0.29945654968645141 -0.41569442591997902 0 -0.28632070573227381 -0.40855759585399698 0 -0.2868268175138442 -0.39333643930451179 0 -0.29945654968645141 -0.41569442591997902 0 -0.29145879103551509 -0.39885095248994878 0 -0.2868268175138442 -0.39333643930451179 0 -0.29945654968645141 -0.41569442591997902 0 -0.2868268175138442 -0.39333643930451179 0 -0.28632070573227381 -0.40855759585399698 0 -0.2868268175138442 -0.39333643930451179 0 -0.27740473833748008 -0.40229080036984222 0 -0.29145879103551509 -0.39885095248994878 0 -0.2868268175138442 -0.39333643930451179 0 -0.29428187130346778 -0.39221835365966501 0 -0.29911020961484031 -0.39718136790663189 0 -0.29145879103551509 -0.39885095248994878 0 -0.29428187130346778 -0.39221835365966501 0 -0.29017949205416899 -0.3744244319803095 0 -0.2868268175138442 -0.39333643930451179 0 -0.29356547211168971 -0.38491419290466949 0 -0.29017949205416899 -0.3744244319803095 0 -0.27419708534123688 -0.37097845268904461 0 -0.2868268175138442 -0.39333643930451179 0 -0.2868268175138442 -0.39333643930451179 0 -0.29428187130346778 -0.39221835365966501 0 -0.29356547211168971 -0.38491419290466949 0 -0.29882578010107469 -0.38698442491492802 0 -0.29428187130346778 -0.39221835365966501 0 -0.29356547211168971 -0.38491419290466949 0 -0.29017949205416899 -0.3744244319803095 0 -0.30042840125952142 -0.38003282923802978 0 -0.29356547211168971 -0.38491419290466949 0 -0.27419708534123688 -0.37097845268904461 0 -0.2868268175138442 -0.39333643930451179 0 -0.27469695404083261 -0.38933873598913049 0 -0.27419708534123688 -0.37097845268904461 0 -0.27469695404083261 -0.38933873598913049 0 -0.2617319666873229 -0.38217200062901441 0 -0.27419708534123688 -0.37097845268904461 0 -0.2868268175138442 -0.39333643930451179 0 -0.27469695404083261 -0.38933873598913049 0 -0.2688200558716799 -0.39712211233023609 0 -0.2617319666873229 -0.38217200062901441 0 -0.27469695404083261 -0.38933873598913049 0 -0.2688200558716799 -0.39712211233023609 0 -0.27740473833748008 -0.40229080036984222 0 -0.2868268175138442 -0.39333643930451179 0 -0.27469695404083261 -0.38933873598913049 0 -0.27740473833748008 -0.40229080036984222 0 -0.2688200558716799 -0.39712211233023609 0 -0.27740473833748008 -0.40229080036984222 0 -0.26731639081122732 -0.40846423452830949 0 -0.2688200558716799 -0.39712211233023609 0 -0.25248645682638787 -0.39293102807938229 0 -0.2617319666873229 -0.38217200062901441 0 -0.2688200558716799 -0.39712211233023609 0 -0.25888601507766151 -0.40235098858865448 0 -0.25248645682638787 -0.39293102807938229 0 -0.2688200558716799 -0.39712211233023609 0 -0.25888601507766151 -0.40235098858865448 0 -0.26731639081122732 -0.40846423452830949 0 -0.25888601507766151 -0.40235098858865448 0 -0.25248645682638787 -0.39293102807938229 0 -0.24360479987740419 -0.40433634950322239 0 -0.25888601507766151 -0.40235098858865448 0 -0.2549487350111555 -0.4116602158871262 0 -0.24360479987740419 -0.40433634950322239 0 -0.25248645682638787 -0.39293102807938229 0 -0.2617319666873229 -0.38217200062901441 0 -0.23674535259559709 -0.38092617186348909 0 -0.27560988946665771 -0.42593628029397668 0 -0.26423830807877491 -0.43440128110840348 0 -0.28500697382397622 -0.44044200558296848 0 -0.27560988946665771 -0.42593628029397668 0 -0.26551033148920389 -0.41985045226669732 0 -0.26423830807877491 -0.43440128110840348 0 -0.28535313696676268 -0.42100500675425329 0 -0.27560988946665771 -0.42593628029397668 0 -0.27794069697457108 -0.41398265575756099 0 -0.28632070573227381 -0.40855759585399698 0 -0.27740473833748008 -0.40229080036984222 0 -0.27794069697457108 -0.41398265575756099 0 -0.27740473833748008 -0.40229080036984222 0 -0.27794069697457108 -0.41398265575756099 0 -0.26731639081122732 -0.40846423452830949 0 -0.27794069697457108 -0.41398265575756099 0 -0.26731639081122732 -0.40846423452830949 0 -0.26551033148920389 -0.41985045226669732 0 -0.27560988946665771 -0.42593628029397668 0 -0.27794069697457108 -0.41398265575756099 0 -0.26551033148920389 -0.41985045226669732 0 -0.26551033148920389 -0.41985045226669732 0 -0.2549487350111555 -0.4116602158871262 0 -0.2497393567462505 -0.42637531274769669 0 -0.26731639081122732 -0.40846423452830949 0 -0.26551033148920389 -0.41985045226669732 0 -0.2549487350111555 -0.4116602158871262 0 -0.25888601507766151 -0.40235098858865448 0 -0.26731639081122732 -0.40846423452830949 0 -0.2549487350111555 -0.4116602158871262 0 -0.26551033148920389 -0.41985045226669732 0 -0.26423830807877491 -0.43440128110840348 0 -0.2497393567462505 -0.42637531274769669 0 -0.26423830807877491 -0.43440128110840348 0 -0.24679436005434549 -0.44171755295215498 0 -0.2497393567462505 -0.42637531274769669 0 -0.26423830807877491 -0.43440128110840348 0 -0.26005228436864519 -0.45138284787852739 0 -0.24679436005434549 -0.44171755295215498 0 -0.26005228436864519 -0.45138284787852739 0 -0.27055739796150102 -0.46518958524595821 0 -0.25091893779633229 -0.47038076355931657 0 -0.26005228436864519 -0.45138284787852739 0 -0.25091893779633229 -0.47038076355931657 0 -0.24279772849694159 -0.4561658988223628 0 -0.26005228436864519 -0.45138284787852739 0 -0.27055739796150102 -0.46518958524595821 0 -0.28500697382397622 -0.44044200558296848 0 -0.27055739796150102 -0.46518958524595821 0 -0.28500697382397622 -0.44044200558296848 0 -0.26423830807877491 -0.43440128110840348 0 -0.26005228436864519 -0.45138284787852739 0 -0.28500697382397622 -0.44044200558296848 0 -0.28500697382397622 -0.44044200558296848 0 -0.29135723811960401 -0.45900291280658861 0 -0.29892384914907338 -0.44090045908608289 0 -0.27055739796150102 -0.46518958524595821 0 -0.28500697382397622 -0.44044200558296848 0 -0.29135723811960401 -0.45900291280658861 0 -0.29135723811960401 -0.45900291280658861 0 -0.30782488117713819 -0.45328027635025447 0 -0.30467615941607928 -0.47047787792988482 0 -0.31618086168897208 -0.46211567439677398 0 -0.30782488117713819 -0.45328027635025447 0 -0.30467615941607928 -0.47047787792988482 0 -0.30782488117713819 -0.45328027635025447 0 -0.30467615941607928 -0.47047787792988482 0 -0.31437537514625469 -0.44210471676305929 0 -0.31097360293819648 -0.43608267477062412 0 -0.30782488117713819 -0.45328027635025447 0 -0.31097360293819648 -0.43608267477062412 0 -0.30782488117713819 -0.45328027635025447 0 -0.29135723811960401 -0.45900291280658861 0 -0.30782488117713819 -0.45328027635025447 0 -0.29892384914907338 -0.44090045908608289 0 -0.31097360293819648 -0.43608267477062412 0 -0.30782488117713819 -0.45328027635025447 0 -0.29892384914907338 -0.44090045908608289 0 -0.30035560200196521 -0.5 0 -0.31056415245446062 -0.48641680213067201 0 -0.28537779695120202 -0.48227909011319942 0 -0.31056415245446062 -0.48641680213067201 0 -0.30467615941607928 -0.47047787792988482 0 -0.28537779695120202 -0.48227909011319942 0 -0.29135723811960401 -0.45900291280658861 0 -0.30467615941607928 -0.47047787792988482 0 -0.28537779695120202 -0.48227909011319942 0 -0.27055739796150102 -0.46518958524595821 0 -0.29135723811960401 -0.45900291280658861 0 -0.28537779695120202 -0.48227909011319942 0 -0.30035560200196521 -0.5 0 -0.28537779695120202 -0.48227909011319942 0 -0.27131846710923291 -0.5 0 -0.28537779695120202 -0.48227909011319942 0 -0.27131846710923291 -0.5 0 -0.27084037103024039 -0.48435146006702628 0 -0.27131846710923291 -0.5 0 -0.27084037103024039 -0.48435146006702628 0 -0.25610782209902577 -0.4899371649089479 0 -0.27055739796150102 -0.46518958524595821 0 -0.27084037103024039 -0.48435146006702628 0 -0.25610782209902577 -0.4899371649089479 0 -0.27055739796150102 -0.46518958524595821 0 -0.28537779695120202 -0.48227909011319942 0 -0.27084037103024039 -0.48435146006702628 0 -0.27055739796150102 -0.46518958524595821 0 -0.25610782209902577 -0.4899371649089479 0 -0.27055739796150102 -0.46518958524595821 0 -0.25091893779633229 -0.47038076355931657 0 -0.25610782209902577 -0.4899371649089479 0 -0.27131846710923291 -0.5 0 -0.25610782209902577 -0.4899371649089479 0 -0.24228133221650061 -0.5 0 -0.25610782209902577 -0.4899371649089479 0 -0.24228133221650061 -0.5 0 -0.24241019984770931 -0.48388733079296242 0 -0.24228133221650061 -0.5 0 -0.24241019984770931 -0.48388733079296242 0 -0.22917756013373641 -0.48724838374608748 0 -0.25091893779633229 -0.47038076355931657 0 -0.25610782209902577 -0.4899371649089479 0 -0.24241019984770931 -0.48388733079296242 0 -0.25091893779633229 -0.47038076355931657 0 -0.24241019984770931 -0.48388733079296242 0 -0.23356534699295139 -0.47187034175045978 0 -0.24241019984770931 -0.48388733079296242 0 -0.23356534699295139 -0.47187034175045978 0 -0.22917756013373641 -0.48724838374608748 0 -0.23356534699295139 -0.47187034175045978 0 -0.22610358036356329 -0.45768469950507829 0 -0.217249168384896 -0.47670556750291299 0 -0.23356534699295139 -0.47187034175045978 0 -0.22917756013373641 -0.48724838374608748 0 -0.217249168384896 -0.47670556750291299 0 -0.22917756013373641 -0.48724838374608748 0 -0.21324419732376829 -0.50000000000000067 0 -0.217249168384896 -0.47670556750291299 0 -0.24228133221650061 -0.5 0 -0.22917756013373641 -0.48724838374608748 0 -0.21324419732376829 -0.50000000000000067 0 -0.26005228436864519 -0.45138284787852739 0 -0.24679436005434549 -0.44171755295215498 0 -0.24279772849694159 -0.4561658988223628 0 -0.24679436005434549 -0.44171755295215498 0 -0.2339666007110765 -0.44791901656313171 0 -0.2322062982320007 -0.43624066480791052 0 -0.24679436005434549 -0.44171755295215498 0 -0.24279772849694159 -0.4561658988223628 0 -0.2339666007110765 -0.44791901656313171 0 -0.25091893779633229 -0.47038076355931657 0 -0.23356534699295139 -0.47187034175045978 0 -0.24279772849694159 -0.4561658988223628 0 -0.24279772849694159 -0.4561658988223628 0 -0.22610358036356329 -0.45768469950507829 0 -0.2339666007110765 -0.44791901656313171 0 -0.23356534699295139 -0.47187034175045978 0 -0.24279772849694159 -0.4561658988223628 0 -0.22610358036356329 -0.45768469950507829 0 -0.2203199454032306 -0.44372634527311511 0 -0.20893131586535341 -0.43741892425994988 0 -0.2322062982320007 -0.43624066480791052 0 -0.22610358036356329 -0.45768469950507829 0 -0.2339666007110765 -0.44791901656313171 0 -0.2203199454032306 -0.44372634527311511 0 -0.22610358036356329 -0.45768469950507829 0 -0.2203199454032306 -0.44372634527311511 0 -0.2116329124633092 -0.45418054412062808 0 -0.2339666007110765 -0.44791901656313171 0 -0.2203199454032306 -0.44372634527311511 0 -0.2322062982320007 -0.43624066480791052 0 -0.2203199454032306 -0.44372634527311511 0 -0.19866950636767991 -0.44693090651062739 0 -0.2203199454032306 -0.44372634527311511 0 -0.2116329124633092 -0.45418054412062808 0 -0.19866950636767991 -0.44693090651062739 0 -0.2203199454032306 -0.44372634527311511 0 -0.19866950636767991 -0.44693090651062739 0 -0.20893131586535341 -0.43741892425994988 0 -0.22610358036356329 -0.45768469950507829 0 -0.21219840633974149 -0.46359504819078251 0 -0.217249168384896 -0.47670556750291299 0 -0.2116329124633092 -0.45418054412062808 0 -0.20087312384233039 -0.4589657211235374 0 -0.19866950636767991 -0.44693090651062739 0 -0.2116329124633092 -0.45418054412062808 0 -0.21219840633974149 -0.46359504819078251 0 -0.20087312384233039 -0.4589657211235374 0 -0.22610358036356329 -0.45768469950507829 0 -0.2116329124633092 -0.45418054412062808 0 -0.21219840633974149 -0.46359504819078251 0 -0.21219840633974149 -0.46359504819078251 0 -0.20087312384233039 -0.4589657211235374 0 -0.20411679264457341 -0.46988036091307422 0 -0.18909411066267681 -0.46675697849875841 0 -0.20087312384233039 -0.4589657211235374 0 -0.20411679264457341 -0.46988036091307422 0 -0.18909411066267681 -0.46675697849875841 0 -0.19141395205120409 -0.4556972684702657 0 -0.20087312384233039 -0.4589657211235374 0 -0.19141395205120409 -0.4556972684702657 0 -0.20087312384233039 -0.4589657211235374 0 -0.19866950636767991 -0.44693090651062739 0 -0.19866950636767991 -0.44693090651062739 0 -0.19191066457864889 -0.44044726921953742 0 -0.20893131586535341 -0.43741892425994988 0 -0.19141395205120409 -0.4556972684702657 0 -0.19866950636767991 -0.44693090651062739 0 -0.17701906733212919 -0.45013546774813862 0 -0.19866950636767991 -0.44693090651062739 0 -0.17701906733212919 -0.45013546774813862 0 -0.19866950636767991 -0.44693090651062739 0 -0.19191066457864889 -0.44044726921953742 0 -0.18404345157386931 -0.44239217456960678 0 -0.21324419732376829 -0.50000000000000067 0 -0.20116915399322241 -0.48337848924937971 0 -0.21324419732376829 -0.50000000000000067 0 -0.217249168384896 -0.47670556750291299 0 -0.20116915399322241 -0.48337848924937971 0 -0.217249168384896 -0.47670556750291299 0 -0.20411679264457341 -0.46988036091307422 0 -0.20116915399322241 -0.48337848924937971 0 -0.21219840633974149 -0.46359504819078251 0 -0.217249168384896 -0.47670556750291299 0 -0.20411679264457341 -0.46988036091307422 0 -0.18909411066267681 -0.46675697849875841 0 -0.20116915399322241 -0.48337848924937971 0 -0.1795420104385079 -0.47575989514025713 0 -0.18909411066267681 -0.46675697849875841 0 -0.20116915399322241 -0.48337848924937971 0 -0.18909411066267681 -0.46675697849875841 0 -0.20411679264457341 -0.46988036091307422 0 -0.20116915399322241 -0.48337848924937971 0 -0.20116915399322241 -0.48337848924937971 0 -0.1915683518916429 -0.49997768953446348 0 -0.1795420104385079 -0.47575989514025713 0 -0.21324419732376829 -0.50000000000000067 0 -0.20116915399322241 -0.48337848924937971 0 -0.1915683518916429 -0.49997768953446348 0 -0.1915683518916429 -0.49997768953446348 0 -0.1795420104385079 -0.47575989514025713 0 -0.1915683518916429 -0.49997768953446348 0 -0.17103363349050699 -0.5 0 -0.1795420104385079 -0.47575989514025713 0 -0.17103363349050699 -0.5 0 -0.15049891508937119 -0.50000000000000033 0 -0.15189017209776329 -0.47682448151332463 0 -0.17103363349050699 -0.5 0 -0.1795420104385079 -0.47575989514025713 0 -0.15189017209776329 -0.47682448151332463 0 -0.1795420104385079 -0.47575989514025713 0 -0.16253888097396771 -0.46546419558911822 0 -0.15189017209776329 -0.47682448151332463 0 -0.1795420104385079 -0.47575989514025713 0 -0.1675156689853739 -0.45154210074605028 0 -0.18909411066267681 -0.46675697849875841 0 -0.1795420104385079 -0.47575989514025713 0 -0.17701906733212919 -0.45013546774813862 0 -0.18909411066267681 -0.46675697849875841 0 -0.19141395205120409 -0.4556972684702657 0 -0.17701906733212919 -0.45013546774813862 0 -0.18909411066267681 -0.46675697849875841 0 -0.17701906733212919 -0.45013546774813862 0 -0.1795420104385079 -0.47575989514025713 0 -0.17701906733212919 -0.45013546774813862 0 -0.1675156689853739 -0.45154210074605028 0 -0.19866950636767991 -0.44693090651062739 0 -0.18404345157386931 -0.44239217456960678 0 -0.17701906733212919 -0.45013546774813862 0 -0.18404345157386931 -0.44239217456960678 0 -0.17681411606315711 -0.43763992709024341 0 -0.18510121542511951 -0.43489383687486982 0 -0.19191066457864889 -0.44044726921953742 0 -0.18404345157386931 -0.44239217456960678 0 -0.18510121542511951 -0.43489383687486982 0 -0.17701906733212919 -0.45013546774813862 0 -0.17438936069977201 -0.44651563004948719 0 -0.1675156689853739 -0.45154210074605028 0 -0.17701906733212919 -0.45013546774813862 0 -0.1675156689853739 -0.45154210074605028 0 -0.17701906733212919 -0.45013546774813862 0 -0.17438936069977201 -0.44651563004948719 0 -0.17701906733212919 -0.45013546774813862 0 -0.17438936069977201 -0.44651563004948719 0 -0.1774642088595747 -0.44310996459061658 0 -0.18404345157386931 -0.44239217456960678 0 -0.17701906733212919 -0.45013546774813862 0 -0.1774642088595747 -0.44310996459061658 0 -0.17438936069977201 -0.44651563004948719 0 -0.1774642088595747 -0.44310996459061658 0 -0.171636797048038 -0.44234659486055572 0 -0.1774642088595747 -0.44310996459061658 0 -0.17681411606315711 -0.43763992709024341 0 -0.171636797048038 -0.44234659486055572 0 -0.18404345157386931 -0.44239217456960678 0 -0.1774642088595747 -0.44310996459061658 0 -0.17681411606315711 -0.43763992709024341 0 -0.1675156689853739 -0.45154210074605028 0 -0.15492941864857721 -0.42619680150951028 0 -0.1675156689853739 -0.45154210074605028 0 -0.15492941864857721 -0.42619680150951028 0 -0.16552968166752979 -0.43552271144016169 0 -0.171636797048038 -0.44234659486055572 0 -0.1675156689853739 -0.45154210074605028 0 -0.16552968166752979 -0.43552271144016169 0 -0.1675156689853739 -0.45154210074605028 0 -0.1532814291061545 -0.4536489630266487 0 -0.15492941864857721 -0.42619680150951028 0 -0.17681411606315711 -0.43763992709024341 0 -0.171636797048038 -0.44234659486055572 0 -0.16552968166752979 -0.43552271144016169 0 -0.17438936069977201 -0.44651563004948719 0 -0.171636797048038 -0.44234659486055572 0 -0.1675156689853739 -0.45154210074605028 0 -0.1675156689853739 -0.45154210074605028 0 -0.1532814291061545 -0.4536489630266487 0 -0.1795420104385079 -0.47575989514025713 0 -0.1675156689853739 -0.45154210074605028 0 -0.16253888097396771 -0.46546419558911822 0 -0.1675156689853739 -0.45154210074605028 0 -0.16253888097396771 -0.46546419558911822 0 -0.1532814291061545 -0.4536489630266487 0 -0.1532814291061545 -0.4536489630266487 0 -0.15189017209776329 -0.47682448151332463 0 -0.1532814291061545 -0.4536489630266487 0 -0.1421149884050853 -0.45530174904973408 0 -0.15189017209776329 -0.47682448151332463 0 -0.1421149884050853 -0.45530174904973408 0 -0.1355908966592452 -0.46775025883283727 0 -0.15189017209776329 -0.47682448151332463 0 -0.16253888097396771 -0.46546419558911822 0 -0.1532814291061545 -0.4536489630266487 0 -0.15189017209776329 -0.47682448151332463 0 -0.1532814291061545 -0.4536489630266487 0 -0.1421149884050853 -0.45530174904973408 0 -0.1532814291061545 -0.4536489630266487 0 -0.15492941864857721 -0.42619680150951028 0 -0.1532814291061545 -0.4536489630266487 0 -0.14560830413303419 -0.44245527790026429 0 -0.15492941864857721 -0.42619680150951028 0 -0.1532814291061545 -0.4536489630266487 0 -0.1421149884050853 -0.45530174904973408 0 -0.14560830413303419 -0.44245527790026429 0 -0.1421149884050853 -0.45530174904973408 0 -0.14560830413303419 -0.44245527790026429 0 -0.13514072451955211 -0.44582282817625041 0 -0.13514072451955211 -0.44582282817625041 0 -0.12729075124589459 -0.45464805760899751 0 -0.1246124455867906 -0.43863239855050751 0 -0.14560830413303419 -0.44245527790026429 0 -0.13514072451955211 -0.44582282817625041 0 -0.13590284138043979 -0.43369885142412667 0 -0.1421149884050853 -0.45530174904973408 0 -0.13514072451955211 -0.44582282817625041 0 -0.12729075124589459 -0.45464805760899751 0 -0.13514072451955211 -0.44582282817625041 0 -0.13590284138043979 -0.43369885142412667 0 -0.1246124455867906 -0.43863239855050751 0 -0.1421149884050853 -0.45530174904973408 0 -0.1355908966592452 -0.46775025883283727 0 -0.12729075124589459 -0.45464805760899751 0 -0.1355908966592452 -0.46775025883283727 0 -0.12729075124589459 -0.45464805760899751 0 -0.12261961854345101 -0.46873229841664532 0 -0.1355908966592452 -0.46775025883283727 0 -0.1349596619667425 -0.48226352279861401 0 -0.12261961854345101 -0.46873229841664532 0 -0.1349596619667425 -0.48226352279861401 0 -0.1208847520762024 -0.4828887229581168 0 -0.12261961854345101 -0.46873229841664532 0 -0.1349596619667425 -0.48226352279861401 0 -0.1262754876125218 -0.5 0 -0.15049891508937119 -0.50000000000000033 0 -0.1349596619667425 -0.48226352279861401 0 -0.1262754876125218 -0.5 0 -0.1208847520762024 -0.4828887229581168 0 -0.15049891508937119 -0.50000000000000033 0 -0.15189017209776329 -0.47682448151332463 0 -0.1349596619667425 -0.48226352279861401 0 -0.15049891508937119 -0.50000000000000033 0 -0.15189017209776329 -0.47682448151332463 0 -0.1355908966592452 -0.46775025883283727 0 -0.1349596619667425 -0.48226352279861401 0 -0.15189017209776329 -0.47682448151332463 0 -0.14484669597362021 -0.39415976582424339 0 -0.15486068472461911 -0.40903944127070219 0 -0.16488578993669939 -0.40381254659458687 0 -0.14484669597362021 -0.39415976582424339 0 -0.16488578993669939 -0.40381254659458687 0 -0.14484669597362021 -0.39415976582424339 0 -0.13192532503129739 -0.402394469159222 0 -0.14607534698953839 -0.4083670992824634 0 -0.14484669597362021 -0.39415976582424339 0 -0.14607534698953839 -0.4083670992824634 0 -0.15486068472461911 -0.40903944127070219 0 -0.14484669597362021 -0.39415976582424339 0 -0.13590416047448969 -0.38377867998994469 0 -0.14577525570122349 -0.37204785188362133 0 -0.14484669597362021 -0.39415976582424339 0 -0.16020598357541399 -0.38682329681136263 0 -0.14577525570122349 -0.37204785188362133 0 -0.13590416047448969 -0.38377867998994469 0 -0.14577525570122349 -0.37204785188362133 0 -0.1237754130536077 -0.36963831151970172 0 -0.13590416047448969 -0.38377867998994469 0 -0.1237754130536077 -0.36963831151970172 0 -0.12438711962387521 -0.38961250247889367 0 -0.14484669597362021 -0.39415976582424339 0 -0.13590416047448969 -0.38377867998994469 0 -0.13192532503129739 -0.402394469159222 0 -0.13590416047448969 -0.38377867998994469 0 -0.13192532503129739 -0.402394469159222 0 -0.12438711962387521 -0.38961250247889367 0 -0.13192532503129739 -0.402394469159222 0 -0.1400767561854758 -0.42070322296996732 0 -0.1220769034659865 -0.41864816778255298 0 -0.13192532503129739 -0.402394469159222 0 -0.1400767561854758 -0.42070322296996732 0 -0.14607534698953839 -0.4083670992824634 0 -0.1400767561854758 -0.42070322296996732 0 -0.13590284138043979 -0.43369885142412667 0 -0.1220769034659865 -0.41864816778255298 0 -0.13590284138043979 -0.43369885142412667 0 -0.1246124455867906 -0.43863239855050751 0 -0.1220769034659865 -0.41864816778255298 0 -0.1400767561854758 -0.42070322296996732 0 -0.13590284138043979 -0.43369885142412667 0 -0.14412933008688161 -0.43076353845096721 0 -0.14560830413303419 -0.44245527790026429 0 -0.14412933008688161 -0.43076353845096721 0 -0.15492941864857721 -0.42619680150951028 0 -0.14560830413303419 -0.44245527790026429 0 -0.13590284138043979 -0.43369885142412667 0 -0.14412933008688161 -0.43076353845096721 0 -0.1400767561854758 -0.42070322296996732 0 -0.14412933008688161 -0.43076353845096721 0 -0.15492941864857721 -0.42619680150951028 0 -0.15492941864857721 -0.42619680150951028 0 -0.15528392178474321 -0.42029149865298943 0 -0.1400767561854758 -0.42070322296996732 0 -0.15492941864857721 -0.42619680150951028 0 -0.14607534698953839 -0.4083670992824634 0 -0.15492941864857721 -0.42619680150951028 0 -0.14607534698953839 -0.4083670992824634 0 -0.15492941864857721 -0.42619680150951028 0 -0.14607534698953839 -0.4083670992824634 0 -0.15528392178474321 -0.42029149865298943 0 -0.14607534698953839 -0.4083670992824634 0 -0.15528392178474321 -0.42029149865298943 0 -0.15486068472461911 -0.40903944127070219 0 -0.16377344215831199 -0.41401035560346611 0 -0.18492488389977851 -0.41346532736493041 0 -0.16488578993669939 -0.40381254659458687 0 -0.15486068472461911 -0.40903944127070219 0 -0.16377344215831199 -0.41401035560346611 0 -0.16488578993669939 -0.40381254659458687 0 -0.15528392178474321 -0.42029149865298943 0 -0.15486068472461911 -0.40903944127070219 0 -0.16377344215831199 -0.41401035560346611 0 -0.15528392178474321 -0.42029149865298943 0 -0.16377344215831199 -0.41401035560346611 0 -0.16718501116308029 -0.42310935305907887 0 -0.15492941864857721 -0.42619680150951028 0 -0.16718501116308029 -0.42310935305907887 0 -0.16552968166752979 -0.43552271144016169 0 -0.15492941864857721 -0.42619680150951028 0 -0.15528392178474321 -0.42029149865298943 0 -0.16718501116308029 -0.42310935305907887 0 -0.16718501116308029 -0.42310935305907887 0 -0.16552968166752979 -0.43552271144016169 0 -0.17837785759276101 -0.42930870614938638 0 -0.17837785759276101 -0.42930870614938638 0 -0.18492488389977851 -0.41346532736493041 0 -0.19174390826498561 -0.42674082797639551 0 -0.16718501116308029 -0.42310935305907887 0 -0.17837785759276101 -0.42930870614938638 0 -0.18492488389977851 -0.41346532736493041 0 -0.17681411606315711 -0.43763992709024341 0 -0.16552968166752979 -0.43552271144016169 0 -0.17837785759276101 -0.42930870614938638 0 -0.17681411606315711 -0.43763992709024341 0 -0.17837785759276101 -0.42930870614938638 0 -0.18510121542511951 -0.43489383687486982 0 -0.17837785759276101 -0.42930870614938638 0 -0.18510121542511951 -0.43489383687486982 0 -0.19174390826498561 -0.42674082797639551 0 -0.16377344215831199 -0.41401035560346611 0 -0.16718501116308029 -0.42310935305907887 0 -0.18492488389977851 -0.41346532736493041 0 -0.18492488389977851 -0.41346532736493041 0 -0.16488578993669939 -0.40381254659458687 0 -0.18492488389977851 -0.41346532736493041 0 -0.16488578993669939 -0.40381254659458687 0 -0.17933520080855 -0.39056286094544101 0 -0.16488578993669939 -0.40381254659458687 0 -0.16020598357541399 -0.38682329681136263 0 -0.17933520080855 -0.39056286094544101 0 -0.14484669597362021 -0.39415976582424339 0 -0.16488578993669939 -0.40381254659458687 0 -0.16020598357541399 -0.38682329681136263 0 -0.16020598357541399 -0.38682329681136263 0 -0.16716136090771949 -0.371591788955695 0 -0.14577525570122349 -0.37204785188362133 0 -0.16020598357541399 -0.38682329681136263 0 -0.17933520080855 -0.39056286094544101 0 -0.16716136090771949 -0.371591788955695 0 -0.17933520080855 -0.39056286094544101 0 -0.1952918377897005 -0.3812265344696969 0 -0.1832702132346114 -0.37028587856708117 0 -0.17933520080855 -0.39056286094544101 0 -0.16716136090771949 -0.371591788955695 0 -0.1832702132346114 -0.37028587856708117 0 -0.17933520080855 -0.39056286094544101 0 -0.1952918377897005 -0.3812265344696969 0 -0.2000196635728935 -0.3988111136355571 0 -0.18492488389977851 -0.41346532736493041 0 -0.17933520080855 -0.39056286094544101 0 -0.2000196635728935 -0.3988111136355571 0 -0.2000196635728935 -0.3988111136355571 0 -0.21474741584724699 -0.38247171089861881 0 -0.22085466522922739 -0.40202213999938152 0 -0.1952918377897005 -0.3812265344696969 0 -0.2000196635728935 -0.3988111136355571 0 -0.21474741584724699 -0.38247171089861881 0 -0.19191066457864889 -0.44044726921953742 0 -0.20496397786285769 -0.42311810813527378 0 -0.19191066457864889 -0.44044726921953742 0 -0.20496397786285769 -0.42311810813527378 0 -0.20893131586535341 -0.43741892425994988 0 -0.19191066457864889 -0.44044726921953742 0 -0.19174390826498561 -0.42674082797639551 0 -0.20496397786285769 -0.42311810813527378 0 -0.19191066457864889 -0.44044726921953742 0 -0.18510121542511951 -0.43489383687486982 0 -0.19174390826498561 -0.42674082797639551 0 -0.18492488389977851 -0.41346532736493041 0 -0.19174390826498561 -0.42674082797639551 0 -0.20496397786285769 -0.42311810813527378 0 -0.18492488389977851 -0.41346532736493041 0 -0.20496397786285769 -0.42311810813527378 0 -0.18492488389977851 -0.41346532736493041 0 -0.2000196635728935 -0.3988111136355571 0 -0.20496397786285769 -0.42311810813527378 0 -0.20496397786285769 -0.42311810813527378 0 -0.22353931627435519 -0.41933175149902557 0 -0.22085466522922739 -0.40202213999938152 0 -0.2000196635728935 -0.3988111136355571 0 -0.20496397786285769 -0.42311810813527378 0 -0.22085466522922739 -0.40202213999938152 0 -0.20496397786285769 -0.42311810813527378 0 -0.22085466522922739 -0.40202213999938152 0 -0.20496397786285769 -0.42311810813527378 0 -0.20893131586535341 -0.43741892425994988 0 -0.2322062982320007 -0.43624066480791052 0 -0.20496397786285769 -0.42311810813527378 0 -0.2322062982320007 -0.43624066480791052 0 -0.20496397786285769 -0.42311810813527378 0 -0.2322062982320007 -0.43624066480791052 0 -0.22353931627435519 -0.41933175149902557 0 -0.2322062982320007 -0.43624066480791052 0 -0.22353931627435519 -0.41933175149902557 0 -0.23613232377333479 -0.41594609305353653 0 -0.23613232377333479 -0.41594609305353653 0 -0.22085466522922739 -0.40202213999938152 0 -0.24360479987740419 -0.40433634950322239 0 -0.22353931627435519 -0.41933175149902557 0 -0.23613232377333479 -0.41594609305353653 0 -0.22085466522922739 -0.40202213999938152 0 -0.2549487350111555 -0.4116602158871262 0 -0.23613232377333479 -0.41594609305353653 0 -0.2497393567462505 -0.42637531274769669 0 -0.2549487350111555 -0.4116602158871262 0 -0.23613232377333479 -0.41594609305353653 0 -0.24360479987740419 -0.40433634950322239 0 -0.2322062982320007 -0.43624066480791052 0 -0.23613232377333479 -0.41594609305353653 0 -0.2497393567462505 -0.42637531274769669 0 -0.24679436005434549 -0.44171755295215498 0 -0.2322062982320007 -0.43624066480791052 0 -0.2497393567462505 -0.42637531274769669 0 -0.21474741584724699 -0.38247171089861881 0 -0.23674535259559709 -0.38092617186348909 0 -0.21959556087656129 -0.36257162891857708 0 -0.21474741584724699 -0.38247171089861881 0 -0.22085466522922739 -0.40202213999938152 0 -0.23674535259559709 -0.38092617186348909 0 -0.22085466522922739 -0.40202213999938152 0 -0.23674535259559709 -0.38092617186348909 0 -0.22085466522922739 -0.40202213999938152 0 -0.24360479987740419 -0.40433634950322239 0 -0.23674535259559709 -0.38092617186348909 0 -0.25248645682638787 -0.39293102807938229 0 -0.24360479987740419 -0.40433634950322239 0 -0.23674535259559709 -0.38092617186348909 0 -0.25263603996196682 -0.35983020372759678 0 -0.23674535259559709 -0.38092617186348909 0 -0.25263603996196682 -0.35983020372759678 0 -0.23674535259559709 -0.38092617186348909 0 -0.23535905122089509 -0.3544866952532178 0 -0.23674535259559709 -0.38092617186348909 0 -0.21959556087656129 -0.36257162891857708 0 -0.23535905122089509 -0.3544866952532178 0 -0.21959556087656129 -0.36257162891857708 0 -0.23535905122089509 -0.3544866952532178 0 -0.22295230676512551 -0.33886988111483701 0 -0.25263603996196682 -0.35983020372759678 0 -0.23535905122089509 -0.3544866952532178 0 -0.2443662862232685 -0.33543777652794871 0 -0.2443662862232685 -0.33543777652794871 0 -0.24517663357371999 -0.3126795376765571 0 -0.22672414844255079 -0.31809588557644253 0 -0.25884736599227742 -0.32368332841539421 0 -0.2443662862232685 -0.33543777652794871 0 -0.24517663357371999 -0.3126795376765571 0 -0.24517663357371999 -0.3126795376765571 0 -0.22672414844255079 -0.31809588557644253 0 -0.2334074086395681 -0.3073062865632028 0 -0.22672414844255079 -0.31809588557644253 0 -0.22295230676512551 -0.33886988111483701 0 -0.20759864553461149 -0.32435576651781572 0 -0.2443662862232685 -0.33543777652794871 0 -0.22672414844255079 -0.31809588557644253 0 -0.22295230676512551 -0.33886988111483701 0 -0.23535905122089509 -0.3544866952532178 0 -0.2443662862232685 -0.33543777652794871 0 -0.22295230676512551 -0.33886988111483701 0 -0.22295230676512551 -0.33886988111483701 0 -0.20575089745950129 -0.34160565971412987 0 -0.20759864553461149 -0.32435576651781572 0 -0.22672414844255079 -0.31809588557644253 0 -0.20759864553461149 -0.32435576651781572 0 -0.20836639934221071 -0.30682727788967329 0 -0.20759864553461149 -0.32435576651781572 0 -0.19541248253669311 -0.31342251984097458 0 -0.20836639934221071 -0.30682727788967329 0 -0.19541248253669311 -0.31342251984097458 0 -0.1895033287337122 -0.33125727714863679 0 -0.1781837483672955 -0.30876502366398079 0 -0.20759864553461149 -0.32435576651781572 0 -0.19541248253669311 -0.31342251984097458 0 -0.1895033287337122 -0.33125727714863679 0 -0.20575089745950129 -0.34160565971412987 0 -0.1895033287337122 -0.33125727714863679 0 -0.1967125953584381 -0.35783881557373648 0 -0.20575089745950129 -0.34160565971412987 0 -0.20759864553461149 -0.32435576651781572 0 -0.1895033287337122 -0.33125727714863679 0 -0.1952918377897005 -0.3812265344696969 0 -0.21474741584724699 -0.38247171089861881 0 -0.1967125953584381 -0.35783881557373648 0 -0.1952918377897005 -0.3812265344696969 0 -0.1967125953584381 -0.35783881557373648 0 -0.1832702132346114 -0.37028587856708117 0 -0.21474741584724699 -0.38247171089861881 0 -0.21959556087656129 -0.36257162891857708 0 -0.1967125953584381 -0.35783881557373648 0 -0.21959556087656129 -0.36257162891857708 0 -0.20575089745950129 -0.34160565971412987 0 -0.1967125953584381 -0.35783881557373648 0 -0.21959556087656129 -0.36257162891857708 0 -0.22295230676512551 -0.33886988111483701 0 -0.20575089745950129 -0.34160565971412987 0 -0.22621064782575001 -0.25351480996887571 0 -0.22987660620332981 -0.26646655405003061 0 -0.21823039100881519 -0.26128372977120368 0 -0.22621064782575001 -0.25351480996887571 0 -0.2473327590956359 -0.25969079559440661 0 -0.2473327590956359 -0.25969079559440661 0 -0.24195462372499821 -0.26972070452205571 0 -0.22987660620332981 -0.26646655405003061 0 -0.22621064782575001 -0.25351480996887571 0 -0.2473327590956359 -0.25969079559440661 0 -0.22987660620332981 -0.26646655405003061 0 -0.22621064782575001 -0.25351480996887571 0 -0.24025830119653499 -0.25100267455733372 0 -0.2473327590956359 -0.25969079559440661 0 -0.24025830119653499 -0.25100267455733372 0 -0.24670719361837701 -0.25605126538222289 0 -0.24593611480958111 -0.2460506156131427 0 -0.24670719361837701 -0.25605126538222289 0 -0.24877741707925849 -0.25699659267671021 0 -0.24593611480958111 -0.2460506156131427 0 -0.24025830119653499 -0.25100267455733372 0 -0.24670719361837701 -0.25605126538222289 0 -0.2473327590956359 -0.25969079559440661 0 -0.24670719361837701 -0.25605126538222289 0 -0.24877741707925849 -0.25699659267671021 0 -0.2473327590956359 -0.25969079559440661 0 -0.24670719361837701 -0.25605126538222289 0 -0.24877741707925849 -0.25699659267671021 0 -0.2473327590956359 -0.25969079559440661 0 -0.24195462372499821 -0.26972070452205571 0 -0.24877741707925849 -0.25699659267671021 0 -0.2473327590956359 -0.25969079559440661 0 -0.24195462372499821 -0.26972070452205571 0 -0.22987660620332981 -0.26646655405003061 0 -0.24195462372499821 -0.26972070452205571 0 -0.24084153624826671 -0.27179654777454709 0 -0.23357821557231581 -0.27279514953356743 0 -0.24195462372499821 -0.26972070452205571 0 -0.23357821557231581 -0.27279514953356743 0 -0.22987660620332981 -0.26646655405003061 0 -0.24195462372499821 -0.26972070452205571 0 -0.24084153624826671 -0.27179654777454709 0 -0.25478451806702729 -0.27317743131138811 0 -0.24195462372499821 -0.26972070452205571 0 -0.25478451806702729 -0.27317743131138811 0 -0.24195462372499821 -0.26972070452205571 0 -0.24467553040850451 -0.27466090552552641 0 -0.25478451806702729 -0.27317743131138811 0 -0.2473327590956359 -0.25969079559440661 0 -0.24195462372499821 -0.26972070452205571 0 -0.24195462372499821 -0.26972070452205571 0 -0.24084153624826671 -0.27179654777454709 0 -0.24467553040850451 -0.27466090552552641 0 -0.25478451806702729 -0.27317743131138811 0 -0.24467553040850451 -0.27466090552552641 0 -0.24527176736350911 -0.27940943772398658 0 -0.24467553040850451 -0.27466090552552641 0 -0.24527176736350911 -0.27940943772398658 0 -0.23999604692390439 -0.27760107353662572 0 -0.24527176736350911 -0.27940943772398658 0 -0.23999604692390439 -0.27760107353662572 0 -0.2401067352154577 -0.28631530633189051 0 -0.23999604692390439 -0.27760107353662572 0 -0.23550249673537321 -0.2806290943302362 0 -0.23357821557231581 -0.27279514953356743 0 -0.24084153624826671 -0.27179654777454709 0 -0.24467553040850451 -0.27466090552552641 0 -0.23999604692390439 -0.27760107353662572 0 -0.24084153624826671 -0.27179654777454709 0 -0.23999604692390439 -0.27760107353662572 0 -0.23357821557231581 -0.27279514953356743 0 -0.23357821557231581 -0.27279514953356743 0 -0.22161804606245969 -0.27214078104813 0 -0.22700446343940911 -0.28526318698961051 0 -0.23550249673537321 -0.2806290943302362 0 -0.23357821557231581 -0.27279514953356743 0 -0.22700446343940911 -0.28526318698961051 0 -0.23357821557231581 -0.27279514953356743 0 -0.22987660620332981 -0.26646655405003061 0 -0.22161804606245969 -0.27214078104813 0 -0.22987660620332981 -0.26646655405003061 0 -0.22161804606245969 -0.27214078104813 0 -0.21823039100881519 -0.26128372977120368 0 -0.22161804606245969 -0.27214078104813 0 -0.22700446343940911 -0.28526318698961051 0 -0.21226215814884419 -0.27880275303986513 0 -0.22700446343940911 -0.28526318698961051 0 -0.2381040776117439 -0.29730897816029489 0 -0.2236247749302577 -0.30114074483951653 0 -0.22700446343940911 -0.28526318698961051 0 -0.2236247749302577 -0.30114074483951653 0 -0.21081776900713989 -0.290718922107502 0 -0.23550249673537321 -0.2806290943302362 0 -0.22700446343940911 -0.28526318698961051 0 -0.2401067352154577 -0.28631530633189051 0 -0.23999604692390439 -0.27760107353662572 0 -0.23550249673537321 -0.2806290943302362 0 -0.2401067352154577 -0.28631530633189051 0 -0.24527176736350911 -0.27940943772398658 0 -0.2401067352154577 -0.28631530633189051 0 -0.24982321733019161 -0.2926732244013186 0 -0.2401067352154577 -0.28631530633189051 0 -0.24982321733019161 -0.2926732244013186 0 -0.2381040776117439 -0.29730897816029489 0 -0.22700446343940911 -0.28526318698961051 0 -0.2401067352154577 -0.28631530633189051 0 -0.2381040776117439 -0.29730897816029489 0 -0.24517663357371999 -0.3126795376765571 0 -0.24982321733019161 -0.2926732244013186 0 -0.2381040776117439 -0.29730897816029489 0 -0.24517663357371999 -0.3126795376765571 0 -0.2381040776117439 -0.29730897816029489 0 -0.2334074086395681 -0.3073062865632028 0 -0.22672414844255079 -0.31809588557644253 0 -0.2334074086395681 -0.3073062865632028 0 -0.2236247749302577 -0.30114074483951653 0 -0.22672414844255079 -0.31809588557644253 0 -0.2236247749302577 -0.30114074483951653 0 -0.20836639934221071 -0.30682727788967329 0 -0.2381040776117439 -0.29730897816029489 0 -0.2334074086395681 -0.3073062865632028 0 -0.2236247749302577 -0.30114074483951653 0 -0.20836639934221071 -0.30682727788967329 0 -0.19341029070563559 -0.29590725398476631 0 -0.21081776900713989 -0.290718922107502 0 -0.2236247749302577 -0.30114074483951653 0 -0.20836639934221071 -0.30682727788967329 0 -0.21081776900713989 -0.290718922107502 0 -0.19541248253669311 -0.31342251984097458 0 -0.19341029070563559 -0.29590725398476631 0 -0.1781837483672955 -0.30876502366398079 0 -0.19541248253669311 -0.31342251984097458 0 -0.20836639934221071 -0.30682727788967329 0 -0.19341029070563559 -0.29590725398476631 0 -0.19341029070563559 -0.29590725398476631 0 -0.21081776900713989 -0.290718922107502 0 -0.19863168200786979 -0.27767656585541112 0 -0.19341029070563559 -0.29590725398476631 0 -0.19863168200786979 -0.27767656585541112 0 -0.1846833449526695 -0.28405852367607881 0 -0.22700446343940911 -0.28526318698961051 0 -0.21081776900713989 -0.290718922107502 0 -0.21226215814884419 -0.27880275303986513 0 -0.21081776900713989 -0.290718922107502 0 -0.21226215814884419 -0.27880275303986513 0 -0.19863168200786979 -0.27767656585541112 0 -0.22161804606245969 -0.27214078104813 0 -0.20835811839667259 -0.26695767944563759 0 -0.21823039100881519 -0.26128372977120368 0 -0.22161804606245969 -0.27214078104813 0 -0.21226215814884419 -0.27880275303986513 0 -0.20835811839667259 -0.26695767944563759 0 -0.21226215814884419 -0.27880275303986513 0 -0.20835811839667259 -0.26695767944563759 0 -0.19863168200786979 -0.27767656585541112 0 -0.20835811839667259 -0.26695767944563759 0 -0.19863168200786979 -0.27767656585541112 0 -0.19328889681036859 -0.26049731377526908 0 -0.19863168200786979 -0.27767656585541112 0 -0.19328889681036859 -0.26049731377526908 0 -0.18235054999884071 -0.27142139810409449 0 -0.19863168200786979 -0.27767656585541112 0 -0.18235054999884071 -0.27142139810409449 0 -0.1846833449526695 -0.28405852367607881 0 -0.20835811839667259 -0.26695767944563759 0 -0.19328889681036859 -0.26049731377526908 0 -0.20508853655586409 -0.2473388243433447 0 -0.20835811839667259 -0.26695767944563759 0 -0.21823039100881519 -0.26128372977120368 0 -0.20508853655586409 -0.2473388243433447 0 -0.22621064782575001 -0.25351480996887571 0 -0.20508853655586409 -0.2473388243433447 0 -0.22621064782575001 -0.25351480996887571 0 -0.21823039100881519 -0.26128372977120368 0 -0.20508853655586409 -0.2473388243433447 0 -0.16753065304192699 -0.2678403111039841 0 -0.15440671500016229 -0.26946033574230682 0 -0.15582188451263579 -0.25140382889621582 0 -0.17569602095973791 -0.25743891714357631 0 -0.15582188451263579 -0.25140382889621582 0 -0.1839664252859779 -0.2411628387178148 0 -0.17569602095973791 -0.25743891714357631 0 -0.16753065304192699 -0.2678403111039841 0 -0.15582188451263579 -0.25140382889621582 0 -0.19328889681036859 -0.26049731377526908 0 -0.17569602095973791 -0.25743891714357631 0 -0.1839664252859779 -0.2411628387178148 0 -0.19328889681036859 -0.26049731377526908 0 -0.17569602095973791 -0.25743891714357631 0 -0.18235054999884071 -0.27142139810409449 0 -0.17569602095973791 -0.25743891714357631 0 -0.18235054999884071 -0.27142139810409449 0 -0.16753065304192699 -0.2678403111039841 0 -0.18235054999884071 -0.27142139810409449 0 -0.1686039990966274 -0.28102022604299948 0 -0.16753065304192699 -0.2678403111039841 0 -0.18235054999884071 -0.27142139810409449 0 -0.1686039990966274 -0.28102022604299948 0 -0.1846833449526695 -0.28405852367607881 0 -0.1686039990966274 -0.28102022604299948 0 -0.16753065304192699 -0.2678403111039841 0 -0.15440671500016229 -0.26946033574230682 0 -0.1686039990966274 -0.28102022604299948 0 -0.15440671500016229 -0.26946033574230682 0 -0.1686039990966274 -0.28102022604299948 0 -0.15247863386821059 -0.29406121206979269 0 -0.15440671500016229 -0.26946033574230682 0 -0.1686039990966274 -0.28102022604299948 0 -0.17378450308772511 -0.29509716154007221 0 -0.15247863386821059 -0.29406121206979269 0 -0.1686039990966274 -0.28102022604299948 0 -0.1846833449526695 -0.28405852367607881 0 -0.17378450308772511 -0.29509716154007221 0 -0.19341029070563559 -0.29590725398476631 0 -0.1846833449526695 -0.28405852367607881 0 -0.17378450308772511 -0.29509716154007221 0 -0.19341029070563559 -0.29590725398476631 0 -0.17378450308772511 -0.29509716154007221 0 -0.1781837483672955 -0.30876502366398079 0 -0.17378450308772511 -0.29509716154007221 0 -0.1634181435371041 -0.30797050538751958 0 -0.15247863386821059 -0.29406121206979269 0 -0.17378450308772511 -0.29509716154007221 0 -0.1781837483672955 -0.30876502366398079 0 -0.1634181435371041 -0.30797050538751958 0 -0.1371470771958655 -0.31194761088583012 0 -0.15247863386821059 -0.29406121206979269 0 -0.15055055273626161 -0.31866208839727872 0 -0.15247863386821059 -0.29406121206979269 0 -0.15055055273626161 -0.31866208839727872 0 -0.1634181435371041 -0.30797050538751958 0 -0.15247863386821059 -0.29406121206979269 0 -0.15055055273626161 -0.31866208839727872 0 -0.1371470771958655 -0.31194761088583012 0 -0.13184252200300151 -0.29879021372575909 0 -0.15247863386821059 -0.29406121206979269 0 -0.1371470771958655 -0.31194761088583012 0 -0.13184252200300151 -0.29879021372575909 0 -0.1211204716327879 -0.31327327940527849 0 -0.13184252200300151 -0.29879021372575909 0 -0.1334174934872234 -0.28478252576000779 0 -0.15247863386821059 -0.29406121206979269 0 -0.13184252200300151 -0.29879021372575909 0 -0.1334174934872234 -0.28478252576000779 0 -0.1203131143121977 -0.28648251011723402 0 -0.1334174934872234 -0.28478252576000779 0 -0.15247863386821059 -0.29406121206979269 0 -0.1439419780091111 -0.27950472684899758 0 -0.15247863386821059 -0.29406121206979269 0 -0.15440671500016229 -0.26946033574230682 0 -0.15440671500016229 -0.26946033574230682 0 -0.1439419780091111 -0.27950472684899758 0 -0.13358124995507051 -0.27066062902065402 0 -0.15247863386821059 -0.29406121206979269 0 -0.15440671500016229 -0.26946033574230682 0 -0.1439419780091111 -0.27950472684899758 0 -0.1334174934872234 -0.28478252576000779 0 -0.13358124995507051 -0.27066062902065402 0 -0.11714345555397471 -0.27375533141087061 0 -0.1334174934872234 -0.28478252576000779 0 -0.1439419780091111 -0.27950472684899758 0 -0.13358124995507051 -0.27066062902065402 0 -0.13358124995507051 -0.27066062902065402 0 -0.13137013849522369 -0.25070320617504072 0 -0.1166405633053913 -0.26145354036864099 0 -0.15440671500016229 -0.26946033574230682 0 -0.13358124995507051 -0.27066062902065402 0 -0.13137013849522369 -0.25070320617504072 0 -0.15440671500016229 -0.26946033574230682 0 -0.1472846546938946 -0.25495210015010511 0 -0.15582188451263579 -0.25140382889621582 0 -0.15440671500016229 -0.26946033574230682 0 -0.13137013849522369 -0.25070320617504072 0 -0.15440671500016229 -0.26946033574230682 0 -0.15582188451263579 -0.25140382889621582 0 -0.15440671500016229 -0.26946033574230682 0 -0.13137013849522369 -0.25070320617504072 0 -0.1472846546938946 -0.25495210015010511 0 -0.1472846546938946 -0.25495210015010511 0 -0.15582188451263579 -0.25140382889621582 0 -0.1491583651890831 -0.24581132402331229 0 -0.15676054920000351 -0.35860118874099611 0 -0.17346478439745219 -0.35054762852733051 0 -0.14862247160431261 -0.34326296472476481 0 -0.15676054920000351 -0.35860118874099611 0 -0.16716136090771949 -0.371591788955695 0 -0.17346478439745219 -0.35054762852733051 0 -0.15676054920000351 -0.35860118874099611 0 -0.16716136090771949 -0.371591788955695 0 -0.14577525570122349 -0.37204785188362133 0 -0.16716136090771949 -0.371591788955695 0 -0.1832702132346114 -0.37028587856708117 0 -0.17346478439745219 -0.35054762852733051 0 -0.1967125953584381 -0.35783881557373648 0 -0.1832702132346114 -0.37028587856708117 0 -0.17346478439745219 -0.35054762852733051 0 -0.1895033287337122 -0.33125727714863679 0 -0.1967125953584381 -0.35783881557373648 0 -0.17346478439745219 -0.35054762852733051 0 -0.1895033287337122 -0.33125727714863679 0 -0.17346478439745219 -0.35054762852733051 0 -0.16876044091170631 -0.32703399492037821 0 -0.1895033287337122 -0.33125727714863679 0 -0.1781837483672955 -0.30876502366398079 0 -0.16876044091170631 -0.32703399492037821 0 -0.1634181435371041 -0.30797050538751958 0 -0.16876044091170631 -0.32703399492037821 0 -0.15055055273626161 -0.31866208839727872 0 -0.1781837483672955 -0.30876502366398079 0 -0.1634181435371041 -0.30797050538751958 0 -0.16876044091170631 -0.32703399492037821 0 -0.17346478439745219 -0.35054762852733051 0 -0.16876044091170631 -0.32703399492037821 0 -0.14862247160431261 -0.34326296472476481 0 -0.14862247160431261 -0.34326296472476481 0 -0.15055055273626161 -0.31866208839727872 0 -0.14862247160431261 -0.34326296472476481 0 -0.15055055273626161 -0.31866208839727872 0 -0.1315621742525761 -0.3313029086956652 0 -0.16876044091170631 -0.32703399492037821 0 -0.14862247160431261 -0.34326296472476481 0 -0.15055055273626161 -0.31866208839727872 0 -0.1371470771958655 -0.31194761088583012 0 -0.1315621742525761 -0.3313029086956652 0 -0.1211204716327879 -0.31327327940527849 0 -0.1371470771958655 -0.31194761088583012 0 -0.15055055273626161 -0.31866208839727872 0 -0.1315621742525761 -0.3313029086956652 0 -0.14862247160431261 -0.34326296472476481 0 -0.1315621742525761 -0.3313029086956652 0 -0.13172386557305729 -0.34518060972143261 0 -0.1315621742525761 -0.3313029086956652 0 -0.13172386557305729 -0.34518060972143261 0 -0.1133397925279386 -0.33886477804561921 0 -0.14862247160431261 -0.34326296472476481 0 -0.13803505143203551 -0.35707012052834841 0 -0.13172386557305729 -0.34518060972143261 0 -0.13803505143203551 -0.35707012052834841 0 -0.13172386557305729 -0.34518060972143261 0 -0.12083940053404831 -0.353467972741078 0 -0.15676054920000351 -0.35860118874099611 0 -0.14862247160431261 -0.34326296472476481 0 -0.13803505143203551 -0.35707012052834841 0 -0.15676054920000351 -0.35860118874099611 0 -0.13803505143203551 -0.35707012052834841 0 -0.14577525570122349 -0.37204785188362133 0 -0.13803505143203551 -0.35707012052834841 0 -0.14577525570122349 -0.37204785188362133 0 -0.1237754130536077 -0.36963831151970172 0 -0.13803505143203551 -0.35707012052834841 0 -0.1237754130536077 -0.36963831151970172 0 -0.12083940053404831 -0.353467972741078 0 -0.1237754130536077 -0.36963831151970172 0 -0.1155675483555299 -0.36277945686840107 0 -0.12083940053404831 -0.353467972741078 0 -0.1155675483555299 -0.36277945686840107 0 -0.1085639166131518 -0.37221401204379151 0 -0.1054630915844398 -0.35927048502599801 0 -0.1237754130536077 -0.36963831151970172 0 -0.1155675483555299 -0.36277945686840107 0 -0.1085639166131518 -0.37221401204379151 0 -0.1085639166131518 -0.37221401204379151 0 -0.095556642535657016 -0.36881035468621798 0 -0.1054630915844398 -0.35927048502599801 0 -0.094824238977806063 -0.36101657964932732 0 -0.095556642535657016 -0.36881035468621798 0 -0.1054630915844398 -0.35927048502599801 0 -0.10397760429923129 -0.34705250748738992 0 -0.089997198115270044 -0.34015821316665079 0 -0.093472886478851408 -0.35270890685541878 0 -0.1054630915844398 -0.35927048502599801 0 -0.10397760429923129 -0.34705250748738992 0 -0.093472886478851408 -0.35270890685541878 0 -0.094824238977806063 -0.36101657964932732 0 -0.1054630915844398 -0.35927048502599801 0 -0.093472886478851408 -0.35270890685541878 0 -0.10397760429923129 -0.34705250748738992 0 -0.12083940053404831 -0.353467972741078 0 -0.1133397925279386 -0.33886477804561921 0 -0.13172386557305729 -0.34518060972143261 0 -0.12083940053404831 -0.353467972741078 0 -0.1133397925279386 -0.33886477804561921 0 -0.1054630915844398 -0.35927048502599801 0 -0.10397760429923129 -0.34705250748738992 0 -0.12083940053404831 -0.353467972741078 0 -0.1155675483555299 -0.36277945686840107 0 -0.1054630915844398 -0.35927048502599801 0 -0.12083940053404831 -0.353467972741078 0 -0.1133397925279386 -0.33886477804561921 0 -0.1182217617039527 -0.32677266826544932 0 -0.1052084593533591 -0.32246318010674851 0 -0.1315621742525761 -0.3313029086956652 0 -0.1133397925279386 -0.33886477804561921 0 -0.1182217617039527 -0.32677266826544932 0 -0.1182217617039527 -0.32677266826544932 0 -0.1211204716327879 -0.31327327940527849 0 -0.1052084593533591 -0.32246318010674851 0 -0.1211204716327879 -0.31327327940527849 0 -0.1052084593533591 -0.32246318010674851 0 -0.1076913728368081 -0.30757840123108199 0 -0.1315621742525761 -0.3313029086956652 0 -0.1182217617039527 -0.32677266826544932 0 -0.1211204716327879 -0.31327327940527849 0 -0.1052084593533591 -0.32246318010674851 0 -0.087752374574175271 -0.32301121005180528 0 -0.093930286130068263 -0.30735915874605763 0 -0.1052084593533591 -0.32246318010674851 0 -0.10040619644112771 -0.33446642158517881 0 -0.087752374574175271 -0.32301121005180528 0 -0.1133397925279386 -0.33886477804561921 0 -0.1052084593533591 -0.32246318010674851 0 -0.10040619644112771 -0.33446642158517881 0 -0.10397760429923129 -0.34705250748738992 0 -0.1133397925279386 -0.33886477804561921 0 -0.10040619644112771 -0.33446642158517881 0 -0.10397760429923129 -0.34705250748738992 0 -0.10040619644112771 -0.33446642158517881 0 -0.089997198115270044 -0.34015821316665079 0 -0.089997198115270044 -0.34015821316665079 0 -0.087752374574175271 -0.32301121005180528 0 -0.072156209829014037 -0.33297182365329209 0 -0.10040619644112771 -0.33446642158517881 0 -0.089997198115270044 -0.34015821316665079 0 -0.087752374574175271 -0.32301121005180528 0 -0.089997198115270044 -0.34015821316665079 0 -0.072156209829014037 -0.33297182365329209 0 -0.081230201336029401 -0.34958083022870862 0 -0.087752374574175271 -0.32301121005180528 0 -0.093930286130068263 -0.30735915874605763 0 -0.081775461202762009 -0.31040811314175137 0 -0.087752374574175271 -0.32301121005180528 0 -0.070380144865930361 -0.31461845375906289 0 -0.081775461202762009 -0.31040811314175137 0 -0.070380144865930361 -0.31461845375906289 0 -0.072156209829014037 -0.33297182365329209 0 -0.055468902848648013 -0.31799476296609203 0 -0.087752374574175271 -0.32301121005180528 0 -0.070380144865930361 -0.31461845375906289 0 -0.072156209829014037 -0.33297182365329209 0 -0.072156209829014037 -0.33297182365329209 0 -0.067958925680665583 -0.35138624307445132 0 -0.052772085702365072 -0.3325108872504296 0 -0.072156209829014037 -0.33297182365329209 0 -0.067958925680665583 -0.35138624307445132 0 -0.081230201336029401 -0.34958083022870862 0 -0.067958925680665583 -0.35138624307445132 0 -0.084804335312276102 -0.36327657202967439 0 -0.081230201336029401 -0.34958083022870862 0 -0.067958925680665583 -0.35138624307445132 0 -0.083145765658967238 -0.3702615988984721 0 -0.06741214093286145 -0.36853543533479782 0 -0.083145765658967238 -0.3702615988984721 0 -0.070386996333883844 -0.37946010908988259 0 -0.067958925680665583 -0.35138624307445132 0 -0.06741214093286145 -0.36853543533479782 0 -0.054590644847130977 -0.36465982266874669 0 -0.067958925680665583 -0.35138624307445132 0 -0.06741214093286145 -0.36853543533479782 0 -0.083145765658967238 -0.3702615988984721 0 -0.067958925680665583 -0.35138624307445132 0 -0.084804335312276102 -0.36327657202967439 0 -0.083145765658967238 -0.3702615988984721 0 -0.084804335312276102 -0.36327657202967439 0 -0.083145765658967238 -0.3702615988984721 0 -0.095556642535657016 -0.36881035468621798 0 -0.084804335312276102 -0.36327657202967439 0 -0.083145765658967238 -0.3702615988984721 0 -0.094824238977806063 -0.36101657964932732 0 -0.095556642535657016 -0.36881035468621798 0 -0.084804335312276102 -0.36327657202967439 0 -0.094824238977806063 -0.36101657964932732 0 -0.084804335312276102 -0.36327657202967439 0 -0.093472886478851408 -0.35270890685541878 0 -0.084804335312276102 -0.36327657202967439 0 -0.093472886478851408 -0.35270890685541878 0 -0.081230201336029401 -0.34958083022870862 0 -0.089997198115270044 -0.34015821316665079 0 -0.093472886478851408 -0.35270890685541878 0 -0.081230201336029401 -0.34958083022870862 0 -0.099469701624810405 -0.25176391536762288 0 -0.098092836605644218 -0.2598076789296403 0 -0.1056198447461318 -0.25749783703829998 0 -0.094122195129849387 -0.25775714604548527 0 -0.099469701624810405 -0.25176391536762288 0 -0.098092836605644218 -0.2598076789296403 0 -0.097127168473346473 -0.26497030168580071 0 -0.098092836605644218 -0.2598076789296403 0 -0.1052286248241612 -0.26620539718991559 0 -0.097127168473346473 -0.26497030168580071 0 -0.098092836605644218 -0.2598076789296403 0 -0.091096728748631561 -0.26487438773097149 0 -0.098092836605644218 -0.2598076789296403 0 -0.1056198447461318 -0.25749783703829998 0 -0.1052286248241612 -0.26620539718991559 0 -0.1056198447461318 -0.25749783703829998 0 -0.1166405633053913 -0.26145354036864099 0 -0.1052286248241612 -0.26620539718991559 0 -0.099469701624810405 -0.25176391536762288 0 -0.1056198447461318 -0.25749783703829998 0 -0.10866749737065209 -0.24825865333567981 0 -0.1056198447461318 -0.25749783703829998 0 -0.1166405633053913 -0.26145354036864099 0 -0.10866749737065209 -0.24825865333567981 0 -0.13137013849522369 -0.25070320617504072 0 -0.1166405633053913 -0.26145354036864099 0 -0.10866749737065209 -0.24825865333567981 0 -0.1166405633053913 -0.26145354036864099 0 -0.11714345555397471 -0.27375533141087061 0 -0.1052286248241612 -0.26620539718991559 0 -0.13358124995507051 -0.27066062902065402 0 -0.1166405633053913 -0.26145354036864099 0 -0.11714345555397471 -0.27375533141087061 0 -0.11714345555397471 -0.27375533141087061 0 -0.1050268298099661 -0.27542438977308692 0 -0.10769614212047041 -0.28529532692622339 0 -0.1050268298099661 -0.27542438977308692 0 -0.096755188331719352 -0.27898652073379587 0 -0.10769614212047041 -0.28529532692622339 0 -0.11714345555397471 -0.27375533141087061 0 -0.1050268298099661 -0.27542438977308692 0 -0.1052286248241612 -0.26620539718991559 0 -0.1050268298099661 -0.27542438977308692 0 -0.1052286248241612 -0.26620539718991559 0 -0.095813131310496027 -0.27050348617705933 0 -0.097127168473346473 -0.26497030168580071 0 -0.1052286248241612 -0.26620539718991559 0 -0.095813131310496027 -0.27050348617705933 0 -0.097127168473346473 -0.26497030168580071 0 -0.095813131310496027 -0.27050348617705933 0 -0.091096728748631561 -0.26487438773097149 0 -0.095813131310496027 -0.27050348617705933 0 -0.096755188331719352 -0.27898652073379587 0 -0.089811314840720788 -0.27517575625979201 0 -0.1050268298099661 -0.27542438977308692 0 -0.095813131310496027 -0.27050348617705933 0 -0.096755188331719352 -0.27898652073379587 0 -0.096755188331719352 -0.27898652073379587 0 -0.097337177894300742 -0.28770962198955108 0 -0.10769614212047041 -0.28529532692622339 0 -0.096755188331719352 -0.27898652073379587 0 -0.097337177894300742 -0.28770962198955108 0 -0.088496916178151419 -0.28370121052885872 0 -0.097337177894300742 -0.28770962198955108 0 -0.10261214095003469 -0.29614021571340737 0 -0.091125501891127864 -0.29442483604547048 0 -0.10261214095003469 -0.29614021571340737 0 -0.10769614212047041 -0.28529532692622339 0 -0.11558550611779091 -0.29865617218391782 0 -0.097337177894300742 -0.28770962198955108 0 -0.10261214095003469 -0.29614021571340737 0 -0.10769614212047041 -0.28529532692622339 0 -0.13184252200300151 -0.29879021372575909 0 -0.1203131143121977 -0.28648251011723402 0 -0.11558550611779091 -0.29865617218391782 0 -0.1334174934872234 -0.28478252576000779 0 -0.11714345555397471 -0.27375533141087061 0 -0.1203131143121977 -0.28648251011723402 0 -0.11714345555397471 -0.27375533141087061 0 -0.10769614212047041 -0.28529532692622339 0 -0.1203131143121977 -0.28648251011723402 0 -0.10769614212047041 -0.28529532692622339 0 -0.1203131143121977 -0.28648251011723402 0 -0.11558550611779091 -0.29865617218391782 0 -0.13184252200300151 -0.29879021372575909 0 -0.1211204716327879 -0.31327327940527849 0 -0.11558550611779091 -0.29865617218391782 0 -0.1211204716327879 -0.31327327940527849 0 -0.11558550611779091 -0.29865617218391782 0 -0.1076913728368081 -0.30757840123108199 0 -0.1052084593533591 -0.32246318010674851 0 -0.1076913728368081 -0.30757840123108199 0 -0.093930286130068263 -0.30735915874605763 0 -0.10261214095003469 -0.29614021571340737 0 -0.11558550611779091 -0.29865617218391782 0 -0.1076913728368081 -0.30757840123108199 0 -0.10261214095003469 -0.29614021571340737 0 -0.1076913728368081 -0.30757840123108199 0 -0.093930286130068263 -0.30735915874605763 0 -0.10261214095003469 -0.29614021571340737 0 -0.093930286130068263 -0.30735915874605763 0 -0.091125501891127864 -0.29442483604547048 0 -0.093930286130068263 -0.30735915874605763 0 -0.07999708488628593 -0.2984555792068514 0 -0.091125501891127864 -0.29442483604547048 0 -0.093930286130068263 -0.30735915874605763 0 -0.07999708488628593 -0.2984555792068514 0 -0.081775461202762009 -0.31040811314175137 0 -0.070380144865930361 -0.31461845375906289 0 -0.081775461202762009 -0.31040811314175137 0 -0.068012692238924116 -0.30106348891809809 0 -0.070380144865930361 -0.31461845375906289 0 -0.068012692238924116 -0.30106348891809809 0 -0.056018502489338297 -0.30364054898437698 0 -0.068012692238924116 -0.30106348891809809 0 -0.064946792787201918 -0.28942407548868682 0 -0.056018502489338297 -0.30364054898437698 0 -0.07999708488628593 -0.2984555792068514 0 -0.081775461202762009 -0.31040811314175137 0 -0.068012692238924116 -0.30106348891809809 0 -0.07999708488628593 -0.2984555792068514 0 -0.068012692238924116 -0.30106348891809809 0 -0.064946792787201918 -0.28942407548868682 0 -0.07999708488628593 -0.2984555792068514 0 -0.064946792787201918 -0.28942407548868682 0 -0.079874754807501225 -0.2877287542627382 0 -0.064946792787201918 -0.28942407548868682 0 -0.076852677015357196 -0.27810206808922489 0 -0.063397366486972959 -0.27664432085313673 0 -0.064946792787201918 -0.28942407548868682 0 -0.079874754807501225 -0.2877287542627382 0 -0.076852677015357196 -0.27810206808922489 0 -0.079874754807501225 -0.2877287542627382 0 -0.088496916178151419 -0.28370121052885872 0 -0.076852677015357196 -0.27810206808922489 0 -0.07999708488628593 -0.2984555792068514 0 -0.079874754807501225 -0.2877287542627382 0 -0.091125501891127864 -0.29442483604547048 0 -0.079874754807501225 -0.2877287542627382 0 -0.091125501891127864 -0.29442483604547048 0 -0.088496916178151419 -0.28370121052885872 0 -0.097337177894300742 -0.28770962198955108 0 -0.091125501891127864 -0.29442483604547048 0 -0.088496916178151419 -0.28370121052885872 0 -0.096755188331719352 -0.27898652073379587 0 -0.088496916178151419 -0.28370121052885872 0 -0.089811314840720788 -0.27517575625979201 0 -0.095813131310496027 -0.27050348617705933 0 -0.089811314840720788 -0.27517575625979201 0 -0.084359500075019703 -0.26883489334225241 0 -0.095813131310496027 -0.27050348617705933 0 -0.084359500075019703 -0.26883489334225241 0 -0.091096728748631561 -0.26487438773097149 0 -0.088496916178151419 -0.28370121052885872 0 -0.089811314840720788 -0.27517575625979201 0 -0.076852677015357196 -0.27810206808922489 0 -0.089811314840720788 -0.27517575625979201 0 -0.084359500075019703 -0.26883489334225241 0 -0.076852677015357196 -0.27810206808922489 0 -0.076852677015357196 -0.27810206808922489 0 -0.063397366486972959 -0.27664432085313673 0 -0.071316145174566262 -0.26538483045222022 0 -0.084359500075019703 -0.26883489334225241 0 -0.076852677015357196 -0.27810206808922489 0 -0.071316145174566262 -0.26538483045222022 0 -0.071316145174566262 -0.26538483045222022 0 -0.073728069740629787 -0.25232964285193021 0 -0.083718656068898306 -0.26224628666140293 0 -0.071316145174566262 -0.26538483045222022 0 -0.073728069740629787 -0.25232964285193021 0 -0.059089903842072362 -0.25727189824564228 0 -0.094122195129849387 -0.25775714604548527 0 -0.098092836605644218 -0.2598076789296403 0 -0.073728069740629787 -0.25232964285193021 0 -0.098092836605644218 -0.2598076789296403 0 -0.073728069740629787 -0.25232964285193021 0 -0.094122195129849387 -0.25775714604548527 0 -0.073728069740629787 -0.25232964285193021 0 -0.084337973811421968 -0.2474391614073351 0 -0.098092836605644218 -0.2598076789296403 0 -0.073728069740629787 -0.25232964285193021 0 -0.083718656068898306 -0.26224628666140293 0 -0.084359500075019703 -0.26883489334225241 0 -0.071316145174566262 -0.26538483045222022 0 -0.083718656068898306 -0.26224628666140293 0 -0.098092836605644218 -0.2598076789296403 0 -0.083718656068898306 -0.26224628666140293 0 -0.091096728748631561 -0.26487438773097149 0 -0.084359500075019703 -0.26883489334225241 0 -0.083718656068898306 -0.26224628666140293 0 -0.091096728748631561 -0.26487438773097149 0 -0.04057373983447151 -0.25883906119595262 0 -0.031784176793327207 -0.272826515617687 0 -0.023767604719537871 -0.26119001957465843 0 -0.04057373983447151 -0.25883906119595262 0 -0.029266210357294709 -0.25124525520749302 0 -0.03610133640728002 -0.24809299236653751 0 -0.04057373983447151 -0.25883906119595262 0 -0.049363302875615807 -0.24485160677421819 0 -0.04057373983447151 -0.25883906119595262 0 -0.049957866470191348 -0.25670868218474818 0 -0.049363302875615807 -0.24485160677421819 0 -0.04057373983447151 -0.25883906119595262 0 -0.049363302875615807 -0.24485160677421819 0 -0.03610133640728002 -0.24809299236653751 0 -0.049957866470191348 -0.25670868218474818 0 -0.059089903842072362 -0.25727189824564228 0 -0.049363302875615807 -0.24485160677421819 0 -0.071316145174566262 -0.26538483045222022 0 -0.059089903842072362 -0.25727189824564228 0 -0.051550160983946679 -0.2691056730349532 0 -0.073728069740629787 -0.25232964285193021 0 -0.059089903842072362 -0.25727189824564228 0 -0.049363302875615807 -0.24485160677421819 0 -0.049957866470191348 -0.25670868218474818 0 -0.059089903842072362 -0.25727189824564228 0 -0.051550160983946679 -0.2691056730349532 0 -0.04057373983447151 -0.25883906119595262 0 -0.049957866470191348 -0.25670868218474818 0 -0.051550160983946679 -0.2691056730349532 0 -0.071316145174566262 -0.26538483045222022 0 -0.051550160983946679 -0.2691056730349532 0 -0.063397366486972959 -0.27664432085313673 0 -0.071316145174566262 -0.26538483045222022 0 -0.051550160983946679 -0.2691056730349532 0 -0.063397366486972959 -0.27664432085313673 0 -0.051550160983946679 -0.2691056730349532 0 -0.048480497266754019 -0.28068772543974557 0 -0.051550160983946679 -0.2691056730349532 0 -0.048480497266754019 -0.28068772543974557 0 -0.031784176793327207 -0.272826515617687 0 -0.051550160983946679 -0.2691056730349532 0 -0.031784176793327207 -0.272826515617687 0 -0.04057373983447151 -0.25883906119595262 0 -0.051550160983946679 -0.2691056730349532 0 -0.031784176793327207 -0.272826515617687 0 -0.048480497266754019 -0.28068772543974557 0 -0.031784176793327207 -0.272826515617687 0 -0.034608008270862009 -0.28466504406254878 0 -0.04057373983447151 -0.25883906119595262 0 -0.031784176793327207 -0.272826515617687 0 -0.034608008270862009 -0.28466504406254878 0 -0.044782681982839662 -0.29206551043655471 0 -0.027482307930820619 -0.29978107152104128 0 -0.048480497266754019 -0.28068772543974557 0 -0.034608008270862009 -0.28466504406254878 0 -0.044782681982839662 -0.29206551043655471 0 -0.064946792787201918 -0.28942407548868682 0 -0.063397366486972959 -0.27664432085313673 0 -0.048480497266754019 -0.28068772543974557 0 -0.064946792787201918 -0.28942407548868682 0 -0.044782681982839662 -0.29206551043655471 0 -0.056018502489338297 -0.30364054898437698 0 -0.064946792787201918 -0.28942407548868682 0 -0.048480497266754019 -0.28068772543974557 0 -0.044782681982839662 -0.29206551043655471 0 -0.056018502489338297 -0.30364054898437698 0 -0.055468902848648013 -0.31799476296609203 0 -0.037585245724064631 -0.31363553142640788 0 -0.070380144865930361 -0.31461845375906289 0 -0.056018502489338297 -0.30364054898437698 0 -0.055468902848648013 -0.31799476296609203 0 -0.044782681982839662 -0.29206551043655471 0 -0.056018502489338297 -0.30364054898437698 0 -0.037585245724064631 -0.31363553142640788 0 -0.044782681982839662 -0.29206551043655471 0 -0.027482307930820619 -0.29978107152104128 0 -0.037585245724064631 -0.31363553142640788 0 -0.027482307930820619 -0.29978107152104128 0 -0.037585245724064631 -0.31363553142640788 0 -0.022715387128111369 -0.31332463745372441 0 -0.027482307930820619 -0.29978107152104128 0 -0.01518733406012111 -0.30853645293618659 0 -0.014527742438472069 -0.30028790225207769 0 -0.027482307930820619 -0.29978107152104128 0 -0.01518733406012111 -0.30853645293618659 0 -0.022715387128111369 -0.31332463745372441 0 -0.01518733406012111 -0.30853645293618659 0 -0.0074429766199592268 -0.30562122098406258 0 -0.014527742438472069 -0.30028790225207769 0 -0.01518733406012111 -0.30853645293618659 0 -0.0074429766199592268 -0.30562122098406258 0 -0.01038845150778148 -0.31605209671219292 0 -0.0074429766199592268 -0.30562122098406258 0 0.0014887814548633219 -0.28848844567618032 0 -0.0074429766199592268 -0.30562122098406258 0 -0.01038845150778148 -0.31605209671219292 0 0.0010719217416038671 -0.31131727721632169 0 -0.0074429766199592268 -0.30562122098406258 0 -0.014527742438472069 -0.30028790225207769 0 -0.010180445854881171 -0.29069672401968188 0 -0.0074429766199592268 -0.30562122098406258 0 -0.010180445854881171 -0.29069672401968188 0 0.0014887814548633219 -0.28848844567618032 0 -0.010180445854881171 -0.29069672401968188 0 -0.0048594045124380524 -0.28616514786678782 0 0.0014887814548633219 -0.28848844567618032 0 -0.001596264330972937 -0.28134285850144208 0 -0.0048594045124380524 -0.28616514786678782 0 -0.01291679839338921 -0.27637820038572031 0 -0.001596264330972937 -0.28134285850144208 0 0.0014887814548633219 -0.28848844567618032 0 -0.001596264330972937 -0.28134285850144208 0 -0.0048594045124380524 -0.28616514786678782 0 0.0014887814548633219 -0.28848844567618032 0 -0.010180445854881171 -0.29069672401968188 0 -0.02315595961589988 -0.28655720893488251 0 -0.01291679839338921 -0.27637820038572031 0 -0.010180445854881171 -0.29069672401968188 0 -0.0048594045124380524 -0.28616514786678782 0 -0.01291679839338921 -0.27637820038572031 0 -0.027482307930820619 -0.29978107152104128 0 -0.014527742438472069 -0.30028790225207769 0 -0.02315595961589988 -0.28655720893488251 0 -0.014527742438472069 -0.30028790225207769 0 -0.02315595961589988 -0.28655720893488251 0 -0.014527742438472069 -0.30028790225207769 0 -0.010180445854881171 -0.29069672401968188 0 -0.02315595961589988 -0.28655720893488251 0 -0.034608008270862009 -0.28466504406254878 0 -0.027482307930820619 -0.29978107152104128 0 -0.02315595961589988 -0.28655720893488251 0 -0.031784176793327207 -0.272826515617687 0 -0.034608008270862009 -0.28466504406254878 0 -0.02315595961589988 -0.28655720893488251 0 -0.031784176793327207 -0.272826515617687 0 -0.02315595961589988 -0.28655720893488251 0 -0.01291679839338921 -0.27637820038572031 0 -0.031784176793327207 -0.272826515617687 0 -0.01291679839338921 -0.27637820038572031 0 -0.031784176793327207 -0.272826515617687 0 -0.01291679839338921 -0.27637820038572031 0 -0.023767604719537871 -0.26119001957465843 0 -0.031784176793327207 -0.272826515617687 0 -0.02315595961589988 -0.28655720893488251 0 -0.01291679839338921 -0.27637820038572031 0 -0.01129916842210206 -0.26124597692150142 0 -0.023767604719537871 -0.26119001957465843 0 -0.01291679839338921 -0.27637820038572031 0 -0.00040159264908984631 -0.27474124425047852 0 0.0059505800065491844 -0.27992988515375178 0 -0.01291679839338921 -0.27637820038572031 0 0.0059505800065491844 -0.27992988515375178 0 -0.001596264330972937 -0.28134285850144208 0 -0.01291679839338921 -0.27637820038572031 0 0.0059505800065491844 -0.27992988515375178 0 -0.01291679839338921 -0.27637820038572031 0 -0.00040159264908984631 -0.27474124425047852 0 -0.002752402839100936 -0.26688339573318748 0 -0.01291679839338921 -0.27637820038572031 0 -0.002752402839100936 -0.26688339573318748 0 -0.01129916842210206 -0.26124597692150142 0 -0.002752402839100936 -0.26688339573318748 0 -0.01129916842210206 -0.26124597692150142 0 -0.0020452445366769159 -0.25613720859826339 0 -0.01129916842210206 -0.26124597692150142 0 -0.0020452445366769159 -0.25613720859826339 0 -0.016629143545875261 -0.24993839783463589 0 -0.023767604719537871 -0.26119001957465843 0 -0.029266210357294709 -0.25124525520749302 0 -0.016629143545875261 -0.24993839783463589 0 -0.04057373983447151 -0.25883906119595262 0 -0.023767604719537871 -0.26119001957465843 0 -0.029266210357294709 -0.25124525520749302 0 -0.01129916842210206 -0.26124597692150142 0 -0.023767604719537871 -0.26119001957465843 0 -0.016629143545875261 -0.24993839783463589 0 -0.040583262924192759 -0.35642654129445439 0 -0.03431436351231771 -0.33922371860073058 0 -0.026010086629460308 -0.35379552262232572 0 -0.040583262924192759 -0.35642654129445439 0 -0.052221982256311153 -0.34929832044911119 0 -0.03431436351231771 -0.33922371860073058 0 -0.040583262924192759 -0.35642654129445439 0 -0.033616949037152219 -0.37165021171931312 0 -0.024111016909158761 -0.36581512099798091 0 -0.033616949037152219 -0.37165021171931312 0 -0.043770154336852871 -0.37104845980387469 0 -0.033960065865464593 -0.38094551768415041 0 -0.040583262924192759 -0.35642654129445439 0 -0.033616949037152219 -0.37165021171931312 0 -0.043770154336852871 -0.37104845980387469 0 -0.040583262924192759 -0.35642654129445439 0 -0.043770154336852871 -0.37104845980387469 0 -0.054590644847130977 -0.36465982266874669 0 -0.043770154336852871 -0.37104845980387469 0 -0.054590644847130977 -0.36465982266874669 0 -0.050391120731833092 -0.37751151418621332 0 -0.054590644847130977 -0.36465982266874669 0 -0.060234048715738023 -0.37752576970663848 0 -0.050391120731833092 -0.37751151418621332 0 -0.06741214093286145 -0.36853543533479782 0 -0.054590644847130977 -0.36465982266874669 0 -0.060234048715738023 -0.37752576970663848 0 -0.067958925680665583 -0.35138624307445132 0 -0.052221982256311153 -0.34929832044911119 0 -0.052772085702365072 -0.3325108872504296 0 -0.067958925680665583 -0.35138624307445132 0 -0.054590644847130977 -0.36465982266874669 0 -0.052221982256311153 -0.34929832044911119 0 -0.040583262924192759 -0.35642654129445439 0 -0.054590644847130977 -0.36465982266874669 0 -0.052221982256311153 -0.34929832044911119 0 -0.067958925680665583 -0.35138624307445132 0 -0.052772085702365072 -0.3325108872504296 0 -0.052772085702365072 -0.3325108872504296 0 -0.055468902848648013 -0.31799476296609203 0 -0.037585245724064631 -0.31363553142640788 0 -0.072156209829014037 -0.33297182365329209 0 -0.052772085702365072 -0.3325108872504296 0 -0.055468902848648013 -0.31799476296609203 0 -0.052772085702365072 -0.3325108872504296 0 -0.037585245724064631 -0.31363553142640788 0 -0.052221982256311153 -0.34929832044911119 0 -0.052772085702365072 -0.3325108872504296 0 -0.03431436351231771 -0.33922371860073058 0 -0.052772085702365072 -0.3325108872504296 0 -0.037585245724064631 -0.31363553142640788 0 -0.03431436351231771 -0.33922371860073058 0 -0.03431436351231771 -0.33922371860073058 0 -0.02079254733404844 -0.32791367359376272 0 -0.0171634141500332 -0.34431302925081719 0 -0.037585245724064631 -0.31363553142640788 0 -0.03431436351231771 -0.33922371860073058 0 -0.02079254733404844 -0.32791367359376272 0 -0.037585245724064631 -0.31363553142640788 0 -0.02079254733404844 -0.32791367359376272 0 -0.022715387128111369 -0.31332463745372441 0 -0.02079254733404844 -0.32791367359376272 0 -0.022715387128111369 -0.31332463745372441 0 -0.01038845150778148 -0.31605209671219292 0 -0.01518733406012111 -0.30853645293618659 0 -0.022715387128111369 -0.31332463745372441 0 -0.01038845150778148 -0.31605209671219292 0 -0.02079254733404844 -0.32791367359376272 0 -0.01038845150778148 -0.31605209671219292 0 -0.0071367468923371237 -0.3327948053768694 0 -0.01038845150778148 -0.31605209671219292 0 -0.0071367468923371237 -0.3327948053768694 0 0.0011305834457342929 -0.32137477924466668 0 -0.01038845150778148 -0.31605209671219292 0 0.0011305834457342929 -0.32137477924466668 0 0.0010719217416038671 -0.31131727721632169 0 -0.02079254733404844 -0.32791367359376272 0 -0.0071367468923371237 -0.3327948053768694 0 -0.0171634141500332 -0.34431302925081719 0 -0.0071367468923371237 -0.3327948053768694 0 -0.0035963054026456201 -0.34864433904209152 0 0.005167847606762371 -0.34240758357285828 0 -0.0071367468923371237 -0.3327948053768694 0 -0.0035963054026456201 -0.34864433904209152 0 -0.0171634141500332 -0.34431302925081719 0 -0.0035963054026456201 -0.34864433904209152 0 -0.0092518227628297003 -0.36225755886306438 0 0.0078163408018850529 -0.35972334279097917 0 -0.0035963054026456201 -0.34864433904209152 0 -0.0171634141500332 -0.34431302925081719 0 -0.0092518227628297003 -0.36225755886306438 0 -0.040583262924192759 -0.35642654129445439 0 -0.026010086629460308 -0.35379552262232572 0 -0.024111016909158761 -0.36581512099798091 0 -0.03431436351231771 -0.33922371860073058 0 -0.0171634141500332 -0.34431302925081719 0 -0.026010086629460308 -0.35379552262232572 0 -0.0171634141500332 -0.34431302925081719 0 -0.026010086629460308 -0.35379552262232572 0 -0.0092518227628297003 -0.36225755886306438 0 -0.026010086629460308 -0.35379552262232572 0 -0.024111016909158761 -0.36581512099798091 0 -0.0092518227628297003 -0.36225755886306438 0 -0.033616949037152219 -0.37165021171931312 0 -0.024111016909158761 -0.36581512099798091 0 -0.023751764389264379 -0.37663312926565862 0 -0.024111016909158761 -0.36581512099798091 0 -0.01358443928125379 -0.37366727075707779 0 -0.0092518227628297003 -0.36225755886306438 0 -0.024111016909158761 -0.36581512099798091 0 -0.01358443928125379 -0.37366727075707779 0 -0.023751764389264379 -0.37663312926565862 0 -0.0092518227628297003 -0.36225755886306438 0 -0.0014039796043168211 -0.37364578346791372 0 0.0078163408018850529 -0.35972334279097917 0 -0.01358443928125379 -0.37366727075707779 0 -0.0092518227628297003 -0.36225755886306438 0 -0.0014039796043168211 -0.37364578346791372 0 -0.01358443928125379 -0.37366727075707779 0 -0.0014039796043168211 -0.37364578346791372 0 -0.0075248615712799867 -0.38240531174149928 0 -0.0014039796043168211 -0.37364578346791372 0 -0.0075248615712799867 -0.38240531174149928 0 0.0013487490258714261 -0.38650423789021171 0 -0.0075248615712799867 -0.38240531174149928 0 -0.0063897362491057673 -0.39097666046723489 0 0.0013487490258714261 -0.38650423789021171 0 -0.0018975386778837141 -0.39412815718898742 0 -0.0063897362491057673 -0.39097666046723489 0 0.0013487490258714261 -0.38650423789021171 0 -0.0075248615712799867 -0.38240531174149928 0 -0.01437650394011236 -0.38860918383664189 0 -0.0063897362491057673 -0.39097666046723489 0 -0.0075248615712799867 -0.38240531174149928 0 -0.01437650394011236 -0.38860918383664189 0 -0.01546319045067312 -0.38124672020635009 0 -0.01358443928125379 -0.37366727075707779 0 -0.0075248615712799867 -0.38240531174149928 0 -0.01546319045067312 -0.38124672020635009 0 -0.0063654009275630977 -0.40335766130633949 0 -2.758941976419821e-05 -0.40313328238234081 0 -0.0024868563055657242 -0.40813951744291538 0 -0.0063654009275630977 -0.40335766130633949 0 -2.758941976419821e-05 -0.40313328238234081 0 -0.0042710854283041872 -0.39791647944499497 0 -2.758941976419821e-05 -0.40313328238234081 0 -0.0042710854283041872 -0.39791647944499497 0 0.0019736884904650079 -0.3981865762396033 0 -0.0042710854283041872 -0.39791647944499497 0 -0.0018975386778837141 -0.39412815718898742 0 0.0019736884904650079 -0.3981865762396033 0 -0.0042710854283041872 -0.39791647944499497 0 -0.0018975386778837141 -0.39412815718898742 0 -0.0063897362491057673 -0.39097666046723489 0 -0.0042710854283041872 -0.39791647944499497 0 -0.0063897362491057673 -0.39097666046723489 0 -0.01305436518261347 -0.39811856188707639 0 -0.01437650394011236 -0.38860918383664189 0 -0.0063897362491057673 -0.39097666046723489 0 -0.01305436518261347 -0.39811856188707639 0 -0.0063654009275630977 -0.40335766130633949 0 -0.01305436518261347 -0.39811856188707639 0 -0.012331898543250159 -0.40835806026493687 0 -0.0063654009275630977 -0.40335766130633949 0 -0.0042710854283041872 -0.39791647944499497 0 -0.01305436518261347 -0.39811856188707639 0 -0.01305436518261347 -0.39811856188707639 0 -0.02478318131517309 -0.40308833288731888 0 -0.012331898543250159 -0.40835806026493687 0 -0.01437650394011236 -0.38860918383664189 0 -0.01305436518261347 -0.39811856188707639 0 -0.021086828256491049 -0.3938077341324443 0 -0.01305436518261347 -0.39811856188707639 0 -0.021086828256491049 -0.3938077341324443 0 -0.02478318131517309 -0.40308833288731888 0 -0.021086828256491049 -0.3938077341324443 0 -0.02478318131517309 -0.40308833288731888 0 -0.03325217083447754 -0.39367758321913321 0 -0.021086828256491049 -0.3938077341324443 0 -0.02364842062274717 -0.38581997805739637 0 -0.03325217083447754 -0.39367758321913321 0 -0.01358443928125379 -0.37366727075707779 0 -0.01546319045067312 -0.38124672020635009 0 -0.023751764389264379 -0.37663312926565862 0 -0.01546319045067312 -0.38124672020635009 0 -0.02364842062274717 -0.38581997805739637 0 -0.023751764389264379 -0.37663312926565862 0 -0.01437650394011236 -0.38860918383664189 0 -0.01546319045067312 -0.38124672020635009 0 -0.02364842062274717 -0.38581997805739637 0 -0.01437650394011236 -0.38860918383664189 0 -0.021086828256491049 -0.3938077341324443 0 -0.02364842062274717 -0.38581997805739637 0 -0.02364842062274717 -0.38581997805739637 0 -0.033960065865464593 -0.38094551768415041 0 -0.03325217083447754 -0.39367758321913321 0 -0.02364842062274717 -0.38581997805739637 0 -0.023751764389264379 -0.37663312926565862 0 -0.033960065865464593 -0.38094551768415041 0 -0.033616949037152219 -0.37165021171931312 0 -0.023751764389264379 -0.37663312926565862 0 -0.033960065865464593 -0.38094551768415041 0 -0.043770154336852871 -0.37104845980387469 0 -0.043327335579607051 -0.38536742034546811 0 -0.050391120731833092 -0.37751151418621332 0 -0.043770154336852871 -0.37104845980387469 0 -0.033960065865464593 -0.38094551768415041 0 -0.043327335579607051 -0.38536742034546811 0 -0.033960065865464593 -0.38094551768415041 0 -0.043327335579607051 -0.38536742034546811 0 -0.03325217083447754 -0.39367758321913321 0 -0.02478318131517309 -0.40308833288731888 0 -0.03325217083447754 -0.39367758321913321 0 -0.039731319070176442 -0.40821323112491148 0 -0.045556702288726297 -0.39817403870817181 0 -0.054017599620450107 -0.40973756277133933 0 -0.039731319070176442 -0.40821323112491148 0 -0.03325217083447754 -0.39367758321913321 0 -0.045556702288726297 -0.39817403870817181 0 -0.039731319070176442 -0.40821323112491148 0 -0.043327335579607051 -0.38536742034546811 0 -0.03325217083447754 -0.39367758321913321 0 -0.045556702288726297 -0.39817403870817181 0 -0.045556702288726297 -0.39817403870817181 0 -0.055960455966532048 -0.39695266831045373 0 -0.053405514076656349 -0.38770709125598091 0 -0.045556702288726297 -0.39817403870817181 0 -0.055960455966532048 -0.39695266831045373 0 -0.054017599620450107 -0.40973756277133933 0 -0.062172735239507483 -0.40373637216037722 0 -0.055960455966532048 -0.39695266831045373 0 -0.063410257776332357 -0.3957576938018168 0 -0.062172735239507483 -0.40373637216037722 0 -0.055960455966532048 -0.39695266831045373 0 -0.054017599620450107 -0.40973756277133933 0 -0.055960455966532048 -0.39695266831045373 0 -0.062731271535395552 -0.38771221382464122 0 -0.063410257776332357 -0.3957576938018168 0 -0.055960455966532048 -0.39695266831045373 0 -0.053405514076656349 -0.38770709125598091 0 -0.062731271535395552 -0.38771221382464122 0 -0.060234048715738023 -0.37752576970663848 0 -0.053405514076656349 -0.38770709125598091 0 -0.062731271535395552 -0.38771221382464122 0 -0.060234048715738023 -0.37752576970663848 0 -0.050391120731833092 -0.37751151418621332 0 -0.053405514076656349 -0.38770709125598091 0 -0.043327335579607051 -0.38536742034546811 0 -0.045556702288726297 -0.39817403870817181 0 -0.053405514076656349 -0.38770709125598091 0 -0.043327335579607051 -0.38536742034546811 0 -0.050391120731833092 -0.37751151418621332 0 -0.053405514076656349 -0.38770709125598091 0 -0.050988636426044551 -0.42369414130664929 0 -0.060579681244260157 -0.42812190290414109 0 -0.051840289456929187 -0.43820801372483531 0 -0.060579681244260157 -0.42812190290414109 0 -0.051840289456929187 -0.43820801372483531 0 -0.066804128085722725 -0.43908401904924133 0 -0.050988636426044551 -0.42369414130664929 0 -0.060579681244260157 -0.42812190290414109 0 -0.060905999899103523 -0.41877320862634071 0 -0.050988636426044551 -0.42369414130664929 0 -0.060905999899103523 -0.41877320862634071 0 -0.054017599620450107 -0.40973756277133933 0 -0.060905999899103523 -0.41877320862634071 0 -0.054017599620450107 -0.40973756277133933 0 -0.067748822737671188 -0.41172156306023189 0 -0.062172735239507483 -0.40373637216037722 0 -0.054017599620450107 -0.40973756277133933 0 -0.067748822737671188 -0.41172156306023189 0 -0.050988636426044551 -0.42369414130664929 0 -0.054017599620450107 -0.40973756277133933 0 -0.046177934601911247 -0.41530062146768321 0 -0.050988636426044551 -0.42369414130664929 0 -0.046177934601911247 -0.41530062146768321 0 -0.036263534603560077 -0.42220177374057899 0 -0.046177934601911247 -0.41530062146768321 0 -0.039731319070176442 -0.40821323112491148 0 -0.036263534603560077 -0.42220177374057899 0 -0.039731319070176442 -0.40821323112491148 0 -0.036263534603560077 -0.42220177374057899 0 -0.02390791129012353 -0.41548536932330898 0 -0.054017599620450107 -0.40973756277133933 0 -0.046177934601911247 -0.41530062146768321 0 -0.039731319070176442 -0.40821323112491148 0 -0.050988636426044551 -0.42369414130664929 0 -0.036263534603560077 -0.42220177374057899 0 -0.037060815540608222 -0.4354757019899636 0 -0.050988636426044551 -0.42369414130664929 0 -0.037060815540608222 -0.4354757019899636 0 -0.051840289456929187 -0.43820801372483531 0 -0.036263534603560077 -0.42220177374057899 0 -0.017059401037955401 -0.43326097604166219 0 -0.02390791129012353 -0.41548536932330898 0 -0.017059401037955401 -0.43326097604166219 0 -0.02390791129012353 -0.41548536932330898 0 -0.0099038039022279548 -0.41689302960717478 0 -0.036263534603560077 -0.42220177374057899 0 -0.037060815540608222 -0.4354757019899636 0 -0.017059401037955401 -0.43326097604166219 0 -0.02478318131517309 -0.40308833288731888 0 -0.039731319070176442 -0.40821323112491148 0 -0.02390791129012353 -0.41548536932330898 0 -0.02478318131517309 -0.40308833288731888 0 -0.02390791129012353 -0.41548536932330898 0 -0.012331898543250159 -0.40835806026493687 0 -0.02390791129012353 -0.41548536932330898 0 -0.012331898543250159 -0.40835806026493687 0 -0.0099038039022279548 -0.41689302960717478 0 -0.012331898543250159 -0.40835806026493687 0 -0.0099038039022279548 -0.41689302960717478 0 -0.0040997421551922271 -0.41322409536157739 0 -0.0099038039022279548 -0.41689302960717478 0 -0.0040997421551922271 -0.41322409536157739 0 0.0012147972439649889 -0.41688507675980752 0 -0.012331898543250159 -0.40835806026493687 0 -0.0040997421551922271 -0.41322409536157739 0 -0.0024868563055657242 -0.40813951744291538 0 -0.0063654009275630977 -0.40335766130633949 0 -0.012331898543250159 -0.40835806026493687 0 -0.0024868563055657242 -0.40813951744291538 0 -0.0040997421551922271 -0.41322409536157739 0 0.0012147972439649889 -0.41688507675980752 0 0.0011409487811856549 -0.41167806058724271 0 -0.0040997421551922271 -0.41322409536157739 0 -0.0024868563055657242 -0.40813951744291538 0 0.0011409487811856549 -0.41167806058724271 0 -0.0024868563055657242 -0.40813951744291538 0 0.0011409487811856549 -0.41167806058724271 0 0.0011201716358953449 -0.40903760656029531 0 -0.017059401037955401 -0.43326097604166219 0 0.0012147972439649889 -0.41688507675980752 0 -0.017059401037955401 -0.43326097604166219 0 -0.005461929117362499 -0.44060974986902612 0 0.0054440372153388714 -0.42709573710807491 0 -0.017059401037955401 -0.43326097604166219 0 0.0012147972439649889 -0.41688507675980752 0 0.0054440372153388714 -0.42709573710807491 0 -0.017059401037955401 -0.43326097604166219 0 -0.0099038039022279548 -0.41689302960717478 0 0.0012147972439649889 -0.41688507675980752 0 -0.017059401037955401 -0.43326097604166219 0 -0.011085095185350009 -0.44426549233650409 0 -0.01692158446256262 -0.45156710661232491 0 -0.017059401037955401 -0.43326097604166219 0 -0.005461929117362499 -0.44060974986902612 0 -0.011085095185350009 -0.44426549233650409 0 -0.011085095185350009 -0.44426549233650409 0 -0.0048974661235195241 -0.45162413682300351 0 -0.01692158446256262 -0.45156710661232491 0 -0.005461929117362499 -0.44060974986902612 0 -0.0048974661235195241 -0.45162413682300351 0 0.0006483720101457867 -0.44550099603318333 0 -0.005461929117362499 -0.44060974986902612 0 -0.011085095185350009 -0.44426549233650409 0 -0.0048974661235195241 -0.45162413682300351 0 -0.0048974661235195241 -0.45162413682300351 0 0.0006483720101457867 -0.44550099603318333 0 0.0011535592839311229 -0.45677819829376182 0 -0.0048974661235195241 -0.45162413682300351 0 -0.00145676501375587 -0.46428589202665221 0 -0.01692158446256262 -0.45156710661232491 0 -0.0048974661235195241 -0.45162413682300351 0 -0.00145676501375587 -0.46428589202665221 0 0.0011535592839311229 -0.45677819829376182 0 -0.00145676501375587 -0.46428589202665221 0 -0.03102844960274416 -0.46599943667881261 0 -0.00145676501375587 -0.46428589202665221 0 -0.03102844960274416 -0.46599943667881261 0 -0.01692158446256262 -0.45156710661232491 0 -0.03102844960274416 -0.46599943667881261 0 -0.01692158446256262 -0.45156710661232491 0 -0.035333599319875793 -0.44963687532351709 0 -0.037060815540608222 -0.4354757019899636 0 -0.017059401037955401 -0.43326097604166219 0 -0.035333599319875793 -0.44963687532351709 0 -0.017059401037955401 -0.43326097604166219 0 -0.035333599319875793 -0.44963687532351709 0 -0.017059401037955401 -0.43326097604166219 0 -0.01692158446256262 -0.45156710661232491 0 -0.035333599319875793 -0.44963687532351709 0 -0.00249023751344285 -0.48914131198240179 0 -0.010726293795300639 -0.48086666889358298 0 -0.0179208385741591 -0.5 0 -0.00249023751344285 -0.48914131198240179 0 -0.0179208385741591 -0.5 0 0.010122901946345211 -0.49999999999999922 0 -0.00145676501375587 -0.46428589202665221 0 -0.010726293795300639 -0.48086666889358298 0 0.0085632803693431007 -0.47569857903602453 0 -0.00145676501375587 -0.46428589202665221 0 -0.03102844960274416 -0.46599943667881261 0 -0.010726293795300639 -0.48086666889358298 0 -0.00249023751344285 -0.48914131198240179 0 -0.010726293795300639 -0.48086666889358298 0 0.0085632803693431007 -0.47569857903602453 0 -0.03102844960274416 -0.46599943667881261 0 -0.010726293795300639 -0.48086666889358298 0 -0.03017026039509307 -0.48482625177028932 0 -0.010726293795300639 -0.48086666889358298 0 -0.03017026039509307 -0.48482625177028932 0 -0.0179208385741591 -0.5 0 -0.03017026039509307 -0.48482625177028932 0 -0.0179208385741591 -0.5 0 -0.045964579094663449 -0.5 0 -0.03017026039509307 -0.48482625177028932 0 -0.045964579094663449 -0.5 0 -0.04567366848434385 -0.48118213734096937 0 -0.03102844960274416 -0.46599943667881261 0 -0.04567366848434385 -0.48118213734096937 0 -0.06060013419173263 -0.46771298133097289 0 -0.03102844960274416 -0.46599943667881261 0 -0.03017026039509307 -0.48482625177028932 0 -0.04567366848434385 -0.48118213734096937 0 -0.04567366848434385 -0.48118213734096937 0 -0.060509225524513738 -0.48614801522360618 0 -0.06060013419173263 -0.46771298133097289 0 -0.045964579094663449 -0.5 0 -0.04567366848434385 -0.48118213734096937 0 -0.060509225524513738 -0.48614801522360618 0 -0.045964579094663449 -0.5 0 -0.060509225524513738 -0.48614801522360618 0 -0.074008319615167961 -0.5 0 -0.037060815540608222 -0.4354757019899636 0 -0.035333599319875793 -0.44963687532351709 0 -0.051840289456929187 -0.43820801372483531 0 -0.03102844960274416 -0.46599943667881261 0 -0.06060013419173263 -0.46771298133097289 0 -0.03102844960274416 -0.46599943667881261 0 -0.035333599319875793 -0.44963687532351709 0 -0.056980597262847238 -0.45203904695885749 0 -0.03102844960274416 -0.46599943667881261 0 -0.06060013419173263 -0.46771298133097289 0 -0.056980597262847238 -0.45203904695885749 0 -0.035333599319875793 -0.44963687532351709 0 -0.056980597262847238 -0.45203904695885749 0 -0.051840289456929187 -0.43820801372483531 0 -0.056980597262847238 -0.45203904695885749 0 -0.051840289456929187 -0.43820801372483531 0 -0.066804128085722725 -0.43908401904924133 0 -0.056980597262847238 -0.45203904695885749 0 -0.072574041059019948 -0.45862330306838639 0 -0.080683539123906259 -0.4450086995362374 0 -0.056980597262847238 -0.45203904695885749 0 -0.066804128085722725 -0.43908401904924133 0 -0.080683539123906259 -0.4450086995362374 0 -0.06060013419173263 -0.46771298133097289 0 -0.072574041059019948 -0.45862330306838639 0 -0.090171818780721072 -0.46942652598313311 0 -0.06060013419173263 -0.46771298133097289 0 -0.090171818780721072 -0.46942652598313311 0 -0.06060013419173263 -0.46771298133097289 0 -0.056980597262847238 -0.45203904695885749 0 -0.072574041059019948 -0.45862330306838639 0 -0.072574041059019948 -0.45862330306838639 0 -0.080683539123906259 -0.4450086995362374 0 -0.090171818780721072 -0.46942652598313311 0 -0.0937386752192471 -0.45945361082676062 0 -0.080683539123906259 -0.4450086995362374 0 -0.090171818780721072 -0.46942652598313311 0 -0.080683539123906259 -0.4450086995362374 0 -0.090171818780721072 -0.46942652598313311 0 -0.0937386752192471 -0.45945361082676062 0 -0.080683539123906259 -0.4450086995362374 0 -0.095984891645188655 -0.44985341726390687 0 -0.09077659648531769 -0.43850689591329067 0 -0.080683539123906259 -0.4450086995362374 0 -0.095984891645188655 -0.44985341726390687 0 -0.09077659648531769 -0.43850689591329067 0 -0.080683539123906259 -0.4450086995362374 0 -0.083901940192663171 -0.42994863254082899 0 -0.060509225524513738 -0.48614801522360618 0 -0.074008319615167961 -0.5 0 -0.076299426236660833 -0.48184495744608907 0 -0.060509225524513738 -0.48614801522360618 0 -0.06060013419173263 -0.46771298133097289 0 -0.076299426236660833 -0.48184495744608907 0 -0.06060013419173263 -0.46771298133097289 0 -0.076299426236660833 -0.48184495744608907 0 -0.090171818780721072 -0.46942652598313311 0 -0.076299426236660833 -0.48184495744608907 0 -0.090171818780721072 -0.46942652598313311 0 -0.09611193945819653 -0.48471326299156747 0 -0.090171818780721072 -0.46942652598313311 0 -0.09611193945819653 -0.48471326299156747 0 -0.074008319615167961 -0.5 0 -0.076299426236660833 -0.48184495744608907 0 -0.09611193945819653 -0.48471326299156747 0 -0.074008319615167961 -0.5 0 -0.1020520601356725 -0.50000000000000189 0 -0.09611193945819653 -0.48471326299156747 0 -0.1020520601356725 -0.50000000000000189 0 -0.09611193945819653 -0.48471326299156747 0 -0.1020520601356725 -0.50000000000000189 0 -0.09611193945819653 -0.48471326299156747 0 -0.11118122442968351 -0.48932140781306022 0 -0.09611193945819653 -0.48471326299156747 0 -0.098976469812961085 -0.46993671547352339 0 -0.1105818828658245 -0.47900505311561642 0 -0.09611193945819653 -0.48471326299156747 0 -0.1105818828658245 -0.47900505311561642 0 -0.11118122442968351 -0.48932140781306022 0 -0.090171818780721072 -0.46942652598313311 0 -0.098976469812961085 -0.46993671547352339 0 -0.090171818780721072 -0.46942652598313311 0 -0.09611193945819653 -0.48471326299156747 0 -0.098976469812961085 -0.46993671547352339 0 -0.098976469812961085 -0.46993671547352339 0 -0.1105818828658245 -0.47900505311561642 0 -0.11031146041446629 -0.46757824041424773 0 -0.1105818828658245 -0.47900505311561642 0 -0.11031146041446629 -0.46757824041424773 0 -0.12261961854345101 -0.46873229841664532 0 -0.1208847520762024 -0.4828887229581168 0 -0.1105818828658245 -0.47900505311561642 0 -0.12261961854345101 -0.46873229841664532 0 -0.1208847520762024 -0.4828887229581168 0 -0.1105818828658245 -0.47900505311561642 0 -0.11118122442968351 -0.48932140781306022 0 -0.1262754876125218 -0.5 0 -0.1020520601356725 -0.50000000000000189 0 -0.11118122442968351 -0.48932140781306022 0 -0.1262754876125218 -0.5 0 -0.1208847520762024 -0.4828887229581168 0 -0.11118122442968351 -0.48932140781306022 0 -0.1057135659606913 -0.45104570034335928 0 -0.1028374157780942 -0.44060367893423652 0 -0.1149155337460659 -0.44723877999276251 0 -0.09077659648531769 -0.43850689591329067 0 -0.1028374157780942 -0.44060367893423652 0 -0.095984891645188655 -0.44985341726390687 0 -0.1057135659606913 -0.45104570034335928 0 -0.1028374157780942 -0.44060367893423652 0 -0.095984891645188655 -0.44985341726390687 0 -0.1057135659606913 -0.45104570034335928 0 -0.095984891645188655 -0.44985341726390687 0 -0.10262488214550131 -0.46041421307697539 0 -0.0937386752192471 -0.45945361082676062 0 -0.095984891645188655 -0.44985341726390687 0 -0.10262488214550131 -0.46041421307697539 0 -0.0937386752192471 -0.45945361082676062 0 -0.090171818780721072 -0.46942652598313311 0 -0.098976469812961085 -0.46993671547352339 0 -0.0937386752192471 -0.45945361082676062 0 -0.098976469812961085 -0.46993671547352339 0 -0.10262488214550131 -0.46041421307697539 0 -0.10262488214550131 -0.46041421307697539 0 -0.1104199708093561 -0.45830923541998919 0 -0.11031146041446629 -0.46757824041424773 0 -0.098976469812961085 -0.46993671547352339 0 -0.10262488214550131 -0.46041421307697539 0 -0.11031146041446629 -0.46757824041424773 0 -0.1057135659606913 -0.45104570034335928 0 -0.10262488214550131 -0.46041421307697539 0 -0.1104199708093561 -0.45830923541998919 0 -0.1104199708093561 -0.45830923541998919 0 -0.1189755493486777 -0.45976232452074173 0 -0.1149155337460659 -0.44723877999276251 0 -0.1104199708093561 -0.45830923541998919 0 -0.11031146041446629 -0.46757824041424773 0 -0.1189755493486777 -0.45976232452074173 0 -0.12729075124589459 -0.45464805760899751 0 -0.12261961854345101 -0.46873229841664532 0 -0.1189755493486777 -0.45976232452074173 0 -0.11031146041446629 -0.46757824041424773 0 -0.12261961854345101 -0.46873229841664532 0 -0.1189755493486777 -0.45976232452074173 0 -0.12729075124589459 -0.45464805760899751 0 -0.1189755493486777 -0.45976232452074173 0 -0.1149155337460659 -0.44723877999276251 0 -0.12729075124589459 -0.45464805760899751 0 -0.1149155337460659 -0.44723877999276251 0 -0.1246124455867906 -0.43863239855050751 0 -0.1057135659606913 -0.45104570034335928 0 -0.1104199708093561 -0.45830923541998919 0 -0.1149155337460659 -0.44723877999276251 0 -0.1028374157780942 -0.44060367893423652 0 -0.1149155337460659 -0.44723877999276251 0 -0.1123479191628048 -0.4317377063183554 0 -0.1149155337460659 -0.44723877999276251 0 -0.1246124455867906 -0.43863239855050751 0 -0.1123479191628048 -0.4317377063183554 0 -0.1246124455867906 -0.43863239855050751 0 -0.1123479191628048 -0.4317377063183554 0 -0.1220769034659865 -0.41864816778255298 0 -0.1028374157780942 -0.44060367893423652 0 -0.1123479191628048 -0.4317377063183554 0 -0.096063773108819014 -0.42540651182259442 0 -0.1123479191628048 -0.4317377063183554 0 -0.096063773108819014 -0.42540651182259442 0 -0.1034437078385156 -0.41491152691447569 0 -0.09077659648531769 -0.43850689591329067 0 -0.1028374157780942 -0.44060367893423652 0 -0.096063773108819014 -0.42540651182259442 0 -0.1034437078385156 -0.41491152691447569 0 -0.094911662239734851 -0.40097399982465243 0 -0.085830617255463898 -0.41077426667531952 0 -0.096063773108819014 -0.42540651182259442 0 -0.1034437078385156 -0.41491152691447569 0 -0.085830617255463898 -0.41077426667531952 0 -0.13192532503129739 -0.402394469159222 0 -0.1220769034659865 -0.41864816778255298 0 -0.10909985753031309 -0.40251931148785969 0 -0.1034437078385156 -0.41491152691447569 0 -0.1220769034659865 -0.41864816778255298 0 -0.10909985753031309 -0.40251931148785969 0 -0.1220769034659865 -0.41864816778255298 0 -0.10909985753031309 -0.40251931148785969 0 -0.1123479191628048 -0.4317377063183554 0 -0.1034437078385156 -0.41491152691447569 0 -0.1220769034659865 -0.41864816778255298 0 -0.12438711962387521 -0.38961250247889367 0 -0.1119176231941471 -0.38482451428815351 0 -0.10909985753031309 -0.40251931148785969 0 -0.13192532503129739 -0.402394469159222 0 -0.12438711962387521 -0.38961250247889367 0 -0.10909985753031309 -0.40251931148785969 0 -0.1237754130536077 -0.36963831151970172 0 -0.12438711962387521 -0.38961250247889367 0 -0.1119176231941471 -0.38482451428815351 0 -0.1237754130536077 -0.36963831151970172 0 -0.1085639166131518 -0.37221401204379151 0 -0.1119176231941471 -0.38482451428815351 0 -0.1085639166131518 -0.37221401204379151 0 -0.1119176231941471 -0.38482451428815351 0 -0.096122811594639562 -0.38639045519316639 0 -0.1085639166131518 -0.37221401204379151 0 -0.095556642535657016 -0.36881035468621798 0 -0.096122811594639562 -0.38639045519316639 0 -0.096122811594639562 -0.38639045519316639 0 -0.10909985753031309 -0.40251931148785969 0 -0.094911662239734851 -0.40097399982465243 0 -0.1119176231941471 -0.38482451428815351 0 -0.096122811594639562 -0.38639045519316639 0 -0.10909985753031309 -0.40251931148785969 0 -0.096122811594639562 -0.38639045519316639 0 -0.10909985753031309 -0.40251931148785969 0 -0.1034437078385156 -0.41491152691447569 0 -0.10909985753031309 -0.40251931148785969 0 -0.094911662239734851 -0.40097399982465243 0 -0.096122811594639562 -0.38639045519316639 0 -0.094911662239734851 -0.40097399982465243 0 -0.077170512563029939 -0.39542623599390703 0 -0.094911662239734851 -0.40097399982465243 0 -0.077170512563029939 -0.39542623599390703 0 -0.085830617255463898 -0.41077426667531952 0 -0.083145765658967238 -0.3702615988984721 0 -0.077170512563029939 -0.39542623599390703 0 -0.083145765658967238 -0.3702615988984721 0 -0.096122811594639562 -0.38639045519316639 0 -0.077170512563029939 -0.39542623599390703 0 -0.083145765658967238 -0.3702615988984721 0 -0.096122811594639562 -0.38639045519316639 0 -0.095556642535657016 -0.36881035468621798 0 -0.083145765658967238 -0.3702615988984721 0 -0.096122811594639562 -0.38639045519316639 0 -0.083145765658967238 -0.3702615988984721 0 -0.070386996333883844 -0.37946010908988259 0 -0.077170512563029939 -0.39542623599390703 0 -0.070386996333883844 -0.37946010908988259 0 -0.062731271535395552 -0.38771221382464122 0 -0.077170512563029939 -0.39542623599390703 0 -0.06741214093286145 -0.36853543533479782 0 -0.060234048715738023 -0.37752576970663848 0 -0.070386996333883844 -0.37946010908988259 0 -0.060234048715738023 -0.37752576970663848 0 -0.070386996333883844 -0.37946010908988259 0 -0.062731271535395552 -0.38771221382464122 0 -0.062172735239507483 -0.40373637216037722 0 -0.077170512563029939 -0.39542623599390703 0 -0.067748822737671188 -0.41172156306023189 0 -0.062731271535395552 -0.38771221382464122 0 -0.077170512563029939 -0.39542623599390703 0 -0.063410257776332357 -0.3957576938018168 0 -0.062172735239507483 -0.40373637216037722 0 -0.077170512563029939 -0.39542623599390703 0 -0.063410257776332357 -0.3957576938018168 0 -0.077170512563029939 -0.39542623599390703 0 -0.067748822737671188 -0.41172156306023189 0 -0.071195259467091571 -0.42059087308934168 0 -0.077170512563029939 -0.39542623599390703 0 -0.071195259467091571 -0.42059087308934168 0 -0.085830617255463898 -0.41077426667531952 0 -0.077170512563029939 -0.39542623599390703 0 -0.071195259467091571 -0.42059087308934168 0 -0.060905999899103523 -0.41877320862634071 0 -0.067748822737671188 -0.41172156306023189 0 -0.071195259467091571 -0.42059087308934168 0 -0.067748822737671188 -0.41172156306023189 0 -0.071195259467091571 -0.42059087308934168 0 -0.060579681244260157 -0.42812190290414109 0 -0.066804128085722725 -0.43908401904924133 0 -0.071195259467091571 -0.42059087308934168 0 -0.080683539123906259 -0.4450086995362374 0 -0.071195259467091571 -0.42059087308934168 0 -0.066804128085722725 -0.43908401904924133 0 -0.071195259467091571 -0.42059087308934168 0 -0.066804128085722725 -0.43908401904924133 0 -0.080683539123906259 -0.4450086995362374 0 -0.071195259467091571 -0.42059087308934168 0 -0.060579681244260157 -0.42812190290414109 0 -0.060905999899103523 -0.41877320862634071 0 -0.071195259467091571 -0.42059087308934168 0 -0.071195259467091571 -0.42059087308934168 0 -0.083901940192663171 -0.42994863254082899 0 -0.082868400613784435 -0.42087367323162622 0 -0.080683539123906259 -0.4450086995362374 0 -0.071195259467091571 -0.42059087308934168 0 -0.083901940192663171 -0.42994863254082899 0 -0.09077659648531769 -0.43850689591329067 0 -0.096063773108819014 -0.42540651182259442 0 -0.083901940192663171 -0.42994863254082899 0 -0.096063773108819014 -0.42540651182259442 0 -0.083901940192663171 -0.42994863254082899 0 -0.082868400613784435 -0.42087367323162622 0 -0.096063773108819014 -0.42540651182259442 0 -0.085830617255463898 -0.41077426667531952 0 -0.082868400613784435 -0.42087367323162622 0 -0.071195259467091571 -0.42059087308934168 0 -0.085830617255463898 -0.41077426667531952 0 -0.082868400613784435 -0.42087367323162622 0 -0.07786540060986763 -0.08414171871148883 0 -0.087979720752584534 -0.096740264748910315 0 -0.096146620836909405 -0.07845208792925297 0 -0.07786540060986763 -0.08414171871148883 0 -0.068852930322910219 -0.09585476919896832 0 -0.087979720752584534 -0.096740264748910315 0 -0.077359046706001119 -0.068785479186027954 0 -0.07786540060986763 -0.08414171871148883 0 -0.096146620836909405 -0.07845208792925297 0 -0.077359046706001119 -0.068785479186027954 0 -0.096146620836909405 -0.07845208792925297 0 -0.094074827540155448 -0.05469221062794935 0 -0.077359046706001119 -0.068785479186027954 0 -0.064414461338912141 -0.060300667433497039 0 -0.0578100331585778 -0.078788117356706003 0 -0.077359046706001119 -0.068785479186027954 0 -0.07786540060986763 -0.08414171871148883 0 -0.0578100331585778 -0.078788117356706003 0 -0.068852930322910219 -0.09585476919896832 0 -0.0578100331585778 -0.078788117356706003 0 -0.07786540060986763 -0.08414171871148883 0 -0.068852930322910219 -0.09585476919896832 0 -0.0578100331585778 -0.078788117356706003 0 -0.068852930322910219 -0.09585476919896832 0 -0.079895827487252796 -0.1129214210412241 0 -0.068852930322910219 -0.09585476919896832 0 -0.079895827487252796 -0.1129214210412241 0 -0.05441506000894826 -0.11416269199450051 0 -0.079895827487252796 -0.1129214210412241 0 -0.05441506000894826 -0.11416269199450051 0 -0.069699609111251212 -0.13442062286490339 0 -0.079895827487252796 -0.1129214210412241 0 -0.05441506000894826 -0.11416269199450051 0 -0.079895827487252796 -0.1129214210412241 0 -0.099298979003997923 -0.11197621527375511 0 -0.079895827487252796 -0.1129214210412241 0 -0.099298979003997923 -0.11197621527375511 0 -0.090193400027734114 -0.12883618351286261 0 -0.079895827487252796 -0.1129214210412241 0 -0.090193400027734114 -0.12883618351286261 0 -0.079895827487252796 -0.1129214210412241 0 -0.087979720752584534 -0.096740264748910315 0 -0.099298979003997923 -0.11197621527375511 0 -0.068852930322910219 -0.09585476919896832 0 -0.079895827487252796 -0.1129214210412241 0 -0.087979720752584534 -0.096740264748910315 0 -0.087979720752584534 -0.096740264748910315 0 -0.1042471871339532 -0.097190061045574469 0 -0.099298979003997923 -0.11197621527375511 0 -0.1042471871339532 -0.097190061045574469 0 -0.099298979003997923 -0.11197621527375511 0 -0.1187021305207433 -0.1110310095062928 0 -0.099298979003997923 -0.11197621527375511 0 -0.1187021305207433 -0.1110310095062928 0 -0.099298979003997923 -0.11197621527375511 0 -0.1064100504807395 -0.1224450757919581 0 -0.1187021305207433 -0.1110310095062928 0 -0.099298979003997923 -0.11197621527375511 0 -0.1064100504807395 -0.1224450757919581 0 -0.090193400027734114 -0.12883618351286261 0 -0.1064100504807395 -0.1224450757919581 0 -0.1187021305207433 -0.1110310095062928 0 -0.1184357681350634 -0.12629108041036449 0 -0.1187021305207433 -0.1110310095062928 0 -0.1184357681350634 -0.12629108041036449 0 -0.13352107912151251 -0.12325545743651491 0 -0.1187021305207433 -0.1110310095062928 0 -0.1184357681350634 -0.12629108041036449 0 -0.1187021305207433 -0.1110310095062928 0 -0.1191084845555309 -0.087750727769661779 0 -0.12975346859969111 -0.098772676482649702 0 -0.1187021305207433 -0.1110310095062928 0 -0.1191084845555309 -0.087750727769661779 0 -0.1042471871339532 -0.097190061045574469 0 -0.1187021305207433 -0.1110310095062928 0 -0.1191084845555309 -0.087750727769661779 0 -0.087979720752584534 -0.096740264748910315 0 -0.1042471871339532 -0.097190061045574469 0 -0.096146620836909405 -0.07845208792925297 0 -0.1042471871339532 -0.097190061045574469 0 -0.1191084845555309 -0.087750727769661779 0 -0.096146620836909405 -0.07845208792925297 0 -0.096146620836909405 -0.07845208792925297 0 -0.1075003055063971 -0.067557468351808009 0 -0.094074827540155448 -0.05469221062794935 0 -0.1191084845555309 -0.087750727769661779 0 -0.096146620836909405 -0.07845208792925297 0 -0.1075003055063971 -0.067557468351808009 0 -0.1191084845555309 -0.087750727769661779 0 -0.11951483859030949 -0.064470446033030593 0 -0.1191084845555309 -0.087750727769661779 0 -0.1075003055063971 -0.067557468351808009 0 -0.11951483859030949 -0.064470446033030593 0 -0.11951483859030949 -0.064470446033030593 0 -0.119921192625089 -0.041190164296399413 0 -0.12955681451813561 -0.059033691992532257 0 -0.119921192625089 -0.041190164296399413 0 -0.12955681451813561 -0.059033691992532257 0 -0.11951483859030949 -0.064470446033030593 0 -0.119921192625089 -0.041190164296399413 0 -0.1086567560090804 -0.052421869399145317 0 -0.11951483859030949 -0.064470446033030593 0 -0.119921192625089 -0.041190164296399413 0 -0.1075003055063971 -0.067557468351808009 0 -0.11951483859030949 -0.064470446033030593 0 -0.1086567560090804 -0.052421869399145317 0 -0.119921192625089 -0.041190164296399413 0 -0.1033965183026178 -0.040778190241288849 0 -0.1086567560090804 -0.052421869399145317 0 -0.119921192625089 -0.041190164296399413 0 -0.1033965183026178 -0.040778190241288849 0 -0.1089033106937113 -0.02078692685334713 0 -0.119921192625089 -0.041190164296399413 0 -0.119968657279347 -0.038470883991284691 0 -0.1089033106937113 -0.02078692685334713 0 -0.119921192625089 -0.041190164296399413 0 -0.119968657279347 -0.038470883991284691 0 -0.1033965183026178 -0.040778190241288849 0 -0.094074827540155448 -0.05469221062794935 0 -0.086142185467443941 -0.035494847520096531 0 -0.1033965183026178 -0.040778190241288849 0 -0.1089033106937113 -0.02078692685334713 0 -0.086142185467443941 -0.035494847520096531 0 -0.1075003055063971 -0.067557468351808009 0 -0.094074827540155448 -0.05469221062794935 0 -0.1086567560090804 -0.052421869399145317 0 -0.1033965183026178 -0.040778190241288849 0 -0.094074827540155448 -0.05469221062794935 0 -0.1086567560090804 -0.052421869399145317 0 -0.119921192625089 -0.041190164296399413 0 -0.1089033106937113 -0.02078692685334713 0 -0.119968657279347 -0.038470883991284691 0 -0.1204034321798189 -0.023296403388128939 0 -0.1089033106937113 -0.02078692685334713 0 -0.11854318320085259 -0.0093427144561414356 0 -0.1204034321798189 -0.023296403388128939 0 -0.1089033106937113 -0.02078692685334713 0 -0.11854318320085259 -0.0093427144561414356 0 -0.1204034321798189 -0.023296403388128939 0 -0.1319940332591672 -0.023458247705114649 0 -0.119968657279347 -0.038470883991284691 0 -0.1204034321798189 -0.023296403388128939 0 -0.1319940332591672 -0.023458247705114649 0 -0.11854318320085259 -0.0093427144561414356 0 -0.1089033106937113 -0.02078692685334713 0 -0.097885428762332777 -0.0003836894102953251 0 -0.1089033106937113 -0.02078692685334713 0 -0.097885428762332777 -0.0003836894102953251 0 -0.082544437181887503 -0.01635410497360399 0 -0.1089033106937113 -0.02078692685334713 0 -0.097885428762332777 -0.0003836894102953251 0 -0.097885428762332777 -0.0003836894102953251 0 -0.082544437181887503 -0.01635410497360399 0 -0.076083884416815156 -0.0027293419722991658 0 -0.1089033106937113 -0.02078692685334713 0 -0.082544437181887503 -0.01635410497360399 0 -0.086142185467443941 -0.035494847520096531 0 -0.082544437181887503 -0.01635410497360399 0 -0.064655786588065089 -0.039037785244023321 0 -0.060251569169792227 -0.016656566437992491 0 -0.082544437181887503 -0.01635410497360399 0 -0.064655786588065089 -0.039037785244023321 0 -0.082544437181887503 -0.01635410497360399 0 -0.086142185467443941 -0.035494847520096531 0 -0.064655786588065089 -0.039037785244023321 0 -0.076083884416815156 -0.0027293419722991658 0 -0.060251569169792227 -0.016656566437992491 0 -0.058384621118931182 0.0053599481787374751 0 -0.082544437181887503 -0.01635410497360399 0 -0.076083884416815156 -0.0027293419722991658 0 -0.060251569169792227 -0.016656566437992491 0 -0.094074827540155448 -0.05469221062794935 0 -0.086142185467443941 -0.035494847520096531 0 -0.077329261528115548 -0.051662198002318839 0 -0.077359046706001119 -0.068785479186027954 0 -0.094074827540155448 -0.05469221062794935 0 -0.077329261528115548 -0.051662198002318839 0 -0.086142185467443941 -0.035494847520096531 0 -0.064655786588065089 -0.039037785244023321 0 -0.077329261528115548 -0.051662198002318839 0 -0.064655786588065089 -0.039037785244023321 0 -0.077329261528115548 -0.051662198002318839 0 -0.064414461338912141 -0.060300667433497039 0 -0.077359046706001119 -0.068785479186027954 0 -0.077329261528115548 -0.051662198002318839 0 -0.064414461338912141 -0.060300667433497039 0 -0.064655786588065089 -0.039037785244023321 0 -0.046767135994244723 -0.061721465514444129 0 -0.064655786588065089 -0.039037785244023321 0 -0.064414461338912141 -0.060300667433497039 0 -0.046767135994244723 -0.061721465514444129 0 -0.064655786588065089 -0.039037785244023321 0 -0.048810921565408151 -0.034843894908147613 0 -0.046767135994244723 -0.061721465514444129 0 -0.048810921565408151 -0.034843894908147613 0 -0.037698310850344342 -0.035504172957522402 0 -0.04014612475667205 -0.027031870534596301 0 -0.048810921565408151 -0.034843894908147613 0 -0.037698310850344342 -0.035504172957522402 0 -0.035954041920297622 -0.045009971315823849 0 -0.037698310850344342 -0.035504172957522402 0 -0.031753122656617033 -0.031687632650326987 0 -0.04014612475667205 -0.027031870534596301 0 -0.037698310850344342 -0.035504172957522402 0 -0.03182734335272687 -0.038947495378717258 0 -0.031753122656617033 -0.031687632650326987 0 -0.037698310850344342 -0.035504172957522402 0 -0.03182734335272687 -0.038947495378717258 0 -0.035954041920297622 -0.045009971315823849 0 -0.03182734335272687 -0.038947495378717258 0 -0.035954041920297622 -0.045009971315823849 0 -0.029312952348968149 -0.045057087648165059 0 -0.035954041920297622 -0.045009971315823849 0 -0.046767135994244723 -0.061721465514444129 0 -0.035954041920297622 -0.045009971315823849 0 -0.046767135994244723 -0.061721465514444129 0 -0.034661045036576778 -0.061683964356709968 0 -0.035954041920297622 -0.045009971315823849 0 -0.02980647330399017 -0.057662300037204323 0 -0.028399901224099081 -0.051719017938120102 0 -0.048810921565408151 -0.034843894908147613 0 -0.035954041920297622 -0.045009971315823849 0 -0.046767135994244723 -0.061721465514444129 0 -0.035954041920297622 -0.045009971315823849 0 -0.034661045036576778 -0.061683964356709968 0 -0.02980647330399017 -0.057662300037204323 0 -0.047051976389369338 -0.0081844754486175703 0 -0.060251569169792227 -0.016656566437992491 0 -0.058384621118931182 0.0053599481787374751 0 -0.047051976389369338 -0.0081844754486175703 0 -0.046962944047112848 -0.020702680849712302 0 -0.060251569169792227 -0.016656566437992491 0 -0.048810921565408151 -0.034843894908147613 0 -0.046962944047112848 -0.020702680849712302 0 -0.060251569169792227 -0.016656566437992491 0 -0.064655786588065089 -0.039037785244023321 0 -0.048810921565408151 -0.034843894908147613 0 -0.060251569169792227 -0.016656566437992491 0 -0.048810921565408151 -0.034843894908147613 0 -0.046962944047112848 -0.020702680849712302 0 -0.04014612475667205 -0.027031870534596301 0 -0.031753122656617033 -0.031687632650326987 0 -0.04014612475667205 -0.027031870534596301 0 -0.032719091967475938 -0.023644275075933811 0 -0.032719091967475938 -0.023644275075933811 0 -0.038554128354322488 -0.016796596919207488 0 -0.027920824658275521 -0.015878820012460829 0 -0.04014612475667205 -0.027031870534596301 0 -0.032719091967475938 -0.023644275075933811 0 -0.038554128354322488 -0.016796596919207488 0 -0.046962944047112848 -0.020702680849712302 0 -0.04014612475667205 -0.027031870534596301 0 -0.038554128354322488 -0.016796596919207488 0 -0.047051976389369338 -0.0081844754486175703 0 -0.046962944047112848 -0.020702680849712302 0 -0.038554128354322488 -0.016796596919207488 0 -0.047051976389369338 -0.0081844754486175703 0 -0.038554128354322488 -0.016796596919207488 0 -0.034798975376248743 -0.0055540792537900098 0 -0.038554128354322488 -0.016796596919207488 0 -0.034798975376248743 -0.0055540792537900098 0 -0.027920824658275521 -0.015878820012460829 0 -0.047051976389369338 -0.0081844754486175703 0 -0.034798975376248743 -0.0055540792537900098 0 -0.041731582901854747 0.0034814502937183379 0 -0.01630040215263432 -0.00060373546677246063 0 -0.02514859205216086 -0.0048315903344443283 0 -0.020719174851346171 -0.011402851570352189 0 -0.034798975376248743 -0.0055540792537900098 0 -0.02514859205216086 -0.0048315903344443283 0 -0.028241164028168311 0.0071075928835653123 0 -0.02514859205216086 -0.0048315903344443283 0 -0.020719174851346171 -0.011402851570352189 0 -0.027920824658275521 -0.015878820012460829 0 -0.034798975376248743 -0.0055540792537900098 0 -0.02514859205216086 -0.0048315903344443283 0 -0.027920824658275521 -0.015878820012460829 0 -0.01630040215263432 -0.00060373546677246063 0 -0.020719174851346171 -0.011402851570352189 0 -0.01379878997275793 -0.012386680650481201 0 -0.020719174851346171 -0.011402851570352189 0 -0.018873861315669552 -0.018831274908286101 0 -0.027920824658275521 -0.015878820012460829 0 -0.020719174851346171 -0.011402851570352189 0 -0.018873861315669552 -0.018831274908286101 0 -0.01379878997275793 -0.012386680650481201 0 -0.018873861315669552 -0.018831274908286101 0 -0.027920824658275521 -0.015878820012460829 0 -0.024568674921357121 -0.026233910726543599 0 -0.032719091967475938 -0.023644275075933811 0 -0.027920824658275521 -0.015878820012460829 0 -0.024568674921357121 -0.026233910726543599 0 -0.031753122656617033 -0.031687632650326987 0 -0.032719091967475938 -0.023644275075933811 0 -0.024568674921357121 -0.026233910726543599 0 -0.024568674921357121 -0.026233910726543599 0 -0.014451348327000429 -0.027323790957242119 0 -0.02178487808217262 -0.036944543594884888 0 -0.018873861315669552 -0.018831274908286101 0 -0.024568674921357121 -0.026233910726543599 0 -0.014451348327000429 -0.027323790957242119 0 -0.014451348327000429 -0.027323790957242119 0 -0.002223379054516019 -0.020114376720011141 0 -0.0035653500387011899 -0.036389250924834513 0 -0.002223379054516019 -0.020114376720011141 0 -0.011784355163280139 -0.01976159553263666 0 -0.007660082103152787 -0.01512683271922022 0 -0.002223379054516019 -0.020114376720011141 0 -0.007660082103152787 -0.01512683271922022 0 -0.0011689609603414549 -0.0120940308943787 0 -0.014451348327000429 -0.027323790957242119 0 -0.002223379054516019 -0.020114376720011141 0 -0.011784355163280139 -0.01976159553263666 0 -0.018873861315669552 -0.018831274908286101 0 -0.014451348327000429 -0.027323790957242119 0 -0.011784355163280139 -0.01976159553263666 0 -0.011784355163280139 -0.01976159553263666 0 -0.01379878997275793 -0.012386680650481201 0 -0.007660082103152787 -0.01512683271922022 0 -0.018873861315669552 -0.018831274908286101 0 -0.011784355163280139 -0.01976159553263666 0 -0.01379878997275793 -0.012386680650481201 0 -0.01379878997275793 -0.012386680650481201 0 -0.0078383172283765443 -0.0087239765529333359 0 -0.007660082103152787 -0.01512683271922022 0 -0.0078383172283765443 -0.0087239765529333359 0 -0.007660082103152787 -0.01512683271922022 0 -0.0011689609603414549 -0.0120940308943787 0 -0.0078383172283765443 -0.0087239765529333359 0 -0.0011689609603414549 -0.0120940308943787 0 -0.00178465517183297 -0.004928837209663783 0 -0.0078383172283765443 -0.0087239765529333359 0 -0.00178465517183297 -0.004928837209663783 0 -0.007783247847578046 -0.001462573894568412 0 -0.00178465517183297 -0.004928837209663783 0 -0.0032185631707065052 0.0025149352420844452 0 0.0034447570176767239 -0.0014554546116130019 0 -0.00178465517183297 -0.004928837209663783 0 -0.007783247847578046 -0.001462573894568412 0 -0.0032185631707065052 0.0025149352420844452 0 -0.01630040215263432 -0.00060373546677246063 0 -0.0078383172283765443 -0.0087239765529333359 0 -0.007783247847578046 -0.001462573894568412 0 -0.01630040215263432 -0.00060373546677246063 0 -0.01379878997275793 -0.012386680650481201 0 -0.0078383172283765443 -0.0087239765529333359 0 -0.019033574310115361 -0.062338325353940328 0 -0.022554272227532691 -0.055849771492785152 0 -0.01492938060610381 -0.067606776826255474 0 -0.022554272227532691 -0.055849771492785152 0 -0.01492938060610381 -0.067606776826255474 0 -0.021897980101895951 -0.060875127491969827 0 -0.02629177883633824 -0.061455895240216663 0 -0.021926921484589908 -0.064564654788634546 0 -0.019033574310115361 -0.062338325353940328 0 -0.022128491970068779 -0.058587860742739382 0 -0.022554272227532691 -0.055849771492785152 0 -0.019033574310115361 -0.062338325353940328 0 -0.021897980101895951 -0.060875127491969827 0 -0.022128491970068779 -0.058587860742739382 0 -0.021897980101895951 -0.060875127491969827 0 -0.022128491970068779 -0.058587860742739382 0 -0.024049876651013779 -0.059421265724027297 0 -0.022128491970068779 -0.058587860742739382 0 -0.022554272227532691 -0.055849771492785152 0 -0.024049876651013779 -0.059421265724027297 0 -0.034661045036576778 -0.061683964356709968 0 -0.02629177883633824 -0.061455895240216663 0 -0.02980647330399017 -0.057662300037204323 0 -0.025483575539845291 -0.058250278785883909 0 -0.026065329005698679 -0.05596364413652475 0 -0.02980647330399017 -0.057662300037204323 0 -0.022554272227532691 -0.055849771492785152 0 -0.025483575539845291 -0.058250278785883909 0 -0.024049876651013779 -0.059421265724027297 0 -0.022554272227532691 -0.055849771492785152 0 -0.025483575539845291 -0.058250278785883909 0 -0.026065329005698679 -0.05596364413652475 0 -0.025483575539845291 -0.058250278785883909 0 -0.02629177883633824 -0.061455895240216663 0 -0.02980647330399017 -0.057662300037204323 0 -0.021897980101895951 -0.060875127491969827 0 -0.024049876651013779 -0.059421265724027297 0 -0.02629177883633824 -0.061455895240216663 0 -0.025483575539845291 -0.058250278785883909 0 -0.024049876651013779 -0.059421265724027297 0 -0.02629177883633824 -0.061455895240216663 0 -0.026065329005698679 -0.05596364413652475 0 -0.02980647330399017 -0.057662300037204323 0 -0.028399901224099081 -0.051719017938120102 0 -0.022554272227532691 -0.055849771492785152 0 -0.028399901224099081 -0.051719017938120102 0 -0.029312952348968149 -0.045057087648165059 0 -0.022554272227532691 -0.055849771492785152 0 -0.029312952348968149 -0.045057087648165059 0 -0.022554272227532691 -0.055849771492785152 0 -0.026065329005698679 -0.05596364413652475 0 -0.028399901224099081 -0.051719017938120102 0 -0.035954041920297622 -0.045009971315823849 0 -0.028399901224099081 -0.051719017938120102 0 -0.029312952348968149 -0.045057087648165059 0 -0.022554272227532691 -0.055849771492785152 0 -0.029312952348968149 -0.045057087648165059 0 -0.02178487808217262 -0.036944543594884888 0 -0.022554272227532691 -0.055849771492785152 0 -0.02178487808217262 -0.036944543594884888 0 -0.0035653500387011899 -0.036389250924834513 0 -0.03182734335272687 -0.038947495378717258 0 -0.029312952348968149 -0.045057087648165059 0 -0.02178487808217262 -0.036944543594884888 0 -0.03182734335272687 -0.038947495378717258 0 -0.031753122656617033 -0.031687632650326987 0 -0.02178487808217262 -0.036944543594884888 0 -0.031753122656617033 -0.031687632650326987 0 -0.024568674921357121 -0.026233910726543599 0 -0.02178487808217262 -0.036944543594884888 0 -0.022554272227532691 -0.055849771492785152 0 -0.0035653500387011899 -0.036389250924834513 0 -0.014451348327000429 -0.027323790957242119 0 -0.02178487808217262 -0.036944543594884888 0 -0.0035653500387011899 -0.036389250924834513 0 -0.022554272227532691 -0.055849771492785152 0 -0.00053562042136896706 -0.057815125325439781 0 -0.01492938060610381 -0.067606776826255474 0 -0.022554272227532691 -0.055849771492785152 0 -0.0035653500387011899 -0.036389250924834513 0 -0.00053562042136896706 -0.057815125325439781 0 -0.00053562042136896706 -0.057815125325439781 0 -0.01492938060610381 -0.067606776826255474 0 -0.0067162491474014457 -0.080270803432624632 0 -0.0093568467514452483 -0.077994281056668155 0 -0.01492938060610381 -0.067606776826255474 0 -0.0067162491474014457 -0.080270803432624632 0 -0.01492938060610381 -0.067606776826255474 0 -0.0067162491474014457 -0.080270803432624632 0 -0.0093568467514452483 -0.077994281056668155 0 -0.011104448622013289 -0.077070042553352591 0 -0.01492938060610381 -0.067606776826255474 0 -0.011104448622013289 -0.077070042553352591 0 -0.0139846540051102 -0.073136483589430465 0 -0.01492938060610381 -0.067606776826255474 0 -0.011104448622013289 -0.077070042553352591 0 -0.01343361867317773 -0.076634398957484501 0 -0.0139846540051102 -0.073136483589430465 0 -0.01343361867317773 -0.076634398957484501 0 -0.0139846540051102 -0.073136483589430465 0 -0.015977425082474569 -0.077910348802277568 0 -0.011104448622013289 -0.077070042553352591 0 -0.01343361867317773 -0.076634398957484501 0 -0.01266794698311288 -0.078420720884877421 0 -0.01343361867317773 -0.076634398957484501 0 -0.01266794698311288 -0.078420720884877421 0 -0.015977425082474569 -0.077910348802277568 0 -0.0139846540051102 -0.073136483589430465 0 -0.01492938060610381 -0.067606776826255474 0 -0.016553108564941119 -0.070590710192436998 0 -0.0069125503846064681 -0.09108540507513474 0 -0.0067162491474014457 -0.080270803432624632 0 0.0084887906650367943 -0.105421279146424 0 -0.0069125503846064681 -0.09108540507513474 0 -0.0067162491474014457 -0.080270803432624632 0 -0.0086089409858598094 -0.083665141606388979 0 -0.011104448622013289 -0.077070042553352591 0 -0.0093548358796244607 -0.08135225113249657 0 -0.01087709656908536 -0.079602552723958081 0 -0.0093568467514452483 -0.077994281056668155 0 -0.011104448622013289 -0.077070042553352591 0 -0.0093548358796244607 -0.08135225113249657 0 -0.0093568467514452483 -0.077994281056668155 0 -0.0067162491474014457 -0.080270803432624632 0 -0.0093548358796244607 -0.08135225113249657 0 -0.0067162491474014457 -0.080270803432624632 0 -0.0093548358796244607 -0.08135225113249657 0 -0.0086089409858598094 -0.083665141606388979 0 -0.0093548358796244607 -0.08135225113249657 0 -0.01087709656908536 -0.079602552723958081 0 -0.01242627650972603 -0.081908233125312604 0 -0.011104448622013289 -0.077070042553352591 0 -0.01087709656908536 -0.079602552723958081 0 -0.01266794698311288 -0.078420720884877421 0 -0.01242627650972603 -0.081908233125312604 0 -0.01775728675239838 -0.085332519351772648 0 -0.015977425082474569 -0.077910348802277568 0 -0.01266794698311288 -0.078420720884877421 0 -0.01242627650972603 -0.081908233125312604 0 -0.015977425082474569 -0.077910348802277568 0 -0.01087709656908536 -0.079602552723958081 0 -0.01266794698311288 -0.078420720884877421 0 -0.01242627650972603 -0.081908233125312604 0 -0.01242627650972603 -0.081908233125312604 0 -0.011690848372686771 -0.086900192145731289 0 -0.01775728675239838 -0.085332519351772648 0 -0.01242627650972603 -0.081908233125312604 0 -0.0086089409858598094 -0.083665141606388979 0 -0.011690848372686771 -0.086900192145731289 0 -0.0093548358796244607 -0.08135225113249657 0 -0.01242627650972603 -0.081908233125312604 0 -0.0086089409858598094 -0.083665141606388979 0 -0.0069125503846064681 -0.09108540507513474 0 -0.0086089409858598094 -0.083665141606388979 0 -0.011690848372686771 -0.086900192145731289 0 -0.011690848372686771 -0.086900192145731289 0 -0.01298975944186089 -0.091884348664736326 0 -0.01775728675239838 -0.085332519351772648 0 -0.0069125503846064681 -0.09108540507513474 0 -0.011690848372686771 -0.086900192145731289 0 -0.01298975944186089 -0.091884348664736326 0 -0.0069125503846064681 -0.09108540507513474 0 -0.01298975944186089 -0.091884348664736326 0 -0.0084221704370573032 -0.098056331018466003 0 -0.032329265680269441 -0.080029388309974608 0 -0.043372162844607633 -0.097096040152239826 0 -0.017891395366296099 -0.098337311105506683 0 -0.01775728675239838 -0.085332519351772648 0 -0.032329265680269441 -0.080029388309974608 0 -0.017891395366296099 -0.098337311105506683 0 -0.032329265680269441 -0.080029388309974608 0 -0.017891395366296099 -0.098337311105506683 0 -0.01298975944186089 -0.091884348664736326 0 -0.01775728675239838 -0.085332519351772648 0 -0.017891395366296099 -0.098337311105506683 0 -0.01775728675239838 -0.085332519351772648 0 -0.015977425082474569 -0.077910348802277568 0 -0.02223428360914103 -0.0766331245166849 0 -0.01775728675239838 -0.085332519351772648 0 -0.02223428360914103 -0.0766331245166849 0 -0.032329265680269441 -0.080029388309974608 0 -0.034661045036576778 -0.061683964356709968 0 -0.02568629290989707 -0.0682692406311355 0 -0.032329265680269441 -0.080029388309974608 0 -0.019776540626510079 -0.067482891414999746 0 -0.019421147620665678 -0.071624125488264162 0 -0.02568629290989707 -0.0682692406311355 0 -0.019776540626510079 -0.067482891414999746 0 -0.021926921484589908 -0.064564654788634546 0 -0.02568629290989707 -0.0682692406311355 0 -0.019033574310115361 -0.062338325353940328 0 -0.021926921484589908 -0.064564654788634546 0 -0.019482835344440771 -0.064849053103056248 0 -0.019033574310115361 -0.062338325353940328 0 -0.021897980101895951 -0.060875127491969827 0 -0.021926921484589908 -0.064564654788634546 0 -0.019776540626510079 -0.067482891414999746 0 -0.021926921484589908 -0.064564654788634546 0 -0.019482835344440771 -0.064849053103056248 0 -0.019482835344440771 -0.064849053103056248 0 -0.017825125997834229 -0.064565463877773177 0 -0.017900581773840601 -0.066941834219153673 0 -0.019033574310115361 -0.062338325353940328 0 -0.01492938060610381 -0.067606776826255474 0 -0.017825125997834229 -0.064565463877773177 0 -0.019033574310115361 -0.062338325353940328 0 -0.019482835344440771 -0.064849053103056248 0 -0.017825125997834229 -0.064565463877773177 0 -0.01492938060610381 -0.067606776826255474 0 -0.017825125997834229 -0.064565463877773177 0 -0.017900581773840601 -0.066941834219153673 0 -0.019776540626510079 -0.067482891414999746 0 -0.017711733529721371 -0.068948715049706136 0 -0.019421147620665678 -0.071624125488264162 0 -0.01492938060610381 -0.067606776826255474 0 -0.017900581773840601 -0.066941834219153673 0 -0.017711733529721371 -0.068948715049706136 0 -0.019776540626510079 -0.067482891414999746 0 -0.017900581773840601 -0.066941834219153673 0 -0.017711733529721371 -0.068948715049706136 0 -0.019776540626510079 -0.067482891414999746 0 -0.019482835344440771 -0.064849053103056248 0 -0.017900581773840601 -0.066941834219153673 0 -0.01492938060610381 -0.067606776826255474 0 -0.017711733529721371 -0.068948715049706136 0 -0.016553108564941119 -0.070590710192436998 0 -0.0139846540051102 -0.073136483589430465 0 -0.016553108564941119 -0.070590710192436998 0 -0.019421147620665678 -0.071624125488264162 0 -0.019421147620665678 -0.071624125488264162 0 -0.02223428360914103 -0.0766331245166849 0 -0.02568629290989707 -0.0682692406311355 0 -0.017711733529721371 -0.068948715049706136 0 -0.016553108564941119 -0.070590710192436998 0 -0.019421147620665678 -0.071624125488264162 0 -0.019421147620665678 -0.071624125488264162 0 -0.015977425082474569 -0.077910348802277568 0 -0.02223428360914103 -0.0766331245166849 0 -0.0139846540051102 -0.073136483589430465 0 -0.019421147620665678 -0.071624125488264162 0 -0.015977425082474569 -0.077910348802277568 0 -0.02223428360914103 -0.0766331245166849 0 -0.02568629290989707 -0.0682692406311355 0 -0.032329265680269441 -0.080029388309974608 0 -0.034661045036576778 -0.061683964356709968 0 -0.02629177883633824 -0.061455895240216663 0 -0.02568629290989707 -0.0682692406311355 0 -0.02629177883633824 -0.061455895240216663 0 -0.021926921484589908 -0.064564654788634546 0 -0.02568629290989707 -0.0682692406311355 0 -0.046767135994244723 -0.061721465514444129 0 -0.032329265680269441 -0.080029388309974608 0 -0.0578100331585778 -0.078788117356706003 0 -0.046767135994244723 -0.061721465514444129 0 -0.032329265680269441 -0.080029388309974608 0 -0.046767135994244723 -0.061721465514444129 0 -0.034661045036576778 -0.061683964356709968 0 -0.032329265680269441 -0.080029388309974608 0 -0.032329265680269441 -0.080029388309974608 0 -0.0578100331585778 -0.078788117356706003 0 -0.043372162844607633 -0.097096040152239826 0 -0.068852930322910219 -0.09585476919896832 0 -0.0578100331585778 -0.078788117356706003 0 -0.043372162844607633 -0.097096040152239826 0 -0.064414461338912141 -0.060300667433497039 0 -0.046767135994244723 -0.061721465514444129 0 -0.0578100331585778 -0.078788117356706003 0 -0.046767135994244723 -0.061721465514444129 0 -0.0578100331585778 -0.078788117356706003 0 -0.068852930322910219 -0.09585476919896832 0 -0.05441506000894826 -0.11416269199450051 0 -0.043372162844607633 -0.097096040152239826 0 -0.05441506000894826 -0.11416269199450051 0 -0.043372162844607633 -0.097096040152239826 0 -0.028934292530644029 -0.11540396294778291 0 -0.05441506000894826 -0.11416269199450051 0 -0.028934292530644029 -0.11540396294778291 0 -0.028934292530644029 -0.11540396294778291 0 -0.024799163762541491 -0.12858151053716249 0 -0.044190514231566419 -0.1296041253787403 0 -0.05441506000894826 -0.11416269199450051 0 -0.028934292530644029 -0.11540396294778291 0 -0.044190514231566419 -0.1296041253787403 0 -0.028934292530644029 -0.11540396294778291 0 -0.0034535250523390739 -0.11664523390105171 0 -0.028934292530644029 -0.11540396294778291 0 -0.01209903613156418 -0.12601838836563981 0 -0.024799163762541491 -0.12858151053716249 0 -0.028934292530644029 -0.11540396294778291 0 -0.017891395366296099 -0.098337311105506683 0 -0.01340526224884009 -0.1040259464082858 0 -0.043372162844607633 -0.097096040152239826 0 -0.028934292530644029 -0.11540396294778291 0 -0.017891395366296099 -0.098337311105506683 0 -0.017891395366296099 -0.098337311105506683 0 -0.01340526224884009 -0.1040259464082858 0 -0.01340526224884009 -0.1040259464082858 0 0.0084887906650367943 -0.105421279146424 0 -0.01340526224884009 -0.1040259464082858 0 -0.0034535250523390739 -0.11664523390105171 0 0.0084887906650367943 -0.105421279146424 0 -0.0069125503846064681 -0.09108540507513474 0 -0.0084221704370573032 -0.098056331018466003 0 0.0084887906650367943 -0.105421279146424 0 -0.0084221704370573032 -0.098056331018466003 0 -0.01340526224884009 -0.1040259464082858 0 0.0084887906650367943 -0.105421279146424 0 -0.017891395366296099 -0.098337311105506683 0 -0.0084221704370573032 -0.098056331018466003 0 -0.01340526224884009 -0.1040259464082858 0 -0.01298975944186089 -0.091884348664736326 0 -0.017891395366296099 -0.098337311105506683 0 -0.0084221704370573032 -0.098056331018466003 0 -0.028934292530644029 -0.11540396294778291 0 -0.0034535250523390739 -0.11664523390105171 0 -0.01209903613156418 -0.12601838836563981 0 -0.028934292530644029 -0.11540396294778291 0 -0.01340526224884009 -0.1040259464082858 0 -0.0034535250523390739 -0.11664523390105171 0 -0.01340526224884009 -0.1040259464082858 0 -0.0034535250523390739 -0.11664523390105171 0 -0.0034535250523390739 -0.11664523390105171 0 -0.01209903613156418 -0.12601838836563981 0 1.6436437954615159e-05 -0.1277763830486926 0 -0.0051711044568007059 -0.13467867428119709 0 -0.017484144038834842 -0.14545535959564571 0 0.003357569288923484 -0.13885967376659639 0 -0.0051711044568007059 -0.13467867428119709 0 -0.01209903613156418 -0.12601838836563981 0 1.6436437954615159e-05 -0.1277763830486926 0 -0.0051711044568007059 -0.13467867428119709 0 0.003357569288923484 -0.13885967376659639 0 1.6436437954615159e-05 -0.1277763830486926 0 -0.0051711044568007059 -0.13467867428119709 0 -0.01162643006549713 -0.13273194874847299 0 -0.017484144038834842 -0.14545535959564571 0 -0.0051711044568007059 -0.13467867428119709 0 -0.01162643006549713 -0.13273194874847299 0 -0.01209903613156418 -0.12601838836563981 0 -0.01162643006549713 -0.13273194874847299 0 -0.01209903613156418 -0.12601838836563981 0 -0.024799163762541491 -0.12858151053716249 0 -0.01162643006549713 -0.13273194874847299 0 -0.024799163762541491 -0.12858151053716249 0 -0.024976143716045049 -0.14239149708658441 0 -0.01162643006549713 -0.13273194874847299 0 -0.024976143716045049 -0.14239149708658441 0 -0.01162643006549713 -0.13273194874847299 0 -0.024976143716045049 -0.14239149708658441 0 -0.017484144038834842 -0.14545535959564571 0 -0.024799163762541491 -0.12858151053716249 0 -0.024976143716045049 -0.14239149708658441 0 -0.036322980610368552 -0.14044911683590619 0 -0.029802120967478699 -0.14935357585997799 0 -0.017484144038834842 -0.14545535959564571 0 -0.020176197286199699 -0.16197403346408509 0 -0.029802120967478699 -0.14935357585997799 0 -0.020176197286199699 -0.16197403346408509 0 -0.029802120967478699 -0.14935357585997799 0 -0.017484144038834842 -0.14545535959564571 0 -0.029802120967478699 -0.14935357585997799 0 -0.024976143716045049 -0.14239149708658441 0 -0.038325857366593143 -0.1520510454246955 0 -0.029802120967478699 -0.14935357585997799 0 -0.024976143716045049 -0.14239149708658441 0 -0.017484144038834842 -0.14545535959564571 0 -0.017484144038834842 -0.14545535959564571 0 -0.0067557621381473393 -0.15585704510460729 0 0.003357569288923484 -0.13885967376659639 0 -0.017484144038834842 -0.14545535959564571 0 -0.0067557621381473393 -0.15585704510460729 0 -0.020176197286199699 -0.16197403346408509 0 -0.017484144038834842 -0.14545535959564571 0 0.003357569288923484 -0.13885967376659639 0 -0.0067557621381473393 -0.15585704510460729 0 -0.01071604893013901 -0.1740706574753618 0 0.0094225134108093314 -0.15897846038450089 0 -0.0067557621381473393 -0.15585704510460729 0 -0.01071604893013901 -0.1740706574753618 0 -0.020176197286199699 -0.16197403346408509 0 -0.01071604893013901 -0.1740706574753618 0 0.0094225134108093314 -0.15897846038450089 0 -0.01071604893013901 -0.1740706574753618 0 -0.020176197286199699 -0.16197403346408509 0 -0.01071604893013901 -0.1740706574753618 0 0.0066206202256469358 -0.196238932273196 0 -0.01071604893013901 -0.1740706574753618 0 -0.013465007990849509 -0.19685228970714441 0 -0.02966218119192645 -0.18826922623930509 0 -0.01071604893013901 -0.1740706574753618 0 -0.0261128665894102 -0.1713227950199436 0 -0.02966218119192645 -0.18826922623930509 0 -0.01071604893013901 -0.1740706574753618 0 -0.02966218119192645 -0.18826922623930509 0 -0.01071604893013901 -0.1740706574753618 0 -0.020176197286199699 -0.16197403346408509 0 -0.0261128665894102 -0.1713227950199436 0 -0.020176197286199699 -0.16197403346408509 0 -0.0261128665894102 -0.1713227950199436 0 -0.031458272065341082 -0.1610497046175271 0 -0.029802120967478699 -0.14935357585997799 0 -0.020176197286199699 -0.16197403346408509 0 -0.031458272065341082 -0.1610497046175271 0 -0.031458272065341082 -0.1610497046175271 0 -0.03931824399962202 -0.16222713088809509 0 -0.038325857366593143 -0.1520510454246955 0 -0.031458272065341082 -0.1610497046175271 0 -0.038551633473450503 -0.17125035330343111 0 -0.03931824399962202 -0.16222713088809509 0 -0.0261128665894102 -0.1713227950199436 0 -0.031458272065341082 -0.1610497046175271 0 -0.038551633473450503 -0.17125035330343111 0 -0.038551633473450503 -0.17125035330343111 0 -0.0460348473141447 -0.16462866048256061 0 -0.051315107047587967 -0.17229629234366661 0 -0.038551633473450503 -0.17125035330343111 0 -0.0460348473141447 -0.16462866048256061 0 -0.03931824399962202 -0.16222713088809509 0 -0.0460348473141447 -0.16462866048256061 0 -0.03931824399962202 -0.16222713088809509 0 -0.038325857366593143 -0.1520510454246955 0 -0.0261128665894102 -0.1713227950199436 0 -0.038551633473450503 -0.17125035330343111 0 -0.02966218119192645 -0.18826922623930509 0 -0.038551633473450503 -0.17125035330343111 0 -0.052042881438184418 -0.18310085922537089 0 -0.02966218119192645 -0.18826922623930509 0 -0.038551633473450503 -0.17125035330343111 0 -0.052042881438184418 -0.18310085922537089 0 -0.051315107047587967 -0.17229629234366661 0 -0.052042881438184418 -0.18310085922537089 0 -0.051315107047587967 -0.17229629234366661 0 -0.060185144107649038 -0.17711186797822209 0 -0.052042881438184418 -0.18310085922537089 0 -0.060185144107649038 -0.17711186797822209 0 -0.066497339562415256 -0.18456377953108821 0 -0.056858663125552607 -0.16546096100458191 0 -0.038325857366593143 -0.1520510454246955 0 -0.056923723948132207 -0.1579366308913675 0 -0.056858663125552607 -0.16546096100458191 0 -0.038325857366593143 -0.1520510454246955 0 -0.0460348473141447 -0.16462866048256061 0 -0.056858663125552607 -0.16546096100458191 0 -0.038325857366593143 -0.1520510454246955 0 -0.0460348473141447 -0.16462866048256061 0 -0.051315107047587967 -0.17229629234366661 0 -0.056858663125552607 -0.16546096100458191 0 -0.051315107047587967 -0.17229629234366661 0 -0.060185144107649038 -0.17711186797822209 0 -0.056858663125552607 -0.16546096100458191 0 -0.056923723948132207 -0.1579366308913675 0 -0.038325857366593143 -0.1520510454246955 0 -0.056923723948132207 -0.1579366308913675 0 -0.050326796072312822 -0.14374963258970291 0 -0.069699609111251212 -0.13442062286490339 0 -0.056923723948132207 -0.1579366308913675 0 -0.050326796072312822 -0.14374963258970291 0 -0.038325857366593143 -0.1520510454246955 0 -0.05441506000894826 -0.11416269199450051 0 -0.044190514231566419 -0.1296041253787403 0 -0.069699609111251212 -0.13442062286490339 0 -0.050326796072312822 -0.14374963258970291 0 -0.044190514231566419 -0.1296041253787403 0 -0.069699609111251212 -0.13442062286490339 0 -0.024799163762541491 -0.12858151053716249 0 -0.044190514231566419 -0.1296041253787403 0 -0.036322980610368552 -0.14044911683590619 0 -0.050326796072312822 -0.14374963258970291 0 -0.044190514231566419 -0.1296041253787403 0 -0.036322980610368552 -0.14044911683590619 0 -0.024976143716045049 -0.14239149708658441 0 -0.038325857366593143 -0.1520510454246955 0 -0.024976143716045049 -0.14239149708658441 0 -0.036322980610368552 -0.14044911683590619 0 -0.038325857366593143 -0.1520510454246955 0 -0.029802120967478699 -0.14935357585997799 0 -0.031458272065341082 -0.1610497046175271 0 -0.038325857366593143 -0.1520510454246955 0 -0.029802120967478699 -0.14935357585997799 0 -0.038325857366593143 -0.1520510454246955 0 -0.050326796072312822 -0.14374963258970291 0 -0.036322980610368552 -0.14044911683590619 0 -0.038325857366593143 -0.1520510454246955 0 -0.025202092561738061 -0.23743604628848641 0 -0.016629143545875261 -0.24993839783463589 0 -0.005154301307355222 -0.23866109239983591 0 -0.029266210357294709 -0.25124525520749302 0 -0.025202092561738061 -0.23743604628848641 0 -0.03610133640728002 -0.24809299236653751 0 -0.029266210357294709 -0.25124525520749302 0 -0.025202092561738061 -0.23743604628848641 0 -0.016629143545875261 -0.24993839783463589 0 -0.016629143545875261 -0.24993839783463589 0 -0.005154301307355222 -0.23866109239983591 0 0.0088278604252677757 -0.24207985259888551 0 -0.0020452445366769159 -0.25613720859826339 0 -0.016629143545875261 -0.24993839783463589 0 0.0088278604252677757 -0.24207985259888551 0 -0.025202092561738061 -0.23743604628848641 0 -0.005154301307355222 -0.23866109239983591 0 -0.0010408822478608711 -0.23002048580275269 0 -0.016629143545875261 -0.24993839783463589 0 0.0088278604252677757 -0.24207985259888551 0 -0.025202092561738061 -0.23743604628848641 0 -0.0010408822478608711 -0.23002048580275269 0 -0.025202092561738061 -0.23743604628848641 0 -0.0010408822478608711 -0.23002048580275269 0 -0.015891943502469901 -0.225868676383605 0 -0.010112930406894269 -0.2195948390175114 0 0.0091347611165188136 -0.22815836102464809 0 -0.0010408822478608711 -0.23002048580275269 0 -0.010112930406894269 -0.2195948390175114 0 0.0091347611165188136 -0.22815836102464809 0 -0.0010408822478608711 -0.23002048580275269 0 -0.010112930406894269 -0.2195948390175114 0 -0.015891943502469901 -0.225868676383605 0 -0.022316134281811589 -0.22180409757827549 0 -0.015891943502469901 -0.225868676383605 0 -0.02404812253867494 -0.22836562876288499 0 -0.010112930406894269 -0.2195948390175114 0 -0.022316134281811589 -0.22180409757827549 0 -0.015891943502469901 -0.225868676383605 0 -0.025202092561738061 -0.23743604628848641 0 -0.015891943502469901 -0.225868676383605 0 -0.02404812253867494 -0.22836562876288499 0 -0.025202092561738061 -0.23743604628848641 0 -0.02404812253867494 -0.22836562876288499 0 -0.032167053030711427 -0.2241600267170013 0 -0.022316134281811589 -0.22180409757827549 0 -0.02404812253867494 -0.22836562876288499 0 -0.032167053030711427 -0.2241600267170013 0 -0.022316134281811589 -0.22180409757827549 0 -0.02936062193030739 -0.2110313170103747 0 -0.032167053030711427 -0.2241600267170013 0 -0.010112930406894269 -0.2195948390175114 0 -0.02936062193030739 -0.2110313170103747 0 -0.017815912124917201 -0.21214233400290969 0 -0.017815912124917201 -0.21214233400290969 0 -0.037175483884676522 -0.20610233192285549 0 -0.010112930406894269 -0.2195948390175114 0 -0.02936062193030739 -0.2110313170103747 0 -0.010112930406894269 -0.2195948390175114 0 -0.022316134281811589 -0.22180409757827549 0 -0.02936062193030739 -0.2110313170103747 0 -0.017815912124917201 -0.21214233400290969 0 -0.024529646298092421 -0.20084154546805369 0 -0.037175483884676522 -0.20610233192285549 0 -0.02936062193030739 -0.2110313170103747 0 -0.017815912124917201 -0.21214233400290969 0 -0.037175483884676522 -0.20610233192285549 0 -0.017815912124917201 -0.21214233400290969 0 -0.013465007990849509 -0.19685228970714441 0 -0.024529646298092421 -0.20084154546805369 0 -0.017815912124917201 -0.21214233400290969 0 0.0015436596348421231 -0.21818233608296381 0 -0.017815912124917201 -0.21214233400290969 0 -0.0036755515635171002 -0.20753558635460601 0 0.0015436596348421231 -0.21818233608296381 0 -0.010112930406894269 -0.2195948390175114 0 -0.017815912124917201 -0.21214233400290969 0 0.0015436596348421231 -0.21818233608296381 0 -0.017815912124917201 -0.21214233400290969 0 -0.0036755515635171002 -0.20753558635460601 0 -0.013465007990849509 -0.19685228970714441 0 -0.0036755515635171002 -0.20753558635460601 0 -0.013465007990849509 -0.19685228970714441 0 0.0066206202256469358 -0.196238932273196 0 -0.01071604893013901 -0.1740706574753618 0 -0.013465007990849509 -0.19685228970714441 0 0.0066206202256469358 -0.196238932273196 0 -0.013465007990849509 -0.19685228970714441 0 -0.02966218119192645 -0.18826922623930509 0 -0.024529646298092421 -0.20084154546805369 0 -0.02966218119192645 -0.18826922623930509 0 -0.024529646298092421 -0.20084154546805369 0 -0.037175483884676522 -0.20610233192285549 0 -0.02966218119192645 -0.18826922623930509 0 -0.048608313453720908 -0.202467795003239 0 -0.02966218119192645 -0.18826922623930509 0 -0.048608313453720908 -0.202467795003239 0 -0.037175483884676522 -0.20610233192285549 0 -0.052042881438184418 -0.18310085922537089 0 -0.02966218119192645 -0.18826922623930509 0 -0.048608313453720908 -0.202467795003239 0 -0.052042881438184418 -0.18310085922537089 0 -0.048608313453720908 -0.202467795003239 0 -0.064491838945150357 -0.19540102962353931 0 -0.048608313453720908 -0.202467795003239 0 -0.064491838945150357 -0.19540102962353931 0 -0.048608313453720908 -0.202467795003239 0 -0.065929408980381535 -0.2069160914235221 0 -0.064491838945150357 -0.19540102962353931 0 -0.052042881438184418 -0.18310085922537089 0 -0.064491838945150357 -0.19540102962353931 0 -0.066497339562415256 -0.18456377953108821 0 -0.048608313453720908 -0.202467795003239 0 -0.053304291051216687 -0.21544395041319311 0 -0.043048162144039982 -0.21238149253329749 0 -0.048608313453720908 -0.202467795003239 0 -0.071830770812285241 -0.2198711179145921 0 -0.048608313453720908 -0.202467795003239 0 -0.053304291051216687 -0.21544395041319311 0 -0.071830770812285241 -0.2198711179145921 0 -0.048608313453720908 -0.202467795003239 0 -0.071830770812285241 -0.2198711179145921 0 -0.065929408980381535 -0.2069160914235221 0 -0.053304291051216687 -0.21544395041319311 0 -0.043048162144039982 -0.21238149253329749 0 -0.045050039616346148 -0.22038276173866811 0 -0.02936062193030739 -0.2110313170103747 0 -0.048608313453720908 -0.202467795003239 0 -0.02936062193030739 -0.2110313170103747 0 -0.048608313453720908 -0.202467795003239 0 -0.043048162144039982 -0.21238149253329749 0 -0.043048162144039982 -0.21238149253329749 0 -0.0368558201701931 -0.21629343195851139 0 -0.045050039616346148 -0.22038276173866811 0 -0.02936062193030739 -0.2110313170103747 0 -0.048608313453720908 -0.202467795003239 0 -0.037175483884676522 -0.20610233192285549 0 -0.02936062193030739 -0.2110313170103747 0 -0.0368558201701931 -0.21629343195851139 0 -0.032167053030711427 -0.2241600267170013 0 -0.02936062193030739 -0.2110313170103747 0 -0.043048162144039982 -0.21238149253329749 0 -0.0368558201701931 -0.21629343195851139 0 -0.025202092561738061 -0.23743604628848641 0 -0.032167053030711427 -0.2241600267170013 0 -0.042723326612149101 -0.23181436996940541 0 -0.0368558201701931 -0.21629343195851139 0 -0.032167053030711427 -0.2241600267170013 0 -0.045050039616346148 -0.22038276173866811 0 -0.042723326612149101 -0.23181436996940541 0 -0.045050039616346148 -0.22038276173866811 0 -0.049980435735722209 -0.2279351790739384 0 -0.032167053030711427 -0.2241600267170013 0 -0.042723326612149101 -0.23181436996940541 0 -0.045050039616346148 -0.22038276173866811 0 -0.053304291051216687 -0.21544395041319311 0 -0.045050039616346148 -0.22038276173866811 0 -0.056953306980483551 -0.22397248160491831 0 -0.045050039616346148 -0.22038276173866811 0 -0.056953306980483551 -0.22397248160491831 0 -0.049980435735722209 -0.2279351790739384 0 -0.053304291051216687 -0.21544395041319311 0 -0.056953306980483551 -0.22397248160491831 0 -0.071830770812285241 -0.2198711179145921 0 -0.056953306980483551 -0.22397248160491831 0 -0.055195069733910002 -0.23557110298276171 0 -0.063537140307118045 -0.23065294157193481 0 -0.042723326612149101 -0.23181436996940541 0 -0.049980435735722209 -0.2279351790739384 0 -0.055195069733910002 -0.23557110298276171 0 -0.056953306980483551 -0.22397248160491831 0 -0.049980435735722209 -0.2279351790739384 0 -0.055195069733910002 -0.23557110298276171 0 -0.073728069740629787 -0.25232964285193021 0 -0.049363302875615807 -0.24485160677421819 0 -0.055195069733910002 -0.23557110298276171 0 -0.049363302875615807 -0.24485160677421819 0 -0.042723326612149101 -0.23181436996940541 0 -0.055195069733910002 -0.23557110298276171 0 -0.049363302875615807 -0.24485160677421819 0 -0.073728069740629787 -0.25232964285193021 0 -0.049363302875615807 -0.24485160677421819 0 -0.064173936830731027 -0.2400011501222864 0 -0.055195069733910002 -0.23557110298276171 0 -0.049363302875615807 -0.24485160677421819 0 -0.064173936830731027 -0.2400011501222864 0 -0.055195069733910002 -0.23557110298276171 0 -0.064173936830731027 -0.2400011501222864 0 -0.063537140307118045 -0.23065294157193481 0 -0.025202092561738061 -0.23743604628848641 0 -0.042723326612149101 -0.23181436996940541 0 -0.049363302875615807 -0.24485160677421819 0 -0.025202092561738061 -0.23743604628848641 0 -0.049363302875615807 -0.24485160677421819 0 -0.025202092561738061 -0.23743604628848641 0 -0.049363302875615807 -0.24485160677421819 0 -0.03610133640728002 -0.24809299236653751 0 -0.094122195129849387 -0.25775714604548527 0 -0.089709590307596898 -0.23547304654299819 0 -0.094122195129849387 -0.25775714604548527 0 -0.089709590307596898 -0.23547304654299819 0 -0.084337973811421968 -0.2474391614073351 0 -0.089709590307596898 -0.23547304654299819 0 -0.084337973811421968 -0.2474391614073351 0 -0.077226956876897457 -0.24175098583331761 0 -0.089709590307596898 -0.23547304654299819 0 -0.077226956876897457 -0.24175098583331761 0 -0.079128368928325296 -0.22946318316966469 0 -0.073728069740629787 -0.25232964285193021 0 -0.084337973811421968 -0.2474391614073351 0 -0.077226956876897457 -0.24175098583331761 0 -0.073728069740629787 -0.25232964285193021 0 -0.064173936830731027 -0.2400011501222864 0 -0.077226956876897457 -0.24175098583331761 0 -0.064173936830731027 -0.2400011501222864 0 -0.071429167108414973 -0.2351898201158994 0 -0.063537140307118045 -0.23065294157193481 0 -0.064173936830731027 -0.2400011501222864 0 -0.071429167108414973 -0.2351898201158994 0 -0.077226956876897457 -0.24175098583331761 0 -0.071429167108414973 -0.2351898201158994 0 -0.077226956876897457 -0.24175098583331761 0 -0.079128368928325296 -0.22946318316966469 0 -0.071429167108414973 -0.2351898201158994 0 -0.071830770812285241 -0.2198711179145921 0 -0.079128368928325296 -0.22946318316966469 0 -0.071429167108414973 -0.2351898201158994 0 -0.063537140307118045 -0.23065294157193481 0 -0.071830770812285241 -0.2198711179145921 0 -0.056953306980483551 -0.22397248160491831 0 -0.063537140307118045 -0.23065294157193481 0 -0.071830770812285241 -0.2198711179145921 0 -0.071830770812285241 -0.2198711179145921 0 -0.079128368928325296 -0.22946318316966469 0 -0.085296985485344312 -0.213188947040511 0 -0.089709590307596898 -0.23547304654299819 0 -0.085296985485344312 -0.213188947040511 0 -0.089709590307596898 -0.23547304654299819 0 -0.079128368928325296 -0.22946318316966469 0 -0.085296985485344312 -0.213188947040511 0 -0.084643505007097497 -0.20988880470128229 0 -0.085296985485344312 -0.213188947040511 0 -0.1055238882360299 -0.22490990318422299 0 -0.092607702886855395 -0.20631594759328301 0 -0.084643505007097497 -0.20988880470128229 0 -0.092449279615025387 -0.1975884818758438 0 -0.092607702886855395 -0.20631594759328301 0 -0.084643505007097497 -0.20988880470128229 0 -0.098877267704695321 -0.2107600953368379 0 -0.078821893357960138 -0.20791671650889201 0 -0.085296985485344312 -0.213188947040511 0 -0.073293886905878347 -0.21161262962821961 0 -0.084643505007097497 -0.20988880470128229 0 -0.078821893357960138 -0.20791671650889201 0 -0.085296985485344312 -0.213188947040511 0 -0.078821893357960138 -0.20791671650889201 0 -0.085296985485344312 -0.213188947040511 0 -0.084643505007097497 -0.20988880470128229 0 -0.081603813977874362 -0.20770208725423769 0 -0.078821893357960138 -0.20791671650889201 0 -0.081603813977874362 -0.20770208725423769 0 -0.075500363234824397 -0.20078987168431869 0 -0.084643505007097497 -0.20988880470128229 0 -0.078821893357960138 -0.20791671650889201 0 -0.081603813977874362 -0.20770208725423769 0 -0.084643505007097497 -0.20988880470128229 0 -0.085296985485344312 -0.213188947040511 0 -0.071830770812285241 -0.2198711179145921 0 -0.073293886905878347 -0.21161262962821961 0 -0.065929408980381535 -0.2069160914235221 0 -0.071830770812285241 -0.2198711179145921 0 -0.085296985485344312 -0.213188947040511 0 -0.073293886905878347 -0.21161262962821961 0 -0.073293886905878347 -0.21161262962821961 0 -0.065929408980381535 -0.2069160914235221 0 -0.071450144150502215 -0.2046537926050859 0 -0.078821893357960138 -0.20791671650889201 0 -0.073293886905878347 -0.21161262962821961 0 -0.071450144150502215 -0.2046537926050859 0 -0.078821893357960138 -0.20791671650889201 0 -0.071450144150502215 -0.2046537926050859 0 -0.075500363234824397 -0.20078987168431869 0 -0.071450144150502215 -0.2046537926050859 0 -0.075500363234824397 -0.20078987168431869 0 -0.064491838945150357 -0.19540102962353931 0 -0.064491838945150357 -0.19540102962353931 0 -0.080375364436580388 -0.18833426424384089 0 -0.075500363234824397 -0.20078987168431869 0 -0.064491838945150357 -0.19540102962353931 0 -0.080375364436580388 -0.18833426424384089 0 -0.064491838945150357 -0.19540102962353931 0 -0.080375364436580388 -0.18833426424384089 0 -0.066497339562415256 -0.18456377953108821 0 -0.065929408980381535 -0.2069160914235221 0 -0.071450144150502215 -0.2046537926050859 0 -0.064491838945150357 -0.19540102962353931 0 -0.084643505007097497 -0.20988880470128229 0 -0.080375364436580388 -0.18833426424384089 0 -0.084643505007097497 -0.20988880470128229 0 -0.081603813977874362 -0.20770208725423769 0 -0.080375364436580388 -0.18833426424384089 0 -0.081603813977874362 -0.20770208725423769 0 -0.075500363234824397 -0.20078987168431869 0 -0.080375364436580388 -0.18833426424384089 0 -0.084643505007097497 -0.20988880470128229 0 -0.080375364436580388 -0.18833426424384089 0 -0.092449279615025387 -0.1975884818758438 0 -0.080375364436580388 -0.18833426424384089 0 -0.092449279615025387 -0.1975884818758438 0 -0.092317592813080745 -0.1830210278283454 0 -0.092449279615025387 -0.1975884818758438 0 -0.1061845433530748 -0.1900267185289484 0 -0.092317592813080745 -0.1830210278283454 0 -0.092607702886855395 -0.20631594759328301 0 -0.092449279615025387 -0.1975884818758438 0 -0.1053798957106966 -0.2045434173557657 0 -0.092449279615025387 -0.1975884818758438 0 -0.1061845433530748 -0.1900267185289484 0 -0.1053798957106966 -0.2045434173557657 0 -0.1061845433530748 -0.1900267185289484 0 -0.12364636283807511 -0.19625025079916009 0 -0.1215149738999565 -0.1783775411605068 0 -0.1061845433530748 -0.1900267185289484 0 -0.12364636283807511 -0.19625025079916009 0 -0.1053798957106966 -0.2045434173557657 0 -0.12364636283807511 -0.19625025079916009 0 -0.11963437848147079 -0.21433111873826641 0 -0.1053798957106966 -0.2045434173557657 0 -0.11963437848147079 -0.21433111873826641 0 -0.1084353732150833 -0.21509552928577119 0 -0.1132398114048935 -0.22014453642061091 0 -0.11963437848147079 -0.21433111873826641 0 -0.1084353732150833 -0.21509552928577119 0 -0.1053798957106966 -0.2045434173557657 0 -0.1084353732150833 -0.21509552928577119 0 -0.098877267704695321 -0.2107600953368379 0 -0.099370008540726362 -0.21516358312702871 0 -0.1084353732150833 -0.21509552928577119 0 -0.099370008540726362 -0.21516358312702871 0 -0.1055238882360299 -0.22490990318422299 0 -0.084643505007097497 -0.20988880470128229 0 -0.099370008540726362 -0.21516358312702871 0 -0.1055238882360299 -0.22490990318422299 0 -0.084643505007097497 -0.20988880470128229 0 -0.1055238882360299 -0.22490990318422299 0 -0.1084353732150833 -0.21509552928577119 0 -0.1053798957106966 -0.2045434173557657 0 -0.098877267704695321 -0.2107600953368379 0 -0.092607702886855395 -0.20631594759328301 0 -0.1053798957106966 -0.2045434173557657 0 -0.098877267704695321 -0.2107600953368379 0 -0.084643505007097497 -0.20988880470128229 0 -0.098877267704695321 -0.2107600953368379 0 -0.099370008540726362 -0.21516358312702871 0 -0.085296985485344312 -0.213188947040511 0 -0.108333561990284 -0.23194607660777589 0 -0.1055238882360299 -0.22490990318422299 0 -0.085296985485344312 -0.213188947040511 0 -0.108333561990284 -0.23194607660777589 0 -0.089709590307596898 -0.23547304654299819 0 -0.085296985485344312 -0.213188947040511 0 -0.108333561990284 -0.23194607660777589 0 -0.1084353732150833 -0.21509552928577119 0 -0.1055238882360299 -0.22490990318422299 0 -0.1132398114048935 -0.22014453642061091 0 -0.1055238882360299 -0.22490990318422299 0 -0.1264042714649623 -0.23993100166716411 0 -0.1055238882360299 -0.22490990318422299 0 -0.1132398114048935 -0.22014453642061091 0 -0.1193656056869899 -0.22624159447418299 0 -0.108333561990284 -0.23194607660777589 0 -0.1055238882360299 -0.22490990318422299 0 -0.1264042714649623 -0.23993100166716411 0 -0.1055238882360299 -0.22490990318422299 0 -0.1193656056869899 -0.22624159447418299 0 -0.1264042714649623 -0.23993100166716411 0 -0.11963437848147079 -0.21433111873826641 0 -0.1132398114048935 -0.22014453642061091 0 -0.1193656056869899 -0.22624159447418299 0 -0.11963437848147079 -0.21433111873826641 0 -0.1193656056869899 -0.22624159447418299 0 -0.13265246276226131 -0.22615892689829109 0 -0.13137013849522369 -0.25070320617504072 0 -0.108333561990284 -0.23194607660777589 0 -0.13137013849522369 -0.25070320617504072 0 -0.108333561990284 -0.23194607660777589 0 -0.10866749737065209 -0.24825865333567981 0 -0.13137013849522369 -0.25070320617504072 0 -0.108333561990284 -0.23194607660777589 0 -0.1264042714649623 -0.23993100166716411 0 -0.089709590307596898 -0.23547304654299819 0 -0.108333561990284 -0.23194607660777589 0 -0.10866749737065209 -0.24825865333567981 0 -0.094122195129849387 -0.25775714604548527 0 -0.099469701624810405 -0.25176391536762288 0 -0.089709590307596898 -0.23547304654299819 0 -0.099469701624810405 -0.25176391536762288 0 -0.089709590307596898 -0.23547304654299819 0 -0.10866749737065209 -0.24825865333567981 0 -0.08423280838251003 -0.14698817020212279 0 -0.075521590529671417 -0.16382221635803901 0 -0.091332681588060668 -0.15786793231174409 0 -0.08423280838251003 -0.14698817020212279 0 -0.090193400027734114 -0.12883618351286261 0 -0.096527433396009069 -0.14735911142713329 0 -0.08423280838251003 -0.14698817020212279 0 -0.091332681588060668 -0.15786793231174409 0 -0.096527433396009069 -0.14735911142713329 0 -0.08423280838251003 -0.14698817020212279 0 -0.090193400027734114 -0.12883618351286261 0 -0.069699609111251212 -0.13442062286490339 0 -0.079895827487252796 -0.1129214210412241 0 -0.090193400027734114 -0.12883618351286261 0 -0.069699609111251212 -0.13442062286490339 0 -0.069699609111251212 -0.13442062286490339 0 -0.075521590529671417 -0.16382221635803901 0 -0.08423280838251003 -0.14698817020212279 0 -0.069699609111251212 -0.13442062286490339 0 -0.075521590529671417 -0.16382221635803901 0 -0.056923723948132207 -0.1579366308913675 0 -0.069699609111251212 -0.13442062286490339 0 -0.075521590529671417 -0.16382221635803901 0 -0.056858663125552607 -0.16546096100458191 0 -0.075521590529671417 -0.16382221635803901 0 -0.075391468884512314 -0.17887087658446801 0 -0.056923723948132207 -0.1579366308913675 0 -0.075521590529671417 -0.16382221635803901 0 -0.056923723948132207 -0.1579366308913675 0 -0.056858663125552607 -0.16546096100458191 0 -0.075521590529671417 -0.16382221635803901 0 -0.080375364436580388 -0.18833426424384089 0 -0.075521590529671417 -0.16382221635803901 0 -0.056858663125552607 -0.16546096100458191 0 -0.075391468884512314 -0.17887087658446801 0 -0.080375364436580388 -0.18833426424384089 0 -0.075521590529671417 -0.16382221635803901 0 -0.075391468884512314 -0.17887087658446801 0 -0.060185144107649038 -0.17711186797822209 0 -0.056858663125552607 -0.16546096100458191 0 -0.075391468884512314 -0.17887087658446801 0 -0.060185144107649038 -0.17711186797822209 0 -0.066497339562415256 -0.18456377953108821 0 -0.075391468884512314 -0.17887087658446801 0 -0.080375364436580388 -0.18833426424384089 0 -0.066497339562415256 -0.18456377953108821 0 -0.075391468884512314 -0.17887087658446801 0 -0.075521590529671417 -0.16382221635803901 0 -0.092317592813080745 -0.1830210278283454 0 -0.098518282214813804 -0.17109987875927329 0 -0.080375364436580388 -0.18833426424384089 0 -0.075521590529671417 -0.16382221635803901 0 -0.092317592813080745 -0.1830210278283454 0 -0.080375364436580388 -0.18833426424384089 0 -0.092317592813080745 -0.1830210278283454 0 -0.075521590529671417 -0.16382221635803901 0 -0.091332681588060668 -0.15786793231174409 0 -0.098518282214813804 -0.17109987875927329 0 -0.075521590529671417 -0.16382221635803901 0 -0.098518282214813804 -0.17109987875927329 0 -0.091332681588060668 -0.15786793231174409 0 -0.098518282214813804 -0.17109987875927329 0 -0.1018103875424011 -0.156980837638935 0 -0.098518282214813804 -0.17109987875927329 0 -0.1018103875424011 -0.156980837638935 0 -0.1133822246227237 -0.15967624614931911 0 -0.098518282214813804 -0.17109987875927329 0 -0.1046338480702315 -0.18063129156926849 0 -0.1215149738999565 -0.1783775411605068 0 -0.1061845433530748 -0.1900267185289484 0 -0.092317592813080745 -0.1830210278283454 0 -0.1046338480702315 -0.18063129156926849 0 -0.092317592813080745 -0.1830210278283454 0 -0.098518282214813804 -0.17109987875927329 0 -0.1046338480702315 -0.18063129156926849 0 -0.1061845433530748 -0.1900267185289484 0 -0.1046338480702315 -0.18063129156926849 0 -0.1215149738999565 -0.1783775411605068 0 -0.098518282214813804 -0.17109987875927329 0 -0.1215149738999565 -0.1783775411605068 0 -0.1215149738999565 -0.1783775411605068 0 -0.1133822246227237 -0.15967624614931911 0 -0.13437205503433269 -0.1530927464610615 0 -0.098518282214813804 -0.17109987875927329 0 -0.1215149738999565 -0.1783775411605068 0 -0.1133822246227237 -0.15967624614931911 0 -0.1133822246227237 -0.15967624614931911 0 -0.1181694057493745 -0.14155115131443599 0 -0.13437205503433269 -0.1530927464610615 0 -0.1133822246227237 -0.15967624614931911 0 -0.1181694057493745 -0.14155115131443599 0 -0.1076988654010662 -0.14820861084010711 0 -0.1181694057493745 -0.14155115131443599 0 -0.1076988654010662 -0.14820861084010711 0 -0.1054199747161587 -0.1340908902565161 0 -0.1018103875424011 -0.156980837638935 0 -0.1133822246227237 -0.15967624614931911 0 -0.1076988654010662 -0.14820861084010711 0 -0.1018103875424011 -0.156980837638935 0 -0.1076988654010662 -0.14820861084010711 0 -0.096527433396009069 -0.14735911142713329 0 -0.1076988654010662 -0.14820861084010711 0 -0.096527433396009069 -0.14735911142713329 0 -0.1054199747161587 -0.1340908902565161 0 -0.091332681588060668 -0.15786793231174409 0 -0.1018103875424011 -0.156980837638935 0 -0.096527433396009069 -0.14735911142713329 0 -0.090193400027734114 -0.12883618351286261 0 -0.096527433396009069 -0.14735911142713329 0 -0.1054199747161587 -0.1340908902565161 0 -0.1064100504807395 -0.1224450757919581 0 -0.090193400027734114 -0.12883618351286261 0 -0.1054199747161587 -0.1340908902565161 0 -0.1064100504807395 -0.1224450757919581 0 -0.1054199747161587 -0.1340908902565161 0 -0.1184357681350634 -0.12629108041036449 0 -0.1181694057493745 -0.14155115131443599 0 -0.1054199747161587 -0.1340908902565161 0 -0.1184357681350634 -0.12629108041036449 0 -0.1181694057493745 -0.14155115131443599 0 -0.1184357681350634 -0.12629108041036449 0 -0.12885098764211811 -0.13410523670910471 0 -0.1181694057493745 -0.14155115131443599 0 -0.1184357681350634 -0.12629108041036449 0 -0.1184357681350634 -0.12629108041036449 0 -0.12885098764211811 -0.13410523670910471 0 -0.13352107912151251 -0.12325545743651491 0 -0.12885098764211811 -0.13410523670910471 0 -0.141769887677966 -0.1356840369572842 0 -0.13352107912151251 -0.12325545743651491 0 -0.141769887677966 -0.1356840369572842 0 -0.13352107912151251 -0.12325545743651491 0 -0.14871244365000211 -0.1247351576792549 0 -0.141769887677966 -0.1356840369572842 0 -0.16388556635550591 -0.146931870034363 0 -0.14871244365000211 -0.1247351576792549 0 -0.141769887677966 -0.1356840369572842 0 -0.13437205503433269 -0.1530927464610615 0 -0.16388556635550591 -0.146931870034363 0 -0.13437205503433269 -0.1530927464610615 0 -0.1472994106605261 -0.16790929156469711 0 -0.16388556635550591 -0.146931870034363 0 -0.12885098764211811 -0.13410523670910471 0 -0.141769887677966 -0.1356840369572842 0 -0.13437205503433269 -0.1530927464610615 0 -0.1181694057493745 -0.14155115131443599 0 -0.12885098764211811 -0.13410523670910471 0 -0.13437205503433269 -0.1530927464610615 0 -0.1215149738999565 -0.1783775411605068 0 -0.13437205503433269 -0.1530927464610615 0 -0.1472994106605261 -0.16790929156469711 0 -0.1215149738999565 -0.1783775411605068 0 -0.14451166558509909 -0.18565520356174031 0 -0.1472994106605261 -0.16790929156469711 0 -0.12364636283807511 -0.19625025079916009 0 -0.1215149738999565 -0.1783775411605068 0 -0.14451166558509909 -0.18565520356174031 0 -0.1215149738999565 -0.1783775411605068 0 -0.14451166558509909 -0.18565520356174031 0 -0.14451166558509909 -0.18565520356174031 0 -0.1472994106605261 -0.16790929156469711 0 -0.16685774608574699 -0.1758972483628595 0 -0.16685774608574699 -0.1758972483628595 0 -0.1815556265896881 -0.16668775765800159 0 -0.16388556635550591 -0.146931870034363 0 -0.16685774608574699 -0.1758972483628595 0 -0.16388556635550591 -0.146931870034363 0 -0.1472994106605261 -0.16790929156469711 0 -0.16685774608574699 -0.1758972483628595 0 -0.16388556635550591 -0.146931870034363 0 -0.14451166558509909 -0.18565520356174031 0 -0.16685774608574699 -0.1758972483628595 0 -0.1675083572702418 -0.19293286596297371 0 -0.16685774608574699 -0.1758972483628595 0 -0.1815556265896881 -0.16668775765800159 0 -0.18556531184872949 -0.1879244601673869 0 -0.1815556265896881 -0.16668775765800159 0 -0.16388556635550591 -0.146931870034363 0 -0.1916322420897526 -0.1513493647095373 0 -0.182431403847716 -0.1285623545571612 0 -0.16388556635550591 -0.146931870034363 0 -0.1916322420897526 -0.1513493647095373 0 -0.16388556635550591 -0.146931870034363 0 -0.16091338662526469 -0.1179664917058664 0 -0.14871244365000211 -0.1247351576792549 0 -0.182431403847716 -0.1285623545571612 0 -0.16388556635550591 -0.146931870034363 0 -0.16091338662526469 -0.1179664917058664 0 -0.16388556635550591 -0.146931870034363 0 -0.16091338662526469 -0.1179664917058664 0 -0.15582188451263579 -0.25140382889621582 0 -0.1491583651890831 -0.24581132402331229 0 -0.15723705402511221 -0.23334732205012501 0 -0.1491583651890831 -0.24581132402331229 0 -0.1424391603872236 -0.24010068811243709 0 -0.15723705402511221 -0.23334732205012501 0 -0.1472846546938946 -0.25495210015010511 0 -0.1491583651890831 -0.24581132402331229 0 -0.1424391603872236 -0.24010068811243709 0 -0.1472846546938946 -0.25495210015010511 0 -0.1264042714649623 -0.23993100166716411 0 -0.1472846546938946 -0.25495210015010511 0 -0.1424391603872236 -0.24010068811243709 0 -0.1264042714649623 -0.23993100166716411 0 -0.1424391603872236 -0.24010068811243709 0 -0.1264042714649623 -0.23993100166716411 0 -0.13265246276226131 -0.22615892689829109 0 -0.13137013849522369 -0.25070320617504072 0 -0.1472846546938946 -0.25495210015010511 0 -0.1264042714649623 -0.23993100166716411 0 -0.1193656056869899 -0.22624159447418299 0 -0.1264042714649623 -0.23993100166716411 0 -0.13265246276226131 -0.22615892689829109 0 -0.13265246276226131 -0.22615892689829109 0 -0.14734604437375459 -0.22167181925714299 0 -0.13451276372162019 -0.21216067705566261 0 -0.13265246276226131 -0.22615892689829109 0 -0.14734604437375459 -0.22167181925714299 0 -0.15723705402511221 -0.23334732205012501 0 -0.1424391603872236 -0.24010068811243709 0 -0.13265246276226131 -0.22615892689829109 0 -0.15723705402511221 -0.23334732205012501 0 -0.13265246276226131 -0.22615892689829109 0 -0.15723705402511221 -0.23334732205012501 0 -0.14734604437375459 -0.22167181925714299 0 -0.15770620522723949 -0.22736130283590181 0 -0.15723705402511221 -0.23334732205012501 0 -0.14734604437375459 -0.22167181925714299 0 -0.15443681898579781 -0.21853626956975011 0 -0.15770620522723949 -0.22736130283590181 0 -0.15443681898579781 -0.21853626956975011 0 -0.14817270499759699 -0.2111081647457973 0 -0.15815979953843351 -0.2115566781086258 0 -0.14734604437375459 -0.22167181925714299 0 -0.15443681898579781 -0.21853626956975011 0 -0.14817270499759699 -0.2111081647457973 0 -0.14817270499759699 -0.2111081647457973 0 -0.15424485624031931 -0.20078595936073709 0 -0.15815979953843351 -0.2115566781086258 0 -0.14817270499759699 -0.2111081647457973 0 -0.13451276372162019 -0.21216067705566261 0 -0.1399516745502605 -0.20045152710156519 0 -0.14817270499759699 -0.2111081647457973 0 -0.1399516745502605 -0.20045152710156519 0 -0.15424485624031931 -0.20078595936073709 0 -0.14734604437375459 -0.22167181925714299 0 -0.14817270499759699 -0.2111081647457973 0 -0.13451276372162019 -0.21216067705566261 0 -0.12364636283807511 -0.19625025079916009 0 -0.11963437848147079 -0.21433111873826641 0 -0.13451276372162019 -0.21216067705566261 0 -0.11963437848147079 -0.21433111873826641 0 -0.13265246276226131 -0.22615892689829109 0 -0.13451276372162019 -0.21216067705566261 0 -0.12364636283807511 -0.19625025079916009 0 -0.13451276372162019 -0.21216067705566261 0 -0.1399516745502605 -0.20045152710156519 0 -0.12364636283807511 -0.19625025079916009 0 -0.14451166558509909 -0.18565520356174031 0 -0.1399516745502605 -0.20045152710156519 0 -0.14451166558509909 -0.18565520356174031 0 -0.15424485624031931 -0.20078595936073709 0 -0.1675083572702418 -0.19293286596297371 0 -0.14451166558509909 -0.18565520356174031 0 -0.1675083572702418 -0.19293286596297371 0 -0.14451166558509909 -0.18565520356174031 0 -0.1399516745502605 -0.20045152710156519 0 -0.15424485624031931 -0.20078595936073709 0 -0.16685774608574699 -0.1758972483628595 0 -0.1698299258159881 -0.2048626266913561 0 -0.16685774608574699 -0.1758972483628595 0 -0.1675083572702418 -0.19293286596297371 0 -0.1698299258159881 -0.2048626266913561 0 -0.15424485624031931 -0.20078595936073709 0 -0.1675083572702418 -0.19293286596297371 0 -0.1698299258159881 -0.2048626266913561 0 -0.16685774608574699 -0.1758972483628595 0 -0.18556531184872949 -0.1879244601673869 0 -0.1698299258159881 -0.2048626266913561 0 -0.18556531184872949 -0.1879244601673869 0 -0.18539181924178519 -0.2041604099204212 0 -0.1698299258159881 -0.2048626266913561 0 -0.18539181924178519 -0.2041604099204212 0 -0.1698299258159881 -0.2048626266913561 0 -0.18159314189276901 -0.22030862059656869 0 -0.1698299258159881 -0.2048626266913561 0 -0.1613264986393606 -0.2180007648037616 0 -0.1651123019055899 -0.2255405475616564 0 -0.15424485624031931 -0.20078595936073709 0 -0.1698299258159881 -0.2048626266913561 0 -0.15815979953843351 -0.2115566781086258 0 -0.1698299258159881 -0.2048626266913561 0 -0.15815979953843351 -0.2115566781086258 0 -0.1613264986393606 -0.2180007648037616 0 -0.15443681898579781 -0.21853626956975011 0 -0.15815979953843351 -0.2115566781086258 0 -0.1613264986393606 -0.2180007648037616 0 -0.1698299258159881 -0.2048626266913561 0 -0.1651123019055899 -0.2255405475616564 0 -0.17280210554622921 -0.23382800501985249 0 -0.1698299258159881 -0.2048626266913561 0 -0.17280210554622921 -0.23382800501985249 0 -0.15443681898579781 -0.21853626956975011 0 -0.1613264986393606 -0.2180007648037616 0 -0.15770620522723949 -0.22736130283590181 0 -0.1613264986393606 -0.2180007648037616 0 -0.15770620522723949 -0.22736130283590181 0 -0.1651123019055899 -0.2255405475616564 0 -0.15770620522723949 -0.22736130283590181 0 -0.15723705402511221 -0.23334732205012501 0 -0.1651123019055899 -0.2255405475616564 0 -0.15770620522723949 -0.22736130283590181 0 -0.15723705402511221 -0.23334732205012501 0 -0.15723705402511221 -0.23334732205012501 0 -0.1651123019055899 -0.2255405475616564 0 -0.17280210554622921 -0.23382800501985249 0 -0.18159314189276901 -0.22030862059656869 0 -0.1839664252859779 -0.2411628387178148 0 -0.19597543357386391 -0.21752922263339991 0 -0.18159314189276901 -0.22030862059656869 0 -0.17280210554622921 -0.23382800501985249 0 -0.1839664252859779 -0.2411628387178148 0 -0.1698299258159881 -0.2048626266913561 0 -0.18159314189276901 -0.22030862059656869 0 -0.17280210554622921 -0.23382800501985249 0 -0.17569602095973791 -0.25743891714357631 0 -0.1839664252859779 -0.2411628387178148 0 -0.15723705402511221 -0.23334732205012501 0 -0.1839664252859779 -0.2411628387178148 0 -0.15723705402511221 -0.23334732205012501 0 -0.17280210554622921 -0.23382800501985249 0 -0.1839664252859779 -0.2411628387178148 0 -0.15582188451263579 -0.25140382889621582 0 -0.15723705402511221 -0.23334732205012501 0 -0.1839664252859779 -0.2411628387178148 0 -0.15582188451263579 -0.25140382889621582 0 -0.15723705402511221 -0.23334732205012501 0 -0.22621064782575001 -0.25351480996887571 0 -0.21844597076671959 -0.2362178151131325 0 -0.20508853655586409 -0.2473388243433447 0 -0.21844597076671959 -0.2362178151131325 0 -0.20508853655586409 -0.2473388243433447 0 -0.20343310354708999 -0.23246878390879019 0 -0.19328889681036859 -0.26049731377526908 0 -0.1839664252859779 -0.2411628387178148 0 -0.20508853655586409 -0.2473388243433447 0 -0.1839664252859779 -0.2411628387178148 0 -0.20508853655586409 -0.2473388243433447 0 -0.1839664252859779 -0.2411628387178148 0 -0.20508853655586409 -0.2473388243433447 0 -0.20343310354708999 -0.23246878390879019 0 -0.1839664252859779 -0.2411628387178148 0 -0.20343310354708999 -0.23246878390879019 0 -0.19597543357386391 -0.21752922263339991 0 -0.1839664252859779 -0.2411628387178148 0 -0.19597543357386391 -0.21752922263339991 0 -0.20343310354708999 -0.23246878390879019 0 -0.21464228071760519 -0.2171379692390541 0 -0.19597543357386391 -0.21752922263339991 0 -0.21844597076671959 -0.2362178151131325 0 -0.20343310354708999 -0.23246878390879019 0 -0.21464228071760519 -0.2171379692390541 0 -0.21464228071760519 -0.2171379692390541 0 -0.19597543357386391 -0.21752922263339991 0 -0.20798444186174961 -0.19389560654898491 0 -0.21464228071760519 -0.2171379692390541 0 -0.20798444186174961 -0.19389560654898491 0 -0.22916443587162019 -0.19935412157132301 0 -0.19597543357386391 -0.21752922263339991 0 -0.20798444186174961 -0.19389560654898491 0 -0.18539181924178519 -0.2041604099204212 0 -0.19597543357386391 -0.21752922263339991 0 -0.20798444186174961 -0.19389560654898491 0 -0.18539181924178519 -0.2041604099204212 0 -0.18159314189276901 -0.22030862059656869 0 -0.19597543357386391 -0.21752922263339991 0 -0.18556531184872949 -0.1879244601673869 0 -0.18539181924178519 -0.2041604099204212 0 -0.20798444186174961 -0.19389560654898491 0 -0.20798444186174961 -0.19389560654898491 0 -0.22916443587162019 -0.19935412157132301 0 -0.21999345014963531 -0.17026199046457 0 -0.22916443587162019 -0.19935412157132301 0 -0.24784732724134709 -0.1948066265797129 0 -0.24086268815074571 -0.17320382871673029 0 -0.22916443587162019 -0.19935412157132301 0 -0.24784732724134709 -0.1948066265797129 0 -0.24782341294685259 -0.21159362870317799 0 -0.22916443587162019 -0.19935412157132301 0 -0.24782341294685259 -0.21159362870317799 0 -0.23285029868458779 -0.22336226565869391 0 -0.21464228071760519 -0.2171379692390541 0 -0.22916443587162019 -0.19935412157132301 0 -0.23285029868458779 -0.22336226565869391 0 -0.21844597076671959 -0.2362178151131325 0 -0.21464228071760519 -0.2171379692390541 0 -0.23285029868458779 -0.22336226565869391 0 -0.21844597076671959 -0.2362178151131325 0 -0.23285029868458779 -0.22336226565869391 0 -0.23510479063333109 -0.23970588622802061 0 -0.24782341294685259 -0.21159362870317799 0 -0.23285029868458779 -0.22336226565869391 0 -0.24788440363026501 -0.22820472205968459 0 -0.23285029868458779 -0.22336226565869391 0 -0.24788440363026501 -0.22820472205968459 0 -0.23510479063333109 -0.23970588622802061 0 -0.24788440363026501 -0.22820472205968459 0 -0.23510479063333109 -0.23970588622802061 0 -0.24593611480958111 -0.2460506156131427 0 -0.24025830119653499 -0.25100267455733372 0 -0.23510479063333109 -0.23970588622802061 0 -0.24593611480958111 -0.2460506156131427 0 -0.22621064782575001 -0.25351480996887571 0 -0.24025830119653499 -0.25100267455733372 0 -0.23510479063333109 -0.23970588622802061 0 -0.22621064782575001 -0.25351480996887571 0 -0.21844597076671959 -0.2362178151131325 0 -0.23510479063333109 -0.23970588622802061 0 -0.2110163701500665 -0.15204578730064761 0 -0.2095181652419712 -0.13152068481128659 0 -0.23200245843752099 -0.14662837438015511 0 -0.2110163701500665 -0.15204578730064761 0 -0.2095181652419712 -0.13152068481128659 0 -0.1916322420897526 -0.1513493647095373 0 -0.182431403847716 -0.1285623545571612 0 -0.2095181652419712 -0.13152068481128659 0 -0.1916322420897526 -0.1513493647095373 0 -0.2110163701500665 -0.15204578730064761 0 -0.1916322420897526 -0.1513493647095373 0 -0.19983726656870551 -0.1713358450158611 0 -0.1815556265896881 -0.16668775765800159 0 -0.1916322420897526 -0.1513493647095373 0 -0.19983726656870551 -0.1713358450158611 0 -0.18556531184872949 -0.1879244601673869 0 -0.20798444186174961 -0.19389560654898491 0 -0.19983726656870551 -0.1713358450158611 0 -0.1815556265896881 -0.16668775765800159 0 -0.18556531184872949 -0.1879244601673869 0 -0.19983726656870551 -0.1713358450158611 0 -0.20798444186174961 -0.19389560654898491 0 -0.21999345014963531 -0.17026199046457 0 -0.20798444186174961 -0.19389560654898491 0 -0.19983726656870551 -0.1713358450158611 0 -0.21999345014963531 -0.17026199046457 0 -0.2110163701500665 -0.15204578730064761 0 -0.19983726656870551 -0.1713358450158611 0 -0.21999345014963531 -0.17026199046457 0 -0.21999345014963531 -0.17026199046457 0 -0.23200245843752099 -0.14662837438015511 0 -0.2110163701500665 -0.15204578730064761 0 -0.21999345014963531 -0.17026199046457 0 -0.23200245843752099 -0.14662837438015511 0 -0.21999345014963531 -0.17026199046457 0 -0.24086268815074571 -0.17320382871673029 0 -0.23200245843752099 -0.14662837438015511 0 -0.22916443587162019 -0.19935412157132301 0 -0.21999345014963531 -0.17026199046457 0 -0.24086268815074571 -0.17320382871673029 0 -0.24086268815074571 -0.17320382871673029 0 -0.2477611807151324 -0.1524718822851423 0 -0.23200245843752099 -0.14662837438015511 0 -0.24086268815074571 -0.17320382871673029 0 -0.2477611807151324 -0.1524718822851423 0 -0.26001651877415782 -0.16441120228895009 0 -0.2477611807151324 -0.1524718822851423 0 -0.23200245843752099 -0.14662837438015511 0 -0.24616141878366199 -0.13271704597375511 0 -0.2095181652419712 -0.13152068481128659 0 -0.23200245843752099 -0.14662837438015511 0 -0.23050979669550439 -0.1262048694947045 0 -0.23050979669550439 -0.1262048694947045 0 -0.24616141878366199 -0.13271704597375511 0 -0.24081348497160071 -0.11777585211249481 0 -0.23200245843752099 -0.14662837438015511 0 -0.23050979669550439 -0.1262048694947045 0 -0.24616141878366199 -0.13271704597375511 0 -0.24081348497160071 -0.11777585211249481 0 -0.22375985646462401 -0.105913223955167 0 -0.25002428795059389 -0.10463377756738509 0 -0.24616141878366199 -0.13271704597375511 0 -0.24081348497160071 -0.11777585211249481 0 -0.25361206496361921 -0.1194103435714617 0 -0.24081348497160071 -0.11777585211249481 0 -0.25361206496361921 -0.1194103435714617 0 -0.25002428795059389 -0.10463377756738509 0 -0.22375985646462401 -0.105913223955167 0 -0.25002428795059389 -0.10463377756738509 0 -0.23716185546919311 -0.097930577584376399 0 -0.22375985646462401 -0.105913223955167 0 -0.25002428795059389 -0.10463377756738509 0 -0.24644636749590829 -0.089897806640497749 0 -0.25002428795059389 -0.10463377756738509 0 -0.23716185546919311 -0.097930577584376399 0 -0.24644636749590829 -0.089897806640497749 0 -0.25002428795059389 -0.10463377756738509 0 -0.22629869141965711 -0.095735276322405666 0 -0.22129954264423929 -0.1060330757643326 0 -0.21613418342778309 -0.080618186876603062 0 -0.23716185546919311 -0.097930577584376399 0 -0.22629869141965711 -0.095735276322405666 0 -0.23314322656381459 -0.088288216224875787 0 -0.23716185546919311 -0.097930577584376399 0 -0.22629869141965711 -0.095735276322405666 0 -0.22375985646462401 -0.105913223955167 0 -0.22629869141965711 -0.095735276322405666 0 -0.22375985646462401 -0.105913223955167 0 -0.22129954264423929 -0.1060330757643326 0 -0.22375985646462401 -0.105913223955167 0 -0.22129954264423929 -0.1060330757643326 0 -0.23050979669550439 -0.1262048694947045 0 -0.24081348497160071 -0.11777585211249481 0 -0.22375985646462401 -0.105913223955167 0 -0.2095181652419712 -0.13152068481128659 0 -0.23050979669550439 -0.1262048694947045 0 -0.22375985646462401 -0.105913223955167 0 -0.2407690335788443 -0.066515222090739651 0 -0.23676551628355169 -0.071717925773967101 0 -0.23010130988895891 -0.063646163155338054 0 -0.2407690335788443 -0.066515222090739651 0 -0.23010130988895891 -0.063646163155338054 0 -0.2407690335788443 -0.066515222090739651 0 -0.24398963309950411 -0.067381394678326989 0 -0.24286844704121871 -0.075161835713611319 0 -0.24781011732634831 -0.068408904832061246 0 -0.24398963309950411 -0.067381394678326989 0 -0.24628788021335951 -0.073019906381208685 0 -0.24781011732634831 -0.068408904832061246 0 -0.24398963309950411 -0.067381394678326989 0 -0.2407690335788443 -0.066515222090739651 0 -0.24398963309950411 -0.067381394678326989 0 -0.24398963309950411 -0.067381394678326989 0 -0.24286844704121871 -0.075161835713611319 0 -0.24398963309950411 -0.067381394678326989 0 -0.24628788021335951 -0.073019906381208685 0 -0.24286844704121871 -0.075161835713611319 0 -0.24781011732634831 -0.068408904832061246 0 -0.24628788021335951 -0.073019906381208685 0 -0.2492018508360461 -0.075583340168952809 0 -0.24628788021335951 -0.073019906381208685 0 -0.2492018508360461 -0.075583340168952809 0 -0.24286844704121871 -0.075161835713611319 0 -0.2492018508360461 -0.075583340168952809 0 -0.24286844704121871 -0.075161835713611319 0 -0.2498653300490547 -0.081599615155489399 0 -0.24286844704121871 -0.075161835713611319 0 -0.24232660448749049 -0.078921937802400949 0 -0.2407690335788443 -0.066515222090739651 0 -0.24286844704121871 -0.075161835713611319 0 -0.23676551628355169 -0.071717925773967101 0 -0.24286844704121871 -0.075161835713611319 0 -0.23812098568790349 -0.077140218484578582 0 -0.24232660448749049 -0.078921937802400949 0 -0.24286844704121871 -0.075161835713611319 0 -0.23676551628355169 -0.071717925773967101 0 -0.23812098568790349 -0.077140218484578582 0 -0.2407690335788443 -0.066515222090739651 0 -0.24286844704121871 -0.075161835713611319 0 -0.23676551628355169 -0.071717925773967101 0 -0.23812098568790349 -0.077140218484578582 0 -0.23169177284292761 -0.076829827541325113 0 -0.23746031505520401 -0.082758354129178618 0 -0.24232660448749049 -0.078921937802400949 0 -0.24644636749590829 -0.089897806640497749 0 -0.23812098568790349 -0.077140218484578582 0 -0.23746031505520401 -0.082758354129178618 0 -0.23169177284292761 -0.076829827541325113 0 -0.23812098568790349 -0.077140218484578582 0 -0.23746031505520401 -0.082758354129178618 0 -0.24232660448749049 -0.078921937802400949 0 -0.24286844704121871 -0.075161835713611319 0 -0.24644636749590829 -0.089897806640497749 0 -0.24286844704121871 -0.075161835713611319 0 -0.24232660448749049 -0.078921937802400949 0 -0.24644636749590829 -0.089897806640497749 0 -0.24286844704121871 -0.075161835713611319 0 -0.2498653300490547 -0.081599615155489399 0 -0.24644636749590829 -0.089897806640497749 0 -0.23746031505520401 -0.082758354129178618 0 -0.24644636749590829 -0.089897806640497749 0 -0.23314322656381459 -0.088288216224875787 0 -0.23716185546919311 -0.097930577584376399 0 -0.24644636749590829 -0.089897806640497749 0 -0.23314322656381459 -0.088288216224875787 0 -0.23314322656381459 -0.088288216224875787 0 -0.23169177284292761 -0.076829827541325113 0 -0.21613418342778309 -0.080618186876603062 0 -0.22629869141965711 -0.095735276322405666 0 -0.23314322656381459 -0.088288216224875787 0 -0.21613418342778309 -0.080618186876603062 0 -0.23746031505520401 -0.082758354129178618 0 -0.23314322656381459 -0.088288216224875787 0 -0.23169177284292761 -0.076829827541325113 0 -0.23169177284292761 -0.076829827541325113 0 -0.23010130988895891 -0.063646163155338054 0 -0.21613418342778309 -0.080618186876603062 0 -0.23010130988895891 -0.063646163155338054 0 -0.21613418342778309 -0.080618186876603062 0 -0.21097403168269549 -0.055310196782200061 0 -0.23676551628355169 -0.071717925773967101 0 -0.23169177284292761 -0.076829827541325113 0 -0.23010130988895891 -0.063646163155338054 0 -0.21613418342778309 -0.080618186876603062 0 -0.21097403168269549 -0.055310196782200061 0 -0.21613418342778309 -0.080618186876603062 0 -0.1937150745068828 -0.065716825234021253 0 -0.21097403168269549 -0.055310196782200061 0 -0.21613418342778309 -0.080618186876603062 0 -0.1947820675458786 -0.085262514235540612 0 -0.20742650278129651 -0.094749887106524489 0 -0.22129954264423929 -0.1060330757643326 0 -0.21613418342778309 -0.080618186876603062 0 -0.1947820675458786 -0.085262514235540612 0 -0.1937150745068828 -0.065716825234021253 0 -0.17656752093320391 -0.073496175098192867 0 -0.21613418342778309 -0.080618186876603062 0 -0.1947820675458786 -0.085262514235540612 0 -0.1937150745068828 -0.065716825234021253 0 -0.2095181652419712 -0.13152068481128659 0 -0.22129954264423929 -0.1060330757643326 0 -0.19749542497865391 -0.1071926703429483 0 -0.2095181652419712 -0.13152068481128659 0 -0.22375985646462401 -0.105913223955167 0 -0.22129954264423929 -0.1060330757643326 0 -0.22129954264423929 -0.1060330757643326 0 -0.21613418342778309 -0.080618186876603062 0 -0.20742650278129651 -0.094749887106524489 0 -0.22129954264423929 -0.1060330757643326 0 -0.20742650278129651 -0.094749887106524489 0 -0.19749542497865391 -0.1071926703429483 0 -0.22129954264423929 -0.1060330757643326 0 -0.19749542497865391 -0.1071926703429483 0 -0.1947820675458786 -0.085262514235540612 0 -0.19749542497865391 -0.1071926703429483 0 -0.1758540230341904 -0.089602898737262682 0 -0.1947820675458786 -0.085262514235540612 0 -0.20742650278129651 -0.094749887106524489 0 -0.19749542497865391 -0.1071926703429483 0 -0.182431403847716 -0.1285623545571612 0 -0.2095181652419712 -0.13152068481128659 0 -0.19749542497865391 -0.1071926703429483 0 -0.182431403847716 -0.1285623545571612 0 -0.19749542497865391 -0.1071926703429483 0 -0.1712309934926837 -0.1084721167307296 0 -0.182431403847716 -0.1285623545571612 0 -0.16091338662526469 -0.1179664917058664 0 -0.1712309934926837 -0.1084721167307296 0 -0.16091338662526469 -0.1179664917058664 0 -0.1712309934926837 -0.1084721167307296 0 -0.14496656200671351 -0.10975156311851091 0 -0.1712309934926837 -0.1084721167307296 0 -0.16238885240910719 -0.092137231883133844 0 -0.1501656943462055 -0.097197821104307858 0 -0.1712309934926837 -0.1084721167307296 0 -0.1758540230341904 -0.089602898737262682 0 -0.16238885240910719 -0.092137231883133844 0 -0.1712309934926837 -0.1084721167307296 0 -0.14496656200671351 -0.10975156311851091 0 -0.19749542497865391 -0.1071926703429483 0 -0.1712309934926837 -0.1084721167307296 0 -0.1758540230341904 -0.089602898737262682 0 -0.19749542497865391 -0.1071926703429483 0 -0.1712309934926837 -0.1084721167307296 0 -0.1947820675458786 -0.085262514235540612 0 -0.1758540230341904 -0.089602898737262682 0 -0.17656752093320391 -0.073496175098192867 0 -0.1937150745068828 -0.065716825234021253 0 -0.17656752093320391 -0.073496175098192867 0 -0.17468677661780191 -0.05612839097834299 0 -0.16355885403336129 -0.064520987923395431 0 -0.1593266391714534 -0.078376110422426482 0 -0.14900913179666911 -0.062368578812043697 0 -0.17656752093320391 -0.073496175098192867 0 -0.16355885403336129 -0.064520987923395431 0 -0.17468677661780191 -0.05612839097834299 0 -0.17656752093320391 -0.073496175098192867 0 -0.16355885403336129 -0.064520987923395431 0 -0.1593266391714534 -0.078376110422426482 0 -0.1758540230341904 -0.089602898737262682 0 -0.17656752093320391 -0.073496175098192867 0 -0.1593266391714534 -0.078376110422426482 0 -0.1758540230341904 -0.089602898737262682 0 -0.1593266391714534 -0.078376110422426482 0 -0.16238885240910719 -0.092137231883133844 0 -0.1593266391714534 -0.078376110422426482 0 -0.16238885240910719 -0.092137231883133844 0 -0.15276840558448701 -0.086147095774633323 0 -0.15276840558448701 -0.086147095774633323 0 -0.13919243641118201 -0.076877219688665149 0 -0.1501656943462055 -0.097197821104307858 0 -0.13919243641118201 -0.076877219688665149 0 -0.1501656943462055 -0.097197821104307858 0 -0.14253547959876051 -0.1016857677243533 0 -0.1593266391714534 -0.078376110422426482 0 -0.15276840558448701 -0.086147095774633323 0 -0.13919243641118201 -0.076877219688665149 0 -0.16238885240910719 -0.092137231883133844 0 -0.15276840558448701 -0.086147095774633323 0 -0.1501656943462055 -0.097197821104307858 0 -0.13919243641118201 -0.076877219688665149 0 -0.1501656943462055 -0.097197821104307858 0 -0.13919243641118201 -0.076877219688665149 0 -0.14253547959876051 -0.1016857677243533 0 -0.13919243641118201 -0.076877219688665149 0 -0.13559323483517491 -0.050167733696889823 0 -0.14900913179666911 -0.062368578812043697 0 -0.1593266391714534 -0.078376110422426482 0 -0.13919243641118201 -0.076877219688665149 0 -0.14900913179666911 -0.062368578812043697 0 -0.13919243641118201 -0.076877219688665149 0 -0.12955681451813561 -0.059033691992532257 0 -0.1191084845555309 -0.087750727769661779 0 -0.11951483859030949 -0.064470446033030593 0 -0.13919243641118201 -0.076877219688665149 0 -0.11951483859030949 -0.064470446033030593 0 -0.13919243641118201 -0.076877219688665149 0 -0.12955681451813561 -0.059033691992532257 0 -0.13919243641118201 -0.076877219688665149 0 -0.13559323483517491 -0.050167733696889823 0 -0.1191084845555309 -0.087750727769661779 0 -0.13919243641118201 -0.076877219688665149 0 -0.12975346859969111 -0.098772676482649702 0 -0.13919243641118201 -0.076877219688665149 0 -0.12975346859969111 -0.098772676482649702 0 -0.14253547959876051 -0.1016857677243533 0 -0.1187021305207433 -0.1110310095062928 0 -0.12975346859969111 -0.098772676482649702 0 -0.14496656200671351 -0.10975156311851091 0 -0.12975346859969111 -0.098772676482649702 0 -0.14496656200671351 -0.10975156311851091 0 -0.14253547959876051 -0.1016857677243533 0 -0.1187021305207433 -0.1110310095062928 0 -0.13352107912151251 -0.12325545743651491 0 -0.14496656200671351 -0.10975156311851091 0 -0.1187021305207433 -0.1110310095062928 0 -0.14496656200671351 -0.10975156311851091 0 -0.16091338662526469 -0.1179664917058664 0 -0.14496656200671351 -0.10975156311851091 0 -0.14871244365000211 -0.1247351576792549 0 -0.13352107912151251 -0.12325545743651491 0 -0.14496656200671351 -0.10975156311851091 0 -0.14871244365000211 -0.1247351576792549 0 -0.1712309934926837 -0.1084721167307296 0 -0.14496656200671351 -0.10975156311851091 0 -0.1501656943462055 -0.097197821104307858 0 -0.14496656200671351 -0.10975156311851091 0 -0.1501656943462055 -0.097197821104307858 0 -0.14253547959876051 -0.1016857677243533 0 -0.1500801712845852 -0.01873002690157503 0 -0.14956451377836211 -0.037023584700752572 0 -0.1683385490733588 -0.036529355317331223 0 -0.1500801712845852 -0.01873002690157503 0 -0.1319940332591672 -0.023458247705114649 0 -0.14956451377836211 -0.037023584700752572 0 -0.1500801712845852 -0.01873002690157503 0 -0.15450135822047331 -0.001610050133174211 0 -0.12839483168315949 0.0032512382866605248 0 -0.1500801712845852 -0.01873002690157503 0 -0.1319940332591672 -0.023458247705114649 0 -0.12839483168315949 0.0032512382866605248 0 -0.11854318320085259 -0.0093427144561414356 0 -0.1319940332591672 -0.023458247705114649 0 -0.12839483168315949 0.0032512382866605248 0 -0.1319940332591672 -0.023458247705114649 0 -0.12839483168315949 0.0032512382866605248 0 -0.1319940332591672 -0.023458247705114649 0 -0.13559323483517491 -0.050167733696889823 0 -0.119921192625089 -0.041190164296399413 0 -0.119968657279347 -0.038470883991284691 0 -0.13559323483517491 -0.050167733696889823 0 -0.1319940332591672 -0.023458247705114649 0 -0.13559323483517491 -0.050167733696889823 0 -0.14111842772815519 -0.039939061833542379 0 -0.119968657279347 -0.038470883991284691 0 -0.1319940332591672 -0.023458247705114649 0 -0.13559323483517491 -0.050167733696889823 0 -0.13919243641118201 -0.076877219688665149 0 -0.12955681451813561 -0.059033691992532257 0 -0.13559323483517491 -0.050167733696889823 0 -0.119921192625089 -0.041190164296399413 0 -0.12955681451813561 -0.059033691992532257 0 -0.13559323483517491 -0.050167733696889823 0 -0.13559323483517491 -0.050167733696889823 0 -0.14732192903991681 -0.049106681231412493 0 -0.14900913179666911 -0.062368578812043697 0 -0.14732192903991681 -0.049106681231412493 0 -0.14900913179666911 -0.062368578812043697 0 -0.15820420164767829 -0.0522356843059711 0 -0.1319940332591672 -0.023458247705114649 0 -0.14111842772815519 -0.039939061833542379 0 -0.14956451377836211 -0.037023584700752572 0 -0.13559323483517491 -0.050167733696889823 0 -0.14732192903991681 -0.049106681231412493 0 -0.14111842772815519 -0.039939061833542379 0 -0.14732192903991681 -0.049106681231412493 0 -0.14111842772815519 -0.039939061833542379 0 -0.14956451377836211 -0.037023584700752572 0 -0.14732192903991681 -0.049106681231412493 0 -0.14956451377836211 -0.037023584700752572 0 -0.15820420164767829 -0.0522356843059711 0 -0.14956451377836211 -0.037023584700752572 0 -0.1683385490733588 -0.036529355317331223 0 -0.15820420164767829 -0.0522356843059711 0 -0.1683385490733588 -0.036529355317331223 0 -0.15820420164767829 -0.0522356843059711 0 -0.17468677661780191 -0.05612839097834299 0 -0.16355885403336129 -0.064520987923395431 0 -0.15820420164767829 -0.0522356843059711 0 -0.17468677661780191 -0.05612839097834299 0 -0.16355885403336129 -0.064520987923395431 0 -0.14900913179666911 -0.062368578812043697 0 -0.15820420164767829 -0.0522356843059711 0 -0.1937150745068828 -0.065716825234021253 0 -0.17468677661780191 -0.05612839097834299 0 -0.1900179227174314 -0.044670378463921807 0 -0.1683385490733588 -0.036529355317331223 0 -0.17468677661780191 -0.05612839097834299 0 -0.1900179227174314 -0.044670378463921807 0 -0.1683385490733588 -0.036529355317331223 0 -0.18615894104665259 -0.027308411389850629 0 -0.1900179227174314 -0.044670378463921807 0 -0.1683385490733588 -0.036529355317331223 0 -0.18615894104665259 -0.027308411389850629 0 -0.17152709686904921 -0.01465037419802138 0 -0.18615894104665259 -0.027308411389850629 0 -0.17152709686904921 -0.01465037419802138 0 -0.19511981502586639 -0.0092261396848500928 0 -0.1500801712845852 -0.01873002690157503 0 -0.1683385490733588 -0.036529355317331223 0 -0.17152709686904921 -0.01465037419802138 0 -0.15450135822047331 -0.001610050133174211 0 -0.17152709686904921 -0.01465037419802138 0 -0.17465612102363831 0.0049552152978548118 0 -0.1500801712845852 -0.01873002690157503 0 -0.15450135822047331 -0.001610050133174211 0 -0.17152709686904921 -0.01465037419802138 0 -0.17152709686904921 -0.01465037419802138 0 -0.19511981502586639 -0.0092261396848500928 0 -0.17465612102363831 0.0049552152978548118 0 -0.18615894104665259 -0.027308411389850629 0 -0.19511981502586639 -0.0092261396848500928 0 -0.205813879937608 -0.030002206687797048 0 -0.205813879937608 -0.030002206687797048 0 -0.21546281753212879 -0.015468965143303931 0 -0.2223880136475461 -0.036181869979040188 0 -0.19511981502586639 -0.0092261396848500928 0 -0.205813879937608 -0.030002206687797048 0 -0.21546281753212879 -0.015468965143303931 0 -0.19511981502586639 -0.0092261396848500928 0 -0.21546281753212879 -0.015468965143303931 0 -0.21434551636442331 0.003296708171382477 0 -0.1937150745068828 -0.065716825234021253 0 -0.1900179227174314 -0.044670378463921807 0 -0.21097403168269549 -0.055310196782200061 0 -0.18615894104665259 -0.027308411389850629 0 -0.205813879937608 -0.030002206687797048 0 -0.1900179227174314 -0.044670378463921807 0 -0.205813879937608 -0.030002206687797048 0 -0.1900179227174314 -0.044670378463921807 0 -0.21097403168269549 -0.055310196782200061 0 -0.205813879937608 -0.030002206687797048 0 -0.21097403168269549 -0.055310196782200061 0 -0.205813879937608 -0.030002206687797048 0 -0.21097403168269549 -0.055310196782200061 0 -0.2223880136475461 -0.036181869979040188 0 -0.23010130988895891 -0.063646163155338054 0 -0.21097403168269549 -0.055310196782200061 0 -0.22524189560826 -0.051223195686370328 0 -0.21097403168269549 -0.055310196782200061 0 -0.22524189560826 -0.051223195686370328 0 -0.2223880136475461 -0.036181869979040188 0 -0.23010130988895891 -0.063646163155338054 0 -0.2328906075533376 -0.056498424057111467 0 -0.22524189560826 -0.051223195686370328 0 -0.2328906075533376 -0.056498424057111467 0 -0.22524189560826 -0.051223195686370328 0 -0.23545019113728649 -0.044609115295998078 0 -0.2223880136475461 -0.036181869979040188 0 -0.23545019113728649 -0.044609115295998078 0 -0.23013134869572771 -0.022703008501256779 0 -0.23545019113728649 -0.044609115295998078 0 -0.23013134869572771 -0.022703008501256779 0 -0.22524189560826 -0.051223195686370328 0 -0.2223880136475461 -0.036181869979040188 0 -0.23545019113728649 -0.044609115295998078 0 -0.24695168506027321 -0.046826313339337913 0 -0.2499137370210423 -0.026271232000348841 0 -0.24695168506027321 -0.046826313339337913 0 -0.23545019113728649 -0.044609115295998078 0 -0.2499137370210423 -0.026271232000348841 0 -0.24781011732634831 -0.068408904832061246 0 -0.24398963309950411 -0.067381394678326989 0 -0.24695168506027321 -0.046826313339337913 0 -0.2407690335788443 -0.066515222090739651 0 -0.23545019113728649 -0.044609115295998078 0 -0.2407690335788443 -0.066515222090739651 0 -0.24398963309950411 -0.067381394678326989 0 -0.24695168506027321 -0.046826313339337913 0 -0.2407690335788443 -0.066515222090739651 0 -0.2328906075533376 -0.056498424057111467 0 -0.23545019113728649 -0.044609115295998078 0 -0.24398963309950411 -0.067381394678326989 0 -0.24695168506027321 -0.046826313339337913 0 -0.2407690335788443 -0.066515222090739651 0 -0.24695168506027321 -0.046826313339337913 0 -0.23545019113728649 -0.044609115295998078 0 -0.2407690335788443 -0.066515222090739651 0 -0.23010130988895891 -0.063646163155338054 0 -0.2328906075533376 -0.056498424057111467 0 -0.21546281753212879 -0.015468965143303931 0 -0.23013134869572771 -0.022703008501256779 0 -0.23525551404541989 -0.0058437881859296492 0 -0.21546281753212879 -0.015468965143303931 0 -0.23525551404541989 -0.0058437881859296492 0 -0.21434551636442331 0.003296708171382477 0 -0.21546281753212879 -0.015468965143303931 0 -0.2223880136475461 -0.036181869979040188 0 -0.23013134869572771 -0.022703008501256779 0 -0.23545019113728649 -0.044609115295998078 0 -0.23013134869572771 -0.022703008501256779 0 -0.2499137370210423 -0.026271232000348841 0 -0.23013134869572771 -0.022703008501256779 0 -0.2499137370210423 -0.026271232000348841 0 -0.23525551404541989 -0.0058437881859296492 0 -0.23525551404541989 -0.0058437881859296492 0 -0.25287578898181168 -0.0057161506613598251 0 -0.24416649867175319 0.0093576832284096249 0 -0.2499137370210423 -0.026271232000348841 0 -0.23525551404541989 -0.0058437881859296492 0 -0.25287578898181168 -0.0057161506613598251 0 -0.25287578898181168 -0.0057161506613598251 0 -0.26499890097128642 -0.013398392676626731 0 -0.26737430186947808 -0.006221223260330512 0 -0.25287578898181168 -0.0057161506613598251 0 -0.26388728132695588 -0.00071331782437327623 0 -0.26737430186947808 -0.006221223260330512 0 -0.2499137370210423 -0.026271232000348841 0 -0.25287578898181168 -0.0057161506613598251 0 -0.26563152320476119 -0.027793474068147129 0 -0.2499137370210423 -0.026271232000348841 0 -0.25287578898181168 -0.0057161506613598251 0 -0.25287578898181168 -0.0057161506613598251 0 -0.26563152320476119 -0.027793474068147129 0 -0.25287578898181168 -0.0057161506613598251 0 -0.26499890097128642 -0.013398392676626731 0 -0.26563152320476119 -0.027793474068147129 0 -0.26563152320476119 -0.027793474068147129 0 -0.27546838732076367 -0.0053750141462280791 0 -0.2779699259836651 -0.011659473032781659 0 -0.27059891625651239 -0.036390920594968082 0 -0.27959355721359319 -0.026853365804048301 0 -0.2779699259836651 -0.011659473032781659 0 -0.27059891625651239 -0.036390920594968082 0 -0.26563152320476119 -0.027793474068147129 0 -0.2779699259836651 -0.011659473032781659 0 -0.27059891625651239 -0.036390920594968082 0 -0.27959355721359319 -0.026853365804048301 0 -0.2779699259836651 -0.011659473032781659 0 -0.28411371485032277 -0.020796214055752389 0 -0.2779699259836651 -0.011659473032781659 0 -0.27546838732076367 -0.0053750141462280791 0 -0.28534093571081642 0.01307197452940519 0 -0.26499890097128642 -0.013398392676626731 0 -0.26563152320476119 -0.027793474068147129 0 -0.27546838732076367 -0.0053750141462280791 0 -0.26563152320476119 -0.027793474068147129 0 -0.2779699259836651 -0.011659473032781659 0 -0.27546838732076367 -0.0053750141462280791 0 -0.26388728132695588 -0.00071331782437327623 0 -0.26737430186947808 -0.006221223260330512 0 -0.27156820989033809 0.0055335659959019458 0 -0.26737430186947808 -0.006221223260330512 0 -0.27546838732076367 -0.0053750141462280791 0 -0.27156820989033809 0.0055335659959019458 0 -0.26499890097128642 -0.013398392676626731 0 -0.26737430186947808 -0.006221223260330512 0 -0.27546838732076367 -0.0053750141462280791 0 -0.2779699259836651 -0.011659473032781659 0 -0.28566731498875381 -0.0072670377216124188 0 -0.2854786141379379 -0.00071074586852360247 0 -0.28566731498875381 -0.0072670377216124188 0 -0.2854786141379379 -0.00071074586852360247 0 -0.28975035626059048 -0.0020174263622448761 0 -0.29526472936697529 -0.0033498915990551941 0 -0.29209798443284551 -0.0093220432579464094 0 -0.30212573917990992 -0.0058015336945771833 0 -0.28975035626059048 -0.0020174263622448761 0 -0.29526472936697529 -0.0033498915990551941 0 -0.29209798443284551 -0.0093220432579464094 0 -0.28566731498875381 -0.0072670377216124188 0 -0.28975035626059048 -0.0020174263622448761 0 -0.29209798443284551 -0.0093220432579464094 0 -0.28975035626059048 -0.0020174263622448761 0 -0.29526472936697529 -0.0033498915990551941 0 -0.29470320845280401 0.003079221087507088 0 -0.29209798443284551 -0.0093220432579464094 0 -0.29165681025192131 -0.01634887343401795 0 -0.30237529754370779 -0.0130807641849319 0 -0.29209798443284551 -0.0093220432579464094 0 -0.28630115010150159 -0.013078728300422161 0 -0.29165681025192131 -0.01634887343401795 0 -0.2779699259836651 -0.011659473032781659 0 -0.28566731498875381 -0.0072670377216124188 0 -0.28630115010150159 -0.013078728300422161 0 -0.2779699259836651 -0.011659473032781659 0 -0.28630115010150159 -0.013078728300422161 0 -0.28411371485032277 -0.020796214055752389 0 -0.28566731498875381 -0.0072670377216124188 0 -0.29209798443284551 -0.0093220432579464094 0 -0.28630115010150159 -0.013078728300422161 0 -0.28411371485032277 -0.020796214055752389 0 -0.29055652828218831 -0.025190633456112759 0 -0.29165681025192131 -0.01634887343401795 0 -0.28630115010150159 -0.013078728300422161 0 -0.28411371485032277 -0.020796214055752389 0 -0.29165681025192131 -0.01634887343401795 0 -0.28411371485032277 -0.020796214055752389 0 -0.28392361233207858 -0.028765298566028139 0 -0.29055652828218831 -0.025190633456112759 0 -0.27959355721359319 -0.026853365804048301 0 -0.28392361233207858 -0.028765298566028139 0 -0.28136161664538689 -0.036654922770711272 0 -0.27959355721359319 -0.026853365804048301 0 -0.28411371485032277 -0.020796214055752389 0 -0.28392361233207858 -0.028765298566028139 0 -0.28392361233207858 -0.028765298566028139 0 -0.29055652828218831 -0.025190633456112759 0 -0.28856434256852681 -0.032615048020358847 0 -0.29055652828218831 -0.025190633456112759 0 -0.29712911878502418 -0.031083057397847998 0 -0.28856434256852681 -0.032615048020358847 0 -0.29055652828218831 -0.025190633456112759 0 -0.29825596887055128 -0.02177472547821652 0 -0.29712911878502418 -0.031083057397847998 0 -0.29055652828218831 -0.025190633456112759 0 -0.29165681025192131 -0.01634887343401795 0 -0.29825596887055128 -0.02177472547821652 0 -0.29825596887055128 -0.02177472547821652 0 -0.31003200560791422 -0.02573427215783906 0 -0.30237529754370779 -0.0130807641849319 0 -0.29165681025192131 -0.01634887343401795 0 -0.29825596887055128 -0.02177472547821652 0 -0.30237529754370779 -0.0130807641849319 0 -0.29825596887055128 -0.02177472547821652 0 -0.29712911878502418 -0.031083057397847998 0 -0.31003200560791422 -0.02573427215783906 0 -0.31003200560791422 -0.02573427215783906 0 -0.30237529754370779 -0.0130807641849319 0 -0.31661907727728161 -0.01706182482750393 0 -0.30212573917990992 -0.0058015336945771833 0 -0.30237529754370779 -0.0130807641849319 0 -0.31254842096735852 -0.0077188406168403733 0 -0.30237529754370779 -0.0130807641849319 0 -0.31254842096735852 -0.0077188406168403733 0 -0.31661907727728161 -0.01706182482750393 0 -0.30212573917990992 -0.0058015336945771833 0 -0.31254842096735852 -0.0077188406168403733 0 -0.30460315445968361 0.001723103690654445 0 -0.31254842096735852 -0.0077188406168403733 0 -0.30460315445968361 0.001723103690654445 0 -0.31732294002332018 0.0010899000252003741 0 -0.29526472936697529 -0.0033498915990551941 0 -0.30212573917990992 -0.0058015336945771833 0 -0.30460315445968361 0.001723103690654445 0 -0.29209798443284551 -0.0093220432579464094 0 -0.30212573917990992 -0.0058015336945771833 0 -0.30237529754370779 -0.0130807641849319 0 -0.30093262570848828 -0.053626892770231957 0 -0.29801508208049032 -0.066385745534108948 0 -0.30761445879490562 -0.064854565609255843 0 -0.30093262570848828 -0.053626892770231957 0 -0.30761445879490562 -0.064854565609255843 0 -0.31337329470762398 -0.054870113227098803 0 -0.30093262570848828 -0.053626892770231957 0 -0.3044189342854422 -0.041101703403891673 0 -0.31337329470762398 -0.054870113227098803 0 -0.3044189342854422 -0.041101703403891673 0 -0.31750647042225522 -0.038998458317931937 0 -0.31337329470762398 -0.054870113227098803 0 -0.31003200560791422 -0.02573427215783906 0 -0.3044189342854422 -0.041101703403891673 0 -0.31750647042225522 -0.038998458317931937 0 -0.29712911878502418 -0.031083057397847998 0 -0.3044189342854422 -0.041101703403891673 0 -0.29131194703137447 -0.042530525745711381 0 -0.29712911878502418 -0.031083057397847998 0 -0.31003200560791422 -0.02573427215783906 0 -0.3044189342854422 -0.041101703403891673 0 -0.30093262570848828 -0.053626892770231957 0 -0.3044189342854422 -0.041101703403891673 0 -0.29131194703137447 -0.042530525745711381 0 -0.29712911878502418 -0.031083057397847998 0 -0.29131194703137447 -0.042530525745711381 0 -0.28856434256852681 -0.032615048020358847 0 -0.29131194703137447 -0.042530525745711381 0 -0.28136161664538689 -0.036654922770711272 0 -0.28856434256852681 -0.032615048020358847 0 -0.28392361233207858 -0.028765298566028139 0 -0.28136161664538689 -0.036654922770711272 0 -0.28856434256852681 -0.032615048020358847 0 -0.29131194703137447 -0.042530525745711381 0 -0.28136161664538689 -0.036654922770711272 0 -0.27750768394713438 -0.048348452476892192 0 -0.29131194703137447 -0.042530525745711381 0 -0.28888254964973542 -0.055619380785148012 0 -0.27750768394713438 -0.048348452476892192 0 -0.30093262570848828 -0.053626892770231957 0 -0.29131194703137447 -0.042530525745711381 0 -0.28888254964973542 -0.055619380785148012 0 -0.30093262570848828 -0.053626892770231957 0 -0.28888254964973542 -0.055619380785148012 0 -0.29801508208049032 -0.066385745534108948 0 -0.28888254964973542 -0.055619380785148012 0 -0.27660488712976239 -0.060326425501794477 0 -0.28614231548935409 -0.066812407184873454 0 -0.27059891625651239 -0.036390920594968082 0 -0.26358354300206288 -0.059929125290660572 0 -0.28888254964973542 -0.055619380785148012 0 -0.27660488712976239 -0.060326425501794477 0 -0.27750768394713438 -0.048348452476892192 0 -0.27750768394713438 -0.048348452476892192 0 -0.27059891625651239 -0.036390920594968082 0 -0.26358354300206288 -0.059929125290660572 0 -0.27660488712976239 -0.060326425501794477 0 -0.27750768394713438 -0.048348452476892192 0 -0.26358354300206288 -0.059929125290660572 0 -0.27959355721359319 -0.026853365804048301 0 -0.28136161664538689 -0.036654922770711272 0 -0.27059891625651239 -0.036390920594968082 0 -0.27750768394713438 -0.048348452476892192 0 -0.27059891625651239 -0.036390920594968082 0 -0.28136161664538689 -0.036654922770711272 0 -0.27750768394713438 -0.048348452476892192 0 -0.27059891625651239 -0.036390920594968082 0 -0.26563152320476119 -0.027793474068147129 0 -0.27059891625651239 -0.036390920594968082 0 -0.26563152320476119 -0.027793474068147129 0 -0.27059891625651239 -0.036390920594968082 0 -0.25672082026555609 -0.048101189450104768 0 -0.24695168506027321 -0.046826313339337913 0 -0.2499137370210423 -0.026271232000348841 0 -0.25672082026555609 -0.048101189450104768 0 -0.26563152320476119 -0.027793474068147129 0 -0.25672082026555609 -0.048101189450104768 0 -0.2499137370210423 -0.026271232000348841 0 -0.26563152320476119 -0.027793474068147129 0 -0.25672082026555609 -0.048101189450104768 0 -0.24781011732634831 -0.068408904832061246 0 -0.24695168506027321 -0.046826313339337913 0 -0.25672082026555609 -0.048101189450104768 0 -0.24781011732634831 -0.068408904832061246 0 -0.25672082026555609 -0.048101189450104768 0 -0.26358354300206288 -0.059929125290660572 0 -0.24781011732634831 -0.068408904832061246 0 -0.25672082026555609 -0.048101189450104768 0 -0.27059891625651239 -0.036390920594968082 0 -0.25672082026555609 -0.048101189450104768 0 -0.26358354300206288 -0.059929125290660572 0 -0.24781011732634831 -0.068408904832061246 0 -0.25624340020108449 -0.079034568999919647 0 -0.27194501412149191 -0.074899927970465158 0 -0.24781011732634831 -0.068408904832061246 0 -0.26358354300206288 -0.059929125290660572 0 -0.27194501412149191 -0.074899927970465158 0 -0.24781011732634831 -0.068408904832061246 0 -0.27194501412149191 -0.074899927970465158 0 -0.24781011732634831 -0.068408904832061246 0 -0.2492018508360461 -0.075583340168952809 0 -0.25624340020108449 -0.079034568999919647 0 -0.25624340020108449 -0.079034568999919647 0 -0.26529327488611543 -0.083753111518124354 0 -0.27194501412149191 -0.074899927970465158 0 -0.2492018508360461 -0.075583340168952809 0 -0.2498653300490547 -0.081599615155489399 0 -0.25624340020108449 -0.079034568999919647 0 -0.2498653300490547 -0.081599615155489399 0 -0.25624340020108449 -0.079034568999919647 0 -0.25531974389258888 -0.088790356234645373 0 -0.2498653300490547 -0.081599615155489399 0 -0.24644636749590829 -0.089897806640497749 0 -0.25531974389258888 -0.088790356234645373 0 -0.25531974389258888 -0.088790356234645373 0 -0.26529327488611543 -0.083753111518124354 0 -0.26404580277277701 -0.093823257526455359 0 -0.25624340020108449 -0.079034568999919647 0 -0.25531974389258888 -0.088790356234645373 0 -0.26529327488611543 -0.083753111518124354 0 -0.26529327488611543 -0.083753111518124354 0 -0.26404580277277701 -0.093823257526455359 0 -0.28196485637789609 -0.090088944817941913 0 -0.26529327488611543 -0.083753111518124354 0 -0.27194501412149191 -0.074899927970465158 0 -0.28196485637789609 -0.090088944817941913 0 -0.27660488712976239 -0.060326425501794477 0 -0.27194501412149191 -0.074899927970465158 0 -0.28614231548935409 -0.066812407184873454 0 -0.27660488712976239 -0.060326425501794477 0 -0.26358354300206288 -0.059929125290660572 0 -0.27194501412149191 -0.074899927970465158 0 -0.25361206496361921 -0.1194103435714617 0 -0.26499407298003552 -0.11357142352190221 0 -0.2697250706797405 -0.1239939911584825 0 -0.25361206496361921 -0.1194103435714617 0 -0.2697250706797405 -0.1239939911584825 0 -0.25976972967899731 -0.1313423288873648 0 -0.25361206496361921 -0.1194103435714617 0 -0.25002428795059389 -0.10463377756738509 0 -0.25361206496361921 -0.1194103435714617 0 -0.26499407298003552 -0.11357142352190221 0 -0.25002428795059389 -0.10463377756738509 0 -0.26499407298003552 -0.11357142352190221 0 -0.25002428795059389 -0.10463377756738509 0 -0.27455399403405911 -0.10343883665048099 0 -0.25002428795059389 -0.10463377756738509 0 -0.26404580277277701 -0.093823257526455359 0 -0.27455399403405911 -0.10343883665048099 0 -0.25531974389258888 -0.088790356234645373 0 -0.25002428795059389 -0.10463377756738509 0 -0.26404580277277701 -0.093823257526455359 0 -0.25002428795059389 -0.10463377756738509 0 -0.27455399403405911 -0.10343883665048099 0 -0.24644636749590829 -0.089897806640497749 0 -0.25531974389258888 -0.088790356234645373 0 -0.25002428795059389 -0.10463377756738509 0 -0.26404580277277701 -0.093823257526455359 0 -0.27455399403405911 -0.10343883665048099 0 -0.28196485637789609 -0.090088944817941913 0 -0.26499407298003552 -0.11357142352190221 0 -0.27455399403405911 -0.10343883665048099 0 -0.2770549472721649 -0.11638016866170001 0 -0.27455399403405911 -0.10343883665048099 0 -0.2770549472721649 -0.11638016866170001 0 -0.28538158098206851 -0.1105421669394986 0 -0.2770549472721649 -0.11638016866170001 0 -0.2697250706797405 -0.1239939911584825 0 -0.2795564133729857 -0.12791154291295539 0 -0.26499407298003552 -0.11357142352190221 0 -0.2770549472721649 -0.11638016866170001 0 -0.2697250706797405 -0.1239939911584825 0 -0.29669443135304391 -0.1247455153070733 0 -0.2881869443640942 -0.1198783485973209 0 -0.29580852209192948 -0.11539347891410549 0 -0.2770549472721649 -0.11638016866170001 0 -0.2881869443640942 -0.1198783485973209 0 -0.2795564133729857 -0.12791154291295539 0 -0.2770549472721649 -0.11638016866170001 0 -0.2881869443640942 -0.1198783485973209 0 -0.28538158098206851 -0.1105421669394986 0 -0.2881869443640942 -0.1198783485973209 0 -0.28538158098206851 -0.1105421669394986 0 -0.2913917863870808 -0.1120592123671658 0 -0.29580852209192948 -0.11539347891410549 0 -0.2913917863870808 -0.1120592123671658 0 -0.29552884232008308 -0.1051301972313881 0 -0.2881869443640942 -0.1198783485973209 0 -0.29580852209192948 -0.11539347891410549 0 -0.2913917863870808 -0.1120592123671658 0 -0.29908370011752428 -0.1022438957335763 0 -0.28196485637789609 -0.090088944817941913 0 -0.30275229779666979 -0.091072633217622004 0 -0.27455399403405911 -0.10343883665048099 0 -0.28538158098206851 -0.1105421669394986 0 -0.29552884232008308 -0.1051301972313881 0 -0.27455399403405911 -0.10343883665048099 0 -0.29552884232008308 -0.1051301972313881 0 -0.29908370011752428 -0.1022438957335763 0 -0.27455399403405911 -0.10343883665048099 0 -0.29908370011752428 -0.1022438957335763 0 -0.27455399403405911 -0.10343883665048099 0 -0.29908370011752428 -0.1022438957335763 0 -0.28196485637789609 -0.090088944817941913 0 -0.28538158098206851 -0.1105421669394986 0 -0.2913917863870808 -0.1120592123671658 0 -0.29552884232008308 -0.1051301972313881 0 -0.29908370011752428 -0.1022438957335763 0 -0.32361340620098922 -0.1010489548166693 0 -0.29908370011752428 -0.1022438957335763 0 -0.31423512191495928 -0.093602547326881919 0 -0.3208126828267468 -0.097505726797980335 0 -0.29552884232008308 -0.1051301972313881 0 -0.29908370011752428 -0.1022438957335763 0 -0.30574917081849978 -0.11796187813706829 0 -0.29908370011752428 -0.1022438957335763 0 -0.30275229779666979 -0.091072633217622004 0 -0.31423512191495928 -0.093602547326881919 0 -0.29908370011752428 -0.1022438957335763 0 -0.30574917081849978 -0.11796187813706829 0 -0.31979145275894949 -0.11592125692970801 0 -0.29580852209192948 -0.11539347891410549 0 -0.29552884232008308 -0.1051301972313881 0 -0.30574917081849978 -0.11796187813706829 0 -0.29552884232008308 -0.1051301972313881 0 -0.30574917081849978 -0.11796187813706829 0 -0.30574917081849978 -0.11796187813706829 0 -0.31596949931691681 -0.13079355904274839 0 -0.29669443135304391 -0.1247455153070733 0 -0.29580852209192948 -0.11539347891410549 0 -0.30574917081849978 -0.11796187813706829 0 -0.29669443135304391 -0.1247455153070733 0 -0.30574917081849978 -0.11796187813706829 0 -0.30540476340453138 -0.12693707817968419 0 -0.27194501412149191 -0.074899927970465158 0 -0.28614231548935409 -0.066812407184873454 0 -0.29607991091663521 -0.081390951108869264 0 -0.28614231548935409 -0.066812407184873454 0 -0.29607991091663521 -0.081390951108869264 0 -0.29801508208049032 -0.066385745534108948 0 -0.28888254964973542 -0.055619380785148012 0 -0.28614231548935409 -0.066812407184873454 0 -0.29801508208049032 -0.066385745534108948 0 -0.28196485637789609 -0.090088944817941913 0 -0.29607991091663521 -0.081390951108869264 0 -0.30275229779666979 -0.091072633217622004 0 -0.27194501412149191 -0.074899927970465158 0 -0.29607991091663521 -0.081390951108869264 0 -0.27194501412149191 -0.074899927970465158 0 -0.28196485637789609 -0.090088944817941913 0 -0.29607991091663521 -0.081390951108869264 0 -0.29607991091663521 -0.081390951108869264 0 -0.30275229779666979 -0.091072633217622004 0 -0.32021480771177863 -0.087881974247273342 0 -0.29607991091663521 -0.081390951108869264 0 -0.30919746346636251 -0.076403880495638857 0 -0.32021480771177863 -0.087881974247273342 0 -0.29607991091663521 -0.081390951108869264 0 -0.32021480771177863 -0.087881974247273342 0 -0.30275229779666979 -0.091072633217622004 0 -0.32021480771177863 -0.087881974247273342 0 -0.31423512191495928 -0.093602547326881919 0 -0.29607991091663521 -0.081390951108869264 0 -0.30919746346636251 -0.076403880495638857 0 -0.29801508208049032 -0.066385745534108948 0 -0.30761445879490562 -0.064854565609255843 0 -0.31556144185588092 -0.06808248495383859 0 -0.31337329470762398 -0.054870113227098803 0 -0.30919746346636251 -0.076403880495638857 0 -0.29801508208049032 -0.066385745534108948 0 -0.30761445879490562 -0.064854565609255843 0 -0.30919746346636251 -0.076403880495638857 0 -0.30761445879490562 -0.064854565609255843 0 -0.31556144185588092 -0.06808248495383859 0 -0.32303585319902411 -0.073334472254789229 0 -0.32805622435207449 -0.083760692471631537 0 -0.3323172480771579 -0.067179843669725597 0 -0.32249819580525618 -0.064187007109317809 0 -0.32303585319902411 -0.073334472254789229 0 -0.3323172480771579 -0.067179843669725597 0 -0.32249819580525618 -0.064187007109317809 0 -0.3323172480771579 -0.067179843669725597 0 -0.31556144185588092 -0.06808248495383859 0 -0.32249819580525618 -0.064187007109317809 0 -0.32303585319902411 -0.073334472254789229 0 -0.32303585319902411 -0.073334472254789229 0 -0.31764938516211272 -0.074844871026931048 0 -0.32028008600261321 -0.079910678692810683 0 -0.30919746346636251 -0.076403880495638857 0 -0.31764938516211272 -0.074844871026931048 0 -0.32028008600261321 -0.079910678692810683 0 -0.30919746346636251 -0.076403880495638857 0 -0.31556144185588092 -0.06808248495383859 0 -0.31764938516211272 -0.074844871026931048 0 -0.31556144185588092 -0.06808248495383859 0 -0.32303585319902411 -0.073334472254789229 0 -0.31764938516211272 -0.074844871026931048 0 -0.30919746346636251 -0.076403880495638857 0 -0.32028008600261321 -0.079910678692810683 0 -0.32021480771177863 -0.087881974247273342 0 -0.31423512191495928 -0.093602547326881919 0 -0.3262885391454895 -0.090639255706857824 0 -0.32805622435207449 -0.083760692471631537 0 -0.31423512191495928 -0.093602547326881919 0 -0.32805622435207449 -0.083760692471631537 0 -0.32021480771177863 -0.087881974247273342 0 -0.31423512191495928 -0.093602547326881919 0 -0.32805622435207449 -0.083760692471631537 0 -0.3262885391454895 -0.090639255706857824 0 -0.32805622435207449 -0.083760692471631537 0 -0.32303585319902411 -0.073334472254789229 0 -0.32028008600261321 -0.079910678692810683 0 -0.32805622435207449 -0.083760692471631537 0 -0.32028008600261321 -0.079910678692810683 0 -0.32021480771177863 -0.087881974247273342 0 -0.32805622435207449 -0.083760692471631537 0 -0.33769350667687859 -0.090985583443093501 0 -0.33665978575257283 -0.077634191135921335 0 -0.35358266729133808 -0.085760271288502596 0 -0.32805622435207449 -0.083760692471631537 0 -0.33665978575257283 -0.077634191135921335 0 -0.3262885391454895 -0.090639255706857824 0 -0.33665978575257283 -0.077634191135921335 0 -0.3262885391454895 -0.090639255706857824 0 -0.32805622435207449 -0.083760692471631537 0 -0.33665978575257283 -0.077634191135921335 0 -0.3262885391454895 -0.090639255706857824 0 -0.33769350667687859 -0.090985583443093501 0 -0.33665978575257283 -0.077634191135921335 0 -0.32805622435207449 -0.083760692471631537 0 -0.33665978575257283 -0.077634191135921335 0 -0.3323172480771579 -0.067179843669725597 0 -0.32805622435207449 -0.083760692471631537 0 -0.3323172480771579 -0.067179843669725597 0 -0.33665978575257283 -0.077634191135921335 0 -0.34251751177427547 -0.070288873062095747 0 -0.3323172480771579 -0.067179843669725597 0 -0.33665978575257283 -0.077634191135921335 0 -0.34563889402172038 -0.071240267010358668 0 -0.33665978575257283 -0.077634191135921335 0 -0.34251751177427547 -0.070288873062095747 0 -0.34563889402172038 -0.071240267010358668 0 -0.33665978575257283 -0.077634191135921335 0 -0.34251751177427547 -0.070288873062095747 0 -0.34251751177427547 -0.070288873062095747 0 -0.3323172480771579 -0.067179843669725597 0 -0.34251751177427547 -0.070288873062095747 0 -0.34419273475033002 -0.057022988177881019 0 -0.33895057059720612 -0.061081500121045663 0 -0.34251751177427547 -0.070288873062095747 0 -0.3323172480771579 -0.067179843669725597 0 -0.33895057059720612 -0.061081500121045663 0 -0.31979145275894949 -0.11592125692970801 0 -0.33533840224988182 -0.1151933554340501 0 -0.32901807023916929 -0.12855586966465729 0 -0.30574917081849978 -0.11796187813706829 0 -0.31979145275894949 -0.11592125692970801 0 -0.31596949931691681 -0.13079355904274839 0 -0.31979145275894949 -0.11592125692970801 0 -0.31596949931691681 -0.13079355904274839 0 -0.31979145275894949 -0.11592125692970801 0 -0.32361340620098922 -0.1010489548166693 0 -0.33533840224988182 -0.1151933554340501 0 -0.29908370011752428 -0.1022438957335763 0 -0.3208126828267468 -0.097505726797980335 0 -0.32361340620098922 -0.1010489548166693 0 -0.29908370011752428 -0.1022438957335763 0 -0.31979145275894949 -0.11592125692970801 0 -0.32361340620098922 -0.1010489548166693 0 -0.31979145275894949 -0.11592125692970801 0 -0.32361340620098922 -0.1010489548166693 0 -0.3262885391454895 -0.090639255706857824 0 -0.32361340620098922 -0.1010489548166693 0 -0.3262885391454895 -0.090639255706857824 0 -0.3208126828267468 -0.097505726797980335 0 -0.3262885391454895 -0.090639255706857824 0 -0.3208126828267468 -0.097505726797980335 0 -0.32361340620098922 -0.1010489548166693 0 -0.31423512191495928 -0.093602547326881919 0 -0.3262885391454895 -0.090639255706857824 0 -0.3208126828267468 -0.097505726797980335 0 -0.32361340620098922 -0.1010489548166693 0 -0.33533840224988182 -0.1151933554340501 0 -0.34832313499400408 -0.099845244267514399 0 -0.32361340620098922 -0.1010489548166693 0 -0.34832313499400408 -0.099845244267514399 0 -0.33769350667687859 -0.090985583443093501 0 -0.32361340620098922 -0.1010489548166693 0 -0.34832313499400408 -0.099845244267514399 0 -0.3262885391454895 -0.090639255706857824 0 -0.33769350667687859 -0.090985583443093501 0 -0.32361340620098922 -0.1010489548166693 0 -0.33533840224988182 -0.1151933554340501 0 -0.32901807023916929 -0.12855586966465729 0 -0.34229645607262971 -0.130334738323898 0 -0.33533840224988182 -0.1151933554340501 0 -0.35578375180062177 -0.1157261613040366 0 -0.34229645607262971 -0.130334738323898 0 -0.33533840224988182 -0.1151933554340501 0 -0.35578375180062177 -0.1157261613040366 0 -0.34832313499400408 -0.099845244267514399 0 -0.35578375180062177 -0.1157261613040366 0 -0.34832313499400408 -0.099845244267514399 0 -0.37303286378701889 -0.098641533718357211 0 -0.34832313499400408 -0.099845244267514399 0 -0.37303286378701889 -0.098641533718357211 0 -0.35358266729133808 -0.085760271288502596 0 -0.34832313499400408 -0.099845244267514399 0 -0.37303286378701889 -0.098641533718357211 0 -0.35578375180062177 -0.1157261613040366 0 -0.36058180631750908 -0.13193953906608311 0 -0.37512984738268718 -0.118402557014317 0 -0.35578375180062177 -0.1157261613040366 0 -0.37303286378701889 -0.098641533718357211 0 -0.37512984738268718 -0.118402557014317 0 -0.34563889402172038 -0.071240267010358668 0 -0.37236297611268698 -0.079385738458156205 0 -0.34251751177427547 -0.070288873062095747 0 -0.34563889402172038 -0.071240267010358668 0 -0.35555471911415831 -0.053940816776935269 0 -0.34563889402172038 -0.071240267010358668 0 -0.36739742280767601 -0.06767539751660108 0 -0.35971537754642469 -0.061216558094748241 0 -0.34563889402172038 -0.071240267010358668 0 -0.35971537754642469 -0.061216558094748241 0 -0.34251751177427547 -0.070288873062095747 0 -0.34563889402172038 -0.071240267010358668 0 -0.33665978575257283 -0.077634191135921335 0 -0.34563889402172038 -0.071240267010358668 0 -0.35358266729133808 -0.085760271288502596 0 -0.34563889402172038 -0.071240267010358668 0 -0.35358266729133808 -0.085760271288502596 0 -0.37236297611268698 -0.079385738458156205 0 -0.33769350667687859 -0.090985583443093501 0 -0.34832313499400408 -0.099845244267514399 0 -0.35358266729133808 -0.085760271288502596 0 -0.37303286378701889 -0.098641533718357211 0 -0.35358266729133808 -0.085760271288502596 0 -0.37236297611268698 -0.079385738458156205 0 -0.37236297611268698 -0.079385738458156205 0 -0.36739742280767601 -0.06767539751660108 0 -0.37893085518077352 -0.065247074131940669 0 -0.34563889402172038 -0.071240267010358668 0 -0.37236297611268698 -0.079385738458156205 0 -0.36739742280767601 -0.06767539751660108 0 -0.37379186107112788 -0.051192849179136517 0 -0.35971537754642469 -0.061216558094748241 0 -0.35555471911415831 -0.053940816776935269 0 -0.37379186107112788 -0.051192849179136517 0 -0.35555471911415831 -0.053940816776935269 0 -0.36879215306601582 -0.037519546680056873 0 -0.36739742280767601 -0.06767539751660108 0 -0.37379186107112788 -0.051192849179136517 0 -0.37893085518077352 -0.065247074131940669 0 -0.36739742280767601 -0.06767539751660108 0 -0.37379186107112788 -0.051192849179136517 0 -0.35971537754642469 -0.061216558094748241 0 -0.37379186107112788 -0.051192849179136517 0 -0.35971537754642469 -0.061216558094748241 0 -0.34251751177427547 -0.070288873062095747 0 -0.35555471911415831 -0.053940816776935269 0 -0.34419273475033002 -0.057022988177881019 0 -0.34251751177427547 -0.070288873062095747 0 -0.35555471911415831 -0.053940816776935269 0 -0.34563889402172038 -0.071240267010358668 0 -0.35971537754642469 -0.061216558094748241 0 -0.35555471911415831 -0.053940816776935269 0 -0.35555471911415831 -0.053940816776935269 0 -0.34713629671077878 -0.047444497243885858 0 -0.34419273475033002 -0.057022988177881019 0 -0.35555471911415831 -0.053940816776935269 0 -0.35179972447177371 -0.039156886589753082 0 -0.35920754745346439 -0.038046003003005403 0 -0.35179972447177371 -0.039156886589753082 0 -0.35345397585463317 -0.0279128903041981 0 -0.34123232749696442 -0.03248874747923599 0 -0.34713629671077878 -0.047444497243885858 0 -0.35179972447177371 -0.039156886589753082 0 -0.34123232749696442 -0.03248874747923599 0 -0.35555471911415831 -0.053940816776935269 0 -0.34713629671077878 -0.047444497243885858 0 -0.35179972447177371 -0.039156886589753082 0 -0.35179972447177371 -0.039156886589753082 0 -0.35920754745346439 -0.038046003003005403 0 -0.35345397585463317 -0.0279128903041981 0 -0.35555471911415831 -0.053940816776935269 0 -0.35920754745346439 -0.038046003003005403 0 -0.36879215306601582 -0.037519546680056873 0 -0.35920754745346439 -0.038046003003005403 0 -0.36663739137271589 -0.031626660852365943 0 -0.36879215306601582 -0.037519546680056873 0 -0.35920754745346439 -0.038046003003005403 0 -0.36663739137271589 -0.031626660852365943 0 -0.35345397585463317 -0.0279128903041981 0 -0.35555471911415831 -0.053940816776935269 0 -0.36879215306601582 -0.037519546680056873 0 -0.37379186107112788 -0.051192849179136517 0 -0.36879215306601582 -0.037519546680056873 0 -0.36663739137271589 -0.031626660852365943 0 -0.36879215306601582 -0.037519546680056873 0 -0.36663739137271589 -0.031626660852365943 0 -0.3701316796814248 -0.01518839073247763 0 -0.38304228953602398 -0.01447921807627757 0 -0.36663739137271589 -0.031626660852365943 0 -0.35948292167430418 -0.012060472525595259 0 -0.36663739137271589 -0.031626660852365943 0 -0.3701316796814248 -0.01518839073247763 0 -0.35948292167430418 -0.012060472525595259 0 -0.36663739137271589 -0.031626660852365943 0 -0.35948292167430418 -0.012060472525595259 0 -0.35345397585463317 -0.0279128903041981 0 -0.36768537075595931 -0.0034867511375504031 0 -0.35948292167430418 -0.012060472525595259 0 -0.35232845197589391 0.0075057158011758666 0 -0.36768537075595931 -0.0034867511375504031 0 -0.3701316796814248 -0.01518839073247763 0 -0.38304228953602398 -0.01447921807627757 0 -0.36768537075595931 -0.0034867511375504031 0 -0.3701316796814248 -0.01518839073247763 0 -0.35948292167430418 -0.012060472525595259 0 -0.35948292167430418 -0.012060472525595259 0 -0.34415883057956442 -0.0027996634581069178 0 -0.35232845197589391 0.0075057158011758666 0 -0.35948292167430418 -0.012060472525595259 0 -0.35232845197589391 0.0075057158011758666 0 -0.35948292167430418 -0.012060472525595259 0 -0.34415883057956442 -0.0027996634581069178 0 -0.34044734612098099 -0.01540852658840664 0 -0.35948292167430418 -0.012060472525595259 0 -0.35345397585463317 -0.0279128903041981 0 -0.34044734612098099 -0.01540852658840664 0 -0.35345397585463317 -0.0279128903041981 0 -0.34044734612098099 -0.01540852658840664 0 -0.34123232749696442 -0.03248874747923599 0 -0.34044734612098099 -0.01540852658840664 0 -0.32417788466876929 -0.010660987567922791 0 -0.32588180286113227 -0.023213628699489439 0 -0.34044734612098099 -0.01540852658840664 0 -0.32588180286113227 -0.023213628699489439 0 -0.34123232749696442 -0.03248874747923599 0 -0.32588180286113227 -0.023213628699489439 0 -0.34123232749696442 -0.03248874747923599 0 -0.32915354766462251 -0.036292890038073497 0 -0.34044734612098099 -0.01540852658840664 0 -0.33132111815502818 -0.0010910057428710281 0 -0.32417788466876929 -0.010660987567922791 0 -0.34415883057956442 -0.0027996634581069178 0 -0.34044734612098099 -0.01540852658840664 0 -0.33132111815502818 -0.0010910057428710281 0 -0.33132111815502818 -0.0010910057428710281 0 -0.32417788466876929 -0.010660987567922791 0 -0.31732294002332018 0.0010899000252003741 0 -0.32417788466876929 -0.010660987567922791 0 -0.31254842096735852 -0.0077188406168403733 0 -0.31661907727728161 -0.01706182482750393 0 -0.32417788466876929 -0.010660987567922791 0 -0.31254842096735852 -0.0077188406168403733 0 -0.31732294002332018 0.0010899000252003741 0 -0.31003200560791422 -0.02573427215783906 0 -0.32588180286113227 -0.023213628699489439 0 -0.31661907727728161 -0.01706182482750393 0 -0.31003200560791422 -0.02573427215783906 0 -0.32588180286113227 -0.023213628699489439 0 -0.31750647042225522 -0.038998458317931937 0 -0.32417788466876929 -0.010660987567922791 0 -0.32588180286113227 -0.023213628699489439 0 -0.31661907727728161 -0.01706182482750393 0 -0.32588180286113227 -0.023213628699489439 0 -0.31750647042225522 -0.038998458317931937 0 -0.32915354766462251 -0.036292890038073497 0 -0.31750647042225522 -0.038998458317931937 0 -0.32537638751682779 -0.052238621498028333 0 -0.32915354766462251 -0.036292890038073497 0 -0.31750647042225522 -0.038998458317931937 0 -0.31337329470762398 -0.054870113227098803 0 -0.32537638751682779 -0.052238621498028333 0 -0.31556144185588092 -0.06808248495383859 0 -0.32249819580525618 -0.064187007109317809 0 -0.31337329470762398 -0.054870113227098803 0 -0.32249819580525618 -0.064187007109317809 0 -0.3323172480771579 -0.067179843669725597 0 -0.32537638751682779 -0.052238621498028333 0 -0.32249819580525618 -0.064187007109317809 0 -0.31337329470762398 -0.054870113227098803 0 -0.32537638751682779 -0.052238621498028333 0 -0.3323172480771579 -0.067179843669725597 0 -0.32537638751682779 -0.052238621498028333 0 -0.33677478778706121 -0.049834295574480797 0 -0.3323172480771579 -0.067179843669725597 0 -0.33895057059720612 -0.061081500121045663 0 -0.33677478778706121 -0.049834295574480797 0 -0.3323172480771579 -0.067179843669725597 0 -0.33677478778706121 -0.049834295574480797 0 -0.34419273475033002 -0.057022988177881019 0 -0.33895057059720612 -0.061081500121045663 0 -0.33677478778706121 -0.049834295574480797 0 -0.34713629671077878 -0.047444497243885858 0 -0.34419273475033002 -0.057022988177881019 0 -0.33677478778706121 -0.049834295574480797 0 -0.34713629671077878 -0.047444497243885858 0 -0.33677478778706121 -0.049834295574480797 0 -0.34123232749696442 -0.03248874747923599 0 -0.33677478778706121 -0.049834295574480797 0 -0.34123232749696442 -0.03248874747923599 0 -0.32915354766462251 -0.036292890038073497 0 -0.33677478778706121 -0.049834295574480797 0 -0.34123232749696442 -0.03248874747923599 0 -0.32537638751682779 -0.052238621498028333 0 -0.33677478778706121 -0.049834295574480797 0 -0.32915354766462251 -0.036292890038073497 0 -0.28986894035655097 -0.25019287600188372 0 -0.31077711748131492 -0.25702282537168147 0 -0.31286630235844359 -0.23512681236420249 0 -0.28986894035655097 -0.25019287600188372 0 -0.31286630235844359 -0.23512681236420249 0 -0.28986894035655097 -0.25019287600188372 0 -0.29461106241635099 -0.2326778525305149 0 -0.31286630235844359 -0.23512681236420249 0 -0.30330712834957552 -0.22324601809558531 0 -0.31678788872465258 -0.2239527881898726 0 -0.31286630235844359 -0.23512681236420249 0 -0.30330712834957552 -0.22324601809558531 0 -0.29461106241635099 -0.2326778525305149 0 -0.31286630235844359 -0.23512681236420249 0 -0.29461106241635099 -0.2326778525305149 0 -0.28859619870334852 -0.21948391898495431 0 -0.27841674231383651 -0.23533963720594839 0 -0.30330712834957552 -0.22324601809558531 0 -0.29461106241635099 -0.2326778525305149 0 -0.28859619870334852 -0.21948391898495431 0 -0.28986894035655097 -0.25019287600188372 0 -0.29461106241635099 -0.2326778525305149 0 -0.27841674231383651 -0.23533963720594839 0 -0.27841674231383651 -0.23533963720594839 0 -0.26882451759658699 -0.24897340204124699 0 -0.25900202517812831 -0.23792829465422941 0 -0.28986894035655097 -0.25019287600188372 0 -0.27841674231383651 -0.23533963720594839 0 -0.26882451759658699 -0.24897340204124699 0 -0.24877741707925849 -0.25699659267671021 0 -0.25900202517812831 -0.23792829465422941 0 -0.24877741707925849 -0.25699659267671021 0 -0.24593611480958111 -0.2460506156131427 0 -0.25900202517812831 -0.23792829465422941 0 -0.24788440363026501 -0.22820472205968459 0 -0.24593611480958111 -0.2460506156131427 0 -0.25900202517812831 -0.23792829465422941 0 -0.24877741707925849 -0.25699659267671021 0 -0.26882451759658699 -0.24897340204124699 0 -0.25900202517812831 -0.23792829465422941 0 -0.24788440363026501 -0.22820472205968459 0 -0.25900202517812831 -0.23792829465422941 0 -0.26922663327699792 -0.2188599966317484 0 -0.25900202517812831 -0.23792829465422941 0 -0.26922663327699792 -0.2188599966317484 0 -0.24782341294685259 -0.21159362870317799 0 -0.24788440363026501 -0.22820472205968459 0 -0.26922663327699792 -0.2188599966317484 0 -0.28859619870334852 -0.21948391898495431 0 -0.27841674231383651 -0.23533963720594839 0 -0.26922663327699792 -0.2188599966317484 0 -0.27841674231383651 -0.23533963720594839 0 -0.25900202517812831 -0.23792829465422941 0 -0.26922663327699792 -0.2188599966317484 0 -0.28859619870334852 -0.21948391898495431 0 -0.26922663327699792 -0.2188599966317484 0 -0.27945124137586752 -0.19979169860926749 0 -0.26922663327699792 -0.2188599966317484 0 -0.27945124137586752 -0.19979169860926749 0 -0.26922663327699792 -0.2188599966317484 0 -0.2624315645072261 -0.20202415200678761 0 -0.27945124137586752 -0.19979169860926749 0 -0.24782341294685259 -0.21159362870317799 0 -0.26922663327699792 -0.2188599966317484 0 -0.2624315645072261 -0.20202415200678761 0 -0.24784732724134709 -0.1948066265797129 0 -0.24782341294685259 -0.21159362870317799 0 -0.2624315645072261 -0.20202415200678761 0 -0.24784732724134709 -0.1948066265797129 0 -0.2624315645072261 -0.20202415200678761 0 -0.26448909360309042 -0.1849824436738553 0 -0.2624315645072261 -0.20202415200678761 0 -0.27945124137586752 -0.19979169860926749 0 -0.26448909360309042 -0.1849824436738553 0 -0.27945124137586752 -0.19979169860926749 0 -0.28981833765540049 -0.17818168384466651 0 -0.26448909360309042 -0.1849824436738553 0 -0.27945124137586752 -0.19979169860926749 0 -0.30330311319002662 -0.20106723601726961 0 -0.28981833765540049 -0.17818168384466651 0 -0.30330311319002662 -0.20106723601726961 0 -0.28981833765540049 -0.17818168384466651 0 -0.28859619870334852 -0.21948391898495431 0 -0.27945124137586752 -0.19979169860926749 0 -0.30330311319002662 -0.20106723601726961 0 -0.30330712834957552 -0.22324601809558531 0 -0.28859619870334852 -0.21948391898495431 0 -0.30330311319002662 -0.20106723601726961 0 -0.30330311319002662 -0.20106723601726961 0 -0.31678788872465258 -0.2239527881898726 0 -0.30330712834957552 -0.22324601809558531 0 -0.30330311319002662 -0.20106723601726961 0 -0.31678788872465258 -0.2239527881898726 0 -0.30330311319002662 -0.20106723601726961 0 -0.28981833765540049 -0.17818168384466651 0 -0.31591151957291902 -0.19055639179901121 0 -0.28981833765540049 -0.17818168384466651 0 -0.3160608218222466 -0.17208403854000251 0 -0.31591151957291902 -0.19055639179901121 0 -0.3078613074611446 -0.15762812703878459 0 -0.28981833765540049 -0.17818168384466651 0 -0.3160608218222466 -0.17208403854000251 0 -0.3078613074611446 -0.15762812703878459 0 -0.28981833765540049 -0.17818168384466651 0 -0.29387684517962648 -0.1555495937966451 0 -0.28981833765540049 -0.17818168384466651 0 -0.27767794271444812 -0.15403229651836819 0 -0.29387684517962648 -0.1555495937966451 0 -0.26448909360309042 -0.1849824436738553 0 -0.26001651877415782 -0.16441120228895009 0 -0.27329708780302442 -0.17089689453514639 0 -0.28981833765540049 -0.17818168384466651 0 -0.26448909360309042 -0.1849824436738553 0 -0.27329708780302442 -0.17089689453514639 0 -0.24086268815074571 -0.17320382871673029 0 -0.26448909360309042 -0.1849824436738553 0 -0.26001651877415782 -0.16441120228895009 0 -0.24784732724134709 -0.1948066265797129 0 -0.24086268815074571 -0.17320382871673029 0 -0.26448909360309042 -0.1849824436738553 0 -0.26001651877415782 -0.16441120228895009 0 -0.27329708780302442 -0.17089689453514639 0 -0.27767794271444812 -0.15403229651836819 0 -0.28981833765540049 -0.17818168384466651 0 -0.27329708780302442 -0.17089689453514639 0 -0.27767794271444812 -0.15403229651836819 0 -0.26001651877415782 -0.16441120228895009 0 -0.27767794271444812 -0.15403229651836819 0 -0.25976281942957519 -0.1453989600661211 0 -0.27767794271444812 -0.15403229651836819 0 -0.25976281942957519 -0.1453989600661211 0 -0.26958727453838938 -0.13519130366700349 0 -0.27767794271444812 -0.15403229651836819 0 -0.26958727453838938 -0.13519130366700349 0 -0.28155778919979368 -0.13884477323258879 0 -0.2477611807151324 -0.1524718822851423 0 -0.24616141878366199 -0.13271704597375511 0 -0.25976281942957519 -0.1453989600661211 0 -0.2477611807151324 -0.1524718822851423 0 -0.26001651877415782 -0.16441120228895009 0 -0.25976281942957519 -0.1453989600661211 0 -0.24616141878366199 -0.13271704597375511 0 -0.25361206496361921 -0.1194103435714617 0 -0.25976972967899731 -0.1313423288873648 0 -0.24616141878366199 -0.13271704597375511 0 -0.25976281942957519 -0.1453989600661211 0 -0.25976972967899731 -0.1313423288873648 0 -0.25976281942957519 -0.1453989600661211 0 -0.25976972967899731 -0.1313423288873648 0 -0.26958727453838938 -0.13519130366700349 0 -0.2697250706797405 -0.1239939911584825 0 -0.25976972967899731 -0.1313423288873648 0 -0.26958727453838938 -0.13519130366700349 0 -0.2697250706797405 -0.1239939911584825 0 -0.26958727453838938 -0.13519130366700349 0 -0.2795564133729857 -0.12791154291295539 0 -0.26958727453838938 -0.13519130366700349 0 -0.2795564133729857 -0.12791154291295539 0 -0.28155778919979368 -0.13884477323258879 0 -0.2795564133729857 -0.12791154291295539 0 -0.2897535505209699 -0.13132630423230379 0 -0.28155778919979368 -0.13884477323258879 0 -0.2881869443640942 -0.1198783485973209 0 -0.2795564133729857 -0.12791154291295539 0 -0.2897535505209699 -0.13132630423230379 0 -0.29669443135304391 -0.1247455153070733 0 -0.2897535505209699 -0.13132630423230379 0 -0.29950467979945888 -0.13370921563582999 0 -0.29669443135304391 -0.1247455153070733 0 -0.2881869443640942 -0.1198783485973209 0 -0.2897535505209699 -0.13132630423230379 0 -0.2897535505209699 -0.13132630423230379 0 -0.29276533259499149 -0.14254649083160811 0 -0.29950467979945888 -0.13370921563582999 0 -0.2897535505209699 -0.13132630423230379 0 -0.28155778919979368 -0.13884477323258879 0 -0.29276533259499149 -0.14254649083160811 0 -0.27767794271444812 -0.15403229651836819 0 -0.29387684517962648 -0.1555495937966451 0 -0.29276533259499149 -0.14254649083160811 0 -0.27767794271444812 -0.15403229651836819 0 -0.28155778919979368 -0.13884477323258879 0 -0.29276533259499149 -0.14254649083160811 0 -0.29387684517962648 -0.1555495937966451 0 -0.29276533259499149 -0.14254649083160811 0 -0.30266677301260758 -0.14310900901446391 0 -0.3078613074611446 -0.15762812703878459 0 -0.29387684517962648 -0.1555495937966451 0 -0.30266677301260758 -0.14310900901446391 0 -0.3078613074611446 -0.15762812703878459 0 -0.30266677301260758 -0.14310900901446391 0 -0.31252378977277839 -0.14420178970580269 0 -0.30266677301260758 -0.14310900901446391 0 -0.31596949931691681 -0.13079355904274839 0 -0.31252378977277839 -0.14420178970580269 0 -0.30266677301260758 -0.14310900901446391 0 -0.29950467979945888 -0.13370921563582999 0 -0.31596949931691681 -0.13079355904274839 0 -0.30540476340453138 -0.12693707817968419 0 -0.29950467979945888 -0.13370921563582999 0 -0.31596949931691681 -0.13079355904274839 0 -0.30574917081849978 -0.11796187813706829 0 -0.30540476340453138 -0.12693707817968419 0 -0.31596949931691681 -0.13079355904274839 0 -0.29669443135304391 -0.1247455153070733 0 -0.30540476340453138 -0.12693707817968419 0 -0.29950467979945888 -0.13370921563582999 0 -0.29276533259499149 -0.14254649083160811 0 -0.30266677301260758 -0.14310900901446391 0 -0.29950467979945888 -0.13370921563582999 0 -0.31596949931691681 -0.13079355904274839 0 -0.33169454079746902 -0.1505364385928819 0 -0.32901807023916929 -0.12855586966465729 0 -0.31979145275894949 -0.11592125692970801 0 -0.31596949931691681 -0.13079355904274839 0 -0.32901807023916929 -0.12855586966465729 0 -0.31596949931691681 -0.13079355904274839 0 -0.31252378977277839 -0.14420178970580269 0 -0.31596949931691681 -0.13079355904274839 0 -0.31252378977277839 -0.14420178970580269 0 -0.33169454079746902 -0.1505364385928819 0 -0.31596949931691681 -0.13079355904274839 0 -0.33169454079746902 -0.1505364385928819 0 -0.31252378977277839 -0.14420178970580269 0 -0.33169454079746902 -0.1505364385928819 0 -0.31974395149121421 -0.1582574173603398 0 -0.3078613074611446 -0.15762812703878459 0 -0.31252378977277839 -0.14420178970580269 0 -0.31974395149121421 -0.1582574173603398 0 -0.33169454079746902 -0.1505364385928819 0 -0.35003663081056802 -0.14765271652718601 0 -0.34741958227802161 -0.17027931814301531 0 -0.33169454079746902 -0.1505364385928819 0 -0.34229645607262971 -0.130334738323898 0 -0.35003663081056802 -0.14765271652718601 0 -0.33169454079746902 -0.1505364385928819 0 -0.32901807023916929 -0.12855586966465729 0 -0.34229645607262971 -0.130334738323898 0 -0.34229645607262971 -0.130334738323898 0 -0.36058180631750908 -0.13193953906608311 0 -0.35003663081056802 -0.14765271652718601 0 -0.35578375180062177 -0.1157261613040366 0 -0.34229645607262971 -0.130334738323898 0 -0.36058180631750908 -0.13193953906608311 0 -0.36058180631750908 -0.13193953906608311 0 -0.37795939747016938 -0.13638122394018401 0 -0.37512984738268718 -0.118402557014317 0 -0.36058180631750908 -0.13193953906608311 0 -0.36819076858721078 -0.155173548510052 0 -0.37795939747016938 -0.13638122394018401 0 -0.36058180631750908 -0.13193953906608311 0 -0.36819076858721078 -0.155173548510052 0 -0.35003663081056802 -0.14765271652718601 0 -0.36819076858721078 -0.155173548510052 0 -0.35003663081056802 -0.14765271652718601 0 -0.34741958227802161 -0.17027931814301531 0 -0.36819076858721078 -0.155173548510052 0 -0.34741958227802161 -0.17027931814301531 0 -0.36551512294743738 -0.1747599346131504 0 -0.36819076858721078 -0.155173548510052 0 -0.36551512294743738 -0.1747599346131504 0 -0.38678389021273818 -0.17818635575534081 0 -0.36551512294743738 -0.1747599346131504 0 -0.36443594234866938 -0.19248219652649079 0 -0.38678389021273818 -0.17818635575534081 0 -0.36551512294743738 -0.1747599346131504 0 -0.35440168979039149 -0.18266598438234941 0 -0.36443594234866938 -0.19248219652649079 0 -0.34741958227802161 -0.17027931814301531 0 -0.36551512294743738 -0.1747599346131504 0 -0.35440168979039149 -0.18266598438234941 0 -0.34741958227802161 -0.17027931814301531 0 -0.35440168979039149 -0.18266598438234941 0 -0.33544585910121522 -0.18321414309960979 0 -0.35440168979039149 -0.18266598438234941 0 -0.33544585910121522 -0.18321414309960979 0 -0.35123207892577879 -0.196513912733323 0 -0.34741958227802161 -0.17027931814301531 0 -0.33544585910121522 -0.18321414309960979 0 -0.33057929760243221 -0.1668366929242272 0 -0.33169454079746902 -0.1505364385928819 0 -0.34741958227802161 -0.17027931814301531 0 -0.33169454079746902 -0.1505364385928819 0 -0.34741958227802161 -0.17027931814301531 0 -0.33057929760243221 -0.1668366929242272 0 -0.33057929760243221 -0.1668366929242272 0 -0.31974395149121421 -0.1582574173603398 0 -0.3160608218222466 -0.17208403854000251 0 -0.33169454079746902 -0.1505364385928819 0 -0.33057929760243221 -0.1668366929242272 0 -0.31974395149121421 -0.1582574173603398 0 -0.3078613074611446 -0.15762812703878459 0 -0.31974395149121421 -0.1582574173603398 0 -0.3160608218222466 -0.17208403854000251 0 -0.33544585910121522 -0.18321414309960979 0 -0.3160608218222466 -0.17208403854000251 0 -0.31591151957291902 -0.19055639179901121 0 -0.33544585910121522 -0.18321414309960979 0 -0.33057929760243221 -0.1668366929242272 0 -0.3160608218222466 -0.17208403854000251 0 -0.30330311319002662 -0.20106723601726961 0 -0.31591151957291902 -0.19055639179901121 0 -0.3197378846811052 -0.20709687058183751 0 -0.31591151957291902 -0.19055639179901121 0 -0.3197378846811052 -0.20709687058183751 0 -0.33110310098752022 -0.20169437871068141 0 -0.33544585910121522 -0.18321414309960979 0 -0.31591151957291902 -0.19055639179901121 0 -0.33110310098752022 -0.20169437871068141 0 -0.3197378846811052 -0.20709687058183751 0 -0.33017087820121088 -0.21634527372769419 0 -0.31678788872465258 -0.2239527881898726 0 -0.30330311319002662 -0.20106723601726961 0 -0.3197378846811052 -0.20709687058183751 0 -0.31678788872465258 -0.2239527881898726 0 -0.3197378846811052 -0.20709687058183751 0 -0.33017087820121088 -0.21634527372769419 0 -0.33110310098752022 -0.20169437871068141 0 -0.33017087820121088 -0.21634527372769419 0 -0.34177915158050759 -0.2095661485511961 0 -0.33110310098752022 -0.20169437871068141 0 -0.33017087820121088 -0.21634527372769419 0 -0.34177915158050759 -0.2095661485511961 0 -0.34365797976390938 -0.22180259105011271 0 -0.33544585910121522 -0.18321414309960979 0 -0.33110310098752022 -0.20169437871068141 0 -0.35123207892577879 -0.196513912733323 0 -0.34177915158050759 -0.2095661485511961 0 -0.33110310098752022 -0.20169437871068141 0 -0.35123207892577879 -0.196513912733323 0 -0.35123207892577879 -0.196513912733323 0 -0.36731704193498887 -0.2095661296162237 0 -0.35440168979039149 -0.18266598438234941 0 -0.35123207892577879 -0.196513912733323 0 -0.36443594234866938 -0.19248219652649079 0 -0.36443594234866938 -0.19248219652649079 0 -0.37206398253010747 -0.20336683204088979 0 -0.38678389021273818 -0.17818635575534081 0 -0.35123207892577879 -0.196513912733323 0 -0.36443594234866938 -0.19248219652649079 0 -0.366383064691991 -0.20604622752065099 0 -0.36443594234866938 -0.19248219652649079 0 -0.37206398253010747 -0.20336683204088979 0 -0.366383064691991 -0.20604622752065099 0 -0.35123207892577879 -0.196513912733323 0 -0.36731704193498887 -0.2095661296162237 0 -0.366383064691991 -0.20604622752065099 0 -0.36731704193498887 -0.2095661296162237 0 -0.37780682697844842 -0.2180781137198777 0 -0.37206398253010747 -0.20336683204088979 0 -0.36731704193498887 -0.2095661296162237 0 -0.37780682697844842 -0.2180781137198777 0 -0.37206398253010747 -0.20336683204088979 0 -0.36731704193498887 -0.2095661296162237 0 -0.366383064691991 -0.20604622752065099 0 -0.36731704193498887 -0.2095661296162237 0 -0.366383064691991 -0.20604622752065099 0 -0.36731704193498887 -0.2095661296162237 0 -0.3527317200241184 -0.2114745865341694 0 -0.35907833539351808 -0.22263322406540839 0 -0.3527317200241184 -0.2114745865341694 0 -0.35907833539351808 -0.22263322406540839 0 -0.34365797976390938 -0.22180259105011271 0 -0.35123207892577879 -0.196513912733323 0 -0.36731704193498887 -0.2095661296162237 0 -0.3527317200241184 -0.2114745865341694 0 -0.34177915158050759 -0.2095661485511961 0 -0.35123207892577879 -0.196513912733323 0 -0.3527317200241184 -0.2114745865341694 0 -0.34177915158050759 -0.2095661485511961 0 -0.3527317200241184 -0.2114745865341694 0 -0.34365797976390938 -0.22180259105011271 0 -0.35016690757554858 -0.231046616550411 0 -0.35907833539351808 -0.22263322406540839 0 -0.34365797976390938 -0.22180259105011271 0 -0.35016690757554858 -0.231046616550411 0 -0.34123792428618122 -0.23292054714815161 0 -0.34365797976390938 -0.22180259105011271 0 -0.35016690757554858 -0.231046616550411 0 -0.35907833539351808 -0.22263322406540839 0 -0.35909049677430682 -0.236723673657359 0 -0.36731704193498887 -0.2095661296162237 0 -0.37271161035683342 -0.22989676704353301 0 -0.36731704193498887 -0.2095661296162237 0 -0.35907833539351808 -0.22263322406540839 0 -0.37271161035683342 -0.22989676704353301 0 -0.36731704193498887 -0.2095661296162237 0 -0.37271161035683342 -0.22989676704353301 0 -0.37780682697844842 -0.2180781137198777 0 -0.35907833539351808 -0.22263322406540839 0 -0.37271161035683342 -0.22989676704353301 0 -0.35909049677430682 -0.236723673657359 0 -0.37271161035683342 -0.22989676704353301 0 -0.36587464758802812 -0.24575550255018591 0 -0.37678112187297758 -0.2452336312134257 0 -0.37271161035683342 -0.22989676704353301 0 -0.36587464758802812 -0.24575550255018591 0 -0.37271161035683342 -0.22989676704353301 0 -0.36587464758802812 -0.24575550255018591 0 -0.35909049677430682 -0.236723673657359 0 -0.37334034393729149 -0.25338721452093371 0 -0.36587464758802812 -0.24575550255018591 0 -0.37678112187297758 -0.2452336312134257 0 -0.37271161035683342 -0.22989676704353301 0 -0.37678112187297758 -0.2452336312134257 0 -0.36587464758802812 -0.24575550255018591 0 -0.35708983411506928 -0.24930836992724159 0 -0.35909049677430682 -0.236723673657359 0 -0.35708983411506928 -0.24930836992724159 0 -0.35909049677430682 -0.236723673657359 0 -0.34753743757788241 -0.2416411867838876 0 -0.35016690757554858 -0.231046616550411 0 -0.35909049677430682 -0.236723673657359 0 -0.34753743757788241 -0.2416411867838876 0 -0.35016690757554858 -0.231046616550411 0 -0.34753743757788241 -0.2416411867838876 0 -0.34123792428618122 -0.23292054714815161 0 -0.34725443873700851 -0.254199054228685 0 -0.35708983411506928 -0.24930836992724159 0 -0.34753743757788241 -0.2416411867838876 0 -0.34753743757788241 -0.2416411867838876 0 -0.33027266425927859 -0.24683834036247571 0 -0.34123792428618122 -0.23292054714815161 0 -0.33027266425927859 -0.24683834036247571 0 -0.34123792428618122 -0.23292054714815161 0 -0.33125320337801301 -0.2302094934441665 0 -0.34725443873700851 -0.254199054228685 0 -0.34753743757788241 -0.2416411867838876 0 -0.33027266425927859 -0.24683834036247571 0 -0.34123792428618122 -0.23292054714815161 0 -0.34365797976390938 -0.22180259105011271 0 -0.33125320337801301 -0.2302094934441665 0 -0.33017087820121088 -0.21634527372769419 0 -0.34365797976390938 -0.22180259105011271 0 -0.33125320337801301 -0.2302094934441665 0 -0.33027266425927859 -0.24683834036247571 0 -0.33125320337801301 -0.2302094934441665 0 -0.31678788872465258 -0.2239527881898726 0 -0.33017087820121088 -0.21634527372769419 0 -0.33125320337801301 -0.2302094934441665 0 -0.31678788872465258 -0.2239527881898726 0 -0.31077711748131492 -0.25702282537168147 0 -0.33027266425927859 -0.24683834036247571 0 -0.31286630235844359 -0.23512681236420249 0 -0.33027266425927859 -0.24683834036247571 0 -0.31678788872465258 -0.2239527881898726 0 -0.31286630235844359 -0.23512681236420249 0 -0.33027266425927859 -0.24683834036247571 0 -0.31678788872465258 -0.2239527881898726 0 -0.431324128147276 -0.242745006165792 0 -0.41893322801639271 -0.2338044530633433 0 -0.44046550735716422 -0.22870790993793691 0 -0.42087927690535393 -0.25302945043118802 0 -0.431324128147276 -0.242745006165792 0 -0.41893322801639271 -0.2338044530633433 0 -0.41893322801639271 -0.2338044530633433 0 -0.43251061779431438 -0.21544815273010789 0 -0.41805894053452081 -0.21895831443383429 0 -0.41893322801639271 -0.2338044530633433 0 -0.43251061779431438 -0.21544815273010789 0 -0.41893322801639271 -0.2338044530633433 0 -0.43251061779431438 -0.21544815273010789 0 -0.44046550735716422 -0.22870790993793691 0 -0.41805894053452081 -0.21895831443383429 0 -0.41893322801639271 -0.2338044530633433 0 -0.39934305194190117 -0.23555378207553279 0 -0.41805894053452081 -0.21895831443383429 0 -0.39934305194190117 -0.23555378207553279 0 -0.40419126432368452 -0.21358618568268289 0 -0.42087927690535393 -0.25302945043118802 0 -0.39934305194190117 -0.23555378207553279 0 -0.40863835653027181 -0.26070581984513841 0 -0.42087927690535393 -0.25302945043118802 0 -0.39934305194190117 -0.23555378207553279 0 -0.42087927690535393 -0.25302945043118802 0 -0.41893322801639271 -0.2338044530633433 0 -0.39934305194190117 -0.23555378207553279 0 -0.40863835653027181 -0.26070581984513841 0 -0.39934305194190117 -0.23555378207553279 0 -0.39247053923710551 -0.24939716594219299 0 -0.39934305194190117 -0.23555378207553279 0 -0.39247053923710551 -0.24939716594219299 0 -0.38382263007745299 -0.23563189199891241 0 -0.39247053923710551 -0.24939716594219299 0 -0.38382263007745299 -0.23563189199891241 0 -0.37678112187297758 -0.2452336312134257 0 -0.37271161035683342 -0.22989676704353301 0 -0.38382263007745299 -0.23563189199891241 0 -0.37678112187297758 -0.2452336312134257 0 -0.37271161035683342 -0.22989676704353301 0 -0.38382263007745299 -0.23563189199891241 0 -0.37780682697844842 -0.2180781137198777 0 -0.39934305194190117 -0.23555378207553279 0 -0.37780682697844842 -0.2180781137198777 0 -0.39934305194190117 -0.23555378207553279 0 -0.38382263007745299 -0.23563189199891241 0 -0.37780682697844842 -0.2180781137198777 0 -0.39934305194190117 -0.23555378207553279 0 -0.39105055853759579 -0.21888150327549111 0 -0.37780682697844842 -0.2180781137198777 0 -0.37271161035683342 -0.22989676704353301 0 -0.37780682697844842 -0.2180781137198777 0 -0.39934305194190117 -0.23555378207553279 0 -0.39105055853759579 -0.21888150327549111 0 -0.40419126432368452 -0.21358618568268289 0 -0.40419126432368452 -0.21358618568268289 0 -0.39259407876975339 -0.2085619035590929 0 -0.40366957904060152 -0.19927898364260929 0 -0.39105055853759579 -0.21888150327549111 0 -0.40419126432368452 -0.21358618568268289 0 -0.39259407876975339 -0.2085619035590929 0 -0.39105055853759579 -0.21888150327549111 0 -0.38175565475819462 -0.21523660320650659 0 -0.37780682697844842 -0.2180781137198777 0 -0.39105055853759579 -0.21888150327549111 0 -0.39259407876975339 -0.2085619035590929 0 -0.38175565475819462 -0.21523660320650659 0 -0.39259407876975339 -0.2085619035590929 0 -0.38300702652837387 -0.2060159463463242 0 -0.38175565475819462 -0.21523660320650659 0 -0.39259407876975339 -0.2085619035590929 0 -0.38300702652837387 -0.2060159463463242 0 -0.39417285516683159 -0.1978705440381682 0 -0.37206398253010747 -0.20336683204088979 0 -0.38300702652837387 -0.2060159463463242 0 -0.37780682697844842 -0.2180781137198777 0 -0.38300702652837387 -0.2060159463463242 0 -0.38175565475819462 -0.21523660320650659 0 -0.38300702652837387 -0.2060159463463242 0 -0.37780682697844842 -0.2180781137198777 0 -0.38300702652837387 -0.2060159463463242 0 -0.38175565475819462 -0.21523660320650659 0 -0.37780682697844842 -0.2180781137198777 0 -0.37206398253010747 -0.20336683204088979 0 -0.38300702652837387 -0.2060159463463242 0 -0.38678389021273818 -0.17818635575534081 0 -0.38300702652837387 -0.2060159463463242 0 -0.39134935071328891 -0.1866654368828343 0 -0.38678389021273818 -0.17818635575534081 0 -0.38300702652837387 -0.2060159463463242 0 -0.38678389021273818 -0.17818635575534081 0 -0.38300702652837387 -0.2060159463463242 0 -0.39417285516683159 -0.1978705440381682 0 -0.39134935071328891 -0.1866654368828343 0 -0.37206398253010747 -0.20336683204088979 0 -0.38678389021273818 -0.17818635575534081 0 -0.38300702652837387 -0.2060159463463242 0 -0.39134935071328891 -0.1866654368828343 0 -0.39417285516683159 -0.1978705440381682 0 -0.40024424078214033 -0.18883044975998009 0 -0.39134935071328891 -0.1866654368828343 0 -0.39259407876975339 -0.2085619035590929 0 -0.39417285516683159 -0.1978705440381682 0 -0.40366957904060152 -0.19927898364260929 0 -0.39417285516683159 -0.1978705440381682 0 -0.40366957904060152 -0.19927898364260929 0 -0.40024424078214033 -0.18883044975998009 0 -0.40366957904060152 -0.19927898364260929 0 -0.40024424078214033 -0.18883044975998009 0 -0.41273184812287089 -0.1859539874306117 0 -0.4206657674048811 -0.20254714397891621 0 -0.4274101144459399 -0.1875125315356953 0 -0.41273184812287089 -0.1859539874306117 0 -0.40366957904060152 -0.19927898364260929 0 -0.4206657674048811 -0.20254714397891621 0 -0.41273184812287089 -0.1859539874306117 0 -0.41805894053452081 -0.21895831443383429 0 -0.40419126432368452 -0.21358618568268289 0 -0.4206657674048811 -0.20254714397891621 0 -0.40419126432368452 -0.21358618568268289 0 -0.40366957904060152 -0.19927898364260929 0 -0.4206657674048811 -0.20254714397891621 0 -0.4206657674048811 -0.20254714397891621 0 -0.43251061779431438 -0.21544815273010789 0 -0.44608800757223599 -0.19709185239687249 0 -0.41805894053452081 -0.21895831443383429 0 -0.4206657674048811 -0.20254714397891621 0 -0.43251061779431438 -0.21544815273010789 0 -0.4206657674048811 -0.20254714397891621 0 -0.4274101144459399 -0.1875125315356953 0 -0.44608800757223599 -0.19709185239687249 0 -0.4274101144459399 -0.1875125315356953 0 -0.4352706585219015 -0.17916657817659329 0 -0.44608800757223599 -0.19709185239687249 0 -0.4274101144459399 -0.1875125315356953 0 -0.42274811268815432 -0.1734980528815751 0 -0.4352706585219015 -0.17916657817659329 0 -0.42274811268815432 -0.1734980528815751 0 -0.4352706585219015 -0.17916657817659329 0 -0.43207154895029198 -0.1686257845925006 0 -0.43207154895029198 -0.1686257845925006 0 -0.42617368828699781 -0.16010244246298491 0 -0.43778480709051909 -0.15709303781111769 0 -0.42274811268815432 -0.1734980528815751 0 -0.43207154895029198 -0.1686257845925006 0 -0.42617368828699781 -0.16010244246298491 0 -0.42274811268815432 -0.1734980528815751 0 -0.41546125093931069 -0.1630786824860703 0 -0.40960093863489649 -0.17183721226707349 0 -0.42274811268815432 -0.1734980528815751 0 -0.42617368828699781 -0.16010244246298491 0 -0.41546125093931069 -0.1630786824860703 0 -0.42617368828699781 -0.16010244246298491 0 -0.41546125093931069 -0.1630786824860703 0 -0.41896947790465722 -0.1518515829807956 0 -0.41546125093931069 -0.1630786824860703 0 -0.41016678124950201 -0.15813243988560491 0 -0.41896947790465722 -0.1518515829807956 0 -0.41546125093931069 -0.1630786824860703 0 -0.41016678124950201 -0.15813243988560491 0 -0.4087243105406716 -0.16457545696690501 0 -0.41546125093931069 -0.1630786824860703 0 -0.40960093863489649 -0.17183721226707349 0 -0.4087243105406716 -0.16457545696690501 0 -0.40960093863489649 -0.17183721226707349 0 -0.41273184812287089 -0.1859539874306117 0 -0.40272361063028 -0.18012040275196881 0 -0.42274811268815432 -0.1734980528815751 0 -0.40960093863489649 -0.17183721226707349 0 -0.41273184812287089 -0.1859539874306117 0 -0.4274101144459399 -0.1875125315356953 0 -0.42274811268815432 -0.1734980528815751 0 -0.41273184812287089 -0.1859539874306117 0 -0.40272361063028 -0.18012040275196881 0 -0.39134935071328891 -0.1866654368828343 0 -0.39969167489820367 -0.16731492741934439 0 -0.39134935071328891 -0.1866654368828343 0 -0.38678389021273818 -0.17818635575534081 0 -0.39969167489820367 -0.16731492741934439 0 -0.39134935071328891 -0.1866654368828343 0 -0.39969167489820367 -0.16731492741934439 0 -0.40024424078214033 -0.18883044975998009 0 -0.41273184812287089 -0.1859539874306117 0 -0.40272361063028 -0.18012040275196881 0 -0.40960093863489649 -0.17183721226707349 0 -0.40272361063028 -0.18012040275196881 0 -0.39969167489820367 -0.16731492741934439 0 -0.40024424078214033 -0.18883044975998009 0 -0.40272361063028 -0.18012040275196881 0 -0.39134935071328891 -0.1866654368828343 0 -0.36819076858721078 -0.155173548510052 0 -0.38678389021273818 -0.17818635575534081 0 -0.39043679100183593 -0.151270178226627 0 -0.38678389021273818 -0.17818635575534081 0 -0.39043679100183593 -0.151270178226627 0 -0.39969167489820367 -0.16731492741934439 0 -0.4080339990831186 -0.14796441795585449 0 -0.41016678124950201 -0.15813243988560491 0 -0.39969167489820367 -0.16731492741934439 0 -0.4080339990831186 -0.14796441795585449 0 -0.39885040936521537 -0.15754487444180171 0 -0.39969167489820367 -0.16731492741934439 0 -0.4080339990831186 -0.14796441795585449 0 -0.38678389021273818 -0.17818635575534081 0 -0.39885040936521537 -0.15754487444180171 0 -0.39043679100183593 -0.151270178226627 0 -0.38678389021273818 -0.17818635575534081 0 -0.39885040936521537 -0.15754487444180171 0 -0.38678389021273818 -0.17818635575534081 0 -0.39885040936521537 -0.15754487444180171 0 -0.39969167489820367 -0.16731492741934439 0 -0.40960093863489649 -0.17183721226707349 0 -0.4087243105406716 -0.16457545696690501 0 -0.39969167489820367 -0.16731492741934439 0 -0.41016678124950201 -0.15813243988560491 0 -0.4087243105406716 -0.16457545696690501 0 -0.39969167489820367 -0.16731492741934439 0 -0.39885040936521537 -0.15754487444180171 0 -0.41091692851769201 -0.13690339312826219 0 -0.39885040936521537 -0.15754487444180171 0 -0.39043679100183593 -0.151270178226627 0 -0.41091692851769201 -0.13690339312826219 0 -0.39885040936521537 -0.15754487444180171 0 -0.41091692851769201 -0.13690339312826219 0 -0.4080339990831186 -0.14796441795585449 0 -0.36819076858721078 -0.155173548510052 0 -0.39043679100183593 -0.151270178226627 0 -0.37795939747016938 -0.13638122394018401 0 -0.37795939747016938 -0.13638122394018401 0 -0.37512984738268718 -0.118402557014317 0 -0.39408969179093423 -0.12435400069791321 0 -0.39043679100183593 -0.151270178226627 0 -0.37795939747016938 -0.13638122394018401 0 -0.39408969179093423 -0.12435400069791321 0 -0.39043679100183593 -0.151270178226627 0 -0.39408969179093423 -0.12435400069791321 0 -0.39043679100183593 -0.151270178226627 0 -0.41091692851769201 -0.13690339312826219 0 -0.39408969179093423 -0.12435400069791321 0 -0.41091692851769201 -0.13690339312826219 0 -0.42587875022664867 -0.1318020775864846 0 -0.4229834476701686 -0.1162619118147228 0 -0.41091692851769201 -0.13690339312826219 0 -0.4229834476701686 -0.1162619118147228 0 -0.41091692851769201 -0.13690339312826219 0 -0.42061428467072209 -0.1408534230942905 0 -0.42587875022664867 -0.1318020775864846 0 -0.41091692851769201 -0.13690339312826219 0 -0.4080339990831186 -0.14796441795585449 0 -0.42061428467072209 -0.1408534230942905 0 -0.41016678124950201 -0.15813243988560491 0 -0.4080339990831186 -0.14796441795585449 0 -0.41896947790465722 -0.1518515829807956 0 -0.4080339990831186 -0.14796441795585449 0 -0.41896947790465722 -0.1518515829807956 0 -0.42061428467072209 -0.1408534230942905 0 -0.41896947790465722 -0.1518515829807956 0 -0.42061428467072209 -0.1408534230942905 0 -0.43000693214905378 -0.1464675140258499 0 -0.42617368828699781 -0.16010244246298491 0 -0.41896947790465722 -0.1518515829807956 0 -0.43000693214905378 -0.1464675140258499 0 -0.43000693214905378 -0.1464675140258499 0 -0.44355658230236428 -0.14706475386342521 0 -0.43778480709051909 -0.15709303781111769 0 -0.42617368828699781 -0.16010244246298491 0 -0.43000693214905378 -0.1464675140258499 0 -0.43778480709051909 -0.15709303781111769 0 -0.43000693214905378 -0.1464675140258499 0 -0.42587875022664867 -0.1318020775864846 0 -0.43930977819922368 -0.13773369672797939 0 -0.42587875022664867 -0.1318020775864846 0 -0.44573483708591899 -0.12679062020738599 0 -0.43930977819922368 -0.13773369672797939 0 -0.42061428467072209 -0.1408534230942905 0 -0.43000693214905378 -0.1464675140258499 0 -0.42587875022664867 -0.1318020775864846 0 -0.44573483708591899 -0.12679062020738599 0 -0.43930977819922368 -0.13773369672797939 0 -0.45502800071572341 -0.13954684137215309 0 -0.43000693214905378 -0.1464675140258499 0 -0.43930977819922368 -0.13773369672797939 0 -0.44355658230236428 -0.14706475386342521 0 -0.43930977819922368 -0.13773369672797939 0 -0.44355658230236428 -0.14706475386342521 0 -0.45502800071572341 -0.13954684137215309 0 -0.44355658230236428 -0.14706475386342521 0 -0.45502800071572341 -0.13954684137215309 0 -0.45155717594460981 -0.15693019239270581 0 -0.44355658230236428 -0.14706475386342521 0 -0.45155717594460981 -0.15693019239270581 0 -0.43778480709051909 -0.15709303781111769 0 -0.46386669964029947 -0.15159749174493531 0 -0.45502800071572341 -0.13954684137215309 0 -0.45155717594460981 -0.15693019239270581 0 -0.46386669964029947 -0.15159749174493531 0 -0.45502800071572341 -0.13954684137215309 0 -0.47421291954311878 -0.14252398753110199 0 -0.46386669964029947 -0.15159749174493531 0 -0.4637885659087983 -0.15852450629178449 0 -0.45155717594460981 -0.15693019239270581 0 -0.4651019543609114 -0.1287307436472572 0 -0.45502800071572341 -0.13954684137215309 0 -0.47421291954311878 -0.14252398753110199 0 -0.44573483708591899 -0.12679062020738599 0 -0.4651019543609114 -0.1287307436472572 0 -0.45502800071572341 -0.13954684137215309 0 -0.48061455490464727 -0.12502512583606809 0 -0.48574435675330052 -0.1357635605915895 0 -0.47421291954311878 -0.14252398753110199 0 -0.4651019543609114 -0.1287307436472572 0 -0.48061455490464727 -0.12502512583606809 0 -0.47421291954311878 -0.14252398753110199 0 -0.5 -0.12810656191374931 0 -0.48574435675330052 -0.1357635605915895 0 -0.48814995256543608 -0.14739856708543869 0 -0.48061455490464727 -0.12502512583606809 0 -0.5 -0.12810656191374931 0 -0.48574435675330052 -0.1357635605915895 0 -0.5 -0.12810656191374931 0 -0.48814995256543608 -0.14739856708543869 0 -0.5 -0.15807650198148529 0 -0.48814995256543608 -0.14739856708543869 0 -0.48602055856001491 -0.1576565538556515 0 -0.5 -0.15807650198148529 0 -0.48814995256543608 -0.14739856708543869 0 -0.47607245298574191 -0.1565536124009323 0 -0.48602055856001491 -0.1576565538556515 0 -0.47421291954311878 -0.14252398753110199 0 -0.47324278712807949 -0.1603792517304021 0 -0.46386669964029947 -0.15159749174493531 0 -0.47421291954311878 -0.14252398753110199 0 -0.47324278712807949 -0.1603792517304021 0 -0.48814995256543608 -0.14739856708543869 0 -0.47421291954311878 -0.14252398753110199 0 -0.47607245298574191 -0.1565536124009323 0 -0.47421291954311878 -0.14252398753110199 0 -0.47324278712807949 -0.1603792517304021 0 -0.47607245298574191 -0.1565536124009323 0 -0.48574435675330052 -0.1357635605915895 0 -0.48814995256543608 -0.14739856708543869 0 -0.47421291954311878 -0.14252398753110199 0 -0.47324278712807949 -0.1603792517304021 0 -0.4788160821694053 -0.1634378572064959 0 -0.47175620945557389 -0.18773967870294581 0 -0.47324278712807949 -0.1603792517304021 0 -0.47607245298574191 -0.1565536124009323 0 -0.4788160821694053 -0.1634378572064959 0 -0.47324278712807949 -0.1603792517304021 0 -0.47607245298574191 -0.1565536124009323 0 -0.4788160821694053 -0.1634378572064959 0 -0.48917351244078799 -0.16715383393811609 0 -0.48305104490242923 -0.176885634421486 0 -0.47607245298574191 -0.1565536124009323 0 -0.4788160821694053 -0.1634378572064959 0 -0.48602055856001491 -0.1576565538556515 0 -0.4788160821694053 -0.1634378572064959 0 -0.48602055856001491 -0.1576565538556515 0 -0.48917351244078799 -0.16715383393811609 0 -0.48917351244078799 -0.16715383393811609 0 -0.5 -0.15807650198148529 0 -0.5 -0.18804644204922141 0 -0.48602055856001491 -0.1576565538556515 0 -0.48917351244078799 -0.16715383393811609 0 -0.5 -0.15807650198148529 0 -0.48688219275438538 -0.17791648690990691 0 -0.48424617105045731 -0.1853844973091309 0 -0.5 -0.18804644204922141 0 -0.48917351244078799 -0.16715383393811609 0 -0.48688219275438538 -0.17791648690990691 0 -0.5 -0.18804644204922141 0 -0.48917351244078799 -0.16715383393811609 0 -0.48688219275438538 -0.17791648690990691 0 -0.48305104490242923 -0.176885634421486 0 -0.48688219275438538 -0.17791648690990691 0 -0.48424617105045731 -0.1853844973091309 0 -0.48305104490242923 -0.176885634421486 0 -0.47324278712807949 -0.1603792517304021 0 -0.47175620945557389 -0.18773967870294581 0 -0.4788160821694053 -0.1634378572064959 0 -0.47613726609710999 -0.19053549674378001 0 -0.47175620945557389 -0.18773967870294581 0 -0.48424617105045731 -0.1853844973091309 0 -0.48305104490242923 -0.176885634421486 0 -0.47613726609710999 -0.19053549674378001 0 -0.4788160821694053 -0.1634378572064959 0 -0.47613726609710999 -0.19053549674378001 0 -0.4788160821694053 -0.1634378572064959 0 -0.48305104490242923 -0.176885634421486 0 -0.47613726609710999 -0.19053549674378001 0 -0.47324278712807949 -0.1603792517304021 0 -0.45966539735015771 -0.1787355520636372 0 -0.47175620945557389 -0.18773967870294581 0 -0.45966539735015771 -0.1787355520636372 0 -0.46064026799775137 -0.19004637022570531 0 -0.47175620945557389 -0.18773967870294581 0 -0.47324278712807949 -0.1603792517304021 0 -0.45966539735015771 -0.1787355520636372 0 -0.47324278712807949 -0.1603792517304021 0 -0.45966539735015771 -0.1787355520636372 0 -0.46071205291132189 -0.1648736003780244 0 -0.46386669964029947 -0.15159749174493531 0 -0.47324278712807949 -0.1603792517304021 0 -0.4637885659087983 -0.15852450629178449 0 -0.47324278712807949 -0.1603792517304021 0 -0.4637885659087983 -0.15852450629178449 0 -0.46071205291132189 -0.1648736003780244 0 -0.4637885659087983 -0.15852450629178449 0 -0.46071205291132189 -0.1648736003780244 0 -0.45155717594460981 -0.15693019239270581 0 -0.46071205291132189 -0.1648736003780244 0 -0.45217751458288252 -0.1664181002938741 0 -0.45155717594460981 -0.15693019239270581 0 -0.45966539735015771 -0.1787355520636372 0 -0.46071205291132189 -0.1648736003780244 0 -0.45217751458288252 -0.1664181002938741 0 -0.45217751458288252 -0.1664181002938741 0 -0.44406804499857022 -0.16351983424200511 0 -0.44555176694559778 -0.17238177761180001 0 -0.45217751458288252 -0.1664181002938741 0 -0.45155717594460981 -0.15693019239270581 0 -0.44406804499857022 -0.16351983424200511 0 -0.45155717594460981 -0.15693019239270581 0 -0.44406804499857022 -0.16351983424200511 0 -0.43778480709051909 -0.15709303781111769 0 -0.43207154895029198 -0.1686257845925006 0 -0.44406804499857022 -0.16351983424200511 0 -0.43778480709051909 -0.15709303781111769 0 -0.43207154895029198 -0.1686257845925006 0 -0.44406804499857022 -0.16351983424200511 0 -0.44555176694559778 -0.17238177761180001 0 -0.4352706585219015 -0.17916657817659329 0 -0.44555176694559778 -0.17238177761180001 0 -0.44608800757223599 -0.19709185239687249 0 -0.45966539735015771 -0.1787355520636372 0 -0.44555176694559778 -0.17238177761180001 0 -0.44608800757223599 -0.19709185239687249 0 -0.4352706585219015 -0.17916657817659329 0 -0.43207154895029198 -0.1686257845925006 0 -0.44555176694559778 -0.17238177761180001 0 -0.45966539735015771 -0.1787355520636372 0 -0.45217751458288252 -0.1664181002938741 0 -0.44555176694559778 -0.17238177761180001 0 -0.45966539735015771 -0.1787355520636372 0 -0.44608800757223599 -0.19709185239687249 0 -0.44608800757223599 -0.19709185239687249 0 -0.45574505731969289 -0.20618358707575141 0 -0.45641310669010637 -0.19864856852949189 0 -0.43251061779431438 -0.21544815273010789 0 -0.44608800757223599 -0.19709185239687249 0 -0.44608800757223599 -0.19709185239687249 0 -0.44699777658927309 -0.21408268984985271 0 -0.45574505731969289 -0.20618358707575141 0 -0.43251061779431438 -0.21544815273010789 0 -0.44608800757223599 -0.19709185239687249 0 -0.44699777658927309 -0.21408268984985271 0 -0.45574505731969289 -0.20618358707575141 0 -0.46265105961312658 -0.2111111039910715 0 -0.46317909387074541 -0.20127246441963861 0 -0.46669766529089313 -0.19728471345487711 0 -0.46317909387074541 -0.20127246441963861 0 -0.47026963178306802 -0.2151001056754894 0 -0.44699777658927309 -0.21408268984985271 0 -0.45574505731969289 -0.20618358707575141 0 -0.46013033823188049 -0.21623020427878609 0 -0.45574505731969289 -0.20618358707575141 0 -0.46013033823188049 -0.21623020427878609 0 -0.46265105961312658 -0.2111111039910715 0 -0.46013033823188049 -0.21623020427878609 0 -0.46265105961312658 -0.2111111039910715 0 -0.46505294024898952 -0.21692844818558599 0 -0.46265105961312658 -0.2111111039910715 0 -0.46505294024898952 -0.21692844818558599 0 -0.47026963178306802 -0.2151001056754894 0 -0.46265105961312658 -0.2111111039910715 0 -0.46317909387074541 -0.20127246441963861 0 -0.47026963178306802 -0.2151001056754894 0 -0.46669766529089313 -0.19728471345487711 0 -0.46317909387074541 -0.20127246441963861 0 -0.46064026799775137 -0.19004637022570531 0 -0.45966539735015771 -0.1787355520636372 0 -0.44608800757223599 -0.19709185239687249 0 -0.46064026799775137 -0.19004637022570531 0 -0.45574505731969289 -0.20618358707575141 0 -0.46317909387074541 -0.20127246441963861 0 -0.45641310669010637 -0.19864856852949189 0 -0.46317909387074541 -0.20127246441963861 0 -0.45641310669010637 -0.19864856852949189 0 -0.46064026799775137 -0.19004637022570531 0 -0.44608800757223599 -0.19709185239687249 0 -0.45641310669010637 -0.19864856852949189 0 -0.46064026799775137 -0.19004637022570531 0 -0.46669766529089313 -0.19728471345487711 0 -0.46064026799775137 -0.19004637022570531 0 -0.47175620945557389 -0.18773967870294581 0 -0.46669766529089313 -0.19728471345487711 0 -0.47175620945557389 -0.18773967870294581 0 -0.47026963178306802 -0.2151001056754894 0 -0.47613726609710999 -0.19053549674378001 0 -0.47175620945557389 -0.18773967870294581 0 -0.47026963178306802 -0.2151001056754894 0 -0.47175620945557389 -0.18773967870294581 0 -0.47026963178306802 -0.2151001056754894 0 -0.48424617105045731 -0.1853844973091309 0 -0.47613726609710999 -0.19053549674378001 0 -0.48844044559616467 -0.19285556116893751 0 -0.47613726609710999 -0.19053549674378001 0 -0.48162285740385208 -0.2017337388078313 0 -0.48844044559616467 -0.19285556116893751 0 -0.48424617105045731 -0.1853844973091309 0 -0.5 -0.18804644204922141 0 -0.48844044559616467 -0.19285556116893751 0 -0.5 -0.18804644204922141 0 -0.48844044559616467 -0.19285556116893751 0 -0.488729621764035 -0.2047926468790735 0 -0.48162285740385208 -0.2017337388078313 0 -0.48844044559616467 -0.19285556116893751 0 -0.488729621764035 -0.2047926468790735 0 -0.5 -0.18804644204922141 0 -0.5 -0.2180163821169574 0 -0.488729621764035 -0.2047926468790735 0 -0.488729621764035 -0.2047926468790735 0 -0.48671841188907 -0.2185736180947136 0 -0.48248968730007552 -0.20981312589907411 0 -0.5 -0.2180163821169574 0 -0.488729621764035 -0.2047926468790735 0 -0.48671841188907 -0.2185736180947136 0 -0.47613726609710999 -0.19053549674378001 0 -0.47345845002481479 -0.21763313628106429 0 -0.47026963178306802 -0.2151001056754894 0 -0.47613726609710999 -0.19053549674378001 0 -0.48162285740385208 -0.2017337388078313 0 -0.47345845002481479 -0.21763313628106429 0 -0.48162285740385208 -0.2017337388078313 0 -0.48248968730007552 -0.20981312589907411 0 -0.47345845002481479 -0.21763313628106429 0 -0.48671841188907 -0.2185736180947136 0 -0.48248968730007552 -0.20981312589907411 0 -0.47345845002481479 -0.21763313628106429 0 -0.47613726609710999 -0.19053549674378001 0 -0.47345845002481479 -0.21763313628106429 0 -0.48162285740385208 -0.2017337388078313 0 -0.488729621764035 -0.2047926468790735 0 -0.48248968730007552 -0.20981312589907411 0 -0.47345845002481479 -0.21763313628106429 0 -0.47026963178306802 -0.2151001056754894 0 -0.46878305411056281 -0.24246053264803319 0 -0.47345845002481479 -0.21763313628106429 0 -0.47844711417978197 -0.23418107674379179 0 -0.47077963395251871 -0.24473077581834859 0 -0.47026963178306802 -0.2151001056754894 0 -0.46878305411056281 -0.24246053264803319 0 -0.47345845002481479 -0.21763313628106429 0 -0.47844711417978197 -0.23418107674379179 0 -0.48074901852744878 -0.22610939048888001 0 -0.47345845002481479 -0.21763313628106429 0 -0.47077963395251871 -0.24473077581834859 0 -0.47844711417978197 -0.23418107674379179 0 -0.48074901852744878 -0.22610939048888001 0 -0.48651580347151568 -0.23260518983345449 0 -0.48671841188907 -0.2185736180947136 0 -0.47345845002481479 -0.21763313628106429 0 -0.48074901852744878 -0.22610939048888001 0 -0.5 -0.2180163821169574 0 -0.48651580347151568 -0.23260518983345449 0 -0.5 -0.24798632218469371 0 -0.48671841188907 -0.2185736180947136 0 -0.48074901852744878 -0.22610939048888001 0 -0.48651580347151568 -0.23260518983345449 0 -0.5 -0.2180163821169574 0 -0.48671841188907 -0.2185736180947136 0 -0.48651580347151568 -0.23260518983345449 0 -0.48651580347151568 -0.23260518983345449 0 -0.5 -0.24798632218469371 0 -0.48502007583338758 -0.2469378092922189 0 -0.47345845002481479 -0.21763313628106429 0 -0.47077963395251871 -0.24473077581834859 0 -0.46878305411056281 -0.24246053264803319 0 -0.47844711417978197 -0.23418107674379179 0 -0.48651580347151568 -0.23260518983345449 0 -0.48502007583338758 -0.2469378092922189 0 -0.47844711417978197 -0.23418107674379179 0 -0.48502007583338758 -0.2469378092922189 0 -0.47077963395251871 -0.24473077581834859 0 -0.46878305411056281 -0.24246053264803319 0 -0.47058323640597721 -0.24671744073993451 0 -0.46878305411056281 -0.24246053264803319 0 -0.47058323640597721 -0.24671744073993451 0 -0.46850526789622282 -0.24757318136594539 0 -0.47077963395251871 -0.24473077581834859 0 -0.46878305411056281 -0.24246053264803319 0 -0.47058323640597721 -0.24671744073993451 0 -0.47077963395251871 -0.24473077581834859 0 -0.46878305411056281 -0.24246053264803319 0 -0.47077963395251871 -0.24473077581834859 0 -0.47058323640597721 -0.24671744073993451 0 -0.46988654323412399 -0.25376486017055988 0 -0.47058323640597721 -0.24671744073993451 0 -0.46850526789622282 -0.24757318136594539 0 -0.46250353458280602 -0.25195211531325362 0 -0.46850526789622282 -0.24757318136594539 0 -0.46068842813857158 -0.2442178903407427 0 -0.46878305411056281 -0.24246053264803319 0 -0.46068842813857158 -0.2442178903407427 0 -0.46728776138324962 -0.2407602860410738 0 -0.46878305411056281 -0.24246053264803319 0 -0.46728776138324962 -0.2407602860410738 0 -0.46528478105117899 -0.2264573853618394 0 -0.46068842813857158 -0.2442178903407427 0 -0.46728776138324962 -0.2407602860410738 0 -0.45470093482645879 -0.22644823278577941 0 -0.46068842813857158 -0.2442178903407427 0 -0.45470093482645879 -0.22644823278577941 0 -0.44556350724894189 -0.24364468854636981 0 -0.46878305411056281 -0.24246053264803319 0 -0.46850526789622282 -0.24757318136594539 0 -0.46068842813857158 -0.2442178903407427 0 -0.46878305411056281 -0.24246053264803319 0 -0.46850526789622282 -0.24757318136594539 0 -0.45306907230782462 -0.25232251681507711 0 -0.46250353458280602 -0.25195211531325362 0 -0.46068842813857158 -0.2442178903407427 0 -0.46878305411056281 -0.24246053264803319 0 -0.46728776138324962 -0.2407602860410738 0 -0.47026963178306802 -0.2151001056754894 0 -0.46878305411056281 -0.24246053264803319 0 -0.46528478105117899 -0.2264573853618394 0 -0.46728776138324962 -0.2407602860410738 0 -0.46528478105117899 -0.2264573853618394 0 -0.45991604565300692 -0.22743460440239499 0 -0.46728776138324962 -0.2407602860410738 0 -0.45470093482645879 -0.22644823278577941 0 -0.46728776138324962 -0.2407602860410738 0 -0.45991604565300692 -0.22743460440239499 0 -0.46013033823188049 -0.21623020427878609 0 -0.46505294024898952 -0.21692844818558599 0 -0.46528478105117899 -0.2264573853618394 0 -0.46013033823188049 -0.21623020427878609 0 -0.46528478105117899 -0.2264573853618394 0 -0.45991604565300692 -0.22743460440239499 0 -0.46505294024898952 -0.21692844818558599 0 -0.47026963178306802 -0.2151001056754894 0 -0.46528478105117899 -0.2264573853618394 0 -0.46013033823188049 -0.21623020427878609 0 -0.45470093482645879 -0.22644823278577941 0 -0.46013033823188049 -0.21623020427878609 0 -0.45470093482645879 -0.22644823278577941 0 -0.45991604565300692 -0.22743460440239499 0 -0.44699777658927309 -0.21408268984985271 0 -0.46013033823188049 -0.21623020427878609 0 -0.45470093482645879 -0.22644823278577941 0 -0.46728776138324962 -0.2407602860410738 0 -0.45470093482645879 -0.22644823278577941 0 -0.45991604565300692 -0.22743460440239499 0 -0.45470093482645879 -0.22644823278577941 0 -0.44046550735716422 -0.22870790993793691 0 -0.44556350724894189 -0.24364468854636981 0 -0.44699777658927309 -0.21408268984985271 0 -0.45470093482645879 -0.22644823278577941 0 -0.44046550735716422 -0.22870790993793691 0 -0.43251061779431438 -0.21544815273010789 0 -0.44699777658927309 -0.21408268984985271 0 -0.44046550735716422 -0.22870790993793691 0 -0.431324128147276 -0.242745006165792 0 -0.44046550735716422 -0.22870790993793691 0 -0.44556350724894189 -0.24364468854636981 0 -0.43642607967142238 -0.26084114430695871 0 -0.431324128147276 -0.242745006165792 0 -0.44556350724894189 -0.24364468854636981 0 -0.45470093482645879 -0.22644823278577941 0 -0.44556350724894189 -0.24364468854636981 0 -0.45306907230782462 -0.25232251681507711 0 -0.46068842813857158 -0.2442178903407427 0 -0.44556350724894189 -0.24364468854636981 0 -0.41013075685666123 -0.045216552985091488 0 -0.42300428818548153 -0.036920790891838029 0 -0.41060250428109168 -0.02498039548745273 0 -0.41013075685666123 -0.045216552985091488 0 -0.42921046655246881 -0.048731716707272943 0 -0.42300428818548153 -0.036920790891838029 0 -0.41013075685666123 -0.045216552985091488 0 -0.40245884896163259 -0.06268637456240285 0 -0.42012561479932597 -0.063335518003933639 0 -0.41013075685666123 -0.045216552985091488 0 -0.42921046655246881 -0.048731716707272943 0 -0.42012561479932597 -0.063335518003933639 0 -0.42921046655246881 -0.048731716707272943 0 -0.42012561479932597 -0.063335518003933639 0 -0.43539194174688411 -0.06654154151329425 0 -0.42921046655246881 -0.048731716707272943 0 -0.43539194174688411 -0.06654154151329425 0 -0.44353922143515068 -0.056656032493996977 0 -0.42921046655246881 -0.048731716707272943 0 -0.43457235839317382 -0.030272906250053969 0 -0.44782119119379338 -0.041812495443603229 0 -0.42921046655246881 -0.048731716707272943 0 -0.42300428818548153 -0.036920790891838029 0 -0.43457235839317382 -0.030272906250053969 0 -0.43457235839317382 -0.030272906250053969 0 -0.42429674418645502 -0.026012065317738739 0 -0.42900782588607322 -0.01187416864161025 0 -0.42300428818548153 -0.036920790891838029 0 -0.43457235839317382 -0.030272906250053969 0 -0.42429674418645502 -0.026012065317738739 0 -0.42900782588607322 -0.01187416864161025 0 -0.42753451290821032 -0.0041077693211735164 0 -0.45153749756940431 -0.021236224318164892 0 -0.42900782588607322 -0.01187416864161025 0 -0.42753451290821032 -0.0041077693211735164 0 -0.41426554223393269 -0.010647885193306001 0 -0.42753451290821032 -0.0041077693211735164 0 -0.41426554223393269 -0.010647885193306001 0 -0.40353152824701721 0.013020685675819141 0 -0.42900782588607322 -0.01187416864161025 0 -0.41426554223393269 -0.010647885193306001 0 -0.41060250428109168 -0.02498039548745273 0 -0.42429674418645502 -0.026012065317738739 0 -0.42900782588607322 -0.01187416864161025 0 -0.41060250428109168 -0.02498039548745273 0 -0.42900782588607322 -0.01187416864161025 0 -0.41060250428109168 -0.02498039548745273 0 -0.41426554223393269 -0.010647885193306001 0 -0.41060250428109168 -0.02498039548745273 0 -0.39738309601218802 -0.020240455349142251 0 -0.42300428818548153 -0.036920790891838029 0 -0.42429674418645502 -0.026012065317738739 0 -0.41060250428109168 -0.02498039548745273 0 -0.41060250428109168 -0.02498039548745273 0 -0.39738309601218802 -0.020240455349142251 0 -0.3921971826761102 -0.038086622333295149 0 -0.39738309601218802 -0.020240455349142251 0 -0.38304228953602398 -0.01447921807627757 0 -0.3921971826761102 -0.038086622333295149 0 -0.41426554223393269 -0.010647885193306001 0 -0.39738309601218802 -0.020240455349142251 0 -0.39623727715936963 -0.0055457838137859374 0 -0.41426554223393269 -0.010647885193306001 0 -0.39623727715936963 -0.0055457838137859374 0 -0.40353152824701721 0.013020685675819141 0 -0.39738309601218802 -0.020240455349142251 0 -0.39623727715936963 -0.0055457838137859374 0 -0.38304228953602398 -0.01447921807627757 0 -0.36768537075595931 -0.0034867511375504031 0 -0.38304228953602398 -0.01447921807627757 0 -0.38404527332566568 0.0054737304613157491 0 -0.39623727715936963 -0.0055457838137859374 0 -0.38304228953602398 -0.01447921807627757 0 -0.38404527332566568 0.0054737304613157491 0 -0.36768537075595931 -0.0034867511375504031 0 -0.38304228953602398 -0.01447921807627757 0 -0.36663739137271589 -0.031626660852365943 0 -0.38304228953602398 -0.01447921807627757 0 -0.3921971826761102 -0.038086622333295149 0 -0.37379186107112788 -0.051192849179136517 0 -0.3921971826761102 -0.038086622333295149 0 -0.36663739137271589 -0.031626660852365943 0 -0.36879215306601582 -0.037519546680056873 0 -0.3921971826761102 -0.038086622333295149 0 -0.37379186107112788 -0.051192849179136517 0 -0.36879215306601582 -0.037519546680056873 0 -0.3921971826761102 -0.038086622333295149 0 -0.41060250428109168 -0.02498039548745273 0 -0.3921971826761102 -0.038086622333295149 0 -0.41013075685666123 -0.045216552985091488 0 -0.41060250428109168 -0.02498039548745273 0 -0.3921971826761102 -0.038086622333295149 0 -0.41013075685666123 -0.045216552985091488 0 -0.3921971826761102 -0.038086622333295149 0 -0.38987076912402441 -0.053228677915397683 0 -0.41013075685666123 -0.045216552985091488 0 -0.38987076912402441 -0.053228677915397683 0 -0.40245884896163259 -0.06268637456240285 0 -0.37379186107112788 -0.051192849179136517 0 -0.3921971826761102 -0.038086622333295149 0 -0.38987076912402441 -0.053228677915397683 0 -0.37379186107112788 -0.051192849179136517 0 -0.38987076912402441 -0.053228677915397683 0 -0.37893085518077352 -0.065247074131940669 0 -0.38987076912402441 -0.053228677915397683 0 -0.37893085518077352 -0.065247074131940669 0 -0.40245884896163259 -0.06268637456240285 0 -0.37379186107112788 -0.051192849179136517 0 -0.37893085518077352 -0.065247074131940669 0 -0.37236297611268698 -0.079385738458156205 0 -0.38799278989983133 -0.074880227336547672 0 -0.37893085518077352 -0.065247074131940669 0 -0.38799278989983133 -0.074880227336547672 0 -0.37893085518077352 -0.065247074131940669 0 -0.40245884896163259 -0.06268637456240285 0 -0.37236297611268698 -0.079385738458156205 0 -0.38799278989983133 -0.074880227336547672 0 -0.39908705820365231 -0.087531209905957821 0 -0.37303286378701889 -0.098641533718357211 0 -0.37236297611268698 -0.079385738458156205 0 -0.38502861527899229 -0.090667821078796493 0 -0.37236297611268698 -0.079385738458156205 0 -0.38502861527899229 -0.090667821078796493 0 -0.39908705820365231 -0.087531209905957821 0 -0.37236297611268698 -0.079385738458156205 0 -0.39908705820365231 -0.087531209905957821 0 -0.39908705820365231 -0.087531209905957821 0 -0.39774259258003369 -0.0974378231691998 0 -0.38502861527899229 -0.090667821078796493 0 -0.39908705820365231 -0.087531209905957821 0 -0.39774259258003369 -0.0974378231691998 0 -0.39908705820365231 -0.087531209905957821 0 -0.39774259258003369 -0.0974378231691998 0 -0.41028463467056792 -0.090944219156761083 0 -0.39908705820365231 -0.087531209905957821 0 -0.41028463467056792 -0.090944219156761083 0 -0.39908705820365231 -0.087531209905957821 0 -0.40245884896163259 -0.06268637456240285 0 -0.41323571045263657 -0.078426686321241723 0 -0.39908705820365231 -0.087531209905957821 0 -0.40245884896163259 -0.06268637456240285 0 -0.38799278989983133 -0.074880227336547672 0 -0.39908705820365231 -0.087531209905957821 0 -0.40245884896163259 -0.06268637456240285 0 -0.37512984738268718 -0.118402557014317 0 -0.39774259258003369 -0.0974378231691998 0 -0.39408969179093423 -0.12435400069791321 0 -0.37303286378701889 -0.098641533718357211 0 -0.39774259258003369 -0.0974378231691998 0 -0.37303286378701889 -0.098641533718357211 0 -0.37512984738268718 -0.118402557014317 0 -0.39774259258003369 -0.0974378231691998 0 -0.37303286378701889 -0.098641533718357211 0 -0.38502861527899229 -0.090667821078796493 0 -0.39774259258003369 -0.0974378231691998 0 -0.39774259258003369 -0.0974378231691998 0 -0.39408969179093423 -0.12435400069791321 0 -0.41091692851769201 -0.13690339312826219 0 -0.39408969179093423 -0.12435400069791321 0 -0.40738217954696998 -0.1133211997610738 0 -0.39774259258003369 -0.0974378231691998 0 -0.39408969179093423 -0.12435400069791321 0 -0.40738217954696998 -0.1133211997610738 0 -0.41091692851769201 -0.13690339312826219 0 -0.40738217954696998 -0.1133211997610738 0 -0.4229834476701686 -0.1162619118147228 0 -0.39774259258003369 -0.0974378231691998 0 -0.41639627970133819 -0.096529126835190132 0 -0.41028463467056792 -0.090944219156761083 0 -0.39774259258003369 -0.0974378231691998 0 -0.40738217954696998 -0.1133211997610738 0 -0.41639627970133819 -0.096529126835190132 0 -0.39774259258003369 -0.0974378231691998 0 -0.41639627970133819 -0.096529126835190132 0 -0.40738217954696998 -0.1133211997610738 0 -0.41639627970133819 -0.096529126835190132 0 -0.4229834476701686 -0.1162619118147228 0 -0.43504996682264269 -0.095620430501181825 0 -0.4229834476701686 -0.1162619118147228 0 -0.45043876455925308 -0.1077367387061282 0 -0.41639627970133819 -0.096529126835190132 0 -0.43504996682264269 -0.095620430501181825 0 -0.43504996682264269 -0.095620430501181825 0 -0.4229834476701686 -0.1162619118147228 0 -0.41639627970133819 -0.096529126835190132 0 -0.43504996682264269 -0.095620430501181825 0 -0.4229834476701686 -0.1162619118147228 0 -0.42587875022664867 -0.1318020775864846 0 -0.44573483708591899 -0.12679062020738599 0 -0.4229834476701686 -0.1162619118147228 0 -0.40245884896163259 -0.06268637456240285 0 -0.42012561479932597 -0.063335518003933639 0 -0.41323571045263657 -0.078426686321241723 0 -0.42012561479932597 -0.063335518003933639 0 -0.41323571045263657 -0.078426686321241723 0 -0.42765114638797741 -0.07759239046671923 0 -0.39908705820365231 -0.087531209905957821 0 -0.41323571045263657 -0.078426686321241723 0 -0.41028463467056792 -0.090944219156761083 0 -0.41639627970133819 -0.096529126835190132 0 -0.41028463467056792 -0.090944219156761083 0 -0.42052354760703259 -0.087822570656218471 0 -0.41323571045263657 -0.078426686321241723 0 -0.42052354760703259 -0.087822570656218471 0 -0.42765114638797741 -0.07759239046671923 0 -0.41323571045263657 -0.078426686321241723 0 -0.41028463467056792 -0.090944219156761083 0 -0.42052354760703259 -0.087822570656218471 0 -0.43504996682264269 -0.095620430501181825 0 -0.42765114638797741 -0.07759239046671923 0 -0.44686656120491802 -0.075406480724184599 0 -0.43504996682264269 -0.095620430501181825 0 -0.42052354760703259 -0.087822570656218471 0 -0.42765114638797741 -0.07759239046671923 0 -0.41639627970133819 -0.096529126835190132 0 -0.43504996682264269 -0.095620430501181825 0 -0.42052354760703259 -0.087822570656218471 0 -0.42765114638797741 -0.07759239046671923 0 -0.43539194174688411 -0.06654154151329425 0 -0.44686656120491802 -0.075406480724184599 0 -0.42012561479932597 -0.063335518003933639 0 -0.42765114638797741 -0.07759239046671923 0 -0.43539194174688411 -0.06654154151329425 0 -0.44686656120491802 -0.075406480724184599 0 -0.45868315558719058 -0.055192530947185792 0 -0.43539194174688411 -0.06654154151329425 0 -0.44686656120491802 -0.075406480724184599 0 -0.44353922143515068 -0.056656032493996977 0 -0.43504996682264269 -0.095620430501181825 0 -0.44686656120491802 -0.075406480724184599 0 -0.43504996682264269 -0.095620430501181825 0 -0.44686656120491802 -0.075406480724184599 0 -0.46457702442350879 -0.09418204843646967 0 -0.44686656120491802 -0.075406480724184599 0 -0.46398980370437698 -0.071855496188378401 0 -0.46457702442350879 -0.09418204843646967 0 -0.46398980370437698 -0.071855496188378401 0 -0.4810684928406741 -0.068096067740520738 0 -0.45868315558719058 -0.055192530947185792 0 -0.44686656120491802 -0.075406480724184599 0 -0.46398980370437698 -0.071855496188378401 0 -0.45868315558719058 -0.055192530947185792 0 -0.44573483708591899 -0.12679062020738599 0 -0.4229834476701686 -0.1162619118147228 0 -0.45043876455925308 -0.1077367387061282 0 -0.43504996682264269 -0.095620430501181825 0 -0.46457702442350879 -0.09418204843646967 0 -0.43504996682264269 -0.095620430501181825 0 -0.45043876455925308 -0.1077367387061282 0 -0.46457702442350879 -0.09418204843646967 0 -0.45043876455925308 -0.1077367387061282 0 -0.46457702442350879 -0.09418204843646967 0 -0.46991945955514858 -0.109767143289577 0 -0.44573483708591899 -0.12679062020738599 0 -0.4651019543609114 -0.1287307436472572 0 -0.46991945955514858 -0.109767143289577 0 -0.44573483708591899 -0.12679062020738599 0 -0.45043876455925308 -0.1077367387061282 0 -0.46991945955514858 -0.109767143289577 0 -0.44573483708591899 -0.12679062020738599 0 -0.46991945955514858 -0.109767143289577 0 -0.4651019543609114 -0.1287307436472572 0 -0.48061455490464727 -0.12502512583606809 0 -0.46991945955514858 -0.109767143289577 0 -0.48061455490464727 -0.12502512583606809 0 -0.46991945955514858 -0.109767143289577 0 -0.48693909555411191 -0.1081709580274276 0 -0.46457702442350879 -0.09418204843646967 0 -0.46991945955514858 -0.109767143289577 0 -0.49410408202437511 -0.092743666371763622 0 -0.46991945955514858 -0.109767143289577 0 -0.48693909555411191 -0.1081709580274276 0 -0.49410408202437511 -0.092743666371763622 0 -0.46991945955514858 -0.109767143289577 0 -0.49410408202437511 -0.092743666371763622 0 -0.50000000000000355 -0.098136621846013156 0 -0.48693909555411191 -0.1081709580274276 0 -0.49410408202437511 -0.092743666371763622 0 -0.50000000000000355 -0.098136621846013156 0 -0.49410408202437511 -0.092743666371763622 0 -0.49652698648141458 -0.092625636923561794 0 -0.50000000000000355 -0.098136621846013156 0 -0.49999999999998729 -0.092456452427662733 0 -0.49652698648141458 -0.092625636923561794 0 -0.50000000000000355 -0.098136621846013156 0 -0.49652698648141458 -0.092625636923561794 0 -0.48061455490464727 -0.12502512583606809 0 -0.5 -0.12810656191374931 0 -0.48693909555411191 -0.1081709580274276 0 -0.5 -0.12810656191374931 0 -0.50000000000000355 -0.098136621846013156 0 -0.48693909555411191 -0.1081709580274276 0 -0.46398980370437698 -0.071855496188378401 0 -0.4810684928406741 -0.068096067740520738 0 -0.47991467869384891 -0.083680653637765223 0 -0.46398980370437698 -0.071855496188378401 0 -0.46457702442350879 -0.09418204843646967 0 -0.47991467869384891 -0.083680653637765223 0 -0.46457702442350879 -0.09418204843646967 0 -0.47991467869384891 -0.083680653637765223 0 -0.49410408202437511 -0.092743666371763622 0 -0.46457702442350879 -0.09418204843646967 0 -0.49410408202437511 -0.092743666371763622 0 -0.4810684928406741 -0.068096067740520738 0 -0.47991467869384891 -0.083680653637765223 0 -0.49652698648141458 -0.092625636923561794 0 -0.4810684928406741 -0.068096067740520738 0 -0.50000000000000111 -0.088593548928544305 0 -0.49652698648141458 -0.092625636923561794 0 -0.47991467869384891 -0.083680653637765223 0 -0.49410408202437511 -0.092743666371763622 0 -0.49652698648141458 -0.092625636923561794 0 -0.4810684928406741 -0.068096067740520738 0 -0.49652698648141458 -0.092625636923561794 0 -0.49410408202437511 -0.092743666371763622 0 -0.49652698648141458 -0.092625636923561794 0 -0.50000000000000111 -0.088593548928544305 0 -0.49652698648141458 -0.092625636923561794 0 -0.50000000000000111 -0.088593548928544305 0 -0.49999999999998729 -0.092456452427662733 0 -0.49652698648141458 -0.092625636923561794 0 -0.49999999999998729 -0.092456452427662733 0 -0.49652698648141458 -0.092625636923561794 0 -0.4810684928406741 -0.068096067740520738 0 -0.50000000000000111 -0.088593548928544305 0 -0.5 -0.060419614215614807 0 -0.4810684928406741 -0.068096067740520738 0 -0.5 -0.060419614215614807 0 -0.48133692861178329 -0.050926394258175738 0 -0.5 -0.060419614215614807 0 -0.4877834614190325 -0.040408445859868879 0 -0.48133692861178329 -0.050926394258175738 0 -0.5 -0.032245679502685309 0 -0.4877834614190325 -0.040408445859868879 0 -0.48316691530256223 -0.028885162629116948 0 -0.5 -0.060419614215614807 0 -0.5 -0.032245679502685309 0 -0.4877834614190325 -0.040408445859868879 0 -0.4877834614190325 -0.040408445859868879 0 -0.47392911823707778 -0.037214814994686297 0 -0.48316691530256223 -0.028885162629116948 0 -0.4877834614190325 -0.040408445859868879 0 -0.47392911823707778 -0.037214814994686297 0 -0.48133692861178329 -0.050926394258175738 0 -0.47392911823707778 -0.037214814994686297 0 -0.48133692861178329 -0.050926394258175738 0 -0.46630299520503993 -0.044666146029342199 0 -0.4810684928406741 -0.068096067740520738 0 -0.46630299520503993 -0.044666146029342199 0 -0.4810684928406741 -0.068096067740520738 0 -0.48133692861178329 -0.050926394258175738 0 -0.46630299520503993 -0.044666146029342199 0 -0.4810684928406741 -0.068096067740520738 0 -0.45868315558719058 -0.055192530947185792 0 -0.46630299520503993 -0.044666146029342199 0 -0.45868315558719058 -0.055192530947185792 0 -0.46630299520503993 -0.044666146029342199 0 -0.44782119119379338 -0.041812495443603229 0 -0.46630299520503993 -0.044666146029342199 0 -0.44782119119379338 -0.041812495443603229 0 -0.45153749756940431 -0.021236224318164892 0 -0.47392911823707778 -0.037214814994686297 0 -0.46630299520503993 -0.044666146029342199 0 -0.45153749756940431 -0.021236224318164892 0 -0.46630299520503993 -0.044666146029342199 0 -0.45153749756940431 -0.021236224318164892 0 -0.42921046655246881 -0.048731716707272943 0 -0.44782119119379338 -0.041812495443603229 0 -0.44353922143515068 -0.056656032493996977 0 -0.44686656120491802 -0.075406480724184599 0 -0.45868315558719058 -0.055192530947185792 0 -0.44353922143515068 -0.056656032493996977 0 -0.45868315558719058 -0.055192530947185792 0 -0.44782119119379338 -0.041812495443603229 0 -0.44353922143515068 -0.056656032493996977 0 -0.43978973530290538 -0.0025948512349178859 0 -0.45153749756940431 -0.021236224318164892 0 -0.42753451290821032 -0.0041077693211735164 0 -0.43978973530290538 -0.0025948512349178859 0 -0.45153749756940431 -0.021236224318164892 0 -0.42753451290821032 -0.0041077693211735164 0 -0.45153749756940431 -0.021236224318164892 0 -0.4530918624046133 -0.0013246938478149381 0 -0.43978973530290538 -0.0025948512349178859 0 -0.45153749756940431 -0.021236224318164892 0 -0.43457235839317382 -0.030272906250053969 0 -0.44782119119379338 -0.041812495443603229 0 -0.45153749756940431 -0.021236224318164892 0 -0.43457235839317382 -0.030272906250053969 0 -0.42900782588607322 -0.01187416864161025 0 -0.45153749756940431 -0.021236224318164892 0 -0.47392911823707778 -0.037214814994686297 0 -0.45153749756940431 -0.021236224318164892 0 -0.45153749756940431 -0.021236224318164892 0 -0.46564859055178021 -0.0058551364207554283 0 -0.47131858937992283 -0.021170392251317019 0 -0.47392911823707778 -0.037214814994686297 0 -0.45153749756940431 -0.021236224318164892 0 -0.47131858937992283 -0.021170392251317019 0 -0.4530918624046133 -0.0013246938478149381 0 -0.45153749756940431 -0.021236224318164892 0 -0.46564859055178021 -0.0058551364207554283 0 -0.46564859055178021 -0.0058551364207554283 0 -0.48280340747677758 -0.01338648053702724 0 -0.47131858937992283 -0.021170392251317019 0 -0.46564859055178021 -0.0058551364207554283 0 -0.48280340747677758 -0.01338648053702724 0 -0.47972053542522758 0.010821149055594141 0 -0.47392911823707778 -0.037214814994686297 0 -0.47131858937992283 -0.021170392251317019 0 -0.48316691530256223 -0.028885162629116948 0 -0.48280340747677758 -0.01338648053702724 0 -0.47131858937992283 -0.021170392251317019 0 -0.48316691530256223 -0.028885162629116948 0 -0.5 -0.032245679502685309 0 -0.48280340747677758 -0.01338648053702724 0 -0.48316691530256223 -0.028885162629116948 0 -0.5 -0.032245679502685309 0 -0.48280340747677758 -0.01338648053702724 0 -0.5 -0.0040717447897558054 0 -0.48280340747677758 -0.01338648053702724 0 -0.5 -0.0040717447897558054 0 -0.47972053542522758 0.010821149055594141 0 -0.5 -0.0040717447897558054 0 -0.5 0.0241021899231737 0 -0.47972053542522758 0.010821149055594141 0 -0.5 0.0241021899231737 0 -0.47952121614359772 0.03056163467169392 0 -0.47972053542522758 0.010821149055594141 0 -0.47952121614359772 0.03056163467169392 0 -0.47972053542522758 0.010821149055594141 0 -0.46343514548032089 0.024880644026960549 0 -0.49999999999999611 0.052276124636103198 0 -0.48759501123716181 0.043024517567641307 0 -0.48898309742521501 0.062893637995046048 0 -0.49999999999999611 0.052276124636103198 0 -0.48898309742521501 0.062893637995046048 0 -0.49999999999999611 0.052276124636103198 0 -0.48898309742521501 0.062893637995046048 0 -0.49199852369016178 0.065614246884688171 0 -0.5 0.0241021899231737 0 -0.49999999999999611 0.052276124636103198 0 -0.48759501123716181 0.043024517567641307 0 -0.5 0.0241021899231737 0 -0.47952121614359772 0.03056163467169392 0 -0.48759501123716181 0.043024517567641307 0 -0.47952121614359772 0.03056163467169392 0 -0.48759501123716181 0.043024517567641307 0 -0.4694707426170015 0.045289000612191467 0 -0.47952121614359772 0.03056163467169392 0 -0.4694707426170015 0.045289000612191467 0 -0.46343514548032089 0.024880644026960549 0 -0.4694707426170015 0.045289000612191467 0 -0.48898309742521501 0.062893637995046048 0 -0.4694707426170015 0.045289000612191467 0 -0.4734453947844447 0.05969577572180447 0 -0.48898309742521501 0.062893637995046048 0 -0.48759501123716181 0.043024517567641307 0 -0.4694707426170015 0.045289000612191467 0 -0.48898309742521501 0.062893637995046048 0 -0.4694707426170015 0.045289000612191467 0 -0.4734453947844447 0.05969577572180447 0 -0.45653325908117531 0.056819967533798317 0 -0.4694707426170015 0.045289000612191467 0 -0.4499583878087875 0.027684363229337511 0 -0.4694707426170015 0.045289000612191467 0 -0.45653325908117531 0.056819967533798317 0 -0.4499583878087875 0.027684363229337511 0 -0.4694707426170015 0.045289000612191467 0 -0.46343514548032089 0.024880644026960549 0 -0.4499583878087875 0.027684363229337511 0 -0.45653325908117531 0.056819967533798317 0 -0.4499583878087875 0.027684363229337511 0 -0.44747726134203952 0.02820053945568872 0 -0.45653325908117531 0.056819967533798317 0 -0.44156375042798451 0.044433785541916133 0 -0.44747726134203952 0.02820053945568872 0 -0.44156375042798451 0.044433785541916133 0 -0.44747726134203952 0.02820053945568872 0 -0.43188573605597408 0.031444217193634723 0 -0.45653325908117531 0.056819967533798317 0 -0.44747726134203952 0.02820053945568872 0 -0.45653325908117531 0.056819967533798317 0 -0.44156375042798451 0.044433785541916133 0 -0.4355937226063295 0.06314057536288295 0 -0.4530918624046133 -0.0013246938478149381 0 -0.46564859055178021 -0.0058551364207554283 0 -0.46019843184873399 0.011663499441390069 0 -0.46564859055178021 -0.0058551364207554283 0 -0.47972053542522758 0.010821149055594141 0 -0.46019843184873399 0.011663499441390069 0 -0.4530918624046133 -0.0013246938478149381 0 -0.46019843184873399 0.011663499441390069 0 -0.44828505675024088 0.011399243293372441 0 -0.46019843184873399 0.011663499441390069 0 -0.46343514548032089 0.024880644026960549 0 -0.4499583878087875 0.027684363229337511 0 -0.47972053542522758 0.010821149055594141 0 -0.46019843184873399 0.011663499441390069 0 -0.46343514548032089 0.024880644026960549 0 -0.46343514548032089 0.024880644026960549 0 -0.4499583878087875 0.027684363229337511 0 -0.44705280659701829 0.025062859873008079 0 -0.44828505675024088 0.011399243293372441 0 -0.43191419415446258 0.01140434529851256 0 -0.4499583878087875 0.027684363229337511 0 -0.44705280659701829 0.025062859873008079 0 -0.44828505675024088 0.011399243293372441 0 -0.46019843184873399 0.011663499441390069 0 -0.4499583878087875 0.027684363229337511 0 -0.44828505675024088 0.011399243293372441 0 -0.44705280659701829 0.025062859873008079 0 -0.44747726134203952 0.02820053945568872 0 -0.4499583878087875 0.027684363229337511 0 -0.44705280659701829 0.025062859873008079 0 -0.4499583878087875 0.027684363229337511 0 -0.44705280659701829 0.025062859873008079 0 -0.44747726134203952 0.02820053945568872 0 -0.4499583878087875 0.027684363229337511 0 -0.44747726134203952 0.02820053945568872 0 -0.44747726134203952 0.02820053945568872 0 -0.43188573605597408 0.031444217193634723 0 -0.44705280659701829 0.025062859873008079 0 -0.4349026352101934 0.021187546436613539 0 -0.43188573605597408 0.031444217193634723 0 -0.44705280659701829 0.025062859873008079 0 -0.44747726134203952 0.02820053945568872 0 -0.43188573605597408 0.031444217193634723 0 -0.44705280659701829 0.025062859873008079 0 -0.43191419415446258 0.01140434529851256 0 -0.44705280659701829 0.025062859873008079 0 -0.43191419415446258 0.01140434529851256 0 -0.4349026352101934 0.021187546436613539 0 -0.43978973530290538 -0.0025948512349178859 0 -0.44828505675024088 0.011399243293372441 0 -0.43191419415446258 0.01140434529851256 0 -0.4530918624046133 -0.0013246938478149381 0 -0.43978973530290538 -0.0025948512349178859 0 -0.44828505675024088 0.011399243293372441 0 -0.42753451290821032 -0.0041077693211735164 0 -0.41551692324042189 0.016719310206477069 0 -0.42804197303640501 0.016046521848328121 0 -0.42753451290821032 -0.0041077693211735164 0 -0.43978973530290538 -0.0025948512349178859 0 -0.42804197303640501 0.016046521848328121 0 -0.43978973530290538 -0.0025948512349178859 0 -0.42804197303640501 0.016046521848328121 0 -0.43978973530290538 -0.0025948512349178859 0 -0.43191419415446258 0.01140434529851256 0 -0.42804197303640501 0.016046521848328121 0 -0.42753451290821032 -0.0041077693211735164 0 -0.41551692324042189 0.016719310206477069 0 -0.40353152824701721 0.013020685675819141 0 -0.42753451290821032 -0.0041077693211735164 0 -0.40353152824701721 0.013020685675819141 0 -0.41470168181689832 0.029235895123620969 0 -0.42804197303640501 0.016046521848328121 0 -0.41629421076990791 0.034687894931576278 0 -0.41551692324042189 0.016719310206477069 0 -0.41470168181689832 0.029235895123620969 0 -0.40419179141562489 0.025120995603958581 0 -0.41470168181689832 0.029235895123620969 0 -0.40768028018796321 0.036479946341063912 0 -0.40419179141562489 0.025120995603958581 0 -0.41551692324042189 0.016719310206477069 0 -0.40353152824701721 0.013020685675819141 0 -0.40419179141562489 0.025120995603958581 0 -0.41551692324042189 0.016719310206477069 0 -0.41470168181689832 0.029235895123620969 0 -0.42804197303640501 0.016046521848328121 0 -0.4277811387681193 0.025841545102537632 0 -0.42804197303640501 0.016046521848328121 0 -0.41629421076990791 0.034687894931576278 0 -0.42804197303640501 0.016046521848328121 0 -0.41629421076990791 0.034687894931576278 0 -0.4277811387681193 0.025841545102537632 0 -0.43188573605597408 0.031444217193634723 0 -0.41629421076990791 0.034687894931576278 0 -0.4277811387681193 0.025841545102537632 0 -0.42804197303640501 0.016046521848328121 0 -0.4349026352101934 0.021187546436613539 0 -0.43191419415446258 0.01140434529851256 0 -0.42804197303640501 0.016046521848328121 0 -0.4349026352101934 0.021187546436613539 0 -0.4277811387681193 0.025841545102537632 0 -0.4349026352101934 0.021187546436613539 0 -0.43188573605597408 0.031444217193634723 0 -0.44156375042798451 0.044433785541916133 0 -0.43188573605597408 0.031444217193634723 0 -0.42799937758564438 0.045732234481250092 0 -0.43188573605597408 0.031444217193634723 0 -0.42799937758564438 0.045732234481250092 0 -0.41629421076990791 0.034687894931576278 0 -0.43188573605597408 0.031444217193634723 0 -0.41629421076990791 0.034687894931576278 0 -0.44156375042798451 0.044433785541916133 0 -0.42799937758564438 0.045732234481250092 0 -0.4355937226063295 0.06314057536288295 0 -0.42799937758564438 0.045732234481250092 0 -0.42124839822839127 0.057476952769104847 0 -0.4355937226063295 0.06314057536288295 0 -0.42124839822839127 0.057476952769104847 0 -0.40337658542607291 0.055185609127802203 0 -0.40630236097227779 0.06956784619838853 0 -0.42124839822839127 0.057476952769104847 0 -0.41629421076990791 0.034687894931576278 0 -0.40337658542607291 0.055185609127802203 0 -0.41629421076990791 0.034687894931576278 0 -0.40768028018796321 0.036479946341063912 0 -0.40337658542607291 0.055185609127802203 0 -0.42799937758564438 0.045732234481250092 0 -0.42124839822839127 0.057476952769104847 0 -0.41629421076990791 0.034687894931576278 0 -0.41629421076990791 0.034687894931576278 0 -0.40337658542607291 0.055185609127802203 0 -0.41629421076990791 0.034687894931576278 0 -0.40768028018796321 0.036479946341063912 0 -0.41470168181689832 0.029235895123620969 0 -0.41629421076990791 0.034687894931576278 0 -0.40768028018796321 0.036479946341063912 0 -0.41470168181689832 0.029235895123620969 0 -0.40768028018796321 0.036479946341063912 0 -0.40768028018796321 0.036479946341063912 0 -0.37849705506897241 0.042551255972623443 0 -0.40768028018796321 0.036479946341063912 0 -0.39146670008228529 0.05320766124909572 0 -0.37849705506897241 0.042551255972623443 0 -0.40768028018796321 0.036479946341063912 0 -0.39146670008228529 0.05320766124909572 0 -0.40768028018796321 0.036479946341063912 0 -0.40337658542607291 0.055185609127802203 0 -0.39146670008228529 0.05320766124909572 0 -0.40337658542607291 0.055185609127802203 0 -0.39146670008228529 0.05320766124909572 0 -0.39406498779236399 0.064554012748570852 0 -0.39146670008228529 0.05320766124909572 0 -0.3752531199766081 0.069935376157128082 0 -0.39146670008228529 0.05320766124909572 0 -0.37800026501006578 0.056376605091929419 0 -0.3752531199766081 0.069935376157128082 0 -0.37800026501006578 0.056376605091929419 0 -0.37849705506897241 0.042551255972623443 0 -0.36850840586634642 0.049872208884288748 0 -0.39146670008228529 0.05320766124909572 0 -0.37800026501006578 0.056376605091929419 0 -0.37849705506897241 0.042551255972623443 0 -0.37849705506897241 0.042551255972623443 0 -0.37952854358582422 0.030149140672811822 0 -0.36850840586634642 0.049872208884288748 0 -0.40768028018796321 0.036479946341063912 0 -0.37849705506897241 0.042551255972623443 0 -0.37952854358582422 0.030149140672811822 0 -0.37952854358582422 0.030149140672811822 0 -0.38404527332566568 0.0054737304613157491 0 -0.36920175737863042 0.014667987736723171 0 -0.37952854358582422 0.030149140672811822 0 -0.38404527332566568 0.0054737304613157491 0 -0.40353152824701721 0.013020685675819141 0 -0.39623727715936963 -0.0055457838137859374 0 -0.38404527332566568 0.0054737304613157491 0 -0.40353152824701721 0.013020685675819141 0 -0.37952854358582422 0.030149140672811822 0 -0.40353152824701721 0.013020685675819141 0 -0.37952854358582422 0.030149140672811822 0 -0.40353152824701721 0.013020685675819141 0 -0.40419179141562489 0.025120995603958581 0 -0.40768028018796321 0.036479946341063912 0 -0.37952854358582422 0.030149140672811822 0 -0.40419179141562489 0.025120995603958581 0 -0.39732836172430092 0.1063647590023211 0 -0.40064366950635949 0.087808196558274446 0 -0.41077689304230608 0.097936236537890187 0 -0.39732836172430092 0.1063647590023211 0 -0.41077689304230608 0.097936236537890187 0 -0.40954901451848802 0.1135849315488513 0 -0.39732836172430092 0.1063647590023211 0 -0.38708125519983438 0.097294758294592207 0 -0.40064366950635949 0.087808196558274446 0 -0.39732836172430092 0.1063647590023211 0 -0.39830859976972932 0.1199577298729749 0 -0.37698845043425261 0.1175472765551424 0 -0.39830859976972932 0.1199577298729749 0 -0.37698845043425261 0.1175472765551424 0 -0.39750884028201577 0.13532526007508999 0 -0.39732836172430092 0.1063647590023211 0 -0.39830859976972932 0.1199577298729749 0 -0.40954901451848802 0.1135849315488513 0 -0.39830859976972932 0.1199577298729749 0 -0.40954901451848802 0.1135849315488513 0 -0.4101683318895889 0.1269664221834696 0 -0.37698845043425261 0.1175472765551424 0 -0.38708125519983438 0.097294758294592207 0 -0.37444869731353558 0.090467659160156019 0 -0.39732836172430092 0.1063647590023211 0 -0.37698845043425261 0.1175472765551424 0 -0.38708125519983438 0.097294758294592207 0 -0.37698845043425261 0.1175472765551424 0 -0.37444869731353558 0.090467659160156019 0 -0.38708125519983438 0.097294758294592207 0 -0.38599709702072321 0.084285900197067082 0 -0.37444869731353558 0.090467659160156019 0 -0.38599709702072321 0.084285900197067082 0 -0.3752531199766081 0.069935376157128082 0 -0.37444869731353558 0.090467659160156019 0 -0.38599709702072321 0.084285900197067082 0 -0.3752531199766081 0.069935376157128082 0 -0.39392617250457612 0.074873571010439774 0 -0.3752531199766081 0.069935376157128082 0 -0.39406498779236399 0.064554012748570852 0 -0.39392617250457612 0.074873571010439774 0 -0.39146670008228529 0.05320766124909572 0 -0.3752531199766081 0.069935376157128082 0 -0.39406498779236399 0.064554012748570852 0 -0.39392617250457612 0.074873571010439774 0 -0.40064366950635949 0.087808196558274446 0 -0.40630236097227779 0.06956784619838853 0 -0.39406498779236399 0.064554012748570852 0 -0.39392617250457612 0.074873571010439774 0 -0.40630236097227779 0.06956784619838853 0 -0.40337658542607291 0.055185609127802203 0 -0.39406498779236399 0.064554012748570852 0 -0.40630236097227779 0.06956784619838853 0 -0.38708125519983438 0.097294758294592207 0 -0.38599709702072321 0.084285900197067082 0 -0.40064366950635949 0.087808196558274446 0 -0.38599709702072321 0.084285900197067082 0 -0.39392617250457612 0.074873571010439774 0 -0.40064366950635949 0.087808196558274446 0 -0.40064366950635949 0.087808196558274446 0 -0.40630236097227779 0.06956784619838853 0 -0.42253727256359108 0.079800082783036352 0 -0.42253727256359108 0.079800082783036352 0 -0.42382614689879089 0.1021232127969678 0 -0.41077689304230608 0.097936236537890187 0 -0.40064366950635949 0.087808196558274446 0 -0.42253727256359108 0.079800082783036352 0 -0.41077689304230608 0.097936236537890187 0 -0.42124839822839127 0.057476952769104847 0 -0.40630236097227779 0.06956784619838853 0 -0.42253727256359108 0.079800082783036352 0 -0.4355937226063295 0.06314057536288295 0 -0.42253727256359108 0.079800082783036352 0 -0.44397852443351488 0.083266668421455983 0 -0.42124839822839127 0.057476952769104847 0 -0.42253727256359108 0.079800082783036352 0 -0.42124839822839127 0.057476952769104847 0 -0.4355937226063295 0.06314057536288295 0 -0.42253727256359108 0.079800082783036352 0 -0.42253727256359108 0.079800082783036352 0 -0.42382614689879089 0.1021232127969678 0 -0.44397852443351488 0.083266668421455983 0 -0.42253727256359108 0.079800082783036352 0 -0.42382614689879089 0.1021232127969678 0 -0.42382614689879089 0.1021232127969678 0 -0.41077689304230608 0.097936236537890187 0 -0.40954901451848802 0.1135849315488513 0 -0.42382614689879089 0.1021232127969678 0 -0.40954901451848802 0.1135849315488513 0 -0.4179450011339057 0.1200531646008107 0 -0.40954901451848802 0.1135849315488513 0 -0.4179450011339057 0.1200531646008107 0 -0.4101683318895889 0.1269664221834696 0 -0.4179450011339057 0.1200531646008107 0 -0.4101683318895889 0.1269664221834696 0 -0.42207054713921333 0.12738044739727289 0 -0.4179450011339057 0.1200531646008107 0 -0.42511502123399231 0.1244463428108992 0 -0.42207054713921333 0.12738044739727289 0 -0.42382614689879089 0.1021232127969678 0 -0.42511502123399231 0.1244463428108992 0 -0.44535213902715393 0.1049428692114039 0 -0.42382614689879089 0.1021232127969678 0 -0.4179450011339057 0.1200531646008107 0 -0.42511502123399231 0.1244463428108992 0 -0.42511502123399231 0.1244463428108992 0 -0.44535213902715393 0.1049428692114039 0 -0.42382614689879089 0.1021232127969678 0 -0.42511502123399231 0.1244463428108992 0 -0.4432670437418767 0.1236457209987691 0 -0.44535213902715393 0.1049428692114039 0 -0.45937973779954278 0.12145526383131269 0 -0.42511502123399231 0.1244463428108992 0 -0.4432670437418767 0.1236457209987691 0 -0.44535213902715393 0.1049428692114039 0 -0.42382614689879089 0.1021232127969678 0 -0.44535213902715393 0.1049428692114039 0 -0.44397852443351488 0.083266668421455983 0 -0.46558925682031388 0.085439395611907054 0 -0.47173559799640352 0.10486351367153531 0 -0.44535213902715393 0.1049428692114039 0 -0.46558925682031388 0.085439395611907054 0 -0.47173559799640352 0.10486351367153531 0 -0.44535213902715393 0.1049428692114039 0 -0.46558925682031388 0.085439395611907054 0 -0.44535213902715393 0.1049428692114039 0 -0.45937973779954278 0.12145526383131269 0 -0.47173559799640352 0.10486351367153531 0 -0.45653325908117531 0.056819967533798317 0 -0.4355937226063295 0.06314057536288295 0 -0.44397852443351488 0.083266668421455983 0 -0.44535213902715393 0.1049428692114039 0 -0.44397852443351488 0.083266668421455983 0 -0.46558925682031388 0.085439395611907054 0 -0.45653325908117531 0.056819967533798317 0 -0.44397852443351488 0.083266668421455983 0 -0.46558925682031388 0.085439395611907054 0 -0.45653325908117531 0.056819967533798317 0 -0.46558925682031388 0.085439395611907054 0 -0.45653325908117531 0.056819967533798317 0 -0.46558925682031388 0.085439395611907054 0 -0.47728617712276489 0.074166516803477023 0 -0.4734453947844447 0.05969577572180447 0 -0.45653325908117531 0.056819967533798317 0 -0.47728617712276489 0.074166516803477023 0 -0.4734453947844447 0.05969577572180447 0 -0.47728617712276489 0.074166516803477023 0 -0.48898309742521501 0.062893637995046048 0 -0.47728617712276489 0.074166516803477023 0 -0.48898309742521501 0.062893637995046048 0 -0.46558925682031388 0.085439395611907054 0 -0.4848527299260697 0.089278302279667793 0 -0.47173559799640352 0.10486351367153531 0 -0.46558925682031388 0.085439395611907054 0 -0.47728617712276489 0.074166516803477023 0 -0.4848527299260697 0.089278302279667793 0 -0.47728617712276489 0.074166516803477023 0 -0.4848527299260697 0.089278302279667793 0 -0.48862410563284242 0.074054266343210426 0 -0.46558925682031388 0.085439395611907054 0 -0.47728617712276489 0.074166516803477023 0 -0.4848527299260697 0.089278302279667793 0 -0.5 0.078318627753172998 0 -0.5 0.1043611308702428 0 -0.4848527299260697 0.089278302279667793 0 -0.5 0.078318627753172998 0 -0.48862410563284242 0.074054266343210426 0 -0.49999999999999611 0.052276124636103198 0 -0.5 0.078318627753172998 0 -0.49199852369016178 0.065614246884688171 0 -0.47728617712276489 0.074166516803477023 0 -0.48862410563284242 0.074054266343210426 0 -0.48898309742521501 0.062893637995046048 0 -0.5 0.078318627753172998 0 -0.48862410563284242 0.074054266343210426 0 -0.49199852369016178 0.065614246884688171 0 -0.48862410563284242 0.074054266343210426 0 -0.48898309742521501 0.062893637995046048 0 -0.49199852369016178 0.065614246884688171 0 -0.48898309742521501 0.062893637995046048 0 -0.49199852369016178 0.065614246884688171 0 -0.45937973779954278 0.12145526383131269 0 -0.47788193917249577 0.12428763173116281 0 -0.47173559799640352 0.10486351367153531 0 -0.47788193917249577 0.12428763173116281 0 -0.47173559799640352 0.10486351367153531 0 -0.5 0.1043611308702428 0 -0.47788193917249577 0.12428763173116281 0 -0.47173559799640352 0.10486351367153531 0 -0.4848527299260697 0.089278302279667793 0 -0.47173559799640352 0.10486351367153531 0 -0.5 0.1043611308702428 0 -0.47788193917249577 0.12428763173116281 0 -0.5 0.1043611308702428 0 -0.5 0.13040363398731281 0 -0.47788193917249577 0.12428763173116281 0 -0.5 0.13040363398731281 0 -0.48342602754761638 0.1450303192318172 0 -0.47788193917249577 0.12428763173116281 0 -0.48342602754761638 0.1450303192318172 0 -0.46681979466255608 0.13814871162090839 0 -0.48342602754761638 0.1450303192318172 0 -0.46875415315032209 0.15845122029866729 0 -0.46681979466255608 0.13814871162090839 0 -0.5 0.13040363398731281 0 -0.48342602754761638 0.1450303192318172 0 -0.5 0.15644613710438279 0 -0.48342602754761638 0.1450303192318172 0 -0.4857637916404226 0.16761470185576821 0 -0.5 0.15644613710438279 0 -0.4857637916404226 0.16761470185576821 0 -0.5 0.15644613710438279 0 -0.5 0.18248864022145281 0 -0.4857637916404226 0.16761470185576821 0 -0.48698389960685617 0.1859419236772778 0 -0.5 0.18248864022145281 0 -0.4857637916404226 0.16761470185576821 0 -0.48698389960685617 0.1859419236772778 0 -0.47232728426826831 0.1788706489212272 0 -0.48698389960685617 0.1859419236772778 0 -0.47232728426826831 0.1788706489212272 0 -0.47927962934442508 0.1965283482944348 0 -0.48342602754761638 0.1450303192318172 0 -0.4857637916404226 0.16761470185576821 0 -0.46875415315032209 0.15845122029866729 0 -0.4857637916404226 0.16761470185576821 0 -0.47232728426826831 0.1788706489212272 0 -0.46875415315032209 0.15845122029866729 0 -0.47232728426826831 0.1788706489212272 0 -0.46875415315032209 0.15845122029866729 0 -0.45699849168826212 0.1685874516020256 0 -0.46875415315032209 0.15845122029866729 0 -0.45699849168826212 0.1685874516020256 0 -0.44828908205553902 0.15108726298143391 0 -0.47232728426826831 0.1788706489212272 0 -0.45470786882370279 0.1859194536854637 0 -0.46753012360525792 0.19095694829752641 0 -0.47232728426826831 0.1788706489212272 0 -0.45699849168826212 0.1685874516020256 0 -0.45470786882370279 0.1859194536854637 0 -0.45470786882370279 0.1859194536854637 0 -0.44091407014347861 0.168608672123336 0 -0.43399871329534828 0.18617959783295249 0 -0.45699849168826212 0.1685874516020256 0 -0.45470786882370279 0.1859194536854637 0 -0.44091407014347861 0.168608672123336 0 -0.44091407014347861 0.168608672123336 0 -0.44828908205553902 0.15108726298143391 0 -0.42665512907909109 0.15112080340237469 0 -0.45699849168826212 0.1685874516020256 0 -0.44091407014347861 0.168608672123336 0 -0.44828908205553902 0.15108726298143391 0 -0.44828908205553902 0.15108726298143391 0 -0.43772882799560231 0.1367730484132838 0 -0.42665512907909109 0.15112080340237469 0 -0.4432670437418767 0.1236457209987691 0 -0.45937973779954278 0.12145526383131269 0 -0.44995755082176581 0.13329353348265111 0 -0.44828908205553902 0.15108726298143391 0 -0.43772882799560231 0.1367730484132838 0 -0.44995755082176581 0.13329353348265111 0 -0.4432670437418767 0.1236457209987691 0 -0.43772882799560231 0.1367730484132838 0 -0.44995755082176581 0.13329353348265111 0 -0.45937973779954278 0.12145526383131269 0 -0.44995755082176581 0.13329353348265111 0 -0.46681979466255608 0.13814871162090839 0 -0.45937973779954278 0.12145526383131269 0 -0.47788193917249577 0.12428763173116281 0 -0.46681979466255608 0.13814871162090839 0 -0.46875415315032209 0.15845122029866729 0 -0.44828908205553902 0.15108726298143391 0 -0.46681979466255608 0.13814871162090839 0 -0.44828908205553902 0.15108726298143391 0 -0.44995755082176581 0.13329353348265111 0 -0.46681979466255608 0.13814871162090839 0 -0.47826346905970341 0.24774037089910961 0 -0.48488767725147047 0.23604725609758309 0 -0.48902305912006078 0.25712220397276597 0 -0.47826346905970341 0.24774037089910961 0 -0.46267048702579128 0.24392212279248771 0 -0.47826346905970341 0.24774037089910961 0 -0.46267048702579128 0.24392212279248771 0 -0.46947385474022668 0.25478383026827328 0 -0.47243985559929591 0.23606477317860261 0 -0.47826346905970341 0.24774037089910961 0 -0.46267048702579128 0.24392212279248771 0 -0.47243985559929591 0.23606477317860261 0 -0.47826346905970341 0.24774037089910961 0 -0.48488767725147047 0.23604725609758309 0 -0.49999999999999878 0.23457364645559281 0 -0.48488767725147047 0.23604725609758309 0 -0.48902305912006078 0.25712220397276597 0 -0.49999999999999878 0.23457364645559281 0 -0.48902305912006078 0.25712220397276597 0 -0.49999999999999878 0.23457364645559281 0 -0.48902305912006078 0.25712220397276597 0 -0.5 0.25518991273704988 0 -0.49999999999999878 0.23457364645559281 0 -0.48488767725147047 0.23604725609758309 0 -0.48786408499461231 0.22305670008531581 0 -0.49999999999999878 0.23457364645559281 0 -0.48786408499461231 0.22305670008531581 0 -0.5 0.2085311433385228 0 -0.48786408499461231 0.22305670008531581 0 -0.47510324674992332 0.22440304294063301 0 -0.47932950097166799 0.21172841159424691 0 -0.48488767725147047 0.23604725609758309 0 -0.48786408499461231 0.22305670008531581 0 -0.47510324674992332 0.22440304294063301 0 -0.47243985559929591 0.23606477317860261 0 -0.48488767725147047 0.23604725609758309 0 -0.47510324674992332 0.22440304294063301 0 -0.47243985559929591 0.23606477317860261 0 -0.47510324674992332 0.22440304294063301 0 -0.46127439790959052 0.22821107316319941 0 -0.47510324674992332 0.22440304294063301 0 -0.47932950097166799 0.21172841159424691 0 -0.46642293834031129 0.21581598484520231 0 -0.47932950097166799 0.21172841159424691 0 -0.4652290584715999 0.20375524827412231 0 -0.46642293834031129 0.21581598484520231 0 -0.47932950097166799 0.21172841159424691 0 -0.47927962934442508 0.1965283482944348 0 -0.4652290584715999 0.20375524827412231 0 -0.47932950097166799 0.21172841159424691 0 -0.5 0.2085311433385228 0 -0.47927962934442508 0.1965283482944348 0 -0.48786408499461231 0.22305670008531581 0 -0.47932950097166799 0.21172841159424691 0 -0.5 0.2085311433385228 0 -0.48698389960685617 0.1859419236772778 0 -0.5 0.18248864022145281 0 -0.5 0.2085311433385228 0 -0.48698389960685617 0.1859419236772778 0 -0.5 0.2085311433385228 0 -0.47927962934442508 0.1965283482944348 0 -0.47232728426826831 0.1788706489212272 0 -0.47927962934442508 0.1965283482944348 0 -0.46753012360525792 0.19095694829752641 0 -0.47927962934442508 0.1965283482944348 0 -0.46753012360525792 0.19095694829752641 0 -0.4652290584715999 0.20375524827412231 0 -0.47927962934442508 0.1965283482944348 0 -0.4652290584715999 0.20375524827412231 0 -0.45470786882370279 0.1859194536854637 0 -0.45117848759877449 0.2109821482538097 0 -0.4652290584715999 0.20375524827412231 0 -0.45470786882370279 0.1859194536854637 0 -0.46753012360525792 0.19095694829752641 0 -0.4652290584715999 0.20375524827412231 0 -0.45470786882370279 0.1859194536854637 0 -0.45117848759877449 0.2109821482538097 0 -0.43715388980638092 0.2028879667301749 0 -0.45470786882370279 0.1859194536854637 0 -0.43715388980638092 0.2028879667301749 0 -0.43399871329534828 0.18617959783295249 0 -0.45470786882370279 0.1859194536854637 0 -0.45117848759877449 0.2109821482538097 0 -0.45117848759877449 0.2109821482538097 0 -0.42679056654448938 0.22352605609692139 0 -0.43715388980638092 0.2028879667301749 0 -0.45117848759877449 0.2109821482538097 0 -0.42679056654448938 0.22352605609692139 0 -0.45117848759877449 0.2109821482538097 0 -0.46642293834031129 0.21581598484520231 0 -0.46127439790959052 0.22821107316319941 0 -0.45117848759877449 0.2109821482538097 0 -0.4652290584715999 0.20375524827412231 0 -0.45117848759877449 0.2109821482538097 0 -0.4652290584715999 0.20375524827412231 0 -0.46642293834031129 0.21581598484520231 0 -0.45117848759877449 0.2109821482538097 0 -0.46127439790959052 0.22821107316319941 0 -0.44707750499187909 0.24010387468586619 0 -0.47510324674992332 0.22440304294063301 0 -0.46642293834031129 0.21581598484520231 0 -0.46127439790959052 0.22821107316319941 0 -0.45117848759877449 0.2109821482538097 0 -0.44707750499187909 0.24010387468586619 0 -0.42679056654448938 0.22352605609692139 0 -0.45117848759877449 0.2109821482538097 0 -0.44707750499187909 0.24010387468586619 0 -0.44707750499187909 0.24010387468586619 0 -0.42945051738193851 0.2357875603387623 0 -0.44707750499187909 0.24010387468586619 0 -0.42945051738193851 0.2357875603387623 0 -0.44420191618079818 0.26052388586719089 0 -0.47243985559929591 0.23606477317860261 0 -0.46127439790959052 0.22821107316319941 0 -0.46267048702579128 0.24392212279248771 0 -0.46127439790959052 0.22821107316319941 0 -0.44707750499187909 0.24010387468586619 0 -0.46267048702579128 0.24392212279248771 0 -0.44707750499187909 0.24010387468586619 0 -0.46267048702579128 0.24392212279248771 0 -0.45378425396487038 0.25310541831647348 0 -0.44707750499187909 0.24010387468586619 0 -0.46267048702579128 0.24392212279248771 0 -0.41149831866388431 0.2313916116603231 0 -0.41597065842928832 0.25059142779522509 0 -0.40175810315659838 0.2514233037146798 0 -0.42945051738193851 0.2357875603387623 0 -0.41149831866388431 0.2313916116603231 0 -0.41597065842928832 0.25059142779522509 0 -0.44707750499187909 0.24010387468586619 0 -0.42945051738193851 0.2357875603387623 0 -0.42679056654448938 0.22352605609692139 0 -0.42945051738193851 0.2357875603387623 0 -0.42679056654448938 0.22352605609692139 0 -0.42945051738193851 0.2357875603387623 0 -0.42679056654448938 0.22352605609692139 0 -0.41149831866388431 0.2313916116603231 0 -0.42945051738193851 0.2357875603387623 0 -0.41149831866388431 0.2313916116603231 0 -0.41149831866388431 0.2313916116603231 0 -0.41353857468525318 0.21556142598522729 0 -0.4031308538156258 0.220291282872317 0 -0.42679056654448938 0.22352605609692139 0 -0.41149831866388431 0.2313916116603231 0 -0.41353857468525318 0.21556142598522729 0 -0.42679056654448938 0.22352605609692139 0 -0.41149831866388431 0.2313916116603231 0 -0.41353857468525318 0.21556142598522729 0 -0.41340074647201308 0.19962197868539169 0 -0.40259721379499502 0.2087337275543692 0 -0.41353857468525318 0.21556142598522729 0 -0.42381374882051159 0.20980389904204069 0 -0.41340074647201308 0.19962197868539169 0 -0.41353857468525318 0.21556142598522729 0 -0.40259721379499502 0.2087337275543692 0 -0.4031308538156258 0.220291282872317 0 -0.42679056654448938 0.22352605609692139 0 -0.41353857468525318 0.21556142598522729 0 -0.42381374882051159 0.20980389904204069 0 -0.42679056654448938 0.22352605609692139 0 -0.42381374882051159 0.20980389904204069 0 -0.42679056654448938 0.22352605609692139 0 -0.42381374882051159 0.20980389904204069 0 -0.43715388980638092 0.2028879667301749 0 -0.42381374882051159 0.20980389904204069 0 -0.42561668676623748 0.19805165532850691 0 -0.43715388980638092 0.2028879667301749 0 -0.42561668676623748 0.19805165532850691 0 -0.43715388980638092 0.2028879667301749 0 -0.43399871329534828 0.18617959783295249 0 -0.42561668676623748 0.19805165532850691 0 -0.42116897899494321 0.18800257485007471 0 -0.43399871329534828 0.18617959783295249 0 -0.42116897899494321 0.18800257485007471 0 -0.41340074647201308 0.19962197868539169 0 -0.40819878599373721 0.18292895143393051 0 -0.42561668676623748 0.19805165532850691 0 -0.42116897899494321 0.18800257485007471 0 -0.41340074647201308 0.19962197868539169 0 -0.41340074647201308 0.19962197868539169 0 -0.40031052958774171 0.1947738001934371 0 -0.40819878599373721 0.18292895143393051 0 -0.42381374882051159 0.20980389904204069 0 -0.42561668676623748 0.19805165532850691 0 -0.41340074647201308 0.19962197868539169 0 -0.41340074647201308 0.19962197868539169 0 -0.40031052958774171 0.1947738001934371 0 -0.40259721379499502 0.2087337275543692 0 -0.40031052958774171 0.1947738001934371 0 -0.39214792482657501 0.20450605440696329 0 -0.40259721379499502 0.2087337275543692 0 -0.40031052958774171 0.1947738001934371 0 -0.39078553156964901 0.1905305452732205 0 -0.39214792482657501 0.20450605440696329 0 -0.40031052958774171 0.1947738001934371 0 -0.39078553156964901 0.1905305452732205 0 -0.39479353696183828 0.18288023168048559 0 -0.38460770979640352 0.19878612874010171 0 -0.37710075082216538 0.20368631144682561 0 -0.37279567946208059 0.18320179051525651 0 -0.39078553156964901 0.1905305452732205 0 -0.38460770979640352 0.19878612874010171 0 -0.39214792482657501 0.20450605440696329 0 -0.3842341715928787 0.2070459601349762 0 -0.37710075082216538 0.20368631144682561 0 -0.38140582218225022 0.22417083237839469 0 -0.3842341715928787 0.2070459601349762 0 -0.38814925910816939 0.21302192077193341 0 -0.38140582218225022 0.22417083237839469 0 -0.3842341715928787 0.2070459601349762 0 -0.38814925910816939 0.21302192077193341 0 -0.39214792482657501 0.20450605440696329 0 -0.37710075082216538 0.20368631144682561 0 -0.38140582218225022 0.22417083237839469 0 -0.38460770979640352 0.19878612874010171 0 -0.3842341715928787 0.2070459601349762 0 -0.39214792482657501 0.20450605440696329 0 -0.37710075082216538 0.20368631144682561 0 -0.38140582218225022 0.22417083237839469 0 -0.37082127858825997 0.21581400114714561 0 -0.38460770979640352 0.19878612874010171 0 -0.3842341715928787 0.2070459601349762 0 -0.37710075082216538 0.20368631144682561 0 -0.38814925910816939 0.21302192077193341 0 -0.39514235490609462 0.21790542706013921 0 -0.38140582218225022 0.22417083237839469 0 -0.38814925910816939 0.21302192077193341 0 -0.39514235490609462 0.21790542706013921 0 -0.39214792482657501 0.20450605440696329 0 -0.39514235490609462 0.21790542706013921 0 -0.39214792482657501 0.20450605440696329 0 -0.40259721379499502 0.2087337275543692 0 -0.39514235490609462 0.21790542706013921 0 -0.40259721379499502 0.2087337275543692 0 -0.4031308538156258 0.220291282872317 0 -0.41149831866388431 0.2313916116603231 0 -0.4031308538156258 0.220291282872317 0 -0.39216455641724668 0.22665735999944381 0 -0.41149831866388431 0.2313916116603231 0 -0.39216455641724668 0.22665735999944381 0 -0.41149831866388431 0.2313916116603231 0 -0.39216455641724668 0.22665735999944381 0 -0.38571089354233512 0.2446553533099636 0 -0.39514235490609462 0.21790542706013921 0 -0.4031308538156258 0.220291282872317 0 -0.39216455641724668 0.22665735999944381 0 -0.39216455641724668 0.22665735999944381 0 -0.38140582218225022 0.22417083237839469 0 -0.38571089354233512 0.2446553533099636 0 -0.39514235490609462 0.21790542706013921 0 -0.39216455641724668 0.22665735999944381 0 -0.38140582218225022 0.22417083237839469 0 -0.38140582218225022 0.22417083237839469 0 -0.38571089354233512 0.2446553533099636 0 -0.38140582218225022 0.22417083237839469 0 -0.38571089354233512 0.2446553533099636 0 -0.36794414634750833 0.23769460941111109 0 -0.41149831866388431 0.2313916116603231 0 -0.38571089354233512 0.2446553533099636 0 -0.41149831866388431 0.2313916116603231 0 -0.38571089354233512 0.2446553533099636 0 -0.40175810315659838 0.2514233037146798 0 -0.41224149266572341 0.1400398667921712 0 -0.42665512907909109 0.15112080340237469 0 -0.40104644357487762 0.15487768551007339 0 -0.41224149266572341 0.1400398667921712 0 -0.4101683318895889 0.1269664221834696 0 -0.39750884028201577 0.13532526007508999 0 -0.41224149266572341 0.1400398667921712 0 -0.42207054713921333 0.12738044739727289 0 -0.42665512907909109 0.15112080340237469 0 -0.41224149266572341 0.1400398667921712 0 -0.4101683318895889 0.1269664221834696 0 -0.42207054713921333 0.12738044739727289 0 -0.42511502123399231 0.1244463428108992 0 -0.42665512907909109 0.15112080340237469 0 -0.42511502123399231 0.1244463428108992 0 -0.4432670437418767 0.1236457209987691 0 -0.43772882799560231 0.1367730484132838 0 -0.42511502123399231 0.1244463428108992 0 -0.42207054713921333 0.12738044739727289 0 -0.42665512907909109 0.15112080340237469 0 -0.42511502123399231 0.1244463428108992 0 -0.43772882799560231 0.1367730484132838 0 -0.42665512907909109 0.15112080340237469 0 -0.42511502123399231 0.1244463428108992 0 -0.42207054713921333 0.12738044739727289 0 -0.44091407014347861 0.168608672123336 0 -0.42665512907909109 0.15112080340237469 0 -0.42462996244737999 0.17323069096959179 0 -0.44091407014347861 0.168608672123336 0 -0.43399871329534828 0.18617959783295249 0 -0.42462996244737999 0.17323069096959179 0 -0.42116897899494321 0.18800257485007471 0 -0.43399871329534828 0.18617959783295249 0 -0.42462996244737999 0.17323069096959179 0 -0.42462996244737999 0.17323069096959179 0 -0.40819878599373721 0.18292895143393051 0 -0.41180861545656922 0.1668086206109835 0 -0.42116897899494321 0.18800257485007471 0 -0.42462996244737999 0.17323069096959179 0 -0.40819878599373721 0.18292895143393051 0 -0.42665512907909109 0.15112080340237469 0 -0.41180861545656922 0.1668086206109835 0 -0.40104644357487762 0.15487768551007339 0 -0.42665512907909109 0.15112080340237469 0 -0.42462996244737999 0.17323069096959179 0 -0.41180861545656922 0.1668086206109835 0 -0.39851275618776022 0.17188497173894701 0 -0.38206795667568649 0.17170651134511511 0 -0.40104644357487762 0.15487768551007339 0 -0.41180861545656922 0.1668086206109835 0 -0.39851275618776022 0.17188497173894701 0 -0.40104644357487762 0.15487768551007339 0 -0.39851275618776022 0.17188497173894701 0 -0.39479353696183828 0.18288023168048559 0 -0.38206795667568649 0.17170651134511511 0 -0.40819878599373721 0.18292895143393051 0 -0.41180861545656922 0.1668086206109835 0 -0.39851275618776022 0.17188497173894701 0 -0.40031052958774171 0.1947738001934371 0 -0.40819878599373721 0.18292895143393051 0 -0.39479353696183828 0.18288023168048559 0 -0.40819878599373721 0.18292895143393051 0 -0.39851275618776022 0.17188497173894701 0 -0.39479353696183828 0.18288023168048559 0 -0.39078553156964901 0.1905305452732205 0 -0.38460770979640352 0.19878612874010171 0 -0.38206795667568649 0.17170651134511511 0 -0.38460770979640352 0.19878612874010171 0 -0.38206795667568649 0.17170651134511511 0 -0.38460770979640352 0.19878612874010171 0 -0.38206795667568649 0.17170651134511511 0 -0.37279567946208059 0.18320179051525651 0 -0.39078553156964901 0.1905305452732205 0 -0.39479353696183828 0.18288023168048559 0 -0.38206795667568649 0.17170651134511511 0 -0.38206795667568649 0.17170651134511511 0 -0.37013896455084649 0.16776229953586949 0 -0.37279567946208059 0.18320179051525651 0 -0.38206795667568649 0.17170651134511511 0 -0.37952820355496952 0.14462689395012859 0 -0.37013896455084649 0.16776229953586949 0 -0.38206795667568649 0.17170651134511511 0 -0.37952820355496952 0.14462689395012859 0 -0.38206795667568649 0.17170651134511511 0 -0.37952820355496952 0.14462689395012859 0 -0.40104644357487762 0.15487768551007339 0 -0.37952820355496952 0.14462689395012859 0 -0.40104644357487762 0.15487768551007339 0 -0.39750884028201577 0.13532526007508999 0 -0.41224149266572341 0.1400398667921712 0 -0.40104644357487762 0.15487768551007339 0 -0.39750884028201577 0.13532526007508999 0 -0.39830859976972932 0.1199577298729749 0 -0.4101683318895889 0.1269664221834696 0 -0.39750884028201577 0.13532526007508999 0 -0.37698845043425261 0.1175472765551424 0 -0.37952820355496952 0.14462689395012859 0 -0.39750884028201577 0.13532526007508999 0 -0.37698845043425261 0.1175472765551424 0 -0.37952820355496952 0.14462689395012859 0 -0.37698845043425261 0.1175472765551424 0 -0.34685694597574179 0.1263938344101338 0 -0.36025430912381973 0.14183179714145819 0 -0.37698845043425261 0.1175472765551424 0 -0.37952820355496952 0.14462689395012859 0 -0.36025430912381973 0.14183179714145819 0 -0.36025430912381973 0.14183179714145819 0 -0.36046649110206769 0.15930223424004211 0 -0.33700642058477759 0.15676449212193819 0 -0.34685694597574179 0.1263938344101338 0 -0.36025430912381973 0.14183179714145819 0 -0.33700642058477759 0.15676449212193819 0 -0.37952820355496952 0.14462689395012859 0 -0.36025430912381973 0.14183179714145819 0 -0.36046649110206769 0.15930223424004211 0 -0.36046649110206769 0.15930223424004211 0 -0.37013896455084649 0.16776229953586949 0 -0.35583649195942818 0.17997406762880519 0 -0.37952820355496952 0.14462689395012859 0 -0.36046649110206769 0.15930223424004211 0 -0.37013896455084649 0.16776229953586949 0 -0.37279567946208059 0.18320179051525651 0 -0.35583649195942818 0.17997406762880519 0 -0.36508170405490981 0.1945267042147473 0 -0.37013896455084649 0.16776229953586949 0 -0.37279567946208059 0.18320179051525651 0 -0.35583649195942818 0.17997406762880519 0 -0.36046649110206769 0.15930223424004211 0 -0.35583649195942818 0.17997406762880519 0 -0.33700642058477759 0.15676449212193819 0 -0.33700642058477759 0.15676449212193819 0 -0.31513401334668778 0.1681688715460273 0 -0.305141378453054 0.1484271353604211 0 -0.35583649195942818 0.17997406762880519 0 -0.33700642058477759 0.15676449212193819 0 -0.33143204606824828 0.1862790679770123 0 -0.33143204606824828 0.1862790679770123 0 -0.31513401334668778 0.1681688715460273 0 -0.30734001623881713 0.18339629265426091 0 -0.33700642058477759 0.15676449212193819 0 -0.33143204606824828 0.1862790679770123 0 -0.31513401334668778 0.1681688715460273 0 -0.33700642058477759 0.15676449212193819 0 -0.32120559858140441 0.13368262453851831 0 -0.305141378453054 0.1484271353604211 0 -0.34685694597574179 0.1263938344101338 0 -0.32120559858140441 0.13368262453851831 0 -0.33035659653156541 0.119365046516763 0 -0.34685694597574179 0.1263938344101338 0 -0.33700642058477759 0.15676449212193819 0 -0.32120559858140441 0.13368262453851831 0 -0.34896730812857463 0.23516650698764169 0 -0.3412708773435334 0.24971557758415661 0 -0.36296691116478352 0.2563537025991196 0 -0.38571089354233512 0.2446553533099636 0 -0.36794414634750833 0.23769460941111109 0 -0.36296691116478352 0.2563537025991196 0 -0.34896730812857463 0.23516650698764169 0 -0.36794414634750833 0.23769460941111109 0 -0.36296691116478352 0.2563537025991196 0 -0.36794414634750833 0.23769460941111109 0 -0.37016468288041682 0.22535353187750279 0 -0.35986334363089861 0.21892934992085011 0 -0.38140582218225022 0.22417083237839469 0 -0.36794414634750833 0.23769460941111109 0 -0.37016468288041682 0.22535353187750279 0 -0.38140582218225022 0.22417083237839469 0 -0.37016468288041682 0.22535353187750279 0 -0.37082127858825997 0.21581400114714561 0 -0.37016468288041682 0.22535353187750279 0 -0.35986334363089861 0.21892934992085011 0 -0.37082127858825997 0.21581400114714561 0 -0.34896730812857463 0.23516650698764169 0 -0.36794414634750833 0.23769460941111109 0 -0.35986334363089861 0.21892934992085011 0 -0.34896730812857463 0.23516650698764169 0 -0.35986334363089861 0.21892934992085011 0 -0.33754105135098372 0.21419572974847101 0 -0.35986334363089861 0.21892934992085011 0 -0.35369893295936478 0.19950383343136049 0 -0.33754105135098372 0.21419572974847101 0 -0.35986334363089861 0.21892934992085011 0 -0.37082127858825997 0.21581400114714561 0 -0.36597666507150961 0.20626751805148871 0 -0.35986334363089861 0.21892934992085011 0 -0.36597666507150961 0.20626751805148871 0 -0.35369893295936478 0.19950383343136049 0 -0.37710075082216538 0.20368631144682561 0 -0.37082127858825997 0.21581400114714561 0 -0.36597666507150961 0.20626751805148871 0 -0.37710075082216538 0.20368631144682561 0 -0.37279567946208059 0.18320179051525651 0 -0.37710075082216538 0.20368631144682561 0 -0.37279567946208059 0.18320179051525651 0 -0.36508170405490981 0.1945267042147473 0 -0.36597666507150961 0.20626751805148871 0 -0.36508170405490981 0.1945267042147473 0 -0.35369893295936478 0.19950383343136049 0 -0.37710075082216538 0.20368631144682561 0 -0.36597666507150961 0.20626751805148871 0 -0.36508170405490981 0.1945267042147473 0 -0.35583649195942818 0.17997406762880519 0 -0.36508170405490981 0.1945267042147473 0 -0.35369893295936478 0.19950383343136049 0 -0.35583649195942818 0.17997406762880519 0 -0.33143204606824828 0.1862790679770123 0 -0.35369893295936478 0.19950383343136049 0 -0.33143204606824828 0.1862790679770123 0 -0.35369893295936478 0.19950383343136049 0 -0.33754105135098372 0.21419572974847101 0 -0.33143204606824828 0.1862790679770123 0 -0.31348073979487667 0.2008662096409439 0 -0.33754105135098372 0.21419572974847101 0 -0.33143204606824828 0.1862790679770123 0 -0.31348073979487667 0.2008662096409439 0 -0.30734001623881713 0.18339629265426091 0 -0.31348073979487667 0.2008662096409439 0 -0.33754105135098372 0.21419572974847101 0 -0.31928187189957069 0.22152014573885051 0 -0.31348073979487667 0.2008662096409439 0 -0.33754105135098372 0.21419572974847101 0 -0.34896730812857463 0.23516650698764169 0 -0.33754105135098372 0.21419572974847101 0 -0.32801730878093532 0.23710075262709751 0 -0.33754105135098372 0.21419572974847101 0 -0.31928187189957069 0.22152014573885051 0 -0.32801730878093532 0.23710075262709751 0 -0.31928187189957069 0.22152014573885051 0 -0.32801730878093532 0.23710075262709751 0 -0.30799509733059688 0.23347239688548749 0 -0.32801730878093532 0.23710075262709751 0 -0.31404872610228202 0.24673229519251819 0 -0.30799509733059688 0.23347239688548749 0 -0.32801730878093532 0.23710075262709751 0 -0.31404872610228202 0.24673229519251819 0 -0.32617992985614203 0.25190487381864951 0 -0.32801730878093532 0.23710075262709751 0 -0.3412708773435334 0.24971557758415661 0 -0.32617992985614203 0.25190487381864951 0 -0.34896730812857463 0.23516650698764169 0 -0.32801730878093532 0.23710075262709751 0 -0.3412708773435334 0.24971557758415661 0 -0.29899118259599727 0.2439650168742592 0 -0.28451098770666661 0.23169669094049519 0 -0.28205626744061468 0.25377669164403449 0 -0.28451098770666661 0.23169669094049519 0 -0.28205626744061468 0.25377669164403449 0 -0.29899118259599727 0.2439650168742592 0 -0.30155894356320428 0.25134709386924198 0 -0.28205626744061468 0.25377669164403449 0 -0.29899118259599727 0.2439650168742592 0 -0.30799509733059688 0.23347239688548749 0 -0.28451098770666661 0.23169669094049519 0 -0.31404872610228202 0.24673229519251819 0 -0.29899118259599727 0.2439650168742592 0 -0.30155894356320428 0.25134709386924198 0 -0.31404872610228202 0.24673229519251819 0 -0.29899118259599727 0.2439650168742592 0 -0.30799509733059688 0.23347239688548749 0 -0.31928187189957069 0.22152014573885051 0 -0.30312050689813019 0.21981947993970499 0 -0.30799509733059688 0.23347239688548749 0 -0.30312050689813019 0.21981947993970499 0 -0.30799509733059688 0.23347239688548749 0 -0.28451098770666661 0.23169669094049519 0 -0.28451098770666661 0.23169669094049519 0 -0.28696570797271842 0.20961669023695589 0 -0.30312050689813019 0.21981947993970499 0 -0.28451098770666661 0.23169669094049519 0 -0.28696570797271842 0.20961669023695589 0 -0.31348073979487667 0.2008662096409439 0 -0.31928187189957069 0.22152014573885051 0 -0.30312050689813019 0.21981947993970499 0 -0.31348073979487667 0.2008662096409439 0 -0.30312050689813019 0.21981947993970499 0 -0.28696570797271842 0.20961669023695589 0 -0.31348073979487667 0.2008662096409439 0 -0.2894204282387699 0.18753668953341651 0 -0.31348073979487667 0.2008662096409439 0 -0.2894204282387699 0.18753668953341651 0 -0.30734001623881713 0.18339629265426091 0 -0.28696570797271842 0.20961669023695589 0 -0.2894204282387699 0.18753668953341651 0 -0.28696570797271842 0.20961669023695589 0 -0.2894204282387699 0.18753668953341651 0 -0.27577393013689278 0.1922562248190274 0 -0.31348073979487667 0.2008662096409439 0 -0.28696570797271842 0.20961669023695589 0 -0.2894204282387699 0.18753668953341651 0 -0.28696570797271842 0.20961669023695589 0 -0.27577393013689278 0.1922562248190274 0 -0.26115380841496549 0.19755595398750869 0 -0.27577393013689278 0.1922562248190274 0 -0.26115380841496549 0.19755595398750869 0 -0.26555577592111768 0.17431556551822869 0 -0.26115380841496549 0.19755595398750869 0 -0.27198962595719067 0.2189789750748366 0 -0.25675184090881259 0.22079634245678861 0 -0.26115380841496549 0.19755595398750869 0 -0.25675184090881259 0.22079634245678861 0 -0.2402965196261784 0.19747063957166511 0 -0.26115380841496549 0.19755595398750869 0 -0.25675184090881259 0.22079634245678861 0 -0.28696570797271842 0.20961669023695589 0 -0.26115380841496549 0.19755595398750869 0 -0.27198962595719067 0.2189789750748366 0 -0.28451098770666661 0.23169669094049519 0 -0.27198962595719067 0.2189789750748366 0 -0.26781203399047843 0.23462462010607429 0 -0.28451098770666661 0.23169669094049519 0 -0.28696570797271842 0.20961669023695589 0 -0.27198962595719067 0.2189789750748366 0 -0.25675184090881259 0.22079634245678861 0 -0.25234987340265957 0.2440367309260684 0 -0.25675184090881259 0.22079634245678861 0 -0.25234987340265957 0.2440367309260684 0 -0.26781203399047843 0.23462462010607429 0 -0.27198962595719067 0.2189789750748366 0 -0.25675184090881259 0.22079634245678861 0 -0.26781203399047843 0.23462462010607429 0 -0.25234987340265957 0.2440367309260684 0 -0.26504921444477098 0.24960279198075949 0 -0.25055533274392472 0.25134788921301499 0 -0.25234987340265957 0.2440367309260684 0 -0.26504921444477098 0.24960279198075949 0 -0.26781203399047843 0.23462462010607429 0 -0.26504921444477098 0.24960279198075949 0 -0.27484378612661381 0.24233390043431771 0 -0.28205626744061468 0.25377669164403449 0 -0.28451098770666661 0.23169669094049519 0 -0.27484378612661381 0.24233390043431771 0 -0.28205626744061468 0.25377669164403449 0 -0.28451098770666661 0.23169669094049519 0 -0.26781203399047843 0.23462462010607429 0 -0.27484378612661381 0.24233390043431771 0 -0.26504921444477098 0.24960279198075949 0 -0.26781203399047843 0.23462462010607429 0 -0.27484378612661381 0.24233390043431771 0 -0.28997092190375101 0.14937840067507341 0 -0.2894842549724459 0.13425274431825021 0 -0.305141378453054 0.1484271353604211 0 -0.28997092190375101 0.14937840067507341 0 -0.305141378453054 0.1484271353604211 0 -0.29217902942938201 0.16272330567381019 0 -0.28997092190375101 0.14937840067507341 0 -0.27908828357093152 0.1593012141946881 0 -0.27677979583884837 0.1472702182939542 0 -0.28997092190375101 0.14937840067507341 0 -0.2894842549724459 0.13425274431825021 0 -0.27677979583884837 0.1472702182939542 0 -0.2894842549724459 0.13425274431825021 0 -0.2755875345805428 0.12604268149322609 0 -0.28603949534652001 0.11846610390616009 0 -0.32120559858140441 0.13368262453851831 0 -0.30505224155828031 0.13058598035160071 0 -0.305141378453054 0.1484271353604211 0 -0.2894842549724459 0.13425274431825021 0 -0.30505224155828031 0.13058598035160071 0 -0.305141378453054 0.1484271353604211 0 -0.2894842549724459 0.13425274431825021 0 -0.30505224155828031 0.13058598035160071 0 -0.29889888941907522 0.1171967556724034 0 -0.31513401334668778 0.1681688715460273 0 -0.305141378453054 0.1484271353604211 0 -0.29217902942938201 0.16272330567381019 0 -0.31513401334668778 0.1681688715460273 0 -0.30734001623881713 0.18339629265426091 0 -0.29217902942938201 0.16272330567381019 0 -0.2894204282387699 0.18753668953341651 0 -0.30734001623881713 0.18339629265426091 0 -0.29217902942938201 0.16272330567381019 0 -0.2894204282387699 0.18753668953341651 0 -0.29217902942938201 0.16272330567381019 0 -0.28016698052458888 0.17150409872478281 0 -0.2894204282387699 0.18753668953341651 0 -0.29217902942938201 0.16272330567381019 0 -0.29217902942938201 0.16272330567381019 0 -0.27908828357093152 0.1593012141946881 0 -0.28016698052458888 0.17150409872478281 0 -0.28997092190375101 0.14937840067507341 0 -0.29217902942938201 0.16272330567381019 0 -0.27908828357093152 0.1593012141946881 0 -0.27908828357093152 0.1593012141946881 0 -0.28016698052458888 0.17150409872478281 0 -0.26759601125297372 0.1635440499141752 0 -0.28016698052458888 0.17150409872478281 0 -0.26759601125297372 0.1635440499141752 0 -0.26555577592111768 0.17431556551822869 0 -0.26759601125297372 0.1635440499141752 0 -0.26555577592111768 0.17431556551822869 0 -0.27908828357093152 0.1593012141946881 0 -0.26759601125297372 0.1635440499141752 0 -0.26916869607424182 0.1551845895757509 0 -0.2894204282387699 0.18753668953341651 0 -0.27577393013689278 0.1922562248190274 0 -0.26555577592111768 0.17431556551822869 0 -0.2894204282387699 0.18753668953341651 0 -0.26555577592111768 0.17431556551822869 0 -0.2894204282387699 0.18753668953341651 0 -0.28016698052458888 0.17150409872478281 0 -0.26555577592111768 0.17431556551822869 0 -0.26115380841496549 0.19755595398750869 0 -0.26555577592111768 0.17431556551822869 0 -0.26115380841496549 0.19755595398750869 0 -0.26555577592111768 0.17431556551822869 0 -0.2479223765060691 0.1822822784690315 0 -0.26555577592111768 0.17431556551822869 0 -0.24390239082926071 0.162319493426444 0 -0.2479223765060691 0.1822822784690315 0 -0.26555577592111768 0.17431556551822869 0 -0.25859558504896651 0.15918616739638269 0 -0.24390239082926071 0.162319493426444 0 -0.26555577592111768 0.17431556551822869 0 -0.24390239082926071 0.162319493426444 0 -0.26759601125297372 0.1635440499141752 0 -0.25859558504896651 0.15918616739638269 0 -0.26916869607424182 0.1551845895757509 0 -0.26759601125297372 0.1635440499141752 0 -0.26555577592111768 0.17431556551822869 0 -0.25859558504896651 0.15918616739638269 0 -0.25859558504896651 0.15918616739638269 0 -0.24813703473676049 0.14800806981713691 0 -0.24390239082926071 0.162319493426444 0 -0.25859558504896651 0.15918616739638269 0 -0.26228297772273118 0.14873689858666231 0 -0.24813703473676049 0.14800806981713691 0 -0.26228297772273118 0.14873689858666231 0 -0.2617064254417234 0.13412533882024219 0 -0.24813703473676049 0.14800806981713691 0 -0.25859558504896651 0.15918616739638269 0 -0.26228297772273118 0.14873689858666231 0 -0.26916869607424182 0.1551845895757509 0 -0.26228297772273118 0.14873689858666231 0 -0.26916869607424182 0.1551845895757509 0 -0.27677979583884837 0.1472702182939542 0 -0.26228297772273118 0.14873689858666231 0 -0.27677979583884837 0.1472702182939542 0 -0.27442366671692242 0.13641565503927169 0 -0.27908828357093152 0.1593012141946881 0 -0.26916869607424182 0.1551845895757509 0 -0.27677979583884837 0.1472702182939542 0 -0.2755875345805428 0.12604268149322609 0 -0.2617064254417234 0.13412533882024219 0 -0.26570265760948081 0.1163364089228052 0 -0.2894842549724459 0.13425274431825021 0 -0.2755875345805428 0.12604268149322609 0 -0.27442366671692242 0.13641565503927169 0 -0.2894842549724459 0.13425274431825021 0 -0.27677979583884837 0.1472702182939542 0 -0.27442366671692242 0.13641565503927169 0 -0.26228297772273118 0.14873689858666231 0 -0.27442366671692242 0.13641565503927169 0 -0.2617064254417234 0.13412533882024219 0 -0.2755875345805428 0.12604268149322609 0 -0.27442366671692242 0.13641565503927169 0 -0.2617064254417234 0.13412533882024219 0 -0.2617064254417234 0.13412533882024219 0 -0.25097225161313158 0.1211644647075064 0 -0.24008582364047701 0.13335709933843251 0 -0.2617064254417234 0.13412533882024219 0 -0.25097225161313158 0.1211644647075064 0 -0.26570265760948081 0.1163364089228052 0 -0.25097225161313158 0.1211644647075064 0 -0.25221713248247618 0.1065389001775183 0 -0.26570265760948081 0.1163364089228052 0 -0.25221713248247618 0.1065389001775183 0 -0.26198440921503502 0.090202529318815741 0 -0.24449326852184169 0.085316800970515722 0 -0.25221713248247618 0.1065389001775183 0 -0.27571870918728852 0.1042275147516545 0 -0.26198440921503502 0.090202529318815741 0 -0.25221713248247618 0.1065389001775183 0 -0.28071808133542531 0.10972428706094681 0 -0.25221713248247618 0.1065389001775183 0 -0.27571870918728852 0.1042275147516545 0 -0.28071808133542531 0.10972428706094681 0 -0.25221713248247618 0.1065389001775183 0 -0.26570265760948081 0.1163364089228052 0 -0.28071808133542531 0.10972428706094681 0 -0.2755875345805428 0.12604268149322609 0 -0.26570265760948081 0.1163364089228052 0 -0.27701194221799219 0.11764237034578449 0 -0.26570265760948081 0.1163364089228052 0 -0.28071808133542531 0.10972428706094681 0 -0.27701194221799219 0.11764237034578449 0 -0.2755875345805428 0.12604268149322609 0 -0.27701194221799219 0.11764237034578449 0 -0.28603949534652001 0.11846610390616009 0 -0.2894842549724459 0.13425274431825021 0 -0.28603949534652001 0.11846610390616009 0 -0.29889888941907522 0.1171967556724034 0 -0.28603949534652001 0.11846610390616009 0 -0.29343852786185209 0.10462848617460289 0 -0.29889888941907522 0.1171967556724034 0 -0.28071808133542531 0.10972428706094681 0 -0.28603949534652001 0.11846610390616009 0 -0.29343852786185209 0.10462848617460289 0 -0.28071808133542531 0.10972428706094681 0 -0.27701194221799219 0.11764237034578449 0 -0.28603949534652001 0.11846610390616009 0 -0.27571870918728852 0.1042275147516545 0 -0.28071808133542531 0.10972428706094681 0 -0.29343852786185209 0.10462848617460289 0 -0.27571870918728852 0.1042275147516545 0 -0.29431999754600502 0.090953693390035451 0 -0.27571870918728852 0.1042275147516545 0 -0.29343852786185209 0.10462848617460289 0 -0.29431999754600502 0.090953693390035451 0 -0.29343852786185209 0.10462848617460289 0 -0.30985698149667468 0.092916286470293249 0 -0.31585514129578879 0.10725366299370601 0 -0.29343852786185209 0.10462848617460289 0 -0.30985698149667468 0.092916286470293249 0 -0.29431999754600502 0.090953693390035451 0 -0.30505224155828031 0.13058598035160071 0 -0.29889888941907522 0.1171967556724034 0 -0.31585514129578879 0.10725366299370601 0 -0.29343852786185209 0.10462848617460289 0 -0.29889888941907522 0.1171967556724034 0 -0.31585514129578879 0.10725366299370601 0 -0.30404110321196143 0.068048956998390642 0 -0.29381676309522292 0.076200177287505055 0 -0.3129212859047214 0.077679872028416391 0 -0.30404110321196143 0.068048956998390642 0 -0.31493002599145559 0.060682565603804167 0 -0.3129212859047214 0.077679872028416391 0 -0.30404110321196143 0.068048956998390642 0 -0.29381676309522292 0.076200177287505055 0 -0.29428082851015808 0.065941942382805596 0 -0.30404110321196143 0.068048956998390642 0 -0.29428082851015808 0.065941942382805596 0 -0.30279449235017519 0.056911532176363772 0 -0.29431999754600502 0.090953693390035451 0 -0.3129212859047214 0.077679872028416391 0 -0.30985698149667468 0.092916286470293249 0 -0.29431999754600502 0.090953693390035451 0 -0.3129212859047214 0.077679872028416391 0 -0.29431999754600502 0.090953693390035451 0 -0.29381676309522292 0.076200177287505055 0 -0.3129212859047214 0.077679872028416391 0 -0.29431999754600502 0.090953693390035451 0 -0.29381676309522292 0.076200177287505055 0 -0.2768539543247277 0.084692078653780922 0 -0.27571870918728852 0.1042275147516545 0 -0.29431999754600502 0.090953693390035451 0 -0.2768539543247277 0.084692078653780922 0 -0.29381676309522292 0.076200177287505055 0 -0.28048340907376379 0.069884520271601344 0 -0.2768539543247277 0.084692078653780922 0 -0.29381676309522292 0.076200177287505055 0 -0.29428082851015808 0.065941942382805596 0 -0.28048340907376379 0.069884520271601344 0 -0.29428082851015808 0.065941942382805596 0 -0.28048340907376379 0.069884520271601344 0 -0.29042555167298417 0.055128792654641712 0 -0.28048340907376379 0.069884520271601344 0 -0.2768539543247277 0.084692078653780922 0 -0.2605975534888173 0.071114173048859516 0 -0.28048340907376379 0.069884520271601344 0 -0.2605975534888173 0.071114173048859516 0 -0.27092294925643262 0.062371138512978617 0 -0.2768539543247277 0.084692078653780922 0 -0.26198440921503502 0.090202529318815741 0 -0.2605975534888173 0.071114173048859516 0 -0.27571870918728852 0.1042275147516545 0 -0.2768539543247277 0.084692078653780922 0 -0.26198440921503502 0.090202529318815741 0 -0.26198440921503502 0.090202529318815741 0 -0.2605975534888173 0.071114173048859516 0 -0.24449326852184169 0.085316800970515722 0 -0.26506008311456969 0.051559738113609761 0 -0.25472996435869488 0.041159460772283628 0 -0.24851981088750691 0.051999342459804407 0 -0.2605975534888173 0.071114173048859516 0 -0.26506008311456969 0.051559738113609761 0 -0.27092294925643262 0.062371138512978617 0 -0.2605975534888173 0.071114173048859516 0 -0.26506008311456969 0.051559738113609761 0 -0.24851981088750691 0.051999342459804407 0 -0.25472996435869488 0.041159460772283628 0 -0.2653030565997147 0.036528517327098678 0 -0.25230047812993422 0.029389928005160559 0 -0.26506008311456969 0.051559738113609761 0 -0.25472996435869488 0.041159460772283628 0 -0.2653030565997147 0.036528517327098678 0 -0.26506008311456969 0.051559738113609761 0 -0.2653030565997147 0.036528517327098678 0 -0.27641353167278049 0.042647048701163787 0 -0.2653030565997147 0.036528517327098678 0 -0.2754364872228563 0.031261196217326051 0 -0.26439950927224409 0.02629061433092994 0 -0.2653030565997147 0.036528517327098678 0 -0.2754364872228563 0.031261196217326051 0 -0.27641353167278049 0.042647048701163787 0 -0.2754364872228563 0.031261196217326051 0 -0.27641353167278049 0.042647048701163787 0 -0.28309194113830571 0.037251157522997451 0 -0.2754364872228563 0.031261196217326051 0 -0.28382564224613971 0.029111287647257011 0 -0.28309194113830571 0.037251157522997451 0 -0.27641353167278049 0.042647048701163787 0 -0.27882202466016232 0.054583538436959768 0 -0.28707209911178461 0.045432832957648529 0 -0.28048340907376379 0.069884520271601344 0 -0.27882202466016232 0.054583538436959768 0 -0.27092294925643262 0.062371138512978617 0 -0.26506008311456969 0.051559738113609761 0 -0.27882202466016232 0.054583538436959768 0 -0.27092294925643262 0.062371138512978617 0 -0.26506008311456969 0.051559738113609761 0 -0.27641353167278049 0.042647048701163787 0 -0.27882202466016232 0.054583538436959768 0 -0.25287578898181168 -0.0057161506613598251 0 -0.25545130467109289 0.01215657243201815 0 -0.25287578898181168 -0.0057161506613598251 0 -0.26290873757642058 0.0076827679798374222 0 -0.25545130467109289 0.01215657243201815 0 -0.25287578898181168 -0.0057161506613598251 0 -0.25545130467109289 0.01215657243201815 0 -0.24416649867175319 0.0093576832284096249 0 -0.25287578898181168 -0.0057161506613598251 0 -0.26388728132695588 -0.00071331782437327623 0 -0.26290873757642058 0.0076827679798374222 0 -0.26290873757642058 0.0076827679798374222 0 -0.25545130467109289 0.01215657243201815 0 -0.26448409364593711 0.017321406680320641 0 -0.26448409364593711 0.017321406680320641 0 -0.25681768956478579 0.020830457293640348 0 -0.26439950927224409 0.02629061433092994 0 -0.25545130467109289 0.01215657243201815 0 -0.26448409364593711 0.017321406680320641 0 -0.25681768956478579 0.020830457293640348 0 -0.25681768956478579 0.020830457293640348 0 -0.25230047812993422 0.029389928005160559 0 -0.24871267462756741 0.019211461924962529 0 -0.25545130467109289 0.01215657243201815 0 -0.25681768956478579 0.020830457293640348 0 -0.24871267462756741 0.019211461924962529 0 -0.25681768956478579 0.020830457293640348 0 -0.25230047812993422 0.029389928005160559 0 -0.26439950927224409 0.02629061433092994 0 -0.2653030565997147 0.036528517327098678 0 -0.25230047812993422 0.029389928005160559 0 -0.26439950927224409 0.02629061433092994 0 -0.2754364872228563 0.031261196217326051 0 -0.26439950927224409 0.02629061433092994 0 -0.27268505673166032 0.02252102891462841 0 -0.2754364872228563 0.031261196217326051 0 -0.27943047895945322 0.022696438790009599 0 -0.28382564224613971 0.029111287647257011 0 -0.2754364872228563 0.031261196217326051 0 -0.27943047895945322 0.022696438790009599 0 -0.27268505673166032 0.02252102891462841 0 -0.27943047895945322 0.022696438790009599 0 -0.2756553062905932 0.015384773177777001 0 -0.28530525143676477 0.017043445775691671 0 -0.27943047895945322 0.022696438790009599 0 -0.27268505673166032 0.02252102891462841 0 -0.2756553062905932 0.015384773177777001 0 -0.26448409364593711 0.017321406680320641 0 -0.27060749060365807 0.01642009285903279 0 -0.27268505673166032 0.02252102891462841 0 -0.26448409364593711 0.017321406680320641 0 -0.26439950927224409 0.02629061433092994 0 -0.27268505673166032 0.02252102891462841 0 -0.27060749060365807 0.01642009285903279 0 -0.27268505673166032 0.02252102891462841 0 -0.2756553062905932 0.015384773177777001 0 -0.27546838732076367 -0.0053750141462280791 0 -0.28530525143676477 0.017043445775691671 0 -0.27546838732076367 -0.0053750141462280791 0 -0.27156820989033809 0.0055335659959019458 0 -0.28530525143676477 0.017043445775691671 0 -0.26290873757642058 0.0076827679798374222 0 -0.26984890221020941 0.01137859851981062 0 -0.27156820989033809 0.0055335659959019458 0 -0.26290873757642058 0.0076827679798374222 0 -0.26448409364593711 0.017321406680320641 0 -0.26984890221020941 0.01137859851981062 0 -0.26984890221020941 0.01137859851981062 0 -0.2756553062905932 0.015384773177777001 0 -0.27156820989033809 0.0055335659959019458 0 -0.26448409364593711 0.017321406680320641 0 -0.27060749060365807 0.01642009285903279 0 -0.26984890221020941 0.01137859851981062 0 -0.27060749060365807 0.01642009285903279 0 -0.26984890221020941 0.01137859851981062 0 -0.2756553062905932 0.015384773177777001 0 -0.2756553062905932 0.015384773177777001 0 -0.27156820989033809 0.0055335659959019458 0 -0.28530525143676477 0.017043445775691671 0 -0.26388728132695588 -0.00071331782437327623 0 -0.26290873757642058 0.0076827679798374222 0 -0.27156820989033809 0.0055335659959019458 0 -0.2779699259836651 -0.011659473032781659 0 -0.28534093571081642 0.01307197452940519 0 -0.2779699259836651 -0.011659473032781659 0 -0.2854786141379379 -0.00071074586852360247 0 -0.28534093571081642 0.01307197452940519 0 -0.27546838732076367 -0.0053750141462280791 0 -0.28534093571081642 0.01307197452940519 0 -0.28530525143676477 0.017043445775691671 0 -0.29470320845280401 0.003079221087507088 0 -0.29195444975413459 0.0088040874769837827 0 -0.29798202312957678 0.0089972200740886157 0 -0.29470320845280401 0.003079221087507088 0 -0.28866453774586343 0.004318233244615755 0 -0.29195444975413459 0.0088040874769837827 0 -0.28975035626059048 -0.0020174263622448761 0 -0.29470320845280401 0.003079221087507088 0 -0.28866453774586343 0.004318233244615755 0 -0.2854786141379379 -0.00071074586852360247 0 -0.28975035626059048 -0.0020174263622448761 0 -0.28866453774586343 0.004318233244615755 0 -0.2854786141379379 -0.00071074586852360247 0 -0.28866453774586343 0.004318233244615755 0 -0.28534093571081642 0.01307197452940519 0 -0.28866453774586343 0.004318233244615755 0 -0.28534093571081642 0.01307197452940519 0 -0.29195444975413459 0.0088040874769837827 0 -0.28534093571081642 0.01307197452940519 0 -0.29195444975413459 0.0088040874769837827 0 -0.29398073389882318 0.01495123812773207 0 -0.29195444975413459 0.0088040874769837827 0 -0.29398073389882318 0.01495123812773207 0 -0.29798202312957678 0.0089972200740886157 0 -0.28534093571081642 0.01307197452940519 0 -0.28530525143676477 0.017043445775691671 0 -0.29271194543796752 0.037803422091591869 0 -0.28534093571081642 0.01307197452940519 0 -0.29271194543796752 0.037803422091591869 0 -0.28534093571081642 0.01307197452940519 0 -0.29516770275354132 0.02360734433927749 0 -0.29271194543796752 0.037803422091591869 0 -0.28530525143676477 0.017043445775691671 0 -0.28382564224613971 0.029111287647257011 0 -0.29271194543796752 0.037803422091591869 0 -0.28534093571081642 0.01307197452940519 0 -0.29398073389882318 0.01495123812773207 0 -0.29516770275354132 0.02360734433927749 0 -0.27943047895945322 0.022696438790009599 0 -0.28530525143676477 0.017043445775691671 0 -0.28382564224613971 0.029111287647257011 0 -0.29516770275354132 0.02360734433927749 0 -0.29271194543796752 0.037803422091591869 0 -0.30250949350031359 0.031598819514380518 0 -0.29516770275354132 0.02360734433927749 0 -0.30635797126159692 0.015856601204381381 0 -0.30250949350031359 0.031598819514380518 0 -0.30635797126159692 0.015856601204381381 0 -0.30250949350031359 0.031598819514380518 0 -0.31656093169565103 0.033108070661008397 0 -0.29398073389882318 0.01495123812773207 0 -0.29516770275354132 0.02360734433927749 0 -0.30635797126159692 0.015856601204381381 0 -0.29398073389882318 0.01495123812773207 0 -0.30635797126159692 0.015856601204381381 0 -0.29798202312957678 0.0089972200740886157 0 -0.30635797126159692 0.015856601204381381 0 -0.29798202312957678 0.0089972200740886157 0 -0.30460315445968361 0.001723103690654445 0 -0.30635797126159692 0.015856601204381381 0 -0.30460315445968361 0.001723103690654445 0 -0.31732294002332018 0.0010899000252003741 0 -0.29470320845280401 0.003079221087507088 0 -0.29798202312957678 0.0089972200740886157 0 -0.30460315445968361 0.001723103690654445 0 -0.29526472936697529 -0.0033498915990551941 0 -0.29470320845280401 0.003079221087507088 0 -0.30460315445968361 0.001723103690654445 0 -0.29042555167298417 0.055128792654641712 0 -0.28707209911178461 0.045432832957648529 0 -0.29867717155552931 0.045909248090924178 0 -0.29428082851015808 0.065941942382805596 0 -0.29042555167298417 0.055128792654641712 0 -0.30279449235017519 0.056911532176363772 0 -0.28048340907376379 0.069884520271601344 0 -0.27882202466016232 0.054583538436959768 0 -0.29042555167298417 0.055128792654641712 0 -0.27882202466016232 0.054583538436959768 0 -0.29042555167298417 0.055128792654641712 0 -0.28707209911178461 0.045432832957648529 0 -0.27641353167278049 0.042647048701163787 0 -0.28707209911178461 0.045432832957648529 0 -0.28309194113830571 0.037251157522997451 0 -0.28707209911178461 0.045432832957648529 0 -0.28309194113830571 0.037251157522997451 0 -0.29271194543796752 0.037803422091591869 0 -0.28382564224613971 0.029111287647257011 0 -0.28309194113830571 0.037251157522997451 0 -0.29271194543796752 0.037803422091591869 0 -0.28707209911178461 0.045432832957648529 0 -0.29271194543796752 0.037803422091591869 0 -0.29867717155552931 0.045909248090924178 0 -0.29867717155552931 0.045909248090924178 0 -0.30250949350031359 0.031598819514380518 0 -0.31656093169565103 0.033108070661008397 0 -0.29867717155552931 0.045909248090924178 0 -0.31161841202119178 0.049605645834058548 0 -0.31656093169565103 0.033108070661008397 0 -0.29867717155552931 0.045909248090924178 0 -0.31656093169565103 0.033108070661008397 0 -0.29271194543796752 0.037803422091591869 0 -0.29867717155552931 0.045909248090924178 0 -0.30250949350031359 0.031598819514380518 0 -0.29867717155552931 0.045909248090924178 0 -0.31161841202119178 0.049605645834058548 0 -0.30279449235017519 0.056911532176363772 0 -0.29042555167298417 0.055128792654641712 0 -0.29867717155552931 0.045909248090924178 0 -0.30279449235017519 0.056911532176363772 0 -0.30404110321196143 0.068048956998390642 0 -0.30279449235017519 0.056911532176363772 0 -0.31493002599145559 0.060682565603804167 0 -0.31161841202119178 0.049605645834058548 0 -0.30279449235017519 0.056911532176363772 0 -0.31493002599145559 0.060682565603804167 0 -0.31493002599145559 0.060682565603804167 0 -0.32466310211119781 0.048857445244510862 0 -0.33152257426343901 0.064406050666798886 0 -0.31161841202119178 0.049605645834058548 0 -0.31493002599145559 0.060682565603804167 0 -0.32466310211119781 0.048857445244510862 0 -0.31161841202119178 0.049605645834058548 0 -0.32466310211119781 0.048857445244510862 0 -0.31656093169565103 0.033108070661008397 0 -0.32466310211119781 0.048857445244510862 0 -0.31656093169565103 0.033108070661008397 0 -0.33376959449651289 0.033760584578303283 0 -0.33376959449651289 0.033760584578303283 0 -0.33845786683425833 0.045439272378258219 0 -0.34539315940507548 0.026472494089716799 0 -0.33845786683425833 0.045439272378258219 0 -0.34539315940507548 0.026472494089716799 0 -0.32466310211119781 0.048857445244510862 0 -0.33376959449651289 0.033760584578303283 0 -0.33845786683425833 0.045439272378258219 0 -0.33845786683425833 0.045439272378258219 0 -0.33152257426343901 0.064406050666798886 0 -0.33845786683425833 0.045439272378258219 0 -0.35552555892463122 0.047277595669804481 0 -0.33152257426343901 0.064406050666798886 0 -0.35552555892463122 0.047277595669804481 0 -0.33152257426343901 0.064406050666798886 0 -0.32466310211119781 0.048857445244510862 0 -0.33845786683425833 0.045439272378258219 0 -0.33152257426343901 0.064406050666798886 0 -0.30635797126159692 0.015856601204381381 0 -0.31732294002332018 0.0010899000252003741 0 -0.32244706062006429 0.01196088825862562 0 -0.33132111815502818 -0.0010910057428710281 0 -0.31732294002332018 0.0010899000252003741 0 -0.32244706062006429 0.01196088825862562 0 -0.30635797126159692 0.015856601204381381 0 -0.31656093169565103 0.033108070661008397 0 -0.32244706062006429 0.01196088825862562 0 -0.31656093169565103 0.033108070661008397 0 -0.33444469183577269 0.02030689323109261 0 -0.31656093169565103 0.033108070661008397 0 -0.32244706062006429 0.01196088825862562 0 -0.33444469183577269 0.02030689323109261 0 -0.31656093169565103 0.033108070661008397 0 -0.33376959449651289 0.033760584578303283 0 -0.33444469183577269 0.02030689323109261 0 -0.33376959449651289 0.033760584578303283 0 -0.33444469183577269 0.02030689323109261 0 -0.34539315940507548 0.026472494089716799 0 -0.33444469183577269 0.02030689323109261 0 -0.35232845197589391 0.0075057158011758666 0 -0.33444469183577269 0.02030689323109261 0 -0.33721431497161619 0.0070559717651629151 0 -0.35232845197589391 0.0075057158011758666 0 -0.32244706062006429 0.01196088825862562 0 -0.33444469183577269 0.02030689323109261 0 -0.33721431497161619 0.0070559717651629151 0 -0.34415883057956442 -0.0027996634581069178 0 -0.33132111815502818 -0.0010910057428710281 0 -0.33721431497161619 0.0070559717651629151 0 -0.33132111815502818 -0.0010910057428710281 0 -0.32244706062006429 0.01196088825862562 0 -0.33721431497161619 0.0070559717651629151 0 -0.34415883057956442 -0.0027996634581069178 0 -0.33721431497161619 0.0070559717651629151 0 -0.35232845197589391 0.0075057158011758666 0 -0.35232845197589391 0.0075057158011758666 0 -0.34539315940507548 0.026472494089716799 0 -0.36091110274319299 0.026790850810705289 0 -0.33444469183577269 0.02030689323109261 0 -0.35232845197589391 0.0075057158011758666 0 -0.34539315940507548 0.026472494089716799 0 -0.35232845197589391 0.0075057158011758666 0 -0.34539315940507548 0.026472494089716799 0 -0.35232845197589391 0.0075057158011758666 0 -0.36091110274319299 0.026790850810705289 0 -0.36920175737863042 0.014667987736723171 0 -0.37952854358582422 0.030149140672811822 0 -0.36091110274319299 0.026790850810705289 0 -0.36920175737863042 0.014667987736723171 0 -0.36768537075595931 -0.0034867511375504031 0 -0.35232845197589391 0.0075057158011758666 0 -0.36920175737863042 0.014667987736723171 0 -0.36768537075595931 -0.0034867511375504031 0 -0.38404527332566568 0.0054737304613157491 0 -0.36920175737863042 0.014667987736723171 0 -0.36768537075595931 -0.0034867511375504031 0 -0.35232845197589391 0.0075057158011758666 0 -0.35552555892463122 0.047277595669804481 0 -0.35511968677308181 0.066262340103166589 0 -0.33152257426343901 0.064406050666798886 0 -0.33845786683425833 0.045439272378258219 0 -0.34539315940507548 0.026472494089716799 0 -0.35552555892463122 0.047277595669804481 0 -0.34539315940507548 0.026472494089716799 0 -0.36091110274319299 0.026790850810705289 0 -0.35552555892463122 0.047277595669804481 0 -0.37952854358582422 0.030149140672811822 0 -0.35552555892463122 0.047277595669804481 0 -0.36850840586634642 0.049872208884288748 0 -0.37952854358582422 0.030149140672811822 0 -0.36091110274319299 0.026790850810705289 0 -0.35552555892463122 0.047277595669804481 0 -0.37952854358582422 0.030149140672811822 0 -0.35552555892463122 0.047277595669804481 0 -0.37800026501006578 0.056376605091929419 0 -0.3752531199766081 0.069935376157128082 0 -0.36850840586634642 0.049872208884288748 0 -0.3752531199766081 0.069935376157128082 0 -0.36850840586634642 0.049872208884288748 0 -0.35511968677308181 0.066262340103166589 0 -0.35552555892463122 0.047277595669804481 0 -0.36850840586634642 0.049872208884288748 0 -0.35511968677308181 0.066262340103166589 0 -0.3752531199766081 0.069935376157128082 0 -0.35511968677308181 0.066262340103166589 0 -0.3590395398709309 0.086663091065160403 0 -0.35511968677308181 0.066262340103166589 0 -0.3590395398709309 0.086663091065160403 0 -0.34150669588614141 0.080200913063778662 0 -0.3590395398709309 0.086663091065160403 0 -0.34663236763941901 0.093388580316886363 0 -0.34150669588614141 0.080200913063778662 0 -0.3752531199766081 0.069935376157128082 0 -0.3590395398709309 0.086663091065160403 0 -0.3752531199766081 0.069935376157128082 0 -0.3590395398709309 0.086663091065160403 0 -0.37444869731353558 0.090467659160156019 0 -0.3590395398709309 0.086663091065160403 0 -0.37444869731353558 0.090467659160156019 0 -0.35742663028902788 0.1032591936804559 0 -0.37698845043425261 0.1175472765551424 0 -0.37444869731353558 0.090467659160156019 0 -0.35742663028902788 0.1032591936804559 0 -0.37698845043425261 0.1175472765551424 0 -0.34685694597574179 0.1263938344101338 0 -0.35742663028902788 0.1032591936804559 0 -0.34685694597574179 0.1263938344101338 0 -0.35742663028902788 0.1032591936804559 0 -0.33965395746983129 0.1077232841314528 0 -0.3590395398709309 0.086663091065160403 0 -0.34663236763941901 0.093388580316886363 0 -0.35742663028902788 0.1032591936804559 0 -0.34663236763941901 0.093388580316886363 0 -0.35742663028902788 0.1032591936804559 0 -0.33965395746983129 0.1077232841314528 0 -0.34663236763941901 0.093388580316886363 0 -0.33965395746983129 0.1077232841314528 0 -0.33365536862025041 0.094353546755976125 0 -0.33965395746983129 0.1077232841314528 0 -0.33365536862025041 0.094353546755976125 0 -0.31585514129578879 0.10725366299370601 0 -0.33965395746983129 0.1077232841314528 0 -0.33035659653156541 0.119365046516763 0 -0.31585514129578879 0.10725366299370601 0 -0.34685694597574179 0.1263938344101338 0 -0.33965395746983129 0.1077232841314528 0 -0.33035659653156541 0.119365046516763 0 -0.32120559858140441 0.13368262453851831 0 -0.30505224155828031 0.13058598035160071 0 -0.31585514129578879 0.10725366299370601 0 -0.32120559858140441 0.13368262453851831 0 -0.33035659653156541 0.119365046516763 0 -0.31585514129578879 0.10725366299370601 0 -0.30985698149667468 0.092916286470293249 0 -0.31585514129578879 0.10725366299370601 0 -0.32368885777961498 0.085829856830252849 0 -0.33365536862025041 0.094353546755976125 0 -0.31585514129578879 0.10725366299370601 0 -0.32368885777961498 0.085829856830252849 0 -0.31585514129578879 0.10725366299370601 0 -0.32368885777961498 0.085829856830252849 0 -0.30985698149667468 0.092916286470293249 0 -0.32368885777961498 0.085829856830252849 0 -0.3129212859047214 0.077679872028416391 0 -0.31493002599145559 0.060682565603804167 0 -0.3129212859047214 0.077679872028416391 0 -0.33152257426343901 0.064406050666798886 0 -0.32368885777961498 0.085829856830252849 0 -0.33152257426343901 0.064406050666798886 0 -0.3129212859047214 0.077679872028416391 0 -0.33152257426343901 0.064406050666798886 0 -0.32368885777961498 0.085829856830252849 0 -0.3129212859047214 0.077679872028416391 0 -0.33152257426343901 0.064406050666798886 0 -0.32368885777961498 0.085829856830252849 0 -0.33152257426343901 0.064406050666798886 0 -0.34150669588614141 0.080200913063778662 0 -0.35511968677308181 0.066262340103166589 0 -0.33152257426343901 0.064406050666798886 0 -0.34150669588614141 0.080200913063778662 0 -0.33365536862025041 0.094353546755976125 0 -0.32368885777961498 0.085829856830252849 0 -0.34150669588614141 0.080200913063778662 0 -0.34663236763941901 0.093388580316886363 0 -0.33365536862025041 0.094353546755976125 0 -0.34150669588614141 0.080200913063778662 0 -0.39748669805699888 0.48168431713382442 0 -0.40565816704897628 0.47296474476814798 0 -0.41496788719828431 0.48999888308578982 0 -0.39748669805699888 0.48168431713382442 0 -0.38422049031235972 0.47460894426582162 0 -0.39726410287368141 0.46379452282532668 0 -0.39748669805699888 0.48168431713382442 0 -0.40565816704897628 0.47296474476814798 0 -0.39726410287368141 0.46379452282532668 0 -0.39748669805699888 0.48168431713382442 0 -0.40240045464599972 0.5 0 -0.38778562351496498 0.49236846547242691 0 -0.39748669805699888 0.48168431713382442 0 -0.40240045464599972 0.5 0 -0.41496788719828431 0.48999888308578982 0 -0.40240045464599972 0.5 0 -0.38778562351496498 0.49236846547242691 0 -0.37726558954143102 0.5 0 -0.39748669805699888 0.48168431713382442 0 -0.38778562351496498 0.49236846547242691 0 -0.37398975181543048 0.4877895447558831 0 -0.39748669805699888 0.48168431713382442 0 -0.37398975181543048 0.4877895447558831 0 -0.38778562351496498 0.49236846547242691 0 -0.37726558954143102 0.5 0 -0.37398975181543048 0.4877895447558831 0 -0.38422049031235972 0.47460894426582162 0 -0.37063848017661433 0.47177190657297779 0 -0.37398975181543048 0.4877895447558831 0 -0.39748669805699888 0.48168431713382442 0 -0.38422049031235972 0.47460894426582162 0 -0.37398975181543048 0.4877895447558831 0 -0.38422049031235972 0.47460894426582162 0 -0.380460905602796 0.46359633125199629 0 -0.37063848017661433 0.47177190657297779 0 -0.38422049031235972 0.47460894426582162 0 -0.380460905602796 0.46359633125199629 0 -0.39726410287368141 0.46379452282532668 0 -0.380460905602796 0.46359633125199629 0 -0.38837427261954899 0.45363827584041938 0 -0.39726410287368141 0.46379452282532668 0 -0.380460905602796 0.46359633125199629 0 -0.37826215104173139 0.45075689027670202 0 -0.36722260114033228 0.45615188582674621 0 -0.380460905602796 0.46359633125199629 0 -0.38837427261954899 0.45363827584041938 0 -0.37826215104173139 0.45075689027670202 0 -0.37826215104173139 0.45075689027670202 0 -0.38802674414082122 0.44098395558363218 0 -0.36722623170515878 0.43941400288071569 0 -0.38837427261954899 0.45363827584041938 0 -0.37826215104173139 0.45075689027670202 0 -0.38802674414082122 0.44098395558363218 0 -0.38802674414082122 0.44098395558363218 0 -0.39676799103592059 0.43923847751535228 0 -0.39235319498446181 0.43294957417612412 0 -0.38802674414082122 0.44098395558363218 0 -0.39676799103592059 0.43923847751535228 0 -0.39637608340060138 0.44985724860927528 0 -0.38837427261954899 0.45363827584041938 0 -0.38802674414082122 0.44098395558363218 0 -0.39637608340060138 0.44985724860927528 0 -0.39676799103592059 0.43923847751535228 0 -0.39637608340060138 0.44985724860927528 0 -0.40756396968124281 0.4482930517834538 0 -0.40565816704897628 0.47296474476814798 0 -0.39726410287368141 0.46379452282532668 0 -0.40756396968124281 0.4482930517834538 0 -0.38837427261954899 0.45363827584041938 0 -0.39637608340060138 0.44985724860927528 0 -0.39726410287368141 0.46379452282532668 0 -0.39637608340060138 0.44985724860927528 0 -0.39726410287368141 0.46379452282532668 0 -0.40756396968124281 0.4482930517834538 0 -0.40565816704897628 0.47296474476814798 0 -0.40756396968124281 0.4482930517834538 0 -0.4175496447159055 0.47414652589172751 0 -0.42088746526014259 0.45804170257290538 0 -0.40756396968124281 0.4482930517834538 0 -0.4175496447159055 0.47414652589172751 0 -0.40756396968124281 0.4482930517834538 0 -0.4175496447159055 0.47414652589172751 0 -0.40756396968124281 0.4482930517834538 0 -0.41237499304605169 0.43706255385935838 0 -0.40806349784869778 0.42980701385444658 0 -0.42088746526014259 0.45804170257290538 0 -0.42521854931575093 0.44374406392536642 0 -0.41237499304605169 0.43706255385935838 0 -0.42088746526014259 0.45804170257290538 0 -0.40756396968124281 0.4482930517834538 0 -0.41237499304605169 0.43706255385935838 0 -0.42088746526014259 0.45804170257290538 0 -0.41237499304605169 0.43706255385935838 0 -0.42088746526014259 0.45804170257290538 0 -0.42521854931575093 0.44374406392536642 0 -0.43714695133704418 0.45124034503296878 0 -0.42521854931575093 0.44374406392536642 0 -0.43640434217242802 0.43952901548351481 0 -0.42257287256310128 0.42974109844779768 0 -0.42521854931575093 0.44374406392536642 0 -0.43714695133704418 0.45124034503296878 0 -0.43640434217242802 0.43952901548351481 0 -0.42088746526014259 0.45804170257290538 0 -0.43737143971004611 0.46536123140958419 0 -0.42939993747423338 0.47902085128645239 0 -0.42088746526014259 0.45804170257290538 0 -0.43714695133704418 0.45124034503296878 0 -0.43737143971004611 0.46536123140958419 0 -0.42088746526014259 0.45804170257290538 0 -0.42939993747423338 0.47902085128645239 0 -0.42088746526014259 0.45804170257290538 0 -0.42939993747423338 0.47902085128645239 0 -0.4175496447159055 0.47414652589172751 0 -0.40565816704897628 0.47296474476814798 0 -0.4175496447159055 0.47414652589172751 0 -0.41496788719828431 0.48999888308578982 0 -0.4175496447159055 0.47414652589172751 0 -0.41496788719828431 0.48999888308578982 0 -0.42753531975056858 0.50000000000000111 0 -0.40240045464599972 0.5 0 -0.41496788719828431 0.48999888308578982 0 -0.42753531975056858 0.50000000000000111 0 -0.4175496447159055 0.47414652589172751 0 -0.42753531975056858 0.50000000000000111 0 -0.42939993747423338 0.47902085128645239 0 -0.43791240968832401 0.49999999999999961 0 -0.42939993747423338 0.47902085128645239 0 -0.42753531975056858 0.50000000000000111 0 -0.43791240968832401 0.49999999999999961 0 -0.42939993747423338 0.47902085128645239 0 -0.4175496447159055 0.47414652589172751 0 -0.42753531975056858 0.50000000000000111 0 -0.42939993747423338 0.47902085128645239 0 -0.43791240968832401 0.49999999999999961 0 -0.45342928660061099 0.48148731291060859 0 -0.43791240968832401 0.49999999999999961 0 -0.45342928660061099 0.48148731291060859 0 -0.5 0.5 0 -0.43737143971004611 0.46536123140958419 0 -0.42939993747423338 0.47902085128645239 0 -0.45342928660061099 0.48148731291060859 0 -0.45342928660061099 0.48148731291060859 0 -0.46987551897824631 0.46966109095007019 0 -0.45241103810700539 0.45815259381849949 0 -0.5 0.5 0 -0.46987551897824631 0.46966109095007019 0 -0.48449176744176442 0.45941472741915013 0 -0.45342928660061099 0.48148731291060859 0 -0.5 0.5 0 -0.46987551897824631 0.46966109095007019 0 -0.5 0.5 0 -0.5 0.44571319377913332 0 -0.48449176744176442 0.45941472741915013 0 -0.5 0.44571319377913332 0 -0.48449176744176442 0.45941472741915013 0 -0.48727526992807418 0.43015998025022889 0 -0.48449176744176442 0.45941472741915013 0 -0.48727526992807418 0.43015998025022889 0 -0.46987551897824631 0.46966109095007019 0 -0.48449176744176442 0.45941472741915013 0 -0.46850367005835941 0.44834001059225331 0 -0.48449176744176442 0.45941472741915013 0 -0.46850367005835941 0.44834001059225331 0 -0.48727526992807418 0.43015998025022889 0 -0.46850367005835941 0.44834001059225331 0 -0.45241103810700539 0.45815259381849949 0 -0.45058887345689219 0.44261346298794291 0 -0.46850367005835941 0.44834001059225331 0 -0.45058887345689219 0.44261346298794291 0 -0.46610117480284657 0.42999118153986959 0 -0.46987551897824631 0.46966109095007019 0 -0.46850367005835941 0.44834001059225331 0 -0.45241103810700539 0.45815259381849949 0 -0.43737143971004611 0.46536123140958419 0 -0.45342928660061099 0.48148731291060859 0 -0.45241103810700539 0.45815259381849949 0 -0.43714695133704418 0.45124034503296878 0 -0.43737143971004611 0.46536123140958419 0 -0.45241103810700539 0.45815259381849949 0 -0.43714695133704418 0.45124034503296878 0 -0.45241103810700539 0.45815259381849949 0 -0.45058887345689219 0.44261346298794291 0 -0.43714695133704418 0.45124034503296878 0 -0.43640434217242802 0.43952901548351481 0 -0.45058887345689219 0.44261346298794291 0 -0.43640434217242802 0.43952901548351481 0 -0.45058887345689219 0.44261346298794291 0 -0.4437675466337595 0.4255324809762257 0 -0.4437675466337595 0.4255324809762257 0 -0.46083504649660118 0.4134825339917696 0 -0.44305317006904182 0.40550587931652071 0 -0.46083504649660118 0.4134825339917696 0 -0.46610117480284657 0.42999118153986959 0 -0.47588957222193279 0.41175059343526438 0 -0.46083504649660118 0.4134825339917696 0 -0.47588957222193279 0.41175059343526438 0 -0.46931115854117361 0.40060394980856712 0 -0.45058887345689219 0.44261346298794291 0 -0.4437675466337595 0.4255324809762257 0 -0.46610117480284657 0.42999118153986959 0 -0.4437675466337595 0.4255324809762257 0 -0.46083504649660118 0.4134825339917696 0 -0.46610117480284657 0.42999118153986959 0 -0.46850367005835941 0.44834001059225331 0 -0.46610117480284657 0.42999118153986959 0 -0.48727526992807418 0.43015998025022889 0 -0.5 0.44571319377913332 0 -0.48727526992807418 0.43015998025022889 0 -0.5 0.40528591144227322 0 -0.46610117480284657 0.42999118153986959 0 -0.47588957222193279 0.41175059343526438 0 -0.48727526992807418 0.43015998025022889 0 -0.48727526992807418 0.43015998025022889 0 -0.49005877241438389 0.40090523308130771 0 -0.5 0.40528591144227322 0 -0.47588957222193279 0.41175059343526438 0 -0.48727526992807418 0.43015998025022889 0 -0.49005877241438389 0.40090523308130771 0 -0.48727526992807418 0.43015998025022889 0 -0.49005877241438389 0.40090523308130771 0 -0.49005877241438389 0.40090523308130771 0 -0.48314760056773992 0.38505709679174938 0 -0.49284227490069371 0.3716504859123867 0 -0.50000000000000022 0.37518003978681702 0 -0.49005877241438389 0.40090523308130771 0 -0.49284227490069371 0.3716504859123867 0 -0.49005877241438389 0.40090523308130771 0 -0.49284227490069371 0.3716504859123867 0 -0.48314760056773992 0.38505709679174938 0 -0.48248869955595358 0.37491746074953558 0 -0.49284227490069371 0.3716504859123867 0 -0.50000000000000022 0.37518003978681702 0 -0.49005877241438389 0.40090523308130771 0 -0.5 0.40528591144227322 0 -0.49005877241438389 0.40090523308130771 0 -0.48005740041323192 0.39558664536395632 0 -0.48314760056773992 0.38505709679174938 0 -0.48005740041323192 0.39558664536395632 0 -0.46931115854117361 0.40060394980856712 0 -0.46706801270923431 0.381586754761152 0 -0.47588957222193279 0.41175059343526438 0 -0.48005740041323192 0.39558664536395632 0 -0.46931115854117361 0.40060394980856712 0 -0.47588957222193279 0.41175059343526438 0 -0.49005877241438389 0.40090523308130771 0 -0.48005740041323192 0.39558664536395632 0 -0.48314760056773992 0.38505709679174938 0 -0.46706801270923431 0.381586754761152 0 -0.48248869955595358 0.37491746074953558 0 -0.48005740041323192 0.39558664536395632 0 -0.48314760056773992 0.38505709679174938 0 -0.46706801270923431 0.381586754761152 0 -0.46706801270923431 0.381586754761152 0 -0.44676359157412909 0.38577239352080189 0 -0.46706801270923431 0.381586754761152 0 -0.44676359157412909 0.38577239352080189 0 -0.4633112286373825 0.36611274741916849 0 -0.46706801270923431 0.381586754761152 0 -0.4568831155250469 0.39788051841174538 0 -0.44676359157412909 0.38577239352080189 0 -0.46931115854117361 0.40060394980856712 0 -0.46706801270923431 0.381586754761152 0 -0.4568831155250469 0.39788051841174538 0 -0.46083504649660118 0.4134825339917696 0 -0.4568831155250469 0.39788051841174538 0 -0.44305317006904182 0.40550587931652071 0 -0.46083504649660118 0.4134825339917696 0 -0.46931115854117361 0.40060394980856712 0 -0.4568831155250469 0.39788051841174538 0 -0.4568831155250469 0.39788051841174538 0 -0.44305317006904182 0.40550587931652071 0 -0.44676359157412909 0.38577239352080189 0 -0.44305317006904182 0.40550587931652071 0 -0.44676359157412909 0.38577239352080189 0 -0.42645917043902398 0.38995803228045189 0 -0.44676359157412909 0.38577239352080189 0 -0.42645917043902398 0.38995803228045189 0 -0.43254418910448489 0.37121708248371332 0 -0.44676359157412909 0.38577239352080189 0 -0.42645917043902398 0.38995803228045189 0 -0.42645917043902398 0.38995803228045189 0 -0.4179314894977863 0.37431752426317239 0 -0.43254418910448489 0.37121708248371332 0 -0.40837209481765369 0.38070679473320301 0 -0.40058711478598841 0.37025310559245822 0 -0.4179314894977863 0.37431752426317239 0 -0.42645917043902398 0.38995803228045189 0 -0.40837209481765369 0.38070679473320301 0 -0.4179314894977863 0.37431752426317239 0 -0.42645917043902398 0.38995803228045189 0 -0.40837209481765369 0.38070679473320301 0 -0.40615474930391882 0.39414367104010151 0 -0.42645917043902398 0.38995803228045189 0 -0.40615474930391882 0.39414367104010151 0 -0.42428513733872247 0.41680493022179999 0 -0.40615474930391882 0.39414367104010151 0 -0.42645917043902398 0.38995803228045189 0 -0.42428513733872247 0.41680493022179999 0 -0.40615474930391882 0.39414367104010151 0 -0.44305317006904182 0.40550587931652071 0 -0.42645917043902398 0.38995803228045189 0 -0.42428513733872247 0.41680493022179999 0 -0.4437675466337595 0.4255324809762257 0 -0.44305317006904182 0.40550587931652071 0 -0.42428513733872247 0.41680493022179999 0 -0.4437675466337595 0.4255324809762257 0 -0.42428513733872247 0.41680493022179999 0 -0.42257287256310128 0.42974109844779768 0 -0.43640434217242802 0.43952901548351481 0 -0.4437675466337595 0.4255324809762257 0 -0.42257287256310128 0.42974109844779768 0 -0.42257287256310128 0.42974109844779768 0 -0.41237499304605169 0.43706255385935838 0 -0.40806349784869778 0.42980701385444658 0 -0.42521854931575093 0.44374406392536642 0 -0.42257287256310128 0.42974109844779768 0 -0.41237499304605169 0.43706255385935838 0 -0.42257287256310128 0.42974109844779768 0 -0.40806349784869778 0.42980701385444658 0 -0.407896041586299 0.41570763081387208 0 -0.42428513733872247 0.41680493022179999 0 -0.42257287256310128 0.42974109844779768 0 -0.407896041586299 0.41570763081387208 0 -0.42428513733872247 0.41680493022179999 0 -0.407896041586299 0.41570763081387208 0 -0.40615474930391882 0.39414367104010151 0 -0.407896041586299 0.41570763081387208 0 -0.39820787655023882 0.41438325439893531 0 -0.39753525886748842 0.40476025543981831 0 -0.407896041586299 0.41570763081387208 0 -0.39820787655023882 0.41438325439893531 0 -0.39757829464658012 0.42243957767518009 0 -0.39114334488707131 0.41853657982659997 0 -0.39820787655023882 0.41438325439893531 0 -0.39757829464658012 0.42243957767518009 0 -0.39114334488707131 0.41853657982659997 0 -0.39820787655023882 0.41438325439893531 0 -0.38444278953922068 0.41324768150265889 0 -0.39820787655023882 0.41438325439893531 0 -0.38638665631122249 0.40583395572954689 0 -0.39753525886748842 0.40476025543981831 0 -0.39820787655023882 0.41438325439893531 0 -0.38638665631122249 0.40583395572954689 0 -0.39676799103592059 0.43923847751535228 0 -0.40756396968124281 0.4482930517834538 0 -0.39757829464658012 0.42243957767518009 0 -0.40756396968124281 0.4482930517834538 0 -0.40806349784869778 0.42980701385444658 0 -0.39757829464658012 0.42243957767518009 0 -0.40756396968124281 0.4482930517834538 0 -0.39757829464658012 0.42243957767518009 0 -0.39676799103592059 0.43923847751535228 0 -0.39757829464658012 0.42243957767518009 0 -0.39235319498446181 0.43294957417612412 0 -0.40806349784869778 0.42980701385444658 0 -0.407896041586299 0.41570763081387208 0 -0.39757829464658012 0.42243957767518009 0 -0.39114334488707131 0.41853657982659997 0 -0.39757829464658012 0.42243957767518009 0 -0.38493064390989268 0.42662775334989239 0 -0.39757829464658012 0.42243957767518009 0 -0.39235319498446181 0.43294957417612412 0 -0.38493064390989268 0.42662775334989239 0 -0.38802674414082122 0.44098395558363218 0 -0.38493064390989268 0.42662775334989239 0 -0.36722623170515878 0.43941400288071569 0 -0.38802674414082122 0.44098395558363218 0 -0.39235319498446181 0.43294957417612412 0 -0.38493064390989268 0.42662775334989239 0 -0.37819262701173589 0.39990790051945801 0 -0.37254323660554178 0.42025965598936671 0 -0.37654559070280502 0.40024742751051778 0 -0.37819262701173589 0.39990790051945801 0 -0.37254323660554178 0.42025965598936671 0 -0.38444278953922068 0.41324768150265889 0 -0.37819262701173589 0.39990790051945801 0 -0.37254323660554178 0.42025965598936671 0 -0.39820787655023882 0.41438325439893531 0 -0.38444278953922068 0.41324768150265889 0 -0.38638665631122249 0.40583395572954689 0 -0.38444278953922068 0.41324768150265889 0 -0.37819262701173589 0.39990790051945801 0 -0.38638665631122249 0.40583395572954689 0 -0.39114334488707131 0.41853657982659997 0 -0.38493064390989268 0.42662775334989239 0 -0.38444278953922068 0.41324768150265889 0 -0.38493064390989268 0.42662775334989239 0 -0.38444278953922068 0.41324768150265889 0 -0.37254323660554178 0.42025965598936671 0 -0.37819262701173589 0.39990790051945801 0 -0.38638665631122249 0.40583395572954689 0 -0.37654559070280502 0.40024742751051778 0 -0.37819262701173589 0.39990790051945801 0 -0.38638665631122249 0.40583395572954689 0 -0.38755074560441038 0.39797877859875608 0 -0.39753525886748842 0.40476025543981831 0 -0.38638665631122249 0.40583395572954689 0 -0.38755074560441038 0.39797877859875608 0 -0.37819262701173589 0.39990790051945801 0 -0.38638665631122249 0.40583395572954689 0 -0.38755074560441038 0.39797877859875608 0 -0.37819262701173589 0.39990790051945801 0 -0.38755074560441038 0.39797877859875608 0 -0.37819262701173589 0.39990790051945801 0 -0.38238791572220399 0.38479450175921243 0 -0.37819262701173589 0.39990790051945801 0 -0.38755074560441038 0.39797877859875608 0 -0.38238791572220399 0.38479450175921243 0 -0.37654559070280502 0.40024742751051778 0 -0.37819262701173589 0.39990790051945801 0 -0.38238791572220399 0.38479450175921243 0 -0.38755074560441038 0.39797877859875608 0 -0.39072795006155009 0.37486164048983212 0 -0.38755074560441038 0.39797877859875608 0 -0.38238791572220399 0.38479450175921243 0 -0.39072795006155009 0.37486164048983212 0 -0.38238791572220399 0.38479450175921243 0 -0.38658320443267241 0.36968110299896678 0 -0.37120262434643619 0.37077720926793761 0 -0.38238791572220399 0.38479450175921243 0 -0.39072795006155009 0.37486164048983212 0 -0.38658320443267241 0.36968110299896678 0 -0.38238791572220399 0.38479450175921243 0 -0.38658320443267241 0.36968110299896678 0 -0.40837209481765369 0.38070679473320301 0 -0.40615474930391882 0.39414367104010151 0 -0.39072795006155009 0.37486164048983212 0 -0.38755074560441038 0.39797877859875608 0 -0.40615474930391882 0.39414367104010151 0 -0.39072795006155009 0.37486164048983212 0 -0.40837209481765369 0.38070679473320301 0 -0.40058711478598841 0.37025310559245822 0 -0.39072795006155009 0.37486164048983212 0 -0.40615474930391882 0.39414367104010151 0 -0.39072795006155009 0.37486164048983212 0 -0.407896041586299 0.41570763081387208 0 -0.40615474930391882 0.39414367104010151 0 -0.39753525886748842 0.40476025543981831 0 -0.38755074560441038 0.39797877859875608 0 -0.40615474930391882 0.39414367104010151 0 -0.39753525886748842 0.40476025543981831 0 -0.38755074560441038 0.39797877859875608 0 -0.40615474930391882 0.39414367104010151 0 -0.39346539874789921 0.35494413747667491 0 -0.39139302593346093 0.35235386873124241 0 -0.39620284743424972 0.33502663446351799 0 -0.39346539874789921 0.35494413747667491 0 -0.39620284743424972 0.33502663446351799 0 -0.41006350481607429 0.34258979271689438 0 -0.39346539874789921 0.35494413747667491 0 -0.39620284743424972 0.33502663446351799 0 -0.39346539874789921 0.35494413747667491 0 -0.40058711478598841 0.37025310559245822 0 -0.41982381679993602 0.35660408499645629 0 -0.39346539874789921 0.35494413747667491 0 -0.40058711478598841 0.37025310559245822 0 -0.39072795006155009 0.37486164048983212 0 -0.39346539874789921 0.35494413747667491 0 -0.39072795006155009 0.37486164048983212 0 -0.38658320443267241 0.36968110299896678 0 -0.37394032890271311 0.35387871208287652 0 -0.37120262434643619 0.37077720926793761 0 -0.39346539874789921 0.35494413747667491 0 -0.39072795006155009 0.37486164048983212 0 -0.38658320443267241 0.36968110299896678 0 -0.38658320443267241 0.36968110299896678 0 -0.37394032890271311 0.35387871208287652 0 -0.39139302593346093 0.35235386873124241 0 -0.38658320443267241 0.36968110299896678 0 -0.39072795006155009 0.37486164048983212 0 -0.38658320443267241 0.36968110299896678 0 -0.39139302593346093 0.35235386873124241 0 -0.38517127952298019 0.34129560046891988 0 -0.37394032890271311 0.35387871208287652 0 -0.39346539874789921 0.35494413747667491 0 -0.39139302593346093 0.35235386873124241 0 -0.38658320443267241 0.36968110299896678 0 -0.39139302593346093 0.35235386873124241 0 -0.38658320443267241 0.36968110299896678 0 -0.37394032890271311 0.35387871208287652 0 -0.38868736021570222 0.33078750868993712 0 -0.38517127952298019 0.34129560046891988 0 -0.37777127036931252 0.32807456176289729 0 -0.38868736021570222 0.33078750868993712 0 -0.38517127952298019 0.34129560046891988 0 -0.39620284743424972 0.33502663446351799 0 -0.37777127036931252 0.32807456176289729 0 -0.38875330931399033 0.31834586840313811 0 -0.37498419096918578 0.30970496882869009 0 -0.38868736021570222 0.33078750868993712 0 -0.37777127036931252 0.32807456176289729 0 -0.38875330931399033 0.31834586840313811 0 -0.3975359121349003 0.33022430981208961 0 -0.40257146456514192 0.3120838868022332 0 -0.38875330931399033 0.31834586840313811 0 -0.3975359121349003 0.33022430981208961 0 -0.40257146456514192 0.3120838868022332 0 -0.3975359121349003 0.33022430981208961 0 -0.40829891379122107 0.32733126130210122 0 -0.40257146456514192 0.3120838868022332 0 -0.38868736021570222 0.33078750868993712 0 -0.38875330931399033 0.31834586840313811 0 -0.3975359121349003 0.33022430981208961 0 -0.39139302593346093 0.35235386873124241 0 -0.39620284743424972 0.33502663446351799 0 -0.39139302593346093 0.35235386873124241 0 -0.38517127952298019 0.34129560046891988 0 -0.39620284743424972 0.33502663446351799 0 -0.38868736021570222 0.33078750868993712 0 -0.3975359121349003 0.33022430981208961 0 -0.39620284743424972 0.33502663446351799 0 -0.3975359121349003 0.33022430981208961 0 -0.39620284743424972 0.33502663446351799 0 -0.3975359121349003 0.33022430981208961 0 -0.39620284743424972 0.33502663446351799 0 -0.40829891379122107 0.32733126130210122 0 -0.39620284743424972 0.33502663446351799 0 -0.41006350481607429 0.34258979271689438 0 -0.40829891379122107 0.32733126130210122 0 -0.41006350481607429 0.34258979271689438 0 -0.41782520433739551 0.33104200779415438 0 -0.40829891379122107 0.32733126130210122 0 -0.41006350481607429 0.34258979271689438 0 -0.41782520433739551 0.33104200779415438 0 -0.4243768749961675 0.34059228231152161 0 -0.40829891379122107 0.32733126130210122 0 -0.41608081837168409 0.31670421346980582 0 -0.40257146456514192 0.3120838868022332 0 -0.41782520433739551 0.33104200779415438 0 -0.40829891379122107 0.32733126130210122 0 -0.41608081837168409 0.31670421346980582 0 -0.41782520433739551 0.33104200779415438 0 -0.41608081837168409 0.31670421346980582 0 -0.43115520432301158 0.32334998525081299 0 -0.43115520432301158 0.32334998525081299 0 -0.43563388841042899 0.30622644341823602 0 -0.42516841918817377 0.31054511721358419 0 -0.41608081837168409 0.31670421346980582 0 -0.43115520432301158 0.32334998525081299 0 -0.42516841918817377 0.31054511721358419 0 -0.41782520433739551 0.33104200779415438 0 -0.43115520432301158 0.32334998525081299 0 -0.4243768749961675 0.34059228231152161 0 -0.43115520432301158 0.32334998525081299 0 -0.4243768749961675 0.34059228231152161 0 -0.43906051881388358 0.34295506440045459 0 -0.4243768749961675 0.34059228231152161 0 -0.41982381679993602 0.35660408499645629 0 -0.43906051881388358 0.34295506440045459 0 -0.41982381679993602 0.35660408499645629 0 -0.43906051881388358 0.34295506440045459 0 -0.4362638459854441 0.3571248382448301 0 -0.41982381679993602 0.35660408499645629 0 -0.43906051881388358 0.34295506440045459 0 -0.39346539874789921 0.35494413747667491 0 -0.41006350481607429 0.34258979271689438 0 -0.41982381679993602 0.35660408499645629 0 -0.41006350481607429 0.34258979271689438 0 -0.4243768749961675 0.34059228231152161 0 -0.41982381679993602 0.35660408499645629 0 -0.40058711478598841 0.37025310559245822 0 -0.41982381679993602 0.35660408499645629 0 -0.40058711478598841 0.37025310559245822 0 -0.41982381679993602 0.35660408499645629 0 -0.4179314894977863 0.37431752426317239 0 -0.41982381679993602 0.35660408499645629 0 -0.4179314894977863 0.37431752426317239 0 -0.43254418910448489 0.37121708248371332 0 -0.4362638459854441 0.3571248382448301 0 -0.41982381679993602 0.35660408499645629 0 -0.43254418910448489 0.37121708248371332 0 -0.44676359157412909 0.38577239352080189 0 -0.44878781882787161 0.36297179679867009 0 -0.4633112286373825 0.36611274741916849 0 -0.4362638459854441 0.3571248382448301 0 -0.43254418910448489 0.37121708248371332 0 -0.44878781882787161 0.36297179679867009 0 -0.44676359157412909 0.38577239352080189 0 -0.43254418910448489 0.37121708248371332 0 -0.44878781882787161 0.36297179679867009 0 -0.4362638459854441 0.3571248382448301 0 -0.45196630183041592 0.34400741981632998 0 -0.43906051881388358 0.34295506440045459 0 -0.4362638459854441 0.3571248382448301 0 -0.44878781882787161 0.36297179679867009 0 -0.45196630183041592 0.34400741981632998 0 -0.44878781882787161 0.36297179679867009 0 -0.45196630183041592 0.34400741981632998 0 -0.45987783176762093 0.35403741256371879 0 -0.45196630183041592 0.34400741981632998 0 -0.45987783176762093 0.35403741256371879 0 -0.46421548134387308 0.34323051637383711 0 -0.45987783176762093 0.35403741256371879 0 -0.4633112286373825 0.36611274741916849 0 -0.47110832819856102 0.35386458241058832 0 -0.45987783176762093 0.35403741256371879 0 -0.47110832819856102 0.35386458241058832 0 -0.46421548134387308 0.34323051637383711 0 -0.44878781882787161 0.36297179679867009 0 -0.45987783176762093 0.35403741256371879 0 -0.4633112286373825 0.36611274741916849 0 -0.46706801270923431 0.381586754761152 0 -0.48248869955595358 0.37491746074953558 0 -0.47634720578116913 0.36654422455964891 0 -0.46706801270923431 0.381586754761152 0 -0.4633112286373825 0.36611274741916849 0 -0.47634720578116913 0.36654422455964891 0 -0.48248869955595358 0.37491746074953558 0 -0.47634720578116913 0.36654422455964891 0 -0.48463470600511183 0.36735843201786489 0 -0.47634720578116913 0.36654422455964891 0 -0.48686064378263089 0.35632155684988842 0 -0.48463470600511183 0.36735843201786489 0 -0.4633112286373825 0.36611274741916849 0 -0.47634720578116913 0.36654422455964891 0 -0.47110832819856102 0.35386458241058832 0 -0.47110832819856102 0.35386458241058832 0 -0.48208266926177262 0.34699236631894159 0 -0.48686064378263089 0.35632155684988842 0 -0.47634720578116913 0.36654422455964891 0 -0.47110832819856102 0.35386458241058832 0 -0.48686064378263089 0.35632155684988842 0 -0.47110832819856102 0.35386458241058832 0 -0.47382795644956233 0.34236205027887162 0 -0.46421548134387308 0.34323051637383711 0 -0.47110832819856102 0.35386458241058832 0 -0.48208266926177262 0.34699236631894159 0 -0.47382795644956233 0.34236205027887162 0 -0.49781288869350199 0.35878788926514138 0 -0.49562577738700347 0.34239573874346563 0 -0.5 0.34892750829119951 0 -0.49781288869350199 0.35878788926514138 0 -0.49562577738700347 0.34239573874346563 0 -0.49284227490069371 0.3716504859123867 0 -0.49562577738700347 0.34239573874346563 0 -0.49781288869350199 0.35878788926514138 0 -0.49284227490069371 0.3716504859123867 0 -0.49562577738700347 0.34239573874346563 0 -0.48686064378263089 0.35632155684988842 0 -0.49284227490069371 0.3716504859123867 0 -0.49562577738700347 0.34239573874346563 0 -0.48208266926177262 0.34699236631894159 0 -0.48686064378263089 0.35632155684988842 0 -0.49562577738700347 0.34239573874346563 0 -0.50000000000000022 0.37518003978681702 0 -0.49781288869350199 0.35878788926514138 0 -0.50000000000000022 0.37518003978681702 0 -0.5 0.34892750829119951 0 -0.49781288869350199 0.35878788926514138 0 -0.50000000000000022 0.37518003978681702 0 -0.49781288869350199 0.35878788926514138 0 -0.49284227490069371 0.3716504859123867 0 -0.48248869955595358 0.37491746074953558 0 -0.49284227490069371 0.3716504859123867 0 -0.48463470600511183 0.36735843201786489 0 -0.48686064378263089 0.35632155684988842 0 -0.49284227490069371 0.3716504859123867 0 -0.48463470600511183 0.36735843201786489 0 -0.49781288869350238 0.31940909202171508 0 -0.49294700974169692 0.32231867987408108 0 -0.49026824209639019 0.30224162100469659 0 -0.49781288869350238 0.31940909202171508 0 -0.49294700974169692 0.32231867987408108 0 -0.49562577738700347 0.34239573874346563 0 -0.48459131830296442 0.3138699835664624 0 -0.49294700974169692 0.32231867987408108 0 -0.49026824209639019 0.30224162100469659 0 -0.49781288869350238 0.31940909202171508 0 -0.5 0.32267497679558188 0 -0.50000000000000067 0.29642244529996431 0 -0.49294700974169692 0.32231867987408108 0 -0.48669016360677592 0.33259109553633548 0 -0.48285687005443723 0.32450278240364078 0 -0.48459131830296442 0.3138699835664624 0 -0.49294700974169692 0.32231867987408108 0 -0.48285687005443723 0.32450278240364078 0 -0.49781288869350238 0.31940909202171508 0 -0.49562577738700347 0.34239573874346563 0 -0.49294700974169692 0.32231867987408108 0 -0.49562577738700347 0.34239573874346563 0 -0.48669016360677592 0.33259109553633548 0 -0.49294700974169692 0.32231867987408108 0 -0.49562577738700347 0.34239573874346563 0 -0.5 0.34892750829119951 0 -0.5 0.32267497679558188 0 -0.49562577738700347 0.34239573874346563 0 -0.49781288869350238 0.31940909202171508 0 -0.5 0.32267497679558188 0 -0.49562577738700347 0.34239573874346563 0 -0.49562577738700347 0.34239573874346563 0 -0.48669016360677592 0.33259109553633548 0 -0.48325853986050588 0.33964248581198531 0 -0.48208266926177262 0.34699236631894159 0 -0.49562577738700347 0.34239573874346563 0 -0.48325853986050588 0.33964248581198531 0 -0.47806613259741548 0.33387117818231182 0 -0.47458134066138491 0.32743749067641048 0 -0.48285687005443723 0.32450278240364078 0 -0.48669016360677592 0.33259109553633548 0 -0.47806613259741548 0.33387117818231182 0 -0.48325853986050588 0.33964248581198531 0 -0.48669016360677592 0.33259109553633548 0 -0.47806613259741548 0.33387117818231182 0 -0.48285687005443723 0.32450278240364078 0 -0.48208266926177262 0.34699236631894159 0 -0.48325853986050588 0.33964248581198531 0 -0.47382795644956233 0.34236205027887162 0 -0.47806613259741548 0.33387117818231182 0 -0.48325853986050588 0.33964248581198531 0 -0.47382795644956233 0.34236205027887162 0 -0.47806613259741548 0.33387117818231182 0 -0.47382795644956233 0.34236205027887162 0 -0.46909497255282329 0.33547792406716809 0 -0.47382795644956233 0.34236205027887162 0 -0.46909497255282329 0.33547792406716809 0 -0.46421548134387308 0.34323051637383711 0 -0.47806613259741548 0.33387117818231182 0 -0.46909497255282329 0.33547792406716809 0 -0.47458134066138491 0.32743749067641048 0 -0.46909497255282329 0.33547792406716809 0 -0.47458134066138491 0.32743749067641048 0 -0.46816687022071779 0.32888237845434087 0 -0.47458134066138491 0.32743749067641048 0 -0.47753392284177892 0.31565702320845113 0 -0.46816687022071779 0.32888237845434087 0 -0.47458134066138491 0.32743749067641048 0 -0.48285687005443723 0.32450278240364078 0 -0.47753392284177892 0.31565702320845113 0 -0.48459131830296442 0.3138699835664624 0 -0.48285687005443723 0.32450278240364078 0 -0.47753392284177892 0.31565702320845113 0 -0.47753392284177892 0.31565702320845113 0 -0.46816687022071779 0.32888237845434087 0 -0.45829722082783131 0.32930604380445289 0 -0.47753392284177892 0.31565702320845113 0 -0.45609223648024982 0.32476787652428679 0 -0.46706917736018672 0.3022193190071133 0 -0.47753392284177892 0.31565702320845113 0 -0.45609223648024982 0.32476787652428679 0 -0.45829722082783131 0.32930604380445289 0 -0.45609223648024982 0.32476787652428679 0 -0.45493089433739509 0.31372343447912732 0 -0.46706917736018672 0.3022193190071133 0 -0.47753392284177892 0.31565702320845113 0 -0.45829722082783131 0.32930604380445289 0 -0.45609223648024982 0.32476787652428679 0 -0.46706917736018672 0.3022193190071133 0 -0.45609223648024982 0.32476787652428679 0 -0.45829722082783131 0.32930604380445289 0 -0.44683317448273302 0.32586047898384862 0 -0.45609223648024982 0.32476787652428679 0 -0.45493089433739509 0.31372343447912732 0 -0.45107571968578519 0.31962140385844351 0 -0.46909497255282329 0.33547792406716809 0 -0.46421548134387308 0.34323051637383711 0 -0.46132689421977069 0.33653341051522212 0 -0.46132689421977069 0.33653341051522212 0 -0.46816687022071779 0.32888237845434087 0 -0.45829722082783131 0.32930604380445289 0 -0.46909497255282329 0.33547792406716809 0 -0.46132689421977069 0.33653341051522212 0 -0.46816687022071779 0.32888237845434087 0 -0.45196630183041592 0.34400741981632998 0 -0.46132689421977069 0.33653341051522212 0 -0.45829722082783131 0.32930604380445289 0 -0.45196630183041592 0.34400741981632998 0 -0.46421548134387308 0.34323051637383711 0 -0.46132689421977069 0.33653341051522212 0 -0.43115520432301158 0.32334998525081299 0 -0.43906051881388358 0.34295506440045459 0 -0.44683317448273302 0.32586047898384862 0 -0.45829722082783131 0.32930604380445289 0 -0.43906051881388358 0.34295506440045459 0 -0.45196630183041592 0.34400741981632998 0 -0.45829722082783131 0.32930604380445289 0 -0.43906051881388358 0.34295506440045459 0 -0.45829722082783131 0.32930604380445289 0 -0.43906051881388358 0.34295506440045459 0 -0.44683317448273302 0.32586047898384862 0 -0.43115520432301158 0.32334998525081299 0 -0.44644657344276312 0.31413382544651119 0 -0.44683317448273302 0.32586047898384862 0 -0.43115520432301158 0.32334998525081299 0 -0.44644657344276312 0.31413382544651119 0 -0.43563388841042899 0.30622644341823602 0 -0.45107571968578519 0.31962140385844351 0 -0.44644657344276312 0.31413382544651119 0 -0.44683317448273302 0.32586047898384862 0 -0.45493089433739509 0.31372343447912732 0 -0.45107571968578519 0.31962140385844351 0 -0.44644657344276312 0.31413382544651119 0 -0.45609223648024982 0.32476787652428679 0 -0.45107571968578519 0.31962140385844351 0 -0.44683317448273302 0.32586047898384862 0 -0.44644657344276312 0.31413382544651119 0 -0.45145478568627928 0.29535076202753441 0 -0.45509919139511779 0.30684607294115229 0 -0.44644657344276312 0.31413382544651119 0 -0.44186109366283111 0.29299626193183442 0 -0.43563388841042899 0.30622644341823602 0 -0.44644657344276312 0.31413382544651119 0 -0.44186109366283111 0.29299626193183442 0 -0.44644657344276312 0.31413382544651119 0 -0.44186109366283111 0.29299626193183442 0 -0.45145478568627928 0.29535076202753441 0 -0.45493089433739509 0.31372343447912732 0 -0.44644657344276312 0.31413382544651119 0 -0.45509919139511779 0.30684607294115229 0 -0.44186109366283111 0.29299626193183442 0 -0.45145478568627928 0.29535076202753441 0 -0.45315153213625098 0.28339416084190922 0 -0.44186109366283111 0.29299626193183442 0 -0.45145478568627928 0.29535076202753441 0 -0.44186109366283111 0.29299626193183442 0 -0.45315153213625098 0.28339416084190922 0 -0.44132632736972049 0.28094389704851602 0 -0.45315153213625098 0.28339416084190922 0 -0.45914442331105892 0.29204562657339428 0 -0.46490219806151861 0.28721826441702031 0 -0.45315153213625098 0.28339416084190922 0 -0.46490219806151861 0.28721826441702031 0 -0.4604521232213446 0.27527865116829953 0 -0.45145478568627928 0.29535076202753441 0 -0.45315153213625098 0.28339416084190922 0 -0.45914442331105892 0.29204562657339428 0 -0.45145478568627928 0.29535076202753441 0 -0.45914442331105892 0.29204562657339428 0 -0.46706917736018672 0.3022193190071133 0 -0.45914442331105892 0.29204562657339428 0 -0.46490219806151861 0.28721826441702031 0 -0.46706917736018672 0.3022193190071133 0 -0.45493089433739509 0.31372343447912732 0 -0.45509919139511779 0.30684607294115229 0 -0.46706917736018672 0.3022193190071133 0 -0.45145478568627928 0.29535076202753441 0 -0.45509919139511779 0.30684607294115229 0 -0.46706917736018672 0.3022193190071133 0 -0.47753392284177892 0.31565702320845113 0 -0.46706917736018672 0.3022193190071133 0 -0.47935054678051903 0.30462981134144218 0 -0.48459131830296442 0.3138699835664624 0 -0.47753392284177892 0.31565702320845113 0 -0.47935054678051903 0.30462981134144218 0 -0.47935054678051903 0.30462981134144218 0 -0.48046471178566058 0.29418521499570077 0 -0.49026824209639019 0.30224162100469659 0 -0.46706917736018672 0.3022193190071133 0 -0.47935054678051903 0.30462981134144218 0 -0.48046471178566058 0.29418521499570077 0 -0.46490219806151861 0.28721826441702031 0 -0.46706917736018672 0.3022193190071133 0 -0.47804611824012377 0.27967076148993969 0 -0.46706917736018672 0.3022193190071133 0 -0.48046471178566058 0.29418521499570077 0 -0.47804611824012377 0.27967076148993969 0 -0.46706917736018672 0.3022193190071133 0 -0.47804611824012377 0.27967076148993969 0 -0.46490219806151861 0.28721826441702031 0 -0.47804611824012377 0.27967076148993969 0 -0.46828356799956472 0.27889147069994308 0 -0.48046471178566058 0.29418521499570077 0 -0.48758947445108342 0.28216456213531221 0 -0.47804611824012377 0.27967076148993969 0 -0.50000000000000067 0.29642244529996431 0 -0.48758947445108342 0.28216456213531221 0 -0.49026824209639019 0.30224162100469659 0 -0.48046471178566058 0.29418521499570077 0 -0.48758947445108342 0.28216456213531221 0 -0.49026824209639019 0.30224162100469659 0 -0.50000000000000067 0.29642244529996431 0 -0.48758947445108342 0.28216456213531221 0 -0.5 0.27580617901850712 0 -0.48758947445108342 0.28216456213531221 0 -0.49026824209639019 0.30224162100469659 0 -0.49781288869350238 0.31940909202171508 0 -0.50000000000000067 0.29642244529996431 0 -0.49026824209639019 0.30224162100469659 0 -0.49294700974169692 0.32231867987408108 0 -0.49026824209639019 0.30224162100469659 0 -0.49781288869350238 0.31940909202171508 0 -0.50000000000000067 0.29642244529996431 0 -0.48459131830296442 0.3138699835664624 0 -0.47935054678051903 0.30462981134144218 0 -0.49026824209639019 0.30224162100469659 0 -0.48902305912006078 0.25712220397276597 0 -0.5 0.25518991273704988 0 -0.49093173036225363 0.26999072387071499 0 -0.48902305912006078 0.25712220397276597 0 -0.49093173036225363 0.26999072387071499 0 -0.47804611824012377 0.27967076148993969 0 -0.5 0.25518991273704988 0 -0.5 0.27580617901850712 0 -0.49093173036225363 0.26999072387071499 0 -0.48758947445108342 0.28216456213531221 0 -0.5 0.27580617901850712 0 -0.49093173036225363 0.26999072387071499 0 -0.48758947445108342 0.28216456213531221 0 -0.49093173036225363 0.26999072387071499 0 -0.47804611824012377 0.27967076148993969 0 -0.48902305912006078 0.25712220397276597 0 -0.47804611824012377 0.27967076148993969 0 -0.47504211061246793 0.2644833243883386 0 -0.48902305912006078 0.25712220397276597 0 -0.47804611824012377 0.27967076148993969 0 -0.47804611824012377 0.27967076148993969 0 -0.46973383247527212 0.27339820572451329 0 -0.46828356799956472 0.27889147069994308 0 -0.46973383247527212 0.27339820572451329 0 -0.47504211061246793 0.2644833243883386 0 -0.46458024042335511 0.26515754271315473 0 -0.47804611824012377 0.27967076148993969 0 -0.46973383247527212 0.27339820572451329 0 -0.47504211061246793 0.2644833243883386 0 -0.47504211061246793 0.2644833243883386 0 -0.47795062338311473 0.25603243238212192 0 -0.46947385474022668 0.25478383026827328 0 -0.47504211061246793 0.2644833243883386 0 -0.46947385474022668 0.25478383026827328 0 -0.46458024042335511 0.26515754271315473 0 -0.48902305912006078 0.25712220397276597 0 -0.47504211061246793 0.2644833243883386 0 -0.47795062338311473 0.25603243238212192 0 -0.47826346905970341 0.24774037089910961 0 -0.48902305912006078 0.25712220397276597 0 -0.47795062338311473 0.25603243238212192 0 -0.47826346905970341 0.24774037089910961 0 -0.47795062338311473 0.25603243238212192 0 -0.46947385474022668 0.25478383026827328 0 -0.46267048702579128 0.24392212279248771 0 -0.46947385474022668 0.25478383026827328 0 -0.45990976574074999 0.2566353667680808 0 -0.46947385474022668 0.25478383026827328 0 -0.46458024042335511 0.26515754271315473 0 -0.45990976574074999 0.2566353667680808 0 -0.46458024042335511 0.26515754271315473 0 -0.45506159588513312 0.26434184146874212 0 -0.45990976574074999 0.2566353667680808 0 -0.45506159588513312 0.26434184146874212 0 -0.45378425396487038 0.25310541831647348 0 -0.45990976574074999 0.2566353667680808 0 -0.46267048702579128 0.24392212279248771 0 -0.45378425396487038 0.25310541831647348 0 -0.45990976574074999 0.2566353667680808 0 -0.46973383247527212 0.27339820572451329 0 -0.46828356799956472 0.27889147069994308 0 -0.4604521232213446 0.27527865116829953 0 -0.46490219806151861 0.28721826441702031 0 -0.46828356799956472 0.27889147069994308 0 -0.4604521232213446 0.27527865116829953 0 -0.46973383247527212 0.27339820572451329 0 -0.46458024042335511 0.26515754271315473 0 -0.4604521232213446 0.27527865116829953 0 -0.46458024042335511 0.26515754271315473 0 -0.45506159588513312 0.26434184146874212 0 -0.4604521232213446 0.27527865116829953 0 -0.45506159588513312 0.26434184146874212 0 -0.4604521232213446 0.27527865116829953 0 -0.45027147927120448 0.27280419269150558 0 -0.45315153213625098 0.28339416084190922 0 -0.4604521232213446 0.27527865116829953 0 -0.45027147927120448 0.27280419269150558 0 -0.44132632736972049 0.28094389704851602 0 -0.44420191618079818 0.26052388586719089 0 -0.43565580552238531 0.2643919111352982 0 -0.44132632736972049 0.28094389704851602 0 -0.44420191618079818 0.26052388586719089 0 -0.44186109366283111 0.29299626193183442 0 -0.44132632736972049 0.28094389704851602 0 -0.43565580552238531 0.2643919111352982 0 -0.44186109366283111 0.29299626193183442 0 -0.43565580552238531 0.2643919111352982 0 -0.45027147927120448 0.27280419269150558 0 -0.44132632736972049 0.28094389704851602 0 -0.44420191618079818 0.26052388586719089 0 -0.45315153213625098 0.28339416084190922 0 -0.45027147927120448 0.27280419269150558 0 -0.44132632736972049 0.28094389704851602 0 -0.45506159588513312 0.26434184146874212 0 -0.45027147927120448 0.27280419269150558 0 -0.44420191618079818 0.26052388586719089 0 -0.44707750499187909 0.24010387468586619 0 -0.45378425396487038 0.25310541831647348 0 -0.44420191618079818 0.26052388586719089 0 -0.44707750499187909 0.24010387468586619 0 -0.44420191618079818 0.26052388586719089 0 -0.45506159588513312 0.26434184146874212 0 -0.45378425396487038 0.25310541831647348 0 -0.44420191618079818 0.26052388586719089 0 -0.42945051738193851 0.2357875603387623 0 -0.43565580552238531 0.2643919111352982 0 -0.42945051738193851 0.2357875603387623 0 -0.43565580552238531 0.2643919111352982 0 -0.41597065842928832 0.25059142779522509 0 -0.42945051738193851 0.2357875603387623 0 -0.44420191618079818 0.26052388586719089 0 -0.43565580552238531 0.2643919111352982 0 -0.41597065842928832 0.25059142779522509 0 -0.40175810315659838 0.2514233037146798 0 -0.40616618711381469 0.26805761285824892 0 -0.43565580552238531 0.2643919111352982 0 -0.41597065842928832 0.25059142779522509 0 -0.40616618711381469 0.26805761285824892 0 -0.43565580552238531 0.2643919111352982 0 -0.41645155244393101 0.2867602094209466 0 -0.40616618711381469 0.26805761285824892 0 -0.44186109366283111 0.29299626193183442 0 -0.43565580552238531 0.2643919111352982 0 -0.41645155244393101 0.2867602094209466 0 -0.44186109366283111 0.29299626193183442 0 -0.41866150249937528 0.30042473997588343 0 -0.41645155244393101 0.2867602094209466 0 -0.44186109366283111 0.29299626193183442 0 -0.41645155244393101 0.2867602094209466 0 -0.43563388841042899 0.30622644341823602 0 -0.42516841918817377 0.31054511721358419 0 -0.41866150249937528 0.30042473997588343 0 -0.44186109366283111 0.29299626193183442 0 -0.43563388841042899 0.30622644341823602 0 -0.41866150249937528 0.30042473997588343 0 -0.41608081837168409 0.31670421346980582 0 -0.42516841918817377 0.31054511721358419 0 -0.41866150249937528 0.30042473997588343 0 -0.41866150249937528 0.30042473997588343 0 -0.40894008169603441 0.28914113914094852 0 -0.40257146456514192 0.3120838868022332 0 -0.41608081837168409 0.31670421346980582 0 -0.41866150249937528 0.30042473997588343 0 -0.40257146456514192 0.3120838868022332 0 -0.41866150249937528 0.30042473997588343 0 -0.41645155244393101 0.2867602094209466 0 -0.40894008169603441 0.28914113914094852 0 -0.41645155244393101 0.2867602094209466 0 -0.40894008169603441 0.28914113914094852 0 -0.39104201122503118 0.2805241569100565 0 -0.41645155244393101 0.2867602094209466 0 -0.39104201122503118 0.2805241569100565 0 -0.40894008169603441 0.28914113914094852 0 -0.39229271780083208 0.29880467056863957 0 -0.39104201122503118 0.2805241569100565 0 -0.40894008169603441 0.28914113914094852 0 -0.39229271780083208 0.29880467056863957 0 -0.40257146456514192 0.3120838868022332 0 -0.38875330931399033 0.31834586840313811 0 -0.39229271780083208 0.29880467056863957 0 -0.40257146456514192 0.3120838868022332 0 -0.40894008169603441 0.28914113914094852 0 -0.40257146456514192 0.3120838868022332 0 -0.39229271780083208 0.29880467056863957 0 -0.37717031633874448 0.29170205963688928 0 -0.37498419096918578 0.30970496882869009 0 -0.38875330931399033 0.31834586840313811 0 -0.39229271780083208 0.29880467056863957 0 -0.37498419096918578 0.30970496882869009 0 -0.39229271780083208 0.29880467056863957 0 -0.37717031633874448 0.29170205963688928 0 -0.39104201122503118 0.2805241569100565 0 -0.37717031633874448 0.29170205963688928 0 -0.39104201122503118 0.2805241569100565 0 -0.36563247000613142 0.27428810439916629 0 -0.37658139784475092 0.26368000715532203 0 -0.38944445803366912 0.26242051294963847 0 -0.39104201122503118 0.2805241569100565 0 -0.39104201122503118 0.2805241569100565 0 -0.36563247000613142 0.27428810439916629 0 -0.37658139784475092 0.26368000715532203 0 -0.39104201122503118 0.2805241569100565 0 -0.36563247000613142 0.27428810439916629 0 -0.38571089354233512 0.2446553533099636 0 -0.38944445803366912 0.26242051294963847 0 -0.38571089354233512 0.2446553533099636 0 -0.37658139784475092 0.26368000715532203 0 -0.38944445803366912 0.26242051294963847 0 -0.38571089354233512 0.2446553533099636 0 -0.37658139784475092 0.26368000715532203 0 -0.36296691116478352 0.2563537025991196 0 -0.38944445803366912 0.26242051294963847 0 -0.40175810315659838 0.2514233037146798 0 -0.40616618711381469 0.26805761285824892 0 -0.38571089354233512 0.2446553533099636 0 -0.38944445803366912 0.26242051294963847 0 -0.40175810315659838 0.2514233037146798 0 -0.41645155244393101 0.2867602094209466 0 -0.39104201122503118 0.2805241569100565 0 -0.40616618711381469 0.26805761285824892 0 -0.38944445803366912 0.26242051294963847 0 -0.39104201122503118 0.2805241569100565 0 -0.40616618711381469 0.26805761285824892 0 -0.36563247000613142 0.27428810439916629 0 -0.34964137367093912 0.28447587791661921 0 -0.34022292878723193 0.26805205188827552 0 -0.36296691116478352 0.2563537025991196 0 -0.36563247000613142 0.27428810439916629 0 -0.34022292878723193 0.26805205188827552 0 -0.36563247000613142 0.27428810439916629 0 -0.34022292878723193 0.26805205188827552 0 -0.3412708773435334 0.24971557758415661 0 -0.36296691116478352 0.2563537025991196 0 -0.34022292878723193 0.26805205188827552 0 -0.36296691116478352 0.2563537025991196 0 -0.34022292878723193 0.26805205188827552 0 -0.37658139784475092 0.26368000715532203 0 -0.36296691116478352 0.2563537025991196 0 -0.36563247000613142 0.27428810439916629 0 -0.38571089354233512 0.2446553533099636 0 -0.36296691116478352 0.2563537025991196 0 -0.37717031633874448 0.29170205963688928 0 -0.36563247000613142 0.27428810439916629 0 -0.36190019169254217 0.29518839747789388 0 -0.37717031633874448 0.29170205963688928 0 -0.36190019169254217 0.29518839747789388 0 -0.37498419096918578 0.30970496882869009 0 -0.36190019169254217 0.29518839747789388 0 -0.37498419096918578 0.30970496882869009 0 -0.35791435347824241 0.31083694979443849 0 -0.36190019169254217 0.29518839747789388 0 -0.35791435347824241 0.31083694979443849 0 -0.34282286100760162 0.30182241098302087 0 -0.35791435347824241 0.31083694979443849 0 -0.34282286100760162 0.30182241098302087 0 -0.34645578492318968 0.32307156829305311 0 -0.36190019169254217 0.29518839747789388 0 -0.34964137367093912 0.28447587791661921 0 -0.34282286100760162 0.30182241098302087 0 -0.36563247000613142 0.27428810439916629 0 -0.36190019169254217 0.29518839747789388 0 -0.34964137367093912 0.28447587791661921 0 -0.34964137367093912 0.28447587791661921 0 -0.33498666222209939 0.28613937286528512 0 -0.34282286100760162 0.30182241098302087 0 -0.33498666222209939 0.28613937286528512 0 -0.34282286100760162 0.30182241098302087 0 -0.32367539431903619 0.29803377419605481 0 -0.34282286100760162 0.30182241098302087 0 -0.32367539431903619 0.29803377419605481 0 -0.32991620603226718 0.31339159482576862 0 -0.32367539431903619 0.29803377419605481 0 -0.31030127104552119 0.31190487182796511 0 -0.32991620603226718 0.31339159482576862 0 -0.32367539431903619 0.29803377419605481 0 -0.31137584114893901 0.29537281605223231 0 -0.31030127104552119 0.31190487182796511 0 -0.33498666222209939 0.28613937286528512 0 -0.32367539431903619 0.29803377419605481 0 -0.31724987600614352 0.27986822335772821 0 -0.32367539431903619 0.29803377419605481 0 -0.31724987600614352 0.27986822335772821 0 -0.31137584114893901 0.29537281605223231 0 -0.34022292878723193 0.26805205188827552 0 -0.31113959811392311 0.26091437176615612 0 -0.31041365255104281 0.26870260935468859 0 -0.31724987600614352 0.27986822335772821 0 -0.34022292878723193 0.26805205188827552 0 -0.31041365255104281 0.26870260935468859 0 -0.34964137367093912 0.28447587791661921 0 -0.33498666222209939 0.28613937286528512 0 -0.34022292878723193 0.26805205188827552 0 -0.33498666222209939 0.28613937286528512 0 -0.31724987600614352 0.27986822335772821 0 -0.34022292878723193 0.26805205188827552 0 -0.31724987600614352 0.27986822335772821 0 -0.34022292878723193 0.26805205188827552 0 -0.3412708773435334 0.24971557758415661 0 -0.34022292878723193 0.26805205188827552 0 -0.32617992985614203 0.25190487381864951 0 -0.34022292878723193 0.26805205188827552 0 -0.32617992985614203 0.25190487381864951 0 -0.31113959811392311 0.26091437176615612 0 -0.34022292878723193 0.26805205188827552 0 -0.31113959811392311 0.26091437176615612 0 -0.31404872610228202 0.24673229519251819 0 -0.32617992985614203 0.25190487381864951 0 -0.31113959811392311 0.26091437176615612 0 -0.31113959811392311 0.26091437176615612 0 -0.30155894356320428 0.25134709386924198 0 -0.28205626744061468 0.25377669164403449 0 -0.31113959811392311 0.26091437176615612 0 -0.31041365255104281 0.26870260935468859 0 -0.28517625537737729 0.2650062022098908 0 -0.31404872610228202 0.24673229519251819 0 -0.31113959811392311 0.26091437176615612 0 -0.30155894356320428 0.25134709386924198 0 -0.31041365255104281 0.26870260935468859 0 -0.28517625537737729 0.2650062022098908 0 -0.31041365255104281 0.26870260935468859 0 -0.2998977785041112 0.27224646782234591 0 -0.28517625537737729 0.2650062022098908 0 -0.31724987600614352 0.27986822335772821 0 -0.30695644049352572 0.27805186680151572 0 -0.31041365255104281 0.26870260935468859 0 -0.30695644049352572 0.27805186680151572 0 -0.31041365255104281 0.26870260935468859 0 -0.2998977785041112 0.27224646782234591 0 -0.2998977785041112 0.27224646782234591 0 -0.29890745076119962 0.28107870818800401 0 -0.29364913367837792 0.27474672164569508 0 -0.30695644049352572 0.27805186680151572 0 -0.2998977785041112 0.27224646782234591 0 -0.29890745076119962 0.28107870818800401 0 -0.29890745076119962 0.28107870818800401 0 -0.29178594423915288 0.28074337422600959 0 -0.29364913367837792 0.27474672164569508 0 -0.29178594423915288 0.28074337422600959 0 -0.29364913367837792 0.27474672164569508 0 -0.28845303853212118 0.27465485671615908 0 -0.2998977785041112 0.27224646782234591 0 -0.29364913367837792 0.27474672164569508 0 -0.28517625537737729 0.2650062022098908 0 -0.29364913367837792 0.27474672164569508 0 -0.28845303853212118 0.27465485671615908 0 -0.28517625537737729 0.2650062022098908 0 -0.28845303853212118 0.27465485671615908 0 -0.28517625537737729 0.2650062022098908 0 -0.27945076182431772 0.27528908210413972 0 -0.28845303853212118 0.27465485671615908 0 -0.2868438603673612 0.2803305570712844 0 -0.27945076182431772 0.27528908210413972 0 -0.2868438603673612 0.2803305570712844 0 -0.27945076182431772 0.27528908210413972 0 -0.28048500423964201 0.28215645722779592 0 -0.29178594423915288 0.28074337422600959 0 -0.28845303853212118 0.27465485671615908 0 -0.2868438603673612 0.2803305570712844 0 -0.31113959811392311 0.26091437176615612 0 -0.28205626744061468 0.25377669164403449 0 -0.31113959811392311 0.26091437176615612 0 -0.28517625537737729 0.2650062022098908 0 -0.28205626744061468 0.25377669164403449 0 -0.28517625537737729 0.2650062022098908 0 -0.28173234506079198 0.2566903459912504 0 -0.28205626744061468 0.25377669164403449 0 -0.28173234506079198 0.2566903459912504 0 -0.28205626744061468 0.25377669164403449 0 -0.26504921444477098 0.24960279198075949 0 -0.28205626744061468 0.25377669164403449 0 -0.28517625537737729 0.2650062022098908 0 -0.25993885820371182 0.261309795065093 0 -0.26504921444477098 0.24960279198075949 0 -0.28173234506079198 0.2566903459912504 0 -0.28205626744061468 0.25377669164403449 0 -0.26504921444477098 0.24960279198075949 0 -0.28173234506079198 0.2566903459912504 0 -0.25993885820371182 0.261309795065093 0 -0.28517625537737729 0.2650062022098908 0 -0.28173234506079198 0.2566903459912504 0 -0.25993885820371182 0.261309795065093 0 -0.28517625537737729 0.2650062022098908 0 -0.27945076182431772 0.27528908210413972 0 -0.27024180684474891 0.27126274895617358 0 -0.28517625537737729 0.2650062022098908 0 -0.27024180684474891 0.27126274895617358 0 -0.25993885820371182 0.261309795065093 0 -0.27945076182431772 0.27528908210413972 0 -0.27016611620240399 0.27948567401953661 0 -0.28048500423964201 0.28215645722779592 0 -0.27945076182431772 0.27528908210413972 0 -0.27016611620240399 0.27948567401953661 0 -0.27024180684474891 0.27126274895617358 0 -0.27016611620240399 0.27948567401953661 0 -0.27024180684474891 0.27126274895617358 0 -0.2564770426159339 0.27522299138220829 0 -0.27024180684474891 0.27126274895617358 0 -0.2564770426159339 0.27522299138220829 0 -0.25993885820371182 0.261309795065093 0 -0.27016611620240399 0.27948567401953661 0 -0.2564770426159339 0.27522299138220829 0 -0.26187890037469558 0.28799811197573572 0 -0.2564770426159339 0.27522299138220829 0 -0.25993885820371182 0.261309795065093 0 -0.24438135380928369 0.27017252038986223 0 -0.26504921444477098 0.24960279198075949 0 -0.25055533274392472 0.25134788921301499 0 -0.25993885820371182 0.261309795065093 0 -0.27018717891704452 0.30407488426252149 0 -0.24724796434995161 0.31587365107345461 0 -0.25274925799151671 0.29837064591404161 0 -0.27018717891704452 0.30407488426252149 0 -0.24724796434995161 0.31587365107345461 0 -0.27018717891704452 0.30407488426252149 0 -0.25176786635146892 0.31882313446112581 0 -0.25274925799151671 0.29837064591404161 0 -0.26187890037469558 0.28799811197573572 0 -0.27018717891704452 0.30407488426252149 0 -0.2564770426159339 0.27522299138220829 0 -0.26187890037469558 0.28799811197573572 0 -0.24472819145968641 0.28299351049803889 0 -0.25274925799151671 0.29837064591404161 0 -0.26187890037469558 0.28799811197573572 0 -0.24472819145968641 0.28299351049803889 0 -0.27018717891704452 0.30407488426252149 0 -0.29093243018957698 0.28746426673209041 0 -0.26187890037469558 0.28799811197573572 0 -0.27696561506158868 0.28784096577806778 0 -0.27018717891704452 0.30407488426252149 0 -0.27696561506158868 0.28784096577806778 0 -0.27018717891704452 0.30407488426252149 0 -0.29093243018957698 0.28746426673209041 0 -0.27016611620240399 0.27948567401953661 0 -0.26187890037469558 0.28799811197573572 0 -0.27696561506158868 0.28784096577806778 0 -0.27016611620240399 0.27948567401953661 0 -0.27696561506158868 0.28784096577806778 0 -0.28048500423964201 0.28215645722779592 0 -0.27018717891704452 0.30407488426252149 0 -0.28649522330576638 0.30952626719774989 0 -0.27406021829644328 0.31801543791646519 0 -0.27018717891704452 0.30407488426252149 0 -0.28649522330576638 0.30952626719774989 0 -0.294276823225055 0.29168439482718111 0 -0.27018717891704452 0.30407488426252149 0 -0.294276823225055 0.29168439482718111 0 -0.27018717891704452 0.30407488426252149 0 -0.294276823225055 0.29168439482718111 0 -0.29093243018957698 0.28746426673209041 0 -0.27696561506158868 0.28784096577806778 0 -0.28048500423964201 0.28215645722779592 0 -0.29093243018957698 0.28746426673209041 0 -0.2868438603673612 0.2803305570712844 0 -0.28048500423964201 0.28215645722779592 0 -0.29093243018957698 0.28746426673209041 0 -0.294276823225055 0.29168439482718111 0 -0.29093243018957698 0.28746426673209041 0 -0.29890745076119962 0.28107870818800401 0 -0.29178594423915288 0.28074337422600959 0 -0.29093243018957698 0.28746426673209041 0 -0.29890745076119962 0.28107870818800401 0 -0.294276823225055 0.29168439482718111 0 -0.29093243018957698 0.28746426673209041 0 -0.29890745076119962 0.28107870818800401 0 -0.29093243018957698 0.28746426673209041 0 -0.29178594423915288 0.28074337422600959 0 -0.2868438603673612 0.2803305570712844 0 -0.29093243018957698 0.28746426673209041 0 -0.31724987600614352 0.27986822335772821 0 -0.30695644049352572 0.27805186680151572 0 -0.294276823225055 0.29168439482718111 0 -0.31724987600614352 0.27986822335772821 0 -0.294276823225055 0.29168439482718111 0 -0.31137584114893901 0.29537281605223231 0 -0.31724987600614352 0.27986822335772821 0 -0.294276823225055 0.29168439482718111 0 -0.30695644049352572 0.27805186680151572 0 -0.29890745076119962 0.28107870818800401 0 -0.294276823225055 0.29168439482718111 0 -0.294276823225055 0.29168439482718111 0 -0.31030127104552119 0.31190487182796511 0 -0.294276823225055 0.29168439482718111 0 -0.31137584114893901 0.29537281605223231 0 -0.31030127104552119 0.31190487182796511 0 -0.28649522330576638 0.30952626719774989 0 -0.294276823225055 0.29168439482718111 0 -0.31030127104552119 0.31190487182796511 0 -0.31030127104552119 0.31190487182796511 0 -0.3102582475641496 0.3383104458840413 0 -0.28978510277856412 0.32558430889927581 0 -0.3102582475641496 0.3383104458840413 0 -0.28978510277856412 0.32558430889927581 0 -0.2923635739072773 0.34531405506218049 0 -0.27206572012937308 0.33206859476165312 0 -0.2923635739072773 0.34531405506218049 0 -0.28978510277856412 0.32558430889927581 0 -0.27206572012937308 0.33206859476165312 0 -0.2923635739072773 0.34531405506218049 0 -0.28649522330576638 0.30952626719774989 0 -0.28978510277856412 0.32558430889927581 0 -0.27406021829644328 0.31801543791646519 0 -0.28649522330576638 0.30952626719774989 0 -0.31030127104552119 0.31190487182796511 0 -0.28978510277856412 0.32558430889927581 0 -0.28978510277856412 0.32558430889927581 0 -0.27406021829644328 0.31801543791646519 0 -0.27206572012937308 0.33206859476165312 0 -0.27406021829644328 0.31801543791646519 0 -0.27206572012937308 0.33206859476165312 0 -0.25176786635146892 0.31882313446112581 0 -0.27206572012937308 0.33206859476165312 0 -0.27856630094747181 0.35192821522922418 0 -0.2923635739072773 0.34531405506218049 0 -0.27206572012937308 0.33206859476165312 0 -0.2533153185990959 0.33862709580929817 0 -0.26036794521425899 0.35241387149679149 0 -0.2533153185990959 0.33862709580929817 0 -0.25176786635146892 0.31882313446112581 0 -0.24531777052522699 0.3322637185997972 0 -0.27206572012937308 0.33206859476165312 0 -0.2533153185990959 0.33862709580929817 0 -0.25176786635146892 0.31882313446112581 0 -0.27018717891704452 0.30407488426252149 0 -0.25176786635146892 0.31882313446112581 0 -0.24724796434995161 0.31587365107345461 0 -0.27018717891704452 0.30407488426252149 0 -0.27406021829644328 0.31801543791646519 0 -0.25176786635146892 0.31882313446112581 0 -0.27206572012937308 0.33206859476165312 0 -0.25176786635146892 0.31882313446112581 0 -0.25938917951802831 0.3695146586832479 0 -0.26036794521425899 0.35241387149679149 0 -0.24210786096114029 0.36609563382671401 0 -0.2533153185990959 0.33862709580929817 0 -0.26036794521425899 0.35241387149679149 0 -0.24266833115616451 0.35059298660780708 0 -0.27206572012937308 0.33206859476165312 0 -0.26036794521425899 0.35241387149679149 0 -0.27856630094747181 0.35192821522922418 0 -0.25938917951802831 0.3695146586832479 0 -0.26036794521425899 0.35241387149679149 0 -0.27856630094747181 0.35192821522922418 0 -0.25938917951802831 0.3695146586832479 0 -0.27856630094747181 0.35192821522922418 0 -0.25938917951802831 0.3695146586832479 0 -0.27856630094747181 0.35192821522922418 0 -0.27692458633005229 0.37389618715726219 0 -0.27856630094747181 0.35192821522922418 0 -0.27692458633005229 0.37389618715726219 0 -0.29402386077543718 0.36037377745414823 0 -0.27692458633005229 0.37389618715726219 0 -0.29402386077543718 0.36037377745414823 0 -0.29469719241115971 0.37597705390930858 0 -0.27856630094747181 0.35192821522922418 0 -0.29402386077543718 0.36037377745414823 0 -0.2923635739072773 0.34531405506218049 0 -0.29402386077543718 0.36037377745414823 0 -0.2923635739072773 0.34531405506218049 0 -0.31266142768518118 0.35855951536270808 0 -0.3102582475641496 0.3383104458840413 0 -0.2923635739072773 0.34531405506218049 0 -0.31266142768518118 0.35855951536270808 0 -0.2923635739072773 0.34531405506218049 0 -0.31266142768518118 0.35855951536270808 0 -0.29402386077543718 0.36037377745414823 0 -0.31266142768518118 0.35855951536270808 0 -0.29469719241115971 0.37597705390930858 0 -0.31266142768518118 0.35855951536270808 0 -0.31567554664977049 0.3892537391925765 0 -0.29469719241115971 0.37597705390930858 0 -0.31266142768518118 0.35855951536270808 0 -0.29469719241115971 0.37597705390930858 0 -0.33395614869105589 0.37245548607864459 0 -0.32656449458402292 0.35744992388097108 0 -0.31266142768518118 0.35855951536270808 0 -0.33395614869105589 0.37245548607864459 0 -0.31266142768518118 0.35855951536270808 0 -0.33395614869105589 0.37245548607864459 0 -0.31266142768518118 0.35855951536270808 0 -0.31567554664977049 0.3892537391925765 0 -0.33395614869105589 0.37245548607864459 0 -0.34235016668645363 0.35234582582953311 0 -0.32656449458402292 0.35744992388097108 0 -0.34235016668645363 0.35234582582953311 0 -0.32653680925824818 0.34764186174608969 0 -0.32632571886598738 0.33212534882874911 0 -0.34235016668645363 0.35234582582953311 0 -0.32653680925824818 0.34764186174608969 0 -0.32656449458402292 0.35744992388097108 0 -0.3102582475641496 0.3383104458840413 0 -0.31738944355524029 0.35397538487178881 0 -0.31266142768518118 0.35855951536270808 0 -0.32653680925824818 0.34764186174608969 0 -0.31738944355524029 0.35397538487178881 0 -0.32005422259953697 0.34231282531940682 0 -0.3102582475641496 0.3383104458840413 0 -0.31738944355524029 0.35397538487178881 0 -0.32005422259953697 0.34231282531940682 0 -0.32653680925824818 0.34764186174608969 0 -0.32656449458402292 0.35744992388097108 0 -0.31738944355524029 0.35397538487178881 0 -0.32656449458402292 0.35744992388097108 0 -0.31738944355524029 0.35397538487178881 0 -0.31266142768518118 0.35855951536270808 0 -0.31738944355524029 0.35397538487178881 0 -0.31266142768518118 0.35855951536270808 0 -0.3102582475641496 0.3383104458840413 0 -0.32005422259953697 0.34231282531940682 0 -0.32632571886598738 0.33212534882874911 0 -0.32653680925824818 0.34764186174608969 0 -0.32005422259953697 0.34231282531940682 0 -0.32632571886598738 0.33212534882874911 0 -0.31030127104552119 0.31190487182796511 0 -0.32632571886598738 0.33212534882874911 0 -0.31030127104552119 0.31190487182796511 0 -0.3102582475641496 0.3383104458840413 0 -0.32632571886598738 0.33212534882874911 0 -0.31030127104552119 0.31190487182796511 0 -0.32632571886598738 0.33212534882874911 0 -0.32991620603226718 0.31339159482576862 0 -0.34282286100760162 0.30182241098302087 0 -0.32991620603226718 0.31339159482576862 0 -0.34645578492318968 0.32307156829305311 0 -0.32632571886598738 0.33212534882874911 0 -0.32991620603226718 0.31339159482576862 0 -0.34645578492318968 0.32307156829305311 0 -0.32632571886598738 0.33212534882874911 0 -0.34646343765234328 0.33809348150196128 0 -0.34645578492318968 0.32307156829305311 0 -0.34235016668645363 0.35234582582953311 0 -0.32632571886598738 0.33212534882874911 0 -0.34235016668645363 0.35234582582953311 0 -0.32632571886598738 0.33212534882874911 0 -0.34646343765234328 0.33809348150196128 0 -0.34646343765234328 0.33809348150196128 0 -0.34645578492318968 0.32307156829305311 0 -0.36129745337275337 0.33807632116678632 0 -0.34645578492318968 0.32307156829305311 0 -0.36433866518932961 0.32270657197645508 0 -0.36129745337275337 0.33807632116678632 0 -0.35791435347824241 0.31083694979443849 0 -0.34645578492318968 0.32307156829305311 0 -0.36433866518932961 0.32270657197645508 0 -0.37498419096918578 0.30970496882869009 0 -0.35791435347824241 0.31083694979443849 0 -0.36433866518932961 0.32270657197645508 0 -0.37777127036931252 0.32807456176289729 0 -0.37498419096918578 0.30970496882869009 0 -0.36433866518932961 0.32270657197645508 0 -0.38517127952298019 0.34129560046891988 0 -0.37777127036931252 0.32807456176289729 0 -0.36129745337275337 0.33807632116678632 0 -0.37777127036931252 0.32807456176289729 0 -0.36433866518932961 0.32270657197645508 0 -0.36129745337275337 0.33807632116678632 0 -0.36129745337275337 0.33807632116678632 0 -0.37394032890271311 0.35387871208287652 0 -0.38517127952298019 0.34129560046891988 0 -0.36129745337275337 0.33807632116678632 0 -0.37394032890271311 0.35387871208287652 0 -0.36129745337275337 0.33807632116678632 0 -0.37394032890271311 0.35387871208287652 0 -0.3578508029776612 0.35918027270405078 0 -0.37120262434643619 0.37077720926793761 0 -0.3578508029776612 0.35918027270405078 0 -0.35525086969693048 0.38635145679458133 0 -0.37394032890271311 0.35387871208287652 0 -0.37120262434643619 0.37077720926793761 0 -0.3578508029776612 0.35918027270405078 0 -0.33395614869105589 0.37245548607864459 0 -0.3578508029776612 0.35918027270405078 0 -0.35525086969693048 0.38635145679458133 0 -0.33395614869105589 0.37245548607864459 0 -0.34235016668645363 0.35234582582953311 0 -0.3578508029776612 0.35918027270405078 0 -0.34235016668645363 0.35234582582953311 0 -0.34646343765234328 0.33809348150196128 0 -0.3578508029776612 0.35918027270405078 0 -0.34646343765234328 0.33809348150196128 0 -0.36129745337275337 0.33807632116678632 0 -0.3578508029776612 0.35918027270405078 0 -0.35294612503349032 0.40511232060721031 0 -0.35525086969693048 0.38635145679458133 0 -0.3374350698870846 0.39263004327538309 0 -0.33395614869105589 0.37245548607864459 0 -0.35525086969693048 0.38635145679458133 0 -0.37654559070280502 0.40024742751051778 0 -0.38238791572220399 0.38479450175921243 0 -0.35525086969693048 0.38635145679458133 0 -0.38238791572220399 0.38479450175921243 0 -0.37120262434643619 0.37077720926793761 0 -0.35525086969693048 0.38635145679458133 0 -0.37654559070280502 0.40024742751051778 0 -0.35525086969693048 0.38635145679458133 0 -0.37654559070280502 0.40024742751051778 0 -0.35294612503349032 0.40511232060721031 0 -0.35525086969693048 0.38635145679458133 0 -0.37654559070280502 0.40024742751051778 0 -0.35294612503349032 0.40511232060721031 0 -0.37654559070280502 0.40024742751051778 0 -0.35294612503349032 0.40511232060721031 0 -0.37254323660554178 0.42025965598936671 0 -0.35294612503349032 0.40511232060721031 0 -0.37254323660554178 0.42025965598936671 0 -0.35642697888673508 0.42610112645768222 0 -0.37254323660554178 0.42025965598936671 0 -0.35642697888673508 0.42610112645768222 0 -0.36722623170515878 0.43941400288071569 0 -0.38493064390989268 0.42662775334989239 0 -0.37254323660554178 0.42025965598936671 0 -0.36722623170515878 0.43941400288071569 0 -0.37254323660554178 0.42025965598936671 0 -0.36722623170515878 0.43941400288071569 0 -0.35642697888673508 0.42610112645768222 0 -0.33905922988162152 0.43397878657733607 0 -0.35070192660237193 0.44903518394795933 0 -0.35294612503349032 0.40511232060721031 0 -0.35642697888673508 0.42610112645768222 0 -0.32934665936417562 0.40997721370390289 0 -0.35294612503349032 0.40511232060721031 0 -0.32934665936417562 0.40997721370390289 0 -0.35642697888673508 0.42610112645768222 0 -0.32934665936417562 0.40997721370390289 0 -0.33905922988162152 0.43397878657733607 0 -0.32934665936417562 0.40997721370390289 0 -0.33905922988162152 0.43397878657733607 0 -0.32068763546598927 0.42925137176229999 0 -0.32934665936417562 0.40997721370390289 0 -0.32068763546598927 0.42925137176229999 0 -0.30574719369486081 0.41484210680059552 0 -0.32934665936417562 0.40997721370390289 0 -0.30574719369486081 0.41484210680059552 0 -0.32934665936417562 0.40997721370390289 0 -0.31567554664977049 0.3892537391925765 0 -0.30574719369486081 0.41484210680059552 0 -0.32934665936417562 0.40997721370390289 0 -0.3374350698870846 0.39263004327538309 0 -0.31567554664977049 0.3892537391925765 0 -0.35294612503349032 0.40511232060721031 0 -0.32934665936417562 0.40997721370390289 0 -0.3374350698870846 0.39263004327538309 0 -0.33395614869105589 0.37245548607864459 0 -0.3374350698870846 0.39263004327538309 0 -0.31567554664977049 0.3892537391925765 0 -0.33395614869105589 0.37245548607864459 0 -0.35525086969693048 0.38635145679458133 0 -0.3374350698870846 0.39263004327538309 0 -0.31567554664977049 0.3892537391925765 0 -0.2929210782023306 0.39915750419556728 0 -0.29469719241115971 0.37597705390930858 0 -0.31567554664977049 0.3892537391925765 0 -0.2929210782023306 0.39915750419556728 0 -0.30574719369486081 0.41484210680059552 0 -0.2929210782023306 0.39915750419556728 0 -0.27673295713713819 0.39339459245590902 0 -0.27562333368751951 0.40794760893678961 0 -0.2929210782023306 0.39915750419556728 0 -0.29469719241115971 0.37597705390930858 0 -0.27673295713713819 0.39339459245590902 0 -0.27692458633005229 0.37389618715726219 0 -0.29469719241115971 0.37597705390930858 0 -0.27673295713713819 0.39339459245590902 0 -0.29469719241115971 0.37597705390930858 0 -0.27673295713713819 0.39339459245590902 0 -0.27692458633005229 0.37389618715726219 0 -0.27673295713713819 0.39339459245590902 0 -0.25871202747447009 0.3912119170718541 0 -0.27673295713713819 0.39339459245590902 0 -0.25876872186311672 0.41081213100250941 0 -0.27562333368751951 0.40794760893678961 0 -0.27673295713713819 0.39339459245590902 0 -0.25876872186311672 0.41081213100250941 0 -0.27673295713713819 0.39339459245590902 0 -0.25871202747447009 0.3912119170718541 0 -0.25876872186311672 0.41081213100250941 0 -0.25871202747447009 0.3912119170718541 0 -0.25876872186311672 0.41081213100250941 0 -0.2435509035422351 0.40692584010920663 0 -0.25938917951802831 0.3695146586832479 0 -0.25871202747447009 0.3912119170718541 0 -0.2402120580885849 0.3871011021372715 0 -0.25938917951802831 0.3695146586832479 0 -0.27692458633005229 0.37389618715726219 0 -0.25871202747447009 0.3912119170718541 0 -0.25854826235623152 0.42457189299398163 0 -0.27273095127200081 0.44352062127897768 0 -0.25759299249379958 0.44263207116728431 0 -0.25854826235623152 0.42457189299398163 0 -0.25876872186311672 0.41081213100250941 0 -0.2408044865890954 0.4282296695491099 0 -0.25854826235623152 0.42457189299398163 0 -0.25876872186311672 0.41081213100250941 0 -0.26900622011476882 0.41548522767113499 0 -0.25876872186311672 0.41081213100250941 0 -0.26900622011476882 0.41548522767113499 0 -0.27562333368751951 0.40794760893678961 0 -0.25854826235623152 0.42457189299398163 0 -0.26900622011476882 0.41548522767113499 0 -0.282147728025546 0.41970699989728821 0 -0.26900622011476882 0.41548522767113499 0 -0.27562333368751951 0.40794760893678961 0 -0.282147728025546 0.41970699989728821 0 -0.25854826235623152 0.42457189299398163 0 -0.282147728025546 0.41970699989728821 0 -0.27273095127200081 0.44352062127897768 0 -0.25854826235623152 0.42457189299398163 0 -0.282147728025546 0.41970699989728821 0 -0.282147728025546 0.41970699989728821 0 -0.28969391920773302 0.44448677140817289 0 -0.27273095127200081 0.44352062127897768 0 -0.282147728025546 0.41970699989728821 0 -0.29855126237888441 0.42964682392012082 0 -0.28969391920773302 0.44448677140817289 0 -0.282147728025546 0.41970699989728821 0 -0.30574719369486081 0.41484210680059552 0 -0.282147728025546 0.41970699989728821 0 -0.30574719369486081 0.41484210680059552 0 -0.29855126237888441 0.42964682392012082 0 -0.2929210782023306 0.39915750419556728 0 -0.282147728025546 0.41970699989728821 0 -0.30574719369486081 0.41484210680059552 0 -0.2929210782023306 0.39915750419556728 0 -0.27562333368751951 0.40794760893678961 0 -0.282147728025546 0.41970699989728821 0 -0.32068763546598927 0.42925137176229999 0 -0.29855126237888441 0.42964682392012082 0 -0.30745580277216422 0.44269748434102119 0 -0.32068763546598927 0.42925137176229999 0 -0.30574719369486081 0.41484210680059552 0 -0.29855126237888441 0.42964682392012082 0 -0.29855126237888441 0.42964682392012082 0 -0.30745580277216422 0.44269748434102119 0 -0.28969391920773302 0.44448677140817289 0 -0.30745580277216422 0.44269748434102119 0 -0.30393559621458999 0.45965811895930031 0 -0.28969391920773302 0.44448677140817289 0 -0.30393559621458999 0.45965811895930031 0 -0.28674900185880831 0.46128690316253301 0 -0.28969391920773302 0.44448677140817289 0 -0.30393559621458999 0.45965811895930031 0 -0.28674900185880831 0.46128690316253301 0 -0.29365630408636811 0.47862025508105982 0 -0.28674900185880831 0.46128690316253301 0 -0.28969391920773302 0.44448677140817289 0 -0.27273095127200081 0.44352062127897768 0 -0.28674900185880831 0.46128690316253301 0 -0.27273095127200081 0.44352062127897768 0 -0.26472109986291492 0.46015510094093037 0 -0.28674900185880831 0.46128690316253301 0 -0.26472109986291492 0.46015510094093037 0 -0.2759190137069254 0.47818910028851042 0 -0.26472109986291492 0.46015510094093037 0 -0.25026237177016147 0.4669028241868815 0 -0.2588559048605279 0.47782494616980631 0 -0.26472109986291492 0.46015510094093037 0 -0.25026237177016147 0.4669028241868815 0 -0.25008100067395128 0.45289598071477288 0 -0.25854826235623152 0.42457189299398163 0 -0.25759299249379958 0.44263207116728431 0 -0.2405745905206586 0.44563227992238452 0 -0.26472109986291492 0.46015510094093037 0 -0.25008100067395128 0.45289598071477288 0 -0.25759299249379958 0.44263207116728431 0 -0.27273095127200081 0.44352062127897768 0 -0.26472109986291492 0.46015510094093037 0 -0.25759299249379958 0.44263207116728431 0 -0.25362854940361862 0.5 0 -0.2588559048605279 0.47782494616980631 0 -0.26617993722918581 0.48955272512135511 0 -0.25362854940361862 0.5 0 -0.2588559048605279 0.47782494616980631 0 -0.24675172588582489 0.47960317451417289 0 -0.25026237177016147 0.4669028241868815 0 -0.2588559048605279 0.47782494616980631 0 -0.24675172588582489 0.47960317451417289 0 -0.26472109986291492 0.46015510094093037 0 -0.2588559048605279 0.47782494616980631 0 -0.2759190137069254 0.47818910028851042 0 -0.2588559048605279 0.47782494616980631 0 -0.2759190137069254 0.47818910028851042 0 -0.26617993722918581 0.48955272512135511 0 -0.25362854940361862 0.5 0 -0.26617993722918581 0.48955272512135511 0 -0.27808431937984363 0.5 0 -0.2759190137069254 0.47818910028851042 0 -0.26617993722918581 0.48955272512135511 0 -0.27808431937984363 0.5 0 -0.27808431937984363 0.5 0 -0.29365630408636811 0.47862025508105982 0 -0.30254008935606869 0.5 0 -0.2759190137069254 0.47818910028851042 0 -0.27808431937984363 0.5 0 -0.29365630408636811 0.47862025508105982 0 -0.28674900185880831 0.46128690316253301 0 -0.2759190137069254 0.47818910028851042 0 -0.29365630408636811 0.47862025508105982 0 -0.30393559621458999 0.45965811895930031 0 -0.29365630408636811 0.47862025508105982 0 -0.3111661779320003 0.47546348361559698 0 -0.29365630408636811 0.47862025508105982 0 -0.3111661779320003 0.47546348361559698 0 -0.30254008935606869 0.5 0 -0.3111661779320003 0.47546348361559698 0 -0.30254008935606869 0.5 0 -0.32436185750259611 0.48325961668682071 0 -0.30254008935606869 0.5 0 -0.32699585933229369 0.50000000000000022 0 -0.32436185750259611 0.48325961668682071 0 -0.32699585933229369 0.50000000000000022 0 -0.35213072443686227 0.5 0 -0.3504928055738622 0.49389477237794172 0 -0.32699585933229369 0.50000000000000022 0 -0.3504928055738622 0.49389477237794172 0 -0.32699585933229369 0.50000000000000022 0 -0.33748443254158239 0.48712862092900328 0 -0.3504928055738622 0.49389477237794172 0 -0.32699585933229369 0.50000000000000022 0 -0.33748443254158239 0.48712862092900328 0 -0.32436185750259611 0.48325961668682071 0 -0.33731794651868829 0.47690059703401338 0 -0.32436185750259611 0.48325961668682071 0 -0.32694701388431369 0.4569389099828664 0 -0.33731794651868829 0.47690059703401338 0 -0.34218927119022657 0.46399347674047448 0 -0.34803552881175498 0.48140476594210663 0 -0.33748443254158239 0.48712862092900328 0 -0.33731794651868829 0.47690059703401338 0 -0.34803552881175498 0.48140476594210663 0 -0.33748443254158239 0.48712862092900328 0 -0.33731794651868829 0.47690059703401338 0 -0.32436185750259611 0.48325961668682071 0 -0.3111661779320003 0.47546348361559698 0 -0.32436185750259611 0.48325961668682071 0 -0.32694701388431369 0.4569389099828664 0 -0.30393559621458999 0.45965811895930031 0 -0.3111661779320003 0.47546348361559698 0 -0.32694701388431369 0.4569389099828664 0 -0.32068763546598927 0.42925137176229999 0 -0.30745580277216422 0.44269748434102119 0 -0.32694701388431369 0.4569389099828664 0 -0.30745580277216422 0.44269748434102119 0 -0.30393559621458999 0.45965811895930031 0 -0.32694701388431369 0.4569389099828664 0 -0.33905922988162152 0.43397878657733607 0 -0.32068763546598927 0.42925137176229999 0 -0.32694701388431369 0.4569389099828664 0 -0.33905922988162152 0.43397878657733607 0 -0.32694701388431369 0.4569389099828664 0 -0.35070192660237193 0.44903518394795933 0 -0.33731794651868829 0.47690059703401338 0 -0.32694701388431369 0.4569389099828664 0 -0.34218927119022657 0.46399347674047448 0 -0.32694701388431369 0.4569389099828664 0 -0.34218927119022657 0.46399347674047448 0 -0.35070192660237193 0.44903518394795933 0 -0.34218927119022657 0.46399347674047448 0 -0.3564401470656331 0.46749942657559279 0 -0.35070192660237193 0.44903518394795933 0 -0.3564401470656331 0.46749942657559279 0 -0.35070192660237193 0.44903518394795933 0 -0.36722260114033228 0.45615188582674621 0 -0.35642697888673508 0.42610112645768222 0 -0.35070192660237193 0.44903518394795933 0 -0.36722623170515878 0.43941400288071569 0 -0.37826215104173139 0.45075689027670202 0 -0.36722623170515878 0.43941400288071569 0 -0.36722260114033228 0.45615188582674621 0 -0.35070192660237193 0.44903518394795933 0 -0.36722623170515878 0.43941400288071569 0 -0.36722260114033228 0.45615188582674621 0 -0.3564401470656331 0.46749942657559279 0 -0.36722260114033228 0.45615188582674621 0 -0.37063848017661433 0.47177190657297779 0 -0.380460905602796 0.46359633125199629 0 -0.36722260114033228 0.45615188582674621 0 -0.37063848017661433 0.47177190657297779 0 -0.37063848017661433 0.47177190657297779 0 -0.36083459706181892 0.47981136086753162 0 -0.37398975181543048 0.4877895447558831 0 -0.3564401470656331 0.46749942657559279 0 -0.37063848017661433 0.47177190657297779 0 -0.36083459706181892 0.47981136086753162 0 -0.37398975181543048 0.4877895447558831 0 -0.35833817081571662 0.48572511098586568 0 -0.3504928055738622 0.49389477237794172 0 -0.37726558954143102 0.5 0 -0.37398975181543048 0.4877895447558831 0 -0.35213072443686227 0.5 0 -0.37398975181543048 0.4877895447558831 0 -0.3504928055738622 0.49389477237794172 0 -0.36083459706181892 0.47981136086753162 0 -0.37398975181543048 0.4877895447558831 0 -0.35833817081571662 0.48572511098586568 0 -0.37398975181543048 0.4877895447558831 0 -0.35213072443686227 0.5 0 -0.3504928055738622 0.49389477237794172 0 -0.35833817081571662 0.48572511098586568 0 -0.3504928055738622 0.49389477237794172 0 -0.34803552881175498 0.48140476594210663 0 -0.33748443254158239 0.48712862092900328 0 -0.3504928055738622 0.49389477237794172 0 -0.34803552881175498 0.48140476594210663 0 -0.34218927119022657 0.46399347674047448 0 -0.3564401470656331 0.46749942657559279 0 -0.34803552881175498 0.48140476594210663 0 -0.3564401470656331 0.46749942657559279 0 -0.36083459706181892 0.47981136086753162 0 -0.34803552881175498 0.48140476594210663 0 -0.36083459706181892 0.47981136086753162 0 -0.35833817081571662 0.48572511098586568 0 -0.34803552881175498 0.48140476594210663 0 -0.13658493448725709 0.4741720690565609 0 -0.14357004257733669 0.46234212324171692 0 -0.1587467685209836 0.47526661957238819 0 -0.13893993579874081 0.5 0 -0.13658493448725709 0.4741720690565609 0 -0.1587467685209836 0.47526661957238819 0 -0.13893993579874081 0.5 0 -0.1587467685209836 0.47526661957238819 0 -0.1667605360449769 0.50000000000000244 0 -0.13893993579874081 0.5 0 -0.13658493448725709 0.4741720690565609 0 -0.12486760291151711 0.48782549090519051 0 -0.13658493448725709 0.4741720690565609 0 -0.12950909063783239 0.46136463384155202 0 -0.1128262058075663 0.47712989456420413 0 -0.12950909063783239 0.46136463384155202 0 -0.1410241285243248 0.44879881217024958 0 -0.114533076062628 0.45425978912841131 0 -0.12950909063783239 0.46136463384155202 0 -0.1410241285243248 0.44879881217024958 0 -0.14357004257733669 0.46234212324171692 0 -0.13658493448725709 0.4741720690565609 0 -0.12950909063783239 0.46136463384155202 0 -0.14357004257733669 0.46234212324171692 0 -0.1410241285243248 0.44879881217024958 0 -0.114533076062628 0.45425978912841131 0 -0.1410241285243248 0.44879881217024958 0 -0.167515180986022 0.44333783521209003 0 -0.1410241285243248 0.44879881217024958 0 -0.15454691078086871 0.45564078657908619 0 -0.167515180986022 0.44333783521209003 0 -0.1410241285243248 0.44879881217024958 0 -0.167515180986022 0.44333783521209003 0 -0.15262097365801019 0.43022490531635449 0 -0.14357004257733669 0.46234212324171692 0 -0.15454691078086871 0.45564078657908619 0 -0.1587467685209836 0.47526661957238819 0 -0.1410241285243248 0.44879881217024958 0 -0.14357004257733669 0.46234212324171692 0 -0.15454691078086871 0.45564078657908619 0 -0.16768681379768399 0.4577919101567437 0 -0.177101039108646 0.46729530311424822 0 -0.1587467685209836 0.47526661957238819 0 -0.15454691078086871 0.45564078657908619 0 -0.16768681379768399 0.4577919101567437 0 -0.1587467685209836 0.47526661957238819 0 -0.15454691078086871 0.45564078657908619 0 -0.167515180986022 0.44333783521209003 0 -0.15454691078086871 0.45564078657908619 0 -0.16768681379768399 0.4577919101567437 0 -0.167515180986022 0.44333783521209003 0 -0.167515180986022 0.44333783521209003 0 -0.18588069711525779 0.43955189048409071 0 -0.1820975286516078 0.4552545733886782 0 -0.167515180986022 0.44333783521209003 0 -0.18588069711525779 0.43955189048409071 0 -0.16768681379768399 0.4577919101567437 0 -0.167515180986022 0.44333783521209003 0 -0.1820975286516078 0.4552545733886782 0 -0.16768681379768399 0.4577919101567437 0 -0.177101039108646 0.46729530311424822 0 -0.1820975286516078 0.4552545733886782 0 -0.177101039108646 0.46729530311424822 0 -0.1820975286516078 0.4552545733886782 0 -0.1903409958831353 0.47004086717876481 0 -0.177101039108646 0.46729530311424822 0 -0.1856453895565848 0.48725907111700029 0 -0.1903409958831353 0.47004086717876481 0 -0.177101039108646 0.46729530311424822 0 -0.1587467685209836 0.47526661957238819 0 -0.1856453895565848 0.48725907111700029 0 -0.1587467685209836 0.47526661957238819 0 -0.1667605360449769 0.50000000000000244 0 -0.1856453895565848 0.48725907111700029 0 -0.1667605360449769 0.50000000000000244 0 -0.1856453895565848 0.48725907111700029 0 -0.1847669709071644 0.5 0 -0.1667605360449769 0.50000000000000244 0 -0.1856453895565848 0.48725907111700029 0 -0.1856453895565848 0.48725907111700029 0 -0.1847669709071644 0.5 0 -0.199502925865226 0.49375740189801942 0 -0.1847669709071644 0.5 0 -0.199502925865226 0.49375740189801942 0 -0.20277340576935191 0.49999999999999972 0 -0.1856453895565848 0.48725907111700029 0 -0.199502925865226 0.49375740189801942 0 -0.2046272468495105 0.48775305377918871 0 -0.199502925865226 0.49375740189801942 0 -0.2046272468495105 0.48775305377918871 0 -0.199502925865226 0.49375740189801942 0 -0.20470292809364349 0.49807878086049379 0 -0.2046272468495105 0.48775305377918871 0 -0.199502925865226 0.49375740189801942 0 -0.20277340576935191 0.49999999999999972 0 -0.20470292809364349 0.49807878086049379 0 -0.1856453895565848 0.48725907111700029 0 -0.1903409958831353 0.47004086717876481 0 -0.2045302430681909 0.47451814223399552 0 -0.1856453895565848 0.48725907111700029 0 -0.2045302430681909 0.47451814223399552 0 -0.1856453895565848 0.48725907111700029 0 -0.2045302430681909 0.47451814223399552 0 -0.2046272468495105 0.48775305377918871 0 -0.2045302430681909 0.47451814223399552 0 -0.2046272468495105 0.48775305377918871 0 -0.22260091868508519 0.46669266685078697 0 -0.2046272468495105 0.48775305377918871 0 -0.2198289522870793 0.48301784747858678 0 -0.22260091868508519 0.46669266685078697 0 -0.2046272468495105 0.48775305377918871 0 -0.22260091868508519 0.46669266685078697 0 -0.2045302430681909 0.47451814223399552 0 -0.22260091868508519 0.46669266685078697 0 -0.21727298678492771 0.46592107308704778 0 -0.2045302430681909 0.47451814223399552 0 -0.21727298678492771 0.46592107308704778 0 -0.2045302430681909 0.47451814223399552 0 -0.2046272468495105 0.48775305377918871 0 -0.20470292809364349 0.49807878086049379 0 -0.22917277942739339 0.5 0 -0.2198289522870793 0.48301784747858678 0 -0.20471700945116841 0.49999999999999922 0 -0.20470292809364349 0.49807878086049379 0 -0.22917277942739339 0.5 0 -0.20470292809364349 0.49807878086049379 0 -0.2046272468495105 0.48775305377918871 0 -0.20471700945116841 0.49999999999999922 0 -0.20470292809364349 0.49807878086049379 0 -0.20277340576935191 0.49999999999999972 0 -0.20470292809364349 0.49807878086049379 0 -0.20277340576935191 0.49999999999999972 0 -0.20471700945116841 0.49999999999999922 0 -0.20470292809364349 0.49807878086049379 0 -0.20470292809364349 0.49807878086049379 0 -0.2046272468495105 0.48775305377918871 0 -0.2198289522870793 0.48301784747858678 0 -0.20470292809364349 0.49807878086049379 0 -0.2198289522870793 0.48301784747858678 0 -0.22917277942739339 0.5 0 -0.2198289522870793 0.48301784747858678 0 -0.23605682691430099 0.48533118811749693 0 -0.2198289522870793 0.48301784747858678 0 -0.2349549764805153 0.46795691409667978 0 -0.22260091868508519 0.46669266685078697 0 -0.2198289522870793 0.48301784747858678 0 -0.23605682691430099 0.48533118811749693 0 -0.2349549764805153 0.46795691409667978 0 -0.2198289522870793 0.48301784747858678 0 -0.2349549764805153 0.46795691409667978 0 -0.24675172588582489 0.47960317451417289 0 -0.23605682691430099 0.48533118811749693 0 -0.2349549764805153 0.46795691409667978 0 -0.25026237177016147 0.4669028241868815 0 -0.24675172588582489 0.47960317451417289 0 -0.2349549764805153 0.46795691409667978 0 -0.25362854940361862 0.5 0 -0.22917277942739339 0.5 0 -0.23605682691430099 0.48533118811749693 0 -0.25362854940361862 0.5 0 -0.24675172588582489 0.47960317451417289 0 -0.23605682691430099 0.48533118811749693 0 -0.25008100067395128 0.45289598071477288 0 -0.25759299249379958 0.44263207116728431 0 -0.2405745905206586 0.44563227992238452 0 -0.2405745905206586 0.44563227992238452 0 -0.22374620021133679 0.44476882949616409 0 -0.2408044865890954 0.4282296695491099 0 -0.2405745905206586 0.44563227992238452 0 -0.2303517346640761 0.45761076166070108 0 -0.25008100067395128 0.45289598071477288 0 -0.2349549764805153 0.46795691409667978 0 -0.25008100067395128 0.45289598071477288 0 -0.2405745905206586 0.44563227992238452 0 -0.2349549764805153 0.46795691409667978 0 -0.2405745905206586 0.44563227992238452 0 -0.2349549764805153 0.46795691409667978 0 -0.2303517346640761 0.45761076166070108 0 -0.25026237177016147 0.4669028241868815 0 -0.25008100067395128 0.45289598071477288 0 -0.2349549764805153 0.46795691409667978 0 -0.2349549764805153 0.46795691409667978 0 -0.2303517346640761 0.45761076166070108 0 -0.22260091868508519 0.46669266685078697 0 -0.2303517346640761 0.45761076166070108 0 -0.22260091868508519 0.46669266685078697 0 -0.21727298678492771 0.46592107308704778 0 -0.2303517346640761 0.45761076166070108 0 -0.22260091868508519 0.46669266685078697 0 -0.2303517346640761 0.45761076166070108 0 -0.21727298678492771 0.46592107308704778 0 -0.2303517346640761 0.45761076166070108 0 -0.2188980646379268 0.45454879758849898 0 -0.21727298678492771 0.46592107308704778 0 -0.2405745905206586 0.44563227992238452 0 -0.2303517346640761 0.45761076166070108 0 -0.22374620021133679 0.44476882949616409 0 -0.2303517346640761 0.45761076166070108 0 -0.2188980646379268 0.45454879758849898 0 -0.22374620021133679 0.44476882949616409 0 -0.22374620021133679 0.44476882949616409 0 -0.212979771747726 0.4461709396109238 0 -0.2225253499167946 0.43199780765260132 0 -0.212979771747726 0.4461709396109238 0 -0.20438822815634131 0.45514204399504399 0 -0.2042462132444938 0.4357659457560924 0 -0.212979771747726 0.4461709396109238 0 -0.2042462132444938 0.4357659457560924 0 -0.2225253499167946 0.43199780765260132 0 -0.20438822815634131 0.45514204399504399 0 -0.2042462132444938 0.4357659457560924 0 -0.2188980646379268 0.45454879758849898 0 -0.22374620021133679 0.44476882949616409 0 -0.212979771747726 0.4461709396109238 0 -0.2045302430681909 0.47451814223399552 0 -0.20438822815634131 0.45514204399504399 0 -0.2045302430681909 0.47451814223399552 0 -0.21182039436929831 0.45934841252908382 0 -0.20438822815634131 0.45514204399504399 0 -0.2045302430681909 0.47451814223399552 0 -0.21727298678492771 0.46592107308704778 0 -0.21182039436929831 0.45934841252908382 0 -0.2188980646379268 0.45454879758849898 0 -0.21727298678492771 0.46592107308704778 0 -0.21182039436929831 0.45934841252908382 0 -0.2188980646379268 0.45454879758849898 0 -0.212979771747726 0.4461709396109238 0 -0.21182039436929831 0.45934841252908382 0 -0.212979771747726 0.4461709396109238 0 -0.21182039436929831 0.45934841252908382 0 -0.20438822815634131 0.45514204399504399 0 -0.1903409958831353 0.47004086717876481 0 -0.2045302430681909 0.47451814223399552 0 -0.20438822815634131 0.45514204399504399 0 -0.1820975286516078 0.4552545733886782 0 -0.1903409958831353 0.47004086717876481 0 -0.20438822815634131 0.45514204399504399 0 -0.18588069711525779 0.43955189048409071 0 -0.2042462132444938 0.4357659457560924 0 -0.18588069711525779 0.43955189048409071 0 -0.20438822815634131 0.45514204399504399 0 -0.2042462132444938 0.4357659457560924 0 -0.18588069711525779 0.43955189048409071 0 -0.1820975286516078 0.4552545733886782 0 -0.20438822815634131 0.45514204399504399 0 -0.18588069711525779 0.43955189048409071 0 -0.1957773530827798 0.42665848300971682 0 -0.2042462132444938 0.4357659457560924 0 -0.1957773530827798 0.42665848300971682 0 -0.2005890620766822 0.41196076300900952 0 -0.18405212153135239 0.42764929911055011 0 -0.18588069711525779 0.43955189048409071 0 -0.1957773530827798 0.42665848300971682 0 -0.18405212153135239 0.42764929911055011 0 -0.1957773530827798 0.42665848300971682 0 -0.2041186714461127 0.418364516688841 0 -0.2042462132444938 0.4357659457560924 0 -0.18876039880331241 0.41199829403254201 0 -0.2005890620766822 0.41196076300900952 0 -0.18405212153135239 0.42764929911055011 0 -0.2005890620766822 0.41196076300900952 0 -0.18405212153135239 0.42764929911055011 0 -0.18876039880331241 0.41199829403254201 0 -0.19438160011430269 0.40674577664171041 0 -0.18848249275576789 0.40376103884029252 0 -0.18876039880331241 0.41199829403254201 0 -0.19438160011430269 0.40674577664171041 0 -0.2005890620766822 0.41196076300900952 0 -0.1957773530827798 0.42665848300971682 0 -0.2005890620766822 0.41196076300900952 0 -0.2041186714461127 0.418364516688841 0 -0.19438160011430269 0.40674577664171041 0 -0.2005890620766822 0.41196076300900952 0 -0.1994894713873038 0.40334922482974772 0 -0.2005890620766822 0.41196076300900952 0 -0.207054509393824 0.41453848389501552 0 -0.21145933886474691 0.41014390220598718 0 -0.207054509393824 0.41453848389501552 0 -0.2041186714461127 0.418364516688841 0 -0.21318835014843979 0.42020462908972323 0 -0.207054509393824 0.41453848389501552 0 -0.21318835014843979 0.42020462908972323 0 -0.21145933886474691 0.41014390220598718 0 -0.2005890620766822 0.41196076300900952 0 -0.207054509393824 0.41453848389501552 0 -0.2041186714461127 0.418364516688841 0 -0.21318835014843979 0.42020462908972323 0 -0.21145933886474691 0.41014390220598718 0 -0.22041912619541881 0.41305623114336548 0 -0.21145933886474691 0.41014390220598718 0 -0.22041912619541881 0.41305623114336548 0 -0.22103493665914151 0.40468754559129511 0 -0.2041186714461127 0.418364516688841 0 -0.21318835014843979 0.42020462908972323 0 -0.2042462132444938 0.4357659457560924 0 -0.2041186714461127 0.418364516688841 0 -0.2042462132444938 0.4357659457560924 0 -0.21318835014843979 0.42020462908972323 0 -0.2042462132444938 0.4357659457560924 0 -0.2225253499167946 0.43199780765260132 0 -0.2042462132444938 0.4357659457560924 0 -0.2225253499167946 0.43199780765260132 0 -0.22374620021133679 0.44476882949616409 0 -0.2408044865890954 0.4282296695491099 0 -0.22374620021133679 0.44476882949616409 0 -0.2225253499167946 0.43199780765260132 0 -0.2408044865890954 0.4282296695491099 0 -0.2225253499167946 0.43199780765260132 0 -0.22487506886266731 0.42038827433818171 0 -0.2408044865890954 0.4282296695491099 0 -0.2225253499167946 0.43199780765260132 0 -0.2408044865890954 0.4282296695491099 0 -0.21318835014843979 0.42020462908972323 0 -0.2225253499167946 0.43199780765260132 0 -0.22487506886266731 0.42038827433818171 0 -0.21318835014843979 0.42020462908972323 0 -0.22487506886266731 0.42038827433818171 0 -0.22041912619541881 0.41305623114336548 0 -0.22487506886266731 0.42038827433818171 0 -0.22041912619541881 0.41305623114336548 0 -0.23153793644209861 0.40985680449164069 0 -0.22487506886266731 0.42038827433818171 0 -0.23153793644209861 0.40985680449164069 0 -0.2408044865890954 0.4282296695491099 0 -0.22041912619541881 0.41305623114336548 0 -0.23153793644209861 0.40985680449164069 0 -0.22103493665914151 0.40468754559129511 0 -0.23153793644209861 0.40985680449164069 0 -0.2435509035422351 0.40692584010920663 0 -0.2408044865890954 0.4282296695491099 0 -0.25876872186311672 0.41081213100250941 0 -0.2435509035422351 0.40692584010920663 0 -0.2408044865890954 0.4282296695491099 0 -0.25876872186311672 0.41081213100250941 0 -0.2408044865890954 0.4282296695491099 0 -0.25854826235623152 0.42457189299398163 0 -0.2408044865890954 0.4282296695491099 0 -0.25854826235623152 0.42457189299398163 0 -0.2405745905206586 0.44563227992238452 0 -0.25854826235623152 0.42457189299398163 0 -0.2405745905206586 0.44563227992238452 0 -0.2408044865890954 0.4282296695491099 0 -0.25938917951802831 0.3695146586832479 0 -0.2402120580885849 0.3871011021372715 0 -0.2402120580885849 0.3871011021372715 0 -0.22875139968520941 0.37458933265239608 0 -0.24210786096114029 0.36609563382671401 0 -0.23153793644209861 0.40985680449164069 0 -0.2435509035422351 0.40692584010920663 0 -0.2402120580885849 0.3871011021372715 0 -0.25871202747447009 0.3912119170718541 0 -0.2435509035422351 0.40692584010920663 0 -0.2402120580885849 0.3871011021372715 0 -0.23153793644209861 0.40985680449164069 0 -0.2402120580885849 0.3871011021372715 0 -0.22103493665914151 0.40468754559129511 0 -0.2402120580885849 0.3871011021372715 0 -0.22103493665914151 0.40468754559129511 0 -0.21712600262201201 0.39627222690746888 0 -0.2402120580885849 0.3871011021372715 0 -0.22103493665914151 0.40468754559129511 0 -0.2402120580885849 0.3871011021372715 0 -0.22159071568586269 0.38390075121771361 0 -0.22875139968520941 0.37458933265239608 0 -0.2402120580885849 0.3871011021372715 0 -0.22159071568586269 0.38390075121771361 0 -0.21712600262201201 0.39627222690746888 0 -0.22159071568586269 0.38390075121771361 0 -0.21614542242380341 0.37306027909297668 0 -0.22875139968520941 0.37458933265239608 0 -0.21329441097465801 0.38149035385831948 0 -0.20983043152005121 0.37768848546305323 0 -0.21614542242380341 0.37306027909297668 0 -0.22159071568586269 0.38390075121771361 0 -0.21329441097465801 0.38149035385831948 0 -0.21614542242380341 0.37306027909297668 0 -0.21329441097465801 0.38149035385831948 0 -0.20983043152005121 0.37768848546305323 0 -0.20999881368054879 0.38101326392013551 0 -0.22159071568586269 0.38390075121771361 0 -0.2127129204234951 0.38916829536517961 0 -0.21712600262201201 0.39627222690746888 0 -0.22159071568586269 0.38390075121771361 0 -0.21329441097465801 0.38149035385831948 0 -0.2127129204234951 0.38916829536517961 0 -0.21329441097465801 0.38149035385831948 0 -0.2127129204234951 0.38916829536517961 0 -0.20916946587537469 0.3840156559658226 0 -0.2127129204234951 0.38916829536517961 0 -0.20916946587537469 0.3840156559658226 0 -0.20624243089935171 0.38804056141445581 0 -0.2127129204234951 0.38916829536517961 0 -0.20624243089935171 0.38804056141445581 0 -0.20722051239685649 0.39262117302177207 0 -0.20624243089935171 0.38804056141445581 0 -0.20241948297952889 0.39203669819335712 0 -0.2020253052082672 0.38769881599376022 0 -0.20916946587537469 0.3840156559658226 0 -0.20624243089935171 0.38804056141445581 0 -0.2039068985125882 0.38270272994684329 0 -0.20624243089935171 0.38804056141445581 0 -0.2039068985125882 0.38270272994684329 0 -0.2020253052082672 0.38769881599376022 0 -0.203819642606379 0.37833770050271459 0 -0.20983043152005121 0.37768848546305323 0 -0.2071910323700123 0.38070593299328859 0 -0.2039068985125882 0.38270272994684329 0 -0.203819642606379 0.37833770050271459 0 -0.2071910323700123 0.38070593299328859 0 -0.203819642606379 0.37833770050271459 0 -0.20983043152005121 0.37768848546305323 0 -0.19948920214861179 0.37316171501554601 0 -0.20916946587537469 0.3840156559658226 0 -0.2039068985125882 0.38270272994684329 0 -0.2071910323700123 0.38070593299328859 0 -0.21329441097465801 0.38149035385831948 0 -0.20916946587537469 0.3840156559658226 0 -0.20999881368054879 0.38101326392013551 0 -0.20983043152005121 0.37768848546305323 0 -0.20999881368054879 0.38101326392013551 0 -0.2071910323700123 0.38070593299328859 0 -0.20916946587537469 0.3840156559658226 0 -0.20999881368054879 0.38101326392013551 0 -0.2071910323700123 0.38070593299328859 0 -0.2005890620766822 0.41196076300900952 0 -0.21145933886474691 0.41014390220598718 0 -0.21712600262201201 0.39627222690746888 0 -0.2005890620766822 0.41196076300900952 0 -0.21712600262201201 0.39627222690746888 0 -0.2064854039704094 0.40154044820520118 0 -0.2005890620766822 0.41196076300900952 0 -0.21712600262201201 0.39627222690746888 0 -0.21145933886474691 0.41014390220598718 0 -0.22103493665914151 0.40468754559129511 0 -0.21712600262201201 0.39627222690746888 0 -0.21712600262201201 0.39627222690746888 0 -0.20980551825481961 0.39587962477572469 0 -0.2064854039704094 0.40154044820520118 0 -0.2127129204234951 0.38916829536517961 0 -0.21712600262201201 0.39627222690746888 0 -0.20980551825481961 0.39587962477572469 0 -0.2127129204234951 0.38916829536517961 0 -0.20722051239685649 0.39262117302177207 0 -0.20980551825481961 0.39587962477572469 0 -0.20624243089935171 0.38804056141445581 0 -0.20722051239685649 0.39262117302177207 0 -0.20241948297952889 0.39203669819335712 0 -0.20722051239685649 0.39262117302177207 0 -0.20316249862225469 0.39700247423314827 0 -0.20241948297952889 0.39203669819335712 0 -0.20316249862225469 0.39700247423314827 0 -0.20980551825481961 0.39587962477572469 0 -0.2064854039704094 0.40154044820520118 0 -0.20722051239685649 0.39262117302177207 0 -0.20316249862225469 0.39700247423314827 0 -0.20980551825481961 0.39587962477572469 0 -0.2005890620766822 0.41196076300900952 0 -0.2064854039704094 0.40154044820520118 0 -0.1994894713873038 0.40334922482974772 0 -0.19438160011430269 0.40674577664171041 0 -0.1994894713873038 0.40334922482974772 0 -0.19458657554844719 0.40265956249696 0 -0.20316249862225469 0.39700247423314827 0 -0.2064854039704094 0.40154044820520118 0 -0.1994894713873038 0.40334922482974772 0 -0.20316249862225469 0.39700247423314827 0 -0.1994894713873038 0.40334922482974772 0 -0.1973867630180661 0.39828868528407663 0 -0.1994894713873038 0.40334922482974772 0 -0.1973867630180661 0.39828868528407663 0 -0.19458657554844719 0.40265956249696 0 -0.1973867630180661 0.39828868528407663 0 -0.19784589299167291 0.39274789426431689 0 -0.1917277826729773 0.39668199018222883 0 -0.20316249862225469 0.39700247423314827 0 -0.1973867630180661 0.39828868528407663 0 -0.19784589299167291 0.39274789426431689 0 -0.20241948297952889 0.39203669819335712 0 -0.19784589299167291 0.39274789426431689 0 -0.2020253052082672 0.38769881599376022 0 -0.20316249862225469 0.39700247423314827 0 -0.20241948297952889 0.39203669819335712 0 -0.19784589299167291 0.39274789426431689 0 -0.19784589299167291 0.39274789426431689 0 -0.192523895881478 0.39108247406029928 0 -0.19691376760512899 0.38820678895749122 0 -0.1917277826729773 0.39668199018222883 0 -0.18848249275576789 0.40376103884029252 0 -0.18491695999909061 0.39251548743684639 0 -0.19784589299167291 0.39274789426431689 0 -0.192523895881478 0.39108247406029928 0 -0.1917277826729773 0.39668199018222883 0 -0.192523895881478 0.39108247406029928 0 -0.1917277826729773 0.39668199018222883 0 -0.18491695999909061 0.39251548743684639 0 -0.1973867630180661 0.39828868528407663 0 -0.1917277826729773 0.39668199018222883 0 -0.19458657554844719 0.40265956249696 0 -0.1917277826729773 0.39668199018222883 0 -0.18848249275576789 0.40376103884029252 0 -0.19458657554844719 0.40265956249696 0 -0.19438160011430269 0.40674577664171041 0 -0.18848249275576789 0.40376103884029252 0 -0.19458657554844719 0.40265956249696 0 -0.19375628947526219 0.37951078038104319 0 -0.17323925021728559 0.38334331539302491 0 -0.19948920214861179 0.37316171501554601 0 -0.19867654454484099 0.37924941425381359 0 -0.19709797391481479 0.38154293011233692 0 -0.19375628947526219 0.37951078038104319 0 -0.19867654454484099 0.37924941425381359 0 -0.19709797391481479 0.38154293011233692 0 -0.20010434239647051 0.38130191724323642 0 -0.19709797391481479 0.38154293011233692 0 -0.20010434239647051 0.38130191724323642 0 -0.19968943214427951 0.38497249460616539 0 -0.19957490151457491 0.37701469321152598 0 -0.19375628947526219 0.37951078038104319 0 -0.19948920214861179 0.37316171501554601 0 -0.19867654454484099 0.37924941425381359 0 -0.19957490151457491 0.37701469321152598 0 -0.19375628947526219 0.37951078038104319 0 -0.203819642606379 0.37833770050271459 0 -0.19957490151457491 0.37701469321152598 0 -0.2013277003595651 0.37918487520239902 0 -0.203819642606379 0.37833770050271459 0 -0.19957490151457491 0.37701469321152598 0 -0.19948920214861179 0.37316171501554601 0 -0.19867654454484099 0.37924941425381359 0 -0.19957490151457491 0.37701469321152598 0 -0.2013277003595651 0.37918487520239902 0 -0.2039068985125882 0.38270272994684329 0 -0.203819642606379 0.37833770050271459 0 -0.2013277003595651 0.37918487520239902 0 -0.19867654454484099 0.37924941425381359 0 -0.2013277003595651 0.37918487520239902 0 -0.20010434239647051 0.38130191724323642 0 -0.2039068985125882 0.38270272994684329 0 -0.2013277003595651 0.37918487520239902 0 -0.20010434239647051 0.38130191724323642 0 -0.2039068985125882 0.38270272994684329 0 -0.20010434239647051 0.38130191724323642 0 -0.19968943214427951 0.38497249460616539 0 -0.2039068985125882 0.38270272994684329 0 -0.19968943214427951 0.38497249460616539 0 -0.2020253052082672 0.38769881599376022 0 -0.19968943214427951 0.38497249460616539 0 -0.2020253052082672 0.38769881599376022 0 -0.19691376760512899 0.38820678895749122 0 -0.19784589299167291 0.39274789426431689 0 -0.2020253052082672 0.38769881599376022 0 -0.19691376760512899 0.38820678895749122 0 -0.19709797391481479 0.38154293011233692 0 -0.19968943214427951 0.38497249460616539 0 -0.19248431179994729 0.38453226586291411 0 -0.19968943214427951 0.38497249460616539 0 -0.19691376760512899 0.38820678895749122 0 -0.19248431179994729 0.38453226586291411 0 -0.192523895881478 0.39108247406029928 0 -0.19248431179994729 0.38453226586291411 0 -0.18491695999909061 0.39251548743684639 0 -0.192523895881478 0.39108247406029928 0 -0.19691376760512899 0.38820678895749122 0 -0.19248431179994729 0.38453226586291411 0 -0.19709797391481479 0.38154293011233692 0 -0.19248431179994729 0.38453226586291411 0 -0.19375628947526219 0.37951078038104319 0 -0.17323925021728559 0.38334331539302491 0 -0.19948920214861179 0.37316171501554601 0 -0.19248431179994729 0.38453226586291411 0 -0.17323925021728559 0.38334331539302491 0 -0.18491695999909061 0.39251548743684639 0 -0.19248431179994729 0.38453226586291411 0 -0.19375628947526219 0.37951078038104319 0 -0.17323925021728559 0.38334331539302491 0 -0.17323925021728559 0.38334331539302491 0 -0.14698929828595941 0.39352491577050408 0 -0.1500624031481671 0.37150408503511861 0 -0.17323925021728559 0.38334331539302491 0 -0.14698929828595941 0.39352491577050408 0 -0.17323925021728559 0.38334331539302491 0 -0.1626887572901986 0.40452495567929703 0 -0.14698929828595941 0.39352491577050408 0 -0.17323925021728559 0.38334331539302491 0 -0.1626887572901986 0.40452495567929703 0 -0.17916065401396991 0.40419304916360638 0 -0.17323925021728559 0.38334331539302491 0 -0.17916065401396991 0.40419304916360638 0 -0.18491695999909061 0.39251548743684639 0 -0.18848249275576789 0.40376103884029252 0 -0.17916065401396991 0.40419304916360638 0 -0.18491695999909061 0.39251548743684639 0 -0.18876039880331241 0.41199829403254201 0 -0.17916065401396991 0.40419304916360638 0 -0.1740241035126151 0.41612277518687968 0 -0.18876039880331241 0.41199829403254201 0 -0.1740241035126151 0.41612277518687968 0 -0.18405212153135239 0.42764929911055011 0 -0.1626887572901986 0.40452495567929703 0 -0.17916065401396991 0.40419304916360638 0 -0.1740241035126151 0.41612277518687968 0 -0.18876039880331241 0.41199829403254201 0 -0.18848249275576789 0.40376103884029252 0 -0.17916065401396991 0.40419304916360638 0 -0.167515180986022 0.44333783521209003 0 -0.18588069711525779 0.43955189048409071 0 -0.18405212153135239 0.42764929911055011 0 -0.167515180986022 0.44333783521209003 0 -0.18405212153135239 0.42764929911055011 0 -0.16754538449623471 0.42737354076035189 0 -0.167515180986022 0.44333783521209003 0 -0.18405212153135239 0.42764929911055011 0 -0.1740241035126151 0.41612277518687968 0 -0.18405212153135239 0.42764929911055011 0 -0.16754538449623471 0.42737354076035189 0 -0.167515180986022 0.44333783521209003 0 -0.16754538449623471 0.42737354076035189 0 -0.15262097365801019 0.43022490531635449 0 -0.16754538449623471 0.42737354076035189 0 -0.15951454279317381 0.41953288897588631 0 -0.15262097365801019 0.43022490531635449 0 -0.1626887572901986 0.40452495567929703 0 -0.1740241035126151 0.41612277518687968 0 -0.15951454279317381 0.41953288897588631 0 -0.1740241035126151 0.41612277518687968 0 -0.16754538449623471 0.42737354076035189 0 -0.15951454279317381 0.41953288897588631 0 -0.15951454279317381 0.41953288897588631 0 -0.14542131824922269 0.41403026169973239 0 -0.15262097365801019 0.43022490531635449 0 -0.1626887572901986 0.40452495567929703 0 -0.15951454279317381 0.41953288897588631 0 -0.14542131824922269 0.41403026169973239 0 -0.1410241285243248 0.44879881217024958 0 -0.15262097365801019 0.43022490531635449 0 -0.13135893169703641 0.42531252296666872 0 -0.14542131824922269 0.41403026169973239 0 -0.15262097365801019 0.43022490531635449 0 -0.13135893169703641 0.42531252296666872 0 -0.1410241285243248 0.44879881217024958 0 -0.13135893169703641 0.42531252296666872 0 -0.11605420054404859 0.43387846420469489 0 -0.14542131824922269 0.41403026169973239 0 -0.13135893169703641 0.42531252296666872 0 -0.13241684392246411 0.41001427117317341 0 -0.13135893169703641 0.42531252296666872 0 -0.13241684392246411 0.41001427117317341 0 -0.1175753250254688 0.41349713928097842 0 -0.13241684392246411 0.41001427117317341 0 -0.14698929828595941 0.39352491577050408 0 -0.120739346354633 0.40370651614798342 0 -0.13089395621840871 0.38501346246298868 0 -0.14698929828595941 0.39352491577050408 0 -0.120739346354633 0.40370651614798342 0 -0.14698929828595941 0.39352491577050408 0 -0.120739346354633 0.40370651614798342 0 -0.13089395621840871 0.38501346246298868 0 -0.12778840706602579 0.36781072392163289 0 -0.1189431396241486 0.38137907992927289 0 -0.13089395621840871 0.38501346246298868 0 -0.14698929828595941 0.39352491577050408 0 -0.1500624031481671 0.37150408503511861 0 -0.14542131824922269 0.41403026169973239 0 -0.13241684392246411 0.41001427117317341 0 -0.14698929828595941 0.39352491577050408 0 -0.1626887572901986 0.40452495567929703 0 -0.14542131824922269 0.41403026169973239 0 -0.14698929828595941 0.39352491577050408 0 -0.1404669878831431 0.35684629240572691 0 -0.139203789934573 0.34105864567647098 0 -0.15929892733925261 0.35175966878949633 0 -0.139203789934573 0.34105864567647098 0 -0.15929892733925261 0.35175966878949633 0 -0.1500624031481671 0.37150408503511861 0 -0.1404669878831431 0.35684629240572691 0 -0.15929892733925261 0.35175966878949633 0 -0.1500624031481671 0.37150408503511861 0 -0.12778840706602579 0.36781072392163289 0 -0.1404669878831431 0.35684629240572691 0 -0.13089395621840871 0.38501346246298868 0 -0.1500624031481671 0.37150408503511861 0 -0.12778840706602579 0.36781072392163289 0 -0.1404669878831431 0.35684629240572691 0 -0.12572410180941981 0.34963076065832199 0 -0.139203789934573 0.34105864567647098 0 -0.12778840706602579 0.36781072392163289 0 -0.1404669878831431 0.35684629240572691 0 -0.12572410180941981 0.34963076065832199 0 -0.139203789934573 0.34105864567647098 0 -0.13530753776955651 0.32415675723462772 0 -0.1191086525298934 0.33035762256344592 0 -0.139203789934573 0.34105864567647098 0 -0.1191086525298934 0.33035762256344592 0 -0.12572410180941981 0.34963076065832199 0 -0.139203789934573 0.34105864567647098 0 -0.1191086525298934 0.33035762256344592 0 -0.13530753776955651 0.32415675723462772 0 -0.12924823776510691 0.30733242256695692 0 -0.1184565372455936 0.31652155365761131 0 -0.13530753776955651 0.32415675723462772 0 -0.15794342956778001 0.32533290807479132 0 -0.1497223961815061 0.30495455916636521 0 -0.139203789934573 0.34105864567647098 0 -0.13530753776955651 0.32415675723462772 0 -0.15794342956778001 0.32533290807479132 0 -0.139203789934573 0.34105864567647098 0 -0.15794342956778001 0.32533290807479132 0 -0.15929892733925261 0.35175966878949633 0 -0.15794342956778001 0.32533290807479132 0 -0.17957974991053149 0.34111920299293802 0 -0.15929892733925261 0.35175966878949633 0 -0.15794342956778001 0.32533290807479132 0 -0.1677330029835529 0.31067526557358621 0 -0.1497223961815061 0.30495455916636521 0 -0.15794342956778001 0.32533290807479132 0 -0.181916645563443 0.31984603795205119 0 -0.1677330029835529 0.31067526557358621 0 -0.181916645563443 0.31984603795205119 0 -0.17957974991053149 0.34111920299293802 0 -0.1968385289582191 0.32979291853321729 0 -0.15794342956778001 0.32533290807479132 0 -0.181916645563443 0.31984603795205119 0 -0.17957974991053149 0.34111920299293802 0 -0.17957974991053149 0.34111920299293802 0 -0.15929892733925261 0.35175966878949633 0 -0.1793940647439321 0.36246069190252139 0 -0.17957974991053149 0.34111920299293802 0 -0.1793940647439321 0.36246069190252139 0 -0.19919913830602801 0.34914776375303208 0 -0.15929892733925261 0.35175966878949633 0 -0.1793940647439321 0.36246069190252139 0 -0.17323925021728559 0.38334331539302491 0 -0.1500624031481671 0.37150408503511861 0 -0.1793940647439321 0.36246069190252139 0 -0.1500624031481671 0.37150408503511861 0 -0.15929892733925261 0.35175966878949633 0 -0.1793940647439321 0.36246069190252139 0 -0.17323925021728559 0.38334331539302491 0 -0.1793940647439321 0.36246069190252139 0 -0.19948920214861179 0.37316171501554601 0 -0.1793940647439321 0.36246069190252139 0 -0.19757532216658391 0.36163788354657239 0 -0.19948920214861179 0.37316171501554601 0 -0.1793940647439321 0.36246069190252139 0 -0.19948920214861179 0.37316171501554601 0 -0.19757532216658391 0.36163788354657239 0 -0.19948920214861179 0.37316171501554601 0 -0.2086923045490173 0.35980925809641828 0 -0.1793940647439321 0.36246069190252139 0 -0.19757532216658391 0.36163788354657239 0 -0.19919913830602801 0.34914776375303208 0 -0.19757532216658391 0.36163788354657239 0 -0.19919913830602801 0.34914776375303208 0 -0.2086923045490173 0.35980925809641828 0 -0.2168903541092406 0.34674938170960501 0 -0.2086923045490173 0.35980925809641828 0 -0.22544571923955531 0.36309392956197262 0 -0.19919913830602801 0.34914776375303208 0 -0.2168903541092406 0.34674938170960501 0 -0.2086923045490173 0.35980925809641828 0 -0.19919913830602801 0.34914776375303208 0 -0.2168903541092406 0.34674938170960501 0 -0.20905440426599509 0.33638839682647148 0 -0.20983043152005121 0.37768848546305323 0 -0.19948920214861179 0.37316171501554601 0 -0.21614542242380341 0.37306027909297668 0 -0.19948920214861179 0.37316171501554601 0 -0.2086923045490173 0.35980925809641828 0 -0.22544571923955531 0.36309392956197262 0 -0.19948920214861179 0.37316171501554601 0 -0.21614542242380341 0.37306027909297668 0 -0.22544571923955531 0.36309392956197262 0 -0.19948920214861179 0.37316171501554601 0 -0.22544571923955531 0.36309392956197262 0 -0.22875139968520941 0.37458933265239608 0 -0.22544571923955531 0.36309392956197262 0 -0.24210786096114029 0.36609563382671401 0 -0.21614542242380341 0.37306027909297668 0 -0.22875139968520941 0.37458933265239608 0 -0.22544571923955531 0.36309392956197262 0 -0.2168903541092406 0.34674938170960501 0 -0.22544571923955531 0.36309392956197262 0 -0.23232982590182291 0.3454008122061854 0 -0.22544571923955531 0.36309392956197262 0 -0.23232982590182291 0.3454008122061854 0 -0.24266833115616451 0.35059298660780708 0 -0.26036794521425899 0.35241387149679149 0 -0.24266833115616451 0.35059298660780708 0 -0.24210786096114029 0.36609563382671401 0 -0.23232982590182291 0.3454008122061854 0 -0.24266833115616451 0.35059298660780708 0 -0.24185878691998869 0.33881838604339948 0 -0.22544571923955531 0.36309392956197262 0 -0.24266833115616451 0.35059298660780708 0 -0.24210786096114029 0.36609563382671401 0 -0.25938917951802831 0.3695146586832479 0 -0.2402120580885849 0.3871011021372715 0 -0.24210786096114029 0.36609563382671401 0 -0.25176786635146892 0.31882313446112581 0 -0.23432911023035469 0.33278625808536538 0 -0.25176786635146892 0.31882313446112581 0 -0.24724796434995161 0.31587365107345461 0 -0.2334623187285163 0.32296428696030238 0 -0.25176786635146892 0.31882313446112581 0 -0.24531777052522699 0.3322637185997972 0 -0.23432911023035469 0.33278625808536538 0 -0.25176786635146892 0.31882313446112581 0 -0.23432911023035469 0.33278625808536538 0 -0.2334623187285163 0.32296428696030238 0 -0.24724796434995161 0.31587365107345461 0 -0.2334623187285163 0.32296428696030238 0 -0.25176786635146892 0.31882313446112581 0 -0.24724796434995161 0.31587365107345461 0 -0.2533153185990959 0.33862709580929817 0 -0.24266833115616451 0.35059298660780708 0 -0.24185878691998869 0.33881838604339948 0 -0.2533153185990959 0.33862709580929817 0 -0.24531777052522699 0.3322637185997972 0 -0.24185878691998869 0.33881838604339948 0 -0.23232982590182291 0.3454008122061854 0 -0.24185878691998869 0.33881838604339948 0 -0.23432911023035469 0.33278625808536538 0 -0.24531777052522699 0.3322637185997972 0 -0.24185878691998869 0.33881838604339948 0 -0.23432911023035469 0.33278625808536538 0 -0.23432911023035469 0.33278625808536538 0 -0.21967667310708039 0.33005492284714888 0 -0.2334623187285163 0.32296428696030238 0 -0.2168903541092406 0.34674938170960501 0 -0.23232982590182291 0.3454008122061854 0 -0.23432911023035469 0.33278625808536538 0 -0.2168903541092406 0.34674938170960501 0 -0.23432911023035469 0.33278625808536538 0 -0.21967667310708039 0.33005492284714888 0 -0.2168903541092406 0.34674938170960501 0 -0.23432911023035469 0.33278625808536538 0 -0.2334623187285163 0.32296428696030238 0 -0.2181345609233514 0.31625310936900197 0 -0.22224775788074169 0.29955964832635368 0 -0.24724796434995161 0.31587365107345461 0 -0.2334623187285163 0.32296428696030238 0 -0.22224775788074169 0.29955964832635368 0 -0.21967667310708039 0.33005492284714888 0 -0.2334623187285163 0.32296428696030238 0 -0.2181345609233514 0.31625310936900197 0 -0.21967667310708039 0.33005492284714888 0 -0.2334623187285163 0.32296428696030238 0 -0.2181345609233514 0.31625310936900197 0 -0.20887744370044839 0.32329209721838492 0 -0.20206705952804749 0.30967273913646842 0 -0.21967667310708039 0.33005492284714888 0 -0.2181345609233514 0.31625310936900197 0 -0.20887744370044839 0.32329209721838492 0 -0.2168903541092406 0.34674938170960501 0 -0.21967667310708039 0.33005492284714888 0 -0.20905440426599509 0.33638839682647148 0 -0.21967667310708039 0.33005492284714888 0 -0.20887744370044839 0.32329209721838492 0 -0.20905440426599509 0.33638839682647148 0 -0.20887744370044839 0.32329209721838492 0 -0.20905440426599509 0.33638839682647148 0 -0.1968385289582191 0.32979291853321729 0 -0.17957974991053149 0.34111920299293802 0 -0.19919913830602801 0.34914776375303208 0 -0.1968385289582191 0.32979291853321729 0 -0.19919913830602801 0.34914776375303208 0 -0.20905440426599509 0.33638839682647148 0 -0.1968385289582191 0.32979291853321729 0 -0.181916645563443 0.31984603795205119 0 -0.1968385289582191 0.32979291853321729 0 -0.20206705952804749 0.30967273913646842 0 -0.20887744370044839 0.32329209721838492 0 -0.1968385289582191 0.32979291853321729 0 -0.20206705952804749 0.30967273913646842 0 -0.20206705952804749 0.30967273913646842 0 -0.19724755141153019 0.2832456455792553 0 -0.18666623630774379 0.30421085617951932 0 -0.181916645563443 0.31984603795205119 0 -0.20206705952804749 0.30967273913646842 0 -0.18666623630774379 0.30421085617951932 0 -0.19724755141153019 0.2832456455792553 0 -0.22224775788074169 0.29955964832635368 0 -0.22634875585493519 0.27788870278782551 0 -0.19724755141153019 0.2832456455792553 0 -0.22224775788074169 0.29955964832635368 0 -0.2181345609233514 0.31625310936900197 0 -0.20206705952804749 0.30967273913646842 0 -0.22224775788074169 0.29955964832635368 0 -0.20206705952804749 0.30967273913646842 0 -0.19724755141153019 0.2832456455792553 0 -0.22224775788074169 0.29955964832635368 0 -0.22224775788074169 0.29955964832635368 0 -0.23866438550736649 0.29493723171994313 0 -0.22634875585493519 0.27788870278782551 0 -0.23866438550736649 0.29493723171994313 0 -0.24472819145968641 0.28299351049803889 0 -0.22634875585493519 0.27788870278782551 0 -0.25274925799151671 0.29837064591404161 0 -0.23866438550736649 0.29493723171994313 0 -0.24472819145968641 0.28299351049803889 0 -0.24724796434995161 0.31587365107345461 0 -0.22224775788074169 0.29955964832635368 0 -0.23866438550736649 0.29493723171994313 0 -0.24724796434995161 0.31587365107345461 0 -0.22224775788074169 0.29955964832635368 0 -0.25274925799151671 0.29837064591404161 0 -0.24724796434995161 0.31587365107345461 0 -0.23866438550736649 0.29493723171994313 0 -0.25055533274392472 0.25134788921301499 0 -0.23470146103004619 0.2576133879202952 0 -0.24073725663843479 0.2441767401728587 0 -0.25055533274392472 0.25134788921301499 0 -0.25993885820371182 0.261309795065093 0 -0.23470146103004619 0.2576133879202952 0 -0.25993885820371182 0.261309795065093 0 -0.23470146103004619 0.2576133879202952 0 -0.24438135380928369 0.27017252038986223 0 -0.25993885820371182 0.261309795065093 0 -0.23470146103004619 0.2576133879202952 0 -0.24472819145968641 0.28299351049803889 0 -0.24438135380928369 0.27017252038986223 0 -0.22634875585493519 0.27788870278782551 0 -0.23470146103004619 0.2576133879202952 0 -0.24438135380928369 0.27017252038986223 0 -0.22634875585493519 0.27788870278782551 0 -0.2564770426159339 0.27522299138220829 0 -0.24472819145968641 0.28299351049803889 0 -0.24438135380928369 0.27017252038986223 0 -0.23470146103004619 0.2576133879202952 0 -0.20718098390481751 0.25855008801643242 0 -0.21992226260849121 0.23678413181489211 0 -0.23470146103004619 0.2576133879202952 0 -0.22634875585493519 0.27788870278782551 0 -0.20718098390481751 0.25855008801643242 0 -0.20718098390481751 0.25855008801643242 0 -0.17292255148752469 0.26159386925778699 0 -0.19194332103637721 0.2341747907385395 0 -0.19724755141153019 0.2832456455792553 0 -0.20718098390481751 0.25855008801643242 0 -0.17292255148752469 0.26159386925778699 0 -0.19724755141153019 0.2832456455792553 0 -0.22634875585493519 0.27788870278782551 0 -0.20718098390481751 0.25855008801643242 0 -0.19724755141153019 0.2832456455792553 0 -0.17292255148752469 0.26159386925778699 0 -0.17334640289248779 0.29474515181648919 0 -0.17292255148752469 0.26159386925778699 0 -0.17334640289248779 0.29474515181648919 0 -0.15470007399370281 0.28214747904983228 0 -0.17292255148752469 0.26159386925778699 0 -0.14760657921770129 0.26440214773506121 0 -0.14863886251325631 0.24562728203107351 0 -0.17292255148752469 0.26159386925778699 0 -0.15470007399370281 0.28214747904983228 0 -0.14760657921770129 0.26440214773506121 0 -0.19724755141153019 0.2832456455792553 0 -0.17334640289248779 0.29474515181648919 0 -0.18666623630774379 0.30421085617951932 0 -0.181916645563443 0.31984603795205119 0 -0.18666623630774379 0.30421085617951932 0 -0.1677330029835529 0.31067526557358621 0 -0.17334640289248779 0.29474515181648919 0 -0.18666623630774379 0.30421085617951932 0 -0.1677330029835529 0.31067526557358621 0 -0.17334640289248779 0.29474515181648919 0 -0.1677330029835529 0.31067526557358621 0 -0.1497223961815061 0.30495455916636521 0 -0.17334640289248779 0.29474515181648919 0 -0.15470007399370281 0.28214747904983228 0 -0.1497223961815061 0.30495455916636521 0 -0.15470007399370281 0.28214747904983228 0 -0.1497223961815061 0.30495455916636521 0 -0.13289289746767921 0.29004461812372001 0 -0.12924823776510691 0.30733242256695692 0 -0.13289289746767921 0.29004461812372001 0 -0.1168814045023976 0.29821018144649081 0 -0.13530753776955651 0.32415675723462772 0 -0.1497223961815061 0.30495455916636521 0 -0.12924823776510691 0.30733242256695692 0 -0.1497223961815061 0.30495455916636521 0 -0.12924823776510691 0.30733242256695692 0 -0.13289289746767921 0.29004461812372001 0 -0.15470007399370281 0.28214747904983228 0 -0.13289289746767921 0.29004461812372001 0 -0.13042759950699689 0.27085579386133618 0 -0.13289289746767921 0.29004461812372001 0 -0.13042759950699689 0.27085579386133618 0 -0.1140733908661985 0.27784263263362258 0 -0.14760657921770129 0.26440214773506121 0 -0.122588684227444 0.25205124103256221 0 -0.14863886251325631 0.24562728203107351 0 -0.13042759950699689 0.27085579386133618 0 -0.14760657921770129 0.26440214773506121 0 -0.122588684227444 0.25205124103256221 0 -0.15470007399370281 0.28214747904983228 0 -0.13042759950699689 0.27085579386133618 0 -0.14760657921770129 0.26440214773506121 0 -0.099419321347676004 0.27589048161207208 0 -0.1024254026022246 0.26152577112433473 0 -0.083810712414467289 0.26403823920167541 0 -0.099419321347676004 0.27589048161207208 0 -0.1024254026022246 0.26152577112433473 0 -0.1140733908661985 0.27784263263362258 0 -0.1024254026022246 0.26152577112433473 0 -0.122588684227444 0.25205124103256221 0 -0.092730215776092806 0.2425017759887918 0 -0.1024254026022246 0.26152577112433473 0 -0.122588684227444 0.25205124103256221 0 -0.1140733908661985 0.27784263263362258 0 -0.13042759950699689 0.27085579386133618 0 -0.122588684227444 0.25205124103256221 0 -0.1140733908661985 0.27784263263362258 0 -0.13289289746767921 0.29004461812372001 0 -0.1140733908661985 0.27784263263362258 0 -0.1168814045023976 0.29821018144649081 0 -0.1140733908661985 0.27784263263362258 0 -0.1168814045023976 0.29821018144649081 0 -0.1019125731215023 0.29142142752899819 0 -0.1168814045023976 0.29821018144649081 0 -0.10413655876453259 0.30846989537525549 0 -0.1184565372455936 0.31652155365761131 0 -0.12924823776510691 0.30733242256695692 0 -0.1168814045023976 0.29821018144649081 0 -0.1184565372455936 0.31652155365761131 0 -0.10413655876453259 0.30846989537525549 0 -0.088640237663952196 0.30495880632368411 0 -0.093580618363836382 0.32089701290251388 0 -0.1168814045023976 0.29821018144649081 0 -0.10413655876453259 0.30846989537525549 0 -0.1019125731215023 0.29142142752899819 0 -0.10413655876453259 0.30846989537525549 0 -0.1019125731215023 0.29142142752899819 0 -0.088640237663952196 0.30495880632368411 0 -0.099419321347676004 0.27589048161207208 0 -0.1140733908661985 0.27784263263362258 0 -0.1019125731215023 0.29142142752899819 0 -0.099419321347676004 0.27589048161207208 0 -0.1019125731215023 0.29142142752899819 0 -0.088054075513846558 0.28483291537392519 0 -0.1019125731215023 0.29142142752899819 0 -0.088054075513846558 0.28483291537392519 0 -0.088640237663952196 0.30495880632368411 0 -0.088054075513846558 0.28483291537392519 0 -0.088640237663952196 0.30495880632368411 0 -0.067988813354852337 0.30380464074117042 0 -0.088640237663952196 0.30495880632368411 0 -0.067988813354852337 0.30380464074117042 0 -0.080926341395142348 0.32361705452313022 0 -0.067988813354852337 0.30380464074117042 0 -0.071747739050903966 0.27675518092434831 0 -0.055051285314561091 0.28399222695921139 0 -0.088054075513846558 0.28483291537392519 0 -0.067988813354852337 0.30380464074117042 0 -0.071747739050903966 0.27675518092434831 0 -0.071747739050903966 0.27675518092434831 0 -0.083810712414467289 0.26403823920167541 0 -0.061553512873106009 0.26385323478991979 0 -0.071747739050903966 0.27675518092434831 0 -0.061553512873106009 0.26385323478991979 0 -0.055051285314561091 0.28399222695921139 0 -0.099419321347676004 0.27589048161207208 0 -0.088054075513846558 0.28483291537392519 0 -0.083810712414467289 0.26403823920167541 0 -0.088054075513846558 0.28483291537392519 0 -0.071747739050903966 0.27675518092434831 0 -0.083810712414467289 0.26403823920167541 0 -0.1024254026022246 0.26152577112433473 0 -0.083810712414467289 0.26403823920167541 0 -0.092730215776092806 0.2425017759887918 0 -0.083810712414467289 0.26403823920167541 0 -0.072964295206045152 0.24637303244624581 0 -0.092730215776092806 0.2425017759887918 0 -0.061553512873106009 0.26385323478991979 0 -0.072964295206045152 0.24637303244624581 0 -0.056642681332391573 0.24834970351117289 0 -0.083810712414467289 0.26403823920167541 0 -0.061553512873106009 0.26385323478991979 0 -0.072964295206045152 0.24637303244624581 0 -0.061553512873106009 0.26385323478991979 0 -0.051170723494881262 0.25681621177184449 0 -0.042113757274265813 0.26417981317725509 0 -0.061553512873106009 0.26385323478991979 0 -0.051170723494881262 0.25681621177184449 0 -0.056642681332391573 0.24834970351117289 0 -0.051170723494881262 0.25681621177184449 0 -0.046813962699940322 0.24883597713967601 0 -0.056642681332391573 0.24834970351117289 0 -0.042113757274265813 0.26417981317725509 0 -0.04526552572654436 0.28729097501863909 0 -0.055051285314561091 0.28399222695921139 0 -0.042113757274265813 0.26417981317725509 0 -0.055051285314561091 0.28399222695921139 0 -0.061553512873106009 0.26385323478991979 0 -0.042113757274265813 0.26417981317725509 0 -0.055051285314561091 0.28399222695921139 0 -0.042113757274265813 0.26417981317725509 0 -0.030333604359447219 0.26498269021736592 0 -0.035708686758963562 0.28508918689504542 0 -0.042113757274265813 0.26417981317725509 0 -0.035708686758963562 0.28508918689504542 0 -0.04526552572654436 0.28729097501863909 0 -0.042113757274265813 0.26417981317725509 0 -0.035708686758963562 0.28508918689504542 0 -0.051170723494881262 0.25681621177184449 0 -0.042113757274265813 0.26417981317725509 0 -0.046813962699940322 0.24883597713967601 0 -0.042113757274265813 0.26417981317725509 0 -0.046813962699940322 0.24883597713967601 0 -0.042113757274265813 0.26417981317725509 0 -0.033828902001825457 0.25149246051837337 0 -0.046813962699940322 0.24883597713967601 0 -0.042113757274265813 0.26417981317725509 0 -0.033828902001825457 0.25149246051837337 0 -0.042113757274265813 0.26417981317725509 0 -0.033828902001825457 0.25149246051837337 0 -0.030333604359447219 0.26498269021736592 0 -0.020105285393165421 0.25412588478139569 0 -0.030333604359447219 0.26498269021736592 0 -0.01991139036901882 0.2700261057147606 0 -0.033828902001825457 0.25149246051837337 0 -0.020105285393165421 0.25412588478139569 0 -0.030333604359447219 0.26498269021736592 0 -0.030333604359447219 0.26498269021736592 0 -0.01991139036901882 0.2700261057147606 0 -0.035708686758963562 0.28508918689504542 0 -0.01991139036901882 0.2700261057147606 0 -0.01953219342858269 0.28606848027166559 0 -0.035708686758963562 0.28508918689504542 0 -0.01991139036901882 0.2700261057147606 0 -0.0073329323374059594 0.27822991602492558 0 -0.0019485653653287681 0.26326166934363848 0 -0.01991139036901882 0.2700261057147606 0 -0.0073329323374059594 0.27822991602492558 0 -0.01953219342858269 0.28606848027166559 0 -0.0073329323374059594 0.27822991602492558 0 -0.0019485653653287681 0.26326166934363848 0 0.0078891299894427221 0.27928127077915732 0 -0.020105285393165421 0.25412588478139569 0 -0.0019485653653287681 0.26326166934363848 0 -0.0073964723180061174 0.24596544541674961 0 -0.020105285393165421 0.25412588478139569 0 -0.01991139036901882 0.2700261057147606 0 -0.0019485653653287681 0.26326166934363848 0 -0.0142188127584882 0.30329185597315922 0 -0.003161642513542244 0.29251205401540592 0 -0.002820925647400913 0.31420057308133631 0 -0.0073329323374059594 0.27822991602492558 0 -0.003161642513542244 0.29251205401540592 0 -0.01953219342858269 0.28606848027166559 0 -0.0142188127584882 0.30329185597315922 0 -0.003161642513542244 0.29251205401540592 0 -0.01953219342858269 0.28606848027166559 0 -0.0073329323374059594 0.27822991602492558 0 -0.003161642513542244 0.29251205401540592 0 0.0078891299894427221 0.27928127077915732 0 -0.01953219342858269 0.28606848027166559 0 -0.02930361624366427 0.30599856061283648 0 -0.035708686758963562 0.28508918689504542 0 -0.0142188127584882 0.30329185597315922 0 -0.02930361624366427 0.30599856061283648 0 -0.02289854572836502 0.32690793433062759 0 -0.0142188127584882 0.30329185597315922 0 -0.01953219342858269 0.28606848027166559 0 -0.02930361624366427 0.30599856061283648 0 -0.02930361624366427 0.30599856061283648 0 -0.037460604315599957 0.30535118540497852 0 -0.037064651582191258 0.31620701054070222 0 -0.02930361624366427 0.30599856061283648 0 -0.037460604315599957 0.30535118540497852 0 -0.036642590394646637 0.29647738797954759 0 -0.046831559041897897 0.3027217824868278 0 -0.036642590394646637 0.29647738797954759 0 -0.046831559041897897 0.3027217824868278 0 -0.036642590394646637 0.29647738797954759 0 -0.045148694224413477 0.29531602178332678 0 -0.037460604315599957 0.30535118540497852 0 -0.046831559041897897 0.3027217824868278 0 -0.036642590394646637 0.29647738797954759 0 -0.046831559041897897 0.3027217824868278 0 -0.037064651582191258 0.31620701054070222 0 -0.037460604315599957 0.30535118540497852 0 -0.046831559041897897 0.3027217824868278 0 -0.037064651582191258 0.31620701054070222 0 -0.02930361624366427 0.30599856061283648 0 -0.035708686758963562 0.28508918689504542 0 -0.036642590394646637 0.29647738797954759 0 -0.02930361624366427 0.30599856061283648 0 -0.035708686758963562 0.28508918689504542 0 -0.036642590394646637 0.29647738797954759 0 -0.045148694224413477 0.29531602178332678 0 -0.04526552572654436 0.28729097501863909 0 -0.035708686758963562 0.28508918689504542 0 -0.036642590394646637 0.29647738797954759 0 -0.04526552572654436 0.28729097501863909 0 -0.067988813354852337 0.30380464074117042 0 -0.052502070743543329 0.29489247276987512 0 -0.055051285314561091 0.28399222695921139 0 -0.067988813354852337 0.30380464074117042 0 -0.055051285314561091 0.28399222695921139 0 -0.04526552572654436 0.28729097501863909 0 -0.052502070743543329 0.29489247276987512 0 -0.055051285314561091 0.28399222695921139 0 -0.045148694224413477 0.29531602178332678 0 -0.04526552572654436 0.28729097501863909 0 -0.052502070743543329 0.29489247276987512 0 -0.067988813354852337 0.30380464074117042 0 -0.046831559041897897 0.3027217824868278 0 -0.052502070743543329 0.29489247276987512 0 -0.067988813354852337 0.30380464074117042 0 -0.046831559041897897 0.3027217824868278 0 -0.063878950218518776 0.3131694185049812 0 -0.046831559041897897 0.3027217824868278 0 -0.063878950218518776 0.3131694185049812 0 -0.046831559041897897 0.3027217824868278 0 -0.052502070743543329 0.29489247276987512 0 -0.046831559041897897 0.3027217824868278 0 -0.045148694224413477 0.29531602178332678 0 -0.052502070743543329 0.29489247276987512 0 -0.050844584415351488 0.32473075881601021 0 -0.063396811022615754 0.32894303628857419 0 -0.063878950218518776 0.3131694185049812 0 -0.046831559041897897 0.3027217824868278 0 -0.050844584415351488 0.32473075881601021 0 -0.063878950218518776 0.3131694185049812 0 -0.050844584415351488 0.32473075881601021 0 -0.047968228110024408 0.34277483036432482 0 -0.063396811022615754 0.32894303628857419 0 -0.047968228110024408 0.34277483036432482 0 -0.073365950974040417 0.34042311923442542 0 -0.063396811022615754 0.32894303628857419 0 -0.047968228110024408 0.34277483036432482 0 -0.02729774412248441 0.3296922385945763 0 -0.047968228110024408 0.34277483036432482 0 -0.032296107485402389 0.34366680441527592 0 -0.02729774412248441 0.3296922385945763 0 -0.050844584415351488 0.32473075881601021 0 -0.047968228110024408 0.34277483036432482 0 -0.02729774412248441 0.3296922385945763 0 -0.050844584415351488 0.32473075881601021 0 -0.037064651582191258 0.31620701054070222 0 -0.02729774412248441 0.3296922385945763 0 -0.046831559041897897 0.3027217824868278 0 -0.050844584415351488 0.32473075881601021 0 -0.037064651582191258 0.31620701054070222 0 -0.037064651582191258 0.31620701054070222 0 -0.02729774412248441 0.3296922385945763 0 -0.02930361624366427 0.30599856061283648 0 -0.037064651582191258 0.31620701054070222 0 -0.02289854572836502 0.32690793433062759 0 -0.02930361624366427 0.30599856061283648 0 -0.02289854572836502 0.32690793433062759 0 -0.037064651582191258 0.31620701054070222 0 -0.02289854572836502 0.32690793433062759 0 -0.02729774412248441 0.3296922385945763 0 -0.02289854572836502 0.32690793433062759 0 -0.01819617978486238 0.3422588233857391 0 -0.0066708691825740256 0.33033265757659869 0 -0.02289854572836502 0.32690793433062759 0 -0.02729774412248441 0.3296922385945763 0 -0.032296107485402389 0.34366680441527592 0 -0.02729774412248441 0.3296922385945763 0 -0.01819617978486238 0.3422588233857391 0 -0.02729774412248441 0.3296922385945763 0 -0.01819617978486238 0.3422588233857391 0 -0.02289854572836502 0.32690793433062759 0 -0.02729774412248441 0.3296922385945763 0 -0.01819617978486238 0.3422588233857391 0 -0.02289854572836502 0.32690793433062759 0 -0.01819617978486238 0.3422588233857391 0 -0.01819617978486238 0.3422588233857391 0 -0.0066708691825740256 0.33033265757659869 0 0.0083827452715723623 0.33858168042759013 0 -0.0142188127584882 0.30329185597315922 0 -0.02289854572836502 0.32690793433062759 0 -0.002820925647400913 0.31420057308133631 0 -0.0066708691825740256 0.33033265757659869 0 -0.002820925647400913 0.31420057308133631 0 0.0083827452715723623 0.33858168042759013 0 -0.02289854572836502 0.32690793433062759 0 -0.0066708691825740256 0.33033265757659869 0 -0.002820925647400913 0.31420057308133631 0 -0.02289854572836502 0.32690793433062759 0 -0.002820925647400913 0.31420057308133631 0 -0.003399697681602355 0.36268841549365338 0 -0.01032423060886202 0.36795682730548862 0 0.01139678442165828 0.38311800760156722 0 -0.01819617978486238 0.3422588233857391 0 -0.003399697681602355 0.36268841549365338 0 0.0083827452715723623 0.33858168042759013 0 -0.01819617978486238 0.3422588233857391 0 -0.003399697681602355 0.36268841549365338 0 -0.01032423060886202 0.36795682730548862 0 -0.01819617978486238 0.3422588233857391 0 -0.01032423060886202 0.36795682730548862 0 -0.01819617978486238 0.3422588233857391 0 -0.003399697681602355 0.36268841549365338 0 -0.01819617978486238 0.3422588233857391 0 -0.01032423060886202 0.36795682730548862 0 -0.032765728004656658 0.36077653547085059 0 -0.032296107485402389 0.34366680441527592 0 -0.01819617978486238 0.3422588233857391 0 -0.032765728004656658 0.36077653547085059 0 -0.01032423060886202 0.36795682730548862 0 -0.032765728004656658 0.36077653547085059 0 -0.02269455847084376 0.38373775321906961 0 -0.032765728004656658 0.36077653547085059 0 -0.052031538835030491 0.36674570023988001 0 -0.043868983990065211 0.38748182497406808 0 -0.047968228110024408 0.34277483036432482 0 -0.032765728004656658 0.36077653547085059 0 -0.052031538835030491 0.36674570023988001 0 -0.047968228110024408 0.34277483036432482 0 -0.032296107485402389 0.34366680441527592 0 -0.032765728004656658 0.36077653547085059 0 -0.047968228110024408 0.34277483036432482 0 -0.052031538835030491 0.36674570023988001 0 -0.068638712097564364 0.35585742213407318 0 -0.047968228110024408 0.34277483036432482 0 -0.068638712097564364 0.35585742213407318 0 -0.052031538835030491 0.36674570023988001 0 -0.068638712097564364 0.35585742213407318 0 -0.068962739959935321 0.38378434386998611 0 -0.089309196085104278 0.36894001390382158 0 -0.068638712097564364 0.35585742213407318 0 -0.068962739959935321 0.38378434386998611 0 -0.089309196085104278 0.36894001390382158 0 -0.068638712097564364 0.35585742213407318 0 -0.089309196085104278 0.36894001390382158 0 -0.084585918083891473 0.35183254164107503 0 -0.1002425089640597 0.3543268391947737 0 -0.084585918083891473 0.35183254164107503 0 -0.091373222298688606 0.33961531373828152 0 -0.1002425089640597 0.3543268391947737 0 -0.084585918083891473 0.35183254164107503 0 -0.073365950974040417 0.34042311923442542 0 -0.091373222298688606 0.33961531373828152 0 -0.089309196085104278 0.36894001390382158 0 -0.084585918083891473 0.35183254164107503 0 -0.068638712097564364 0.35585742213407318 0 -0.047968228110024408 0.34277483036432482 0 -0.068638712097564364 0.35585742213407318 0 -0.073365950974040417 0.34042311923442542 0 -0.084585918083891473 0.35183254164107503 0 -0.068638712097564364 0.35585742213407318 0 -0.073365950974040417 0.34042311923442542 0 -0.073365950974040417 0.34042311923442542 0 -0.063396811022615754 0.32894303628857419 0 -0.080926341395142348 0.32361705452313022 0 -0.063878950218518776 0.3131694185049812 0 -0.080926341395142348 0.32361705452313022 0 -0.067988813354852337 0.30380464074117042 0 -0.063878950218518776 0.3131694185049812 0 -0.080926341395142348 0.32361705452313022 0 -0.063396811022615754 0.32894303628857419 0 -0.063878950218518776 0.3131694185049812 0 -0.080926341395142348 0.32361705452313022 0 -0.067988813354852337 0.30380464074117042 0 -0.080926341395142348 0.32361705452313022 0 -0.088640237663952196 0.30495880632368411 0 -0.080926341395142348 0.32361705452313022 0 -0.093580618363836382 0.32089701290251388 0 -0.080926341395142348 0.32361705452313022 0 -0.093580618363836382 0.32089701290251388 0 -0.096900918074799738 0.33340720721945571 0 -0.080926341395142348 0.32361705452313022 0 -0.091373222298688606 0.33961531373828152 0 -0.080926341395142348 0.32361705452313022 0 -0.091373222298688606 0.33961531373828152 0 -0.096900918074799738 0.33340720721945571 0 -0.073365950974040417 0.34042311923442542 0 -0.080926341395142348 0.32361705452313022 0 -0.091373222298688606 0.33961531373828152 0 -0.080926341395142348 0.32361705452313022 0 -0.096900918074799738 0.33340720721945571 0 -0.096900918074799738 0.33340720721945571 0 -0.1080479211973208 0.33219653979996372 0 -0.1128754947544581 0.34319735991577988 0 -0.096900918074799738 0.33340720721945571 0 -0.1018027654389369 0.34333679273061157 0 -0.1128754947544581 0.34319735991577988 0 -0.096900918074799738 0.33340720721945571 0 -0.1128754947544581 0.34319735991577988 0 -0.091373222298688606 0.33961531373828152 0 -0.096900918074799738 0.33340720721945571 0 -0.1018027654389369 0.34333679273061157 0 -0.096900918074799738 0.33340720721945571 0 -0.1080479211973208 0.33219653979996372 0 -0.1012629941192139 0.32689724753389859 0 -0.10413655876453259 0.30846989537525549 0 -0.093580618363836382 0.32089701290251388 0 -0.10652251884089881 0.32108823021366117 0 -0.093580618363836382 0.32089701290251388 0 -0.096900918074799738 0.33340720721945571 0 -0.1012629941192139 0.32689724753389859 0 -0.093580618363836382 0.32089701290251388 0 -0.1012629941192139 0.32689724753389859 0 -0.10652251884089881 0.32108823021366117 0 -0.1080479211973208 0.33219653979996372 0 -0.1012629941192139 0.32689724753389859 0 -0.10652251884089881 0.32108823021366117 0 -0.13530753776955651 0.32415675723462772 0 -0.1184565372455936 0.31652155365761131 0 -0.1191086525298934 0.33035762256344592 0 -0.10413655876453259 0.30846989537525549 0 -0.10652251884089881 0.32108823021366117 0 -0.1184565372455936 0.31652155365761131 0 -0.10652251884089881 0.32108823021366117 0 -0.1184565372455936 0.31652155365761131 0 -0.1191086525298934 0.33035762256344592 0 -0.1080479211973208 0.33219653979996372 0 -0.10652251884089881 0.32108823021366117 0 -0.1191086525298934 0.33035762256344592 0 -0.12572410180941981 0.34963076065832199 0 -0.1128754947544581 0.34319735991577988 0 -0.1191086525298934 0.33035762256344592 0 -0.1080479211973208 0.33219653979996372 0 -0.1128754947544581 0.34319735991577988 0 -0.1191086525298934 0.33035762256344592 0 -0.12572410180941981 0.34963076065832199 0 -0.1128754947544581 0.34319735991577988 0 -0.1149012786884252 0.358513919466876 0 -0.12778840706602579 0.36781072392163289 0 -0.12572410180941981 0.34963076065832199 0 -0.1149012786884252 0.358513919466876 0 -0.12778840706602579 0.36781072392163289 0 -0.1072342684164415 0.37307573611857109 0 -0.1189431396241486 0.38137907992927289 0 -0.12778840706602579 0.36781072392163289 0 -0.1149012786884252 0.358513919466876 0 -0.1072342684164415 0.37307573611857109 0 -0.1149012786884252 0.358513919466876 0 -0.1072342684164415 0.37307573611857109 0 -0.1002425089640597 0.3543268391947737 0 -0.089309196085104278 0.36894001390382158 0 -0.1072342684164415 0.37307573611857109 0 -0.1002425089640597 0.3543268391947737 0 -0.091373222298688606 0.33961531373828152 0 -0.1018027654389369 0.34333679273061157 0 -0.1002425089640597 0.3543268391947737 0 -0.1018027654389369 0.34333679273061157 0 -0.1128754947544581 0.34319735991577988 0 -0.1002425089640597 0.3543268391947737 0 -0.1128754947544581 0.34319735991577988 0 -0.1149012786884252 0.358513919466876 0 -0.1002425089640597 0.3543268391947737 0 -0.09591840087266594 0.4050512078453995 0 -0.10621323026371859 0.38980038355359292 0 -0.089004060099888718 0.38730953177770999 0 -0.1091184014002428 0.40258419368967191 0 -0.09591840087266594 0.4050512078453995 0 -0.10621323026371859 0.38980038355359292 0 -0.1091184014002428 0.40258419368967191 0 -0.09591840087266594 0.4050512078453995 0 -0.1067015764193462 0.41106201516446111 0 -0.089309196085104278 0.36894001390382158 0 -0.1072342684164415 0.37307573611857109 0 -0.089004060099888718 0.38730953177770999 0 -0.1072342684164415 0.37307573611857109 0 -0.10621323026371859 0.38980038355359292 0 -0.089004060099888718 0.38730953177770999 0 -0.10621323026371859 0.38980038355359292 0 -0.1189431396241486 0.38137907992927289 0 -0.11909644950688909 0.39311581435726201 0 -0.1072342684164415 0.37307573611857109 0 -0.10621323026371859 0.38980038355359292 0 -0.1189431396241486 0.38137907992927289 0 -0.13089395621840871 0.38501346246298868 0 -0.1189431396241486 0.38137907992927289 0 -0.11909644950688909 0.39311581435726201 0 -0.11909644950688909 0.39311581435726201 0 -0.1175753250254688 0.41349713928097842 0 -0.13089395621840871 0.38501346246298868 0 -0.11909644950688909 0.39311581435726201 0 -0.120739346354633 0.40370651614798342 0 -0.11909644950688909 0.39311581435726201 0 -0.120739346354633 0.40370651614798342 0 -0.1175753250254688 0.41349713928097842 0 -0.1091184014002428 0.40258419368967191 0 -0.11909644950688909 0.39311581435726201 0 -0.1175753250254688 0.41349713928097842 0 -0.1091184014002428 0.40258419368967191 0 -0.10621323026371859 0.38980038355359292 0 -0.11909644950688909 0.39311581435726201 0 -0.13241684392246411 0.41001427117317341 0 -0.120739346354633 0.40370651614798342 0 -0.1175753250254688 0.41349713928097842 0 -0.1091184014002428 0.40258419368967191 0 -0.1175753250254688 0.41349713928097842 0 -0.1067015764193462 0.41106201516446111 0 -0.13135893169703641 0.42531252296666872 0 -0.1175753250254688 0.41349713928097842 0 -0.11605420054404859 0.43387846420469489 0 -0.1175753250254688 0.41349713928097842 0 -0.11605420054404859 0.43387846420469489 0 -0.10241387676179931 0.42116464503321832 0 -0.1175753250254688 0.41349713928097842 0 -0.11605420054404859 0.43387846420469489 0 -0.11605420054404859 0.43387846420469489 0 -0.1024073030174379 0.43241020108043182 0 -0.1003148340638446 0.44181125590795017 0 -0.11605420054404859 0.43387846420469489 0 -0.1024073030174379 0.43241020108043182 0 -0.10241387676179931 0.42116464503321832 0 -0.1024073030174379 0.43241020108043182 0 -0.10241387676179931 0.42116464503321832 0 -0.090846300700059307 0.43278643917586379 0 -0.1024073030174379 0.43241020108043182 0 -0.090846300700059307 0.43278643917586379 0 -0.1003148340638446 0.44181125590795017 0 -0.09591840087266594 0.4050512078453995 0 -0.10241387676179931 0.42116464503321832 0 -0.086257420392557987 0.41856462234518282 0 -0.09591840087266594 0.4050512078453995 0 -0.1067015764193462 0.41106201516446111 0 -0.10241387676179931 0.42116464503321832 0 -0.1175753250254688 0.41349713928097842 0 -0.1067015764193462 0.41106201516446111 0 -0.10241387676179931 0.42116464503321832 0 -0.09591840087266594 0.4050512078453995 0 -0.086257420392557987 0.41856462234518282 0 -0.073980733804385884 0.40765896222263442 0 -0.090846300700059307 0.43278643917586379 0 -0.069982532957214405 0.43168319979336989 0 -0.084555202516265471 0.44543723887611331 0 -0.086257420392557987 0.41856462234518282 0 -0.090846300700059307 0.43278643917586379 0 -0.069982532957214405 0.43168319979336989 0 -0.10241387676179931 0.42116464503321832 0 -0.086257420392557987 0.41856462234518282 0 -0.090846300700059307 0.43278643917586379 0 -0.086257420392557987 0.41856462234518282 0 -0.069982532957214405 0.43168319979336989 0 -0.073980733804385884 0.40765896222263442 0 -0.069982532957214405 0.43168319979336989 0 -0.073980733804385884 0.40765896222263442 0 -0.047022600273925241 0.41539150058950758 0 -0.073980733804385884 0.40765896222263442 0 -0.068962739959935321 0.38378434386998611 0 -0.058458764507077911 0.39857915791404908 0 -0.073980733804385884 0.40765896222263442 0 -0.089004060099888718 0.38730953177770999 0 -0.068962739959935321 0.38378434386998611 0 -0.09591840087266594 0.4050512078453995 0 -0.073980733804385884 0.40765896222263442 0 -0.089004060099888718 0.38730953177770999 0 -0.089309196085104278 0.36894001390382158 0 -0.089004060099888718 0.38730953177770999 0 -0.068962739959935321 0.38378434386998611 0 -0.068962739959935321 0.38378434386998611 0 -0.058458764507077911 0.39857915791404908 0 -0.043868983990065211 0.38748182497406808 0 -0.052031538835030491 0.36674570023988001 0 -0.068962739959935321 0.38378434386998611 0 -0.043868983990065211 0.38748182497406808 0 -0.058458764507077911 0.39857915791404908 0 -0.043868983990065211 0.38748182497406808 0 -0.047022600273925241 0.41539150058950758 0 -0.043868983990065211 0.38748182497406808 0 -0.02337971403013453 0.40602515072475948 0 -0.047022600273925241 0.41539150058950758 0 -0.032765728004656658 0.36077653547085059 0 -0.043868983990065211 0.38748182497406808 0 -0.02269455847084376 0.38373775321906961 0 -0.043868983990065211 0.38748182497406808 0 -0.02269455847084376 0.38373775321906961 0 -0.02337971403013453 0.40602515072475948 0 -0.02269455847084376 0.38373775321906961 0 -0.02337971403013453 0.40602515072475948 0 -0.0024522814328623438 0.39365483122523831 0 -0.02337971403013453 0.40602515072475948 0 -0.0024522814328623438 0.39365483122523831 0 -0.009543481972050084 0.41232159550444369 0 -0.01032423060886202 0.36795682730548862 0 -0.02269455847084376 0.38373775321906961 0 -0.0024522814328623438 0.39365483122523831 0 -0.01032423060886202 0.36795682730548862 0 -0.0024522814328623438 0.39365483122523831 0 0.01139678442165828 0.38311800760156722 0 -0.01032423060886202 0.36795682730548862 0 -0.0024522814328623438 0.39365483122523831 0 -0.017761600168340809 0.43025356492278871 0 0.0054196677431368467 0.41935283514498828 0 0.0098739943498266682 0.43389399897103781 0 -0.017761600168340809 0.43025356492278871 0 0.0054196677431368467 0.41935283514498828 0 -0.017761600168340809 0.43025356492278871 0 -0.0059189913490451966 0.44691037536877021 0 0.0098739943498266682 0.43389399897103781 0 -0.009543481972050084 0.41232159550444369 0 -0.017761600168340809 0.43025356492278871 0 0.0054196677431368467 0.41935283514498828 0 -0.0024522814328623438 0.39365483122523831 0 -0.009543481972050084 0.41232159550444369 0 0.0054196677431368467 0.41935283514498828 0 -0.02337971403013453 0.40602515072475948 0 -0.009543481972050084 0.41232159550444369 0 -0.017761600168340809 0.43025356492278871 0 -0.02337971403013453 0.40602515072475948 0 -0.017761600168340809 0.43025356492278871 0 -0.047022600273925241 0.41539150058950758 0 -0.017761600168340809 0.43025356492278871 0 -0.040942868079816917 0.44115429470059242 0 -0.017761600168340809 0.43025356492278871 0 -0.047022600273925241 0.41539150058950758 0 -0.040942868079816917 0.44115429470059242 0 -0.073980733804385884 0.40765896222263442 0 -0.058458764507077911 0.39857915791404908 0 -0.047022600273925241 0.41539150058950758 0 -0.069982532957214405 0.43168319979336989 0 -0.047022600273925241 0.41539150058950758 0 -0.040942868079816917 0.44115429470059242 0 -0.040942868079816917 0.44115429470059242 0 -0.064124135991293005 0.45205502447839607 0 -0.069982532957214405 0.43168319979336989 0 -0.040942868079816917 0.44115429470059242 0 -0.064124135991293005 0.45205502447839607 0 -0.051175913830938752 0.46848730854460419 0 -0.040942868079816917 0.44115429470059242 0 -0.064124135991293005 0.45205502447839607 0 -0.051175913830938752 0.46848730854460419 0 -0.040942868079816917 0.44115429470059242 0 -0.029368829992656571 0.45841738521276232 0 -0.017761600168340809 0.43025356492278871 0 -0.029368829992656571 0.45841738521276232 0 -0.0059189913490451966 0.44691037536877021 0 -0.017761600168340809 0.43025356492278871 0 -0.040942868079816917 0.44115429470059242 0 -0.029368829992656571 0.45841738521276232 0 -0.010319240548168211 0.46562344186472371 0 -0.0059189913490451966 0.44691037536877021 0 0.014328320956513809 0.44843516279708823 0 -0.029368829992656571 0.45841738521276232 0 -0.010319240548168211 0.46562344186472371 0 -0.0059189913490451966 0.44691037536877021 0 -0.0069872165174788003 0.5 0 -0.016694067370829051 0.48647961447722338 0 0.0021037123018497828 0.48396290958902749 0 -0.010319240548168211 0.46562344186472371 0 -0.016694067370829051 0.48647961447722338 0 0.0021037123018497828 0.48396290958902749 0 -0.029368829992656571 0.45841738521276232 0 -0.010319240548168211 0.46562344186472371 0 -0.034966802052845872 0.48281172093236541 0 -0.010319240548168211 0.46562344186472371 0 -0.034966802052845872 0.48281172093236541 0 -0.010319240548168211 0.46562344186472371 0 -0.016694067370829051 0.48647961447722338 0 -0.034966802052845872 0.48281172093236541 0 -0.0069872165174788003 0.5 0 -0.016694067370829051 0.48647961447722338 0 -0.033300790037502193 0.5 0 -0.016694067370829051 0.48647961447722338 0 -0.033300790037502193 0.5 0 -0.034966802052845872 0.48281172093236541 0 -0.051175913830938752 0.46848730854460419 0 -0.034966802052845872 0.48281172093236541 0 -0.059614363557525467 0.50000000000000422 0 -0.051175913830938752 0.46848730854460419 0 -0.059614363557525467 0.50000000000000422 0 -0.066774951914752356 0.47984892281472852 0 -0.033300790037502193 0.5 0 -0.034966802052845872 0.48281172093236541 0 -0.059614363557525467 0.50000000000000422 0 -0.051175913830938752 0.46848730854460419 0 -0.029368829992656571 0.45841738521276232 0 -0.034966802052845872 0.48281172093236541 0 -0.034966802052845872 0.48281172093236541 0 -0.059614363557525467 0.50000000000000422 0 -0.059614363557525467 0.50000000000000422 0 -0.078838092921572289 0.48196016947344661 0 -0.066774951914752356 0.47984892281472852 0 -0.059614363557525467 0.50000000000000422 0 -0.085366849555014945 0.5 0 -0.078838092921572289 0.48196016947344661 0 -0.085366849555014945 0.5 0 -0.090837211724945591 0.48277151442326649 0 -0.078838092921572289 0.48196016947344661 0 -0.085366849555014945 0.5 0 -0.090837211724945591 0.48277151442326649 0 -0.1031905111707445 0.48154385887336509 0 -0.089401565748380873 0.47416635216594138 0 -0.083039873058812386 0.47194369688605442 0 -0.087305403902769099 0.46295575425619978 0 -0.089401565748380873 0.47416635216594138 0 -0.087305403902769099 0.46295575425619978 0 -0.097363018316382791 0.47164812979546328 0 -0.089401565748380873 0.47416635216594138 0 -0.090837211724945591 0.48277151442326649 0 -0.096568775283140118 0.4772240054055612 0 -0.089401565748380873 0.47416635216594138 0 -0.090837211724945591 0.48277151442326649 0 -0.078838092921572289 0.48196016947344661 0 -0.078838092921572289 0.48196016947344661 0 -0.083039873058812386 0.47194369688605442 0 -0.076614429662527309 0.46869251164862957 0 -0.089401565748380873 0.47416635216594138 0 -0.078838092921572289 0.48196016947344661 0 -0.083039873058812386 0.47194369688605442 0 -0.051175913830938752 0.46848730854460419 0 -0.066774951914752356 0.47984892281472852 0 -0.076614429662527309 0.46869251164862957 0 -0.078838092921572289 0.48196016947344661 0 -0.066774951914752356 0.47984892281472852 0 -0.076614429662527309 0.46869251164862957 0 -0.076614429662527309 0.46869251164862957 0 -0.064124135991293005 0.45205502447839607 0 -0.087305403902769099 0.46295575425619978 0 -0.051175913830938752 0.46848730854460419 0 -0.076614429662527309 0.46869251164862957 0 -0.064124135991293005 0.45205502447839607 0 -0.064124135991293005 0.45205502447839607 0 -0.087305403902769099 0.46295575425619978 0 -0.069982532957214405 0.43168319979336989 0 -0.064124135991293005 0.45205502447839607 0 -0.084555202516265471 0.44543723887611331 0 -0.064124135991293005 0.45205502447839607 0 -0.084555202516265471 0.44543723887611331 0 -0.088825621590645859 0.45955923190168041 0 -0.090846300700059307 0.43278643917586379 0 -0.084555202516265471 0.44543723887611331 0 -0.1003148340638446 0.44181125590795017 0 -0.084555202516265471 0.44543723887611331 0 -0.088825621590645859 0.45955923190168041 0 -0.097057183558346069 0.45026687895353878 0 -0.064124135991293005 0.45205502447839607 0 -0.088825621590645859 0.45955923190168041 0 -0.087305403902769099 0.46295575425619978 0 -0.083039873058812386 0.47194369688605442 0 -0.076614429662527309 0.46869251164862957 0 -0.087305403902769099 0.46295575425619978 0 -0.088825621590645859 0.45955923190168041 0 -0.087305403902769099 0.46295575425619978 0 -0.094796195628187974 0.46304369979160159 0 -0.087305403902769099 0.46295575425619978 0 -0.1104866718142453 0.4738564840340036 0 -0.099789957619954725 0.46650512775242697 0 -0.114533076062628 0.45425978912841131 0 -0.1104866718142453 0.4738564840340036 0 -0.087305403902769099 0.46295575425619978 0 -0.099789957619954725 0.46650512775242697 0 -0.1104866718142453 0.4738564840340036 0 -0.088825621590645859 0.45955923190168041 0 -0.097057183558346069 0.45026687895353878 0 -0.114533076062628 0.45425978912841131 0 -0.099789957619954725 0.46650512775242697 0 -0.094796195628187974 0.46304369979160159 0 -0.114533076062628 0.45425978912841131 0 -0.088825621590645859 0.45955923190168041 0 -0.094796195628187974 0.46304369979160159 0 -0.114533076062628 0.45425978912841131 0 -0.088825621590645859 0.45955923190168041 0 -0.114533076062628 0.45425978912841131 0 -0.087305403902769099 0.46295575425619978 0 -0.099789957619954725 0.46650512775242697 0 -0.094796195628187974 0.46304369979160159 0 -0.084555202516265471 0.44543723887611331 0 -0.1003148340638446 0.44181125590795017 0 -0.097057183558346069 0.45026687895353878 0 -0.1003148340638446 0.44181125590795017 0 -0.097057183558346069 0.45026687895353878 0 -0.114533076062628 0.45425978912841131 0 -0.1410241285243248 0.44879881217024958 0 -0.11605420054404859 0.43387846420469489 0 -0.114533076062628 0.45425978912841131 0 -0.11605420054404859 0.43387846420469489 0 -0.1003148340638446 0.44181125590795017 0 -0.114533076062628 0.45425978912841131 0 -0.11605420054404859 0.43387846420469489 0 -0.114533076062628 0.45425978912841131 0 -0.114533076062628 0.45425978912841131 0 -0.1104866718142453 0.4738564840340036 0 -0.1128262058075663 0.47712989456420413 0 -0.114533076062628 0.45425978912841131 0 -0.1128262058075663 0.47712989456420413 0 -0.12950909063783239 0.46136463384155202 0 -0.114533076062628 0.45425978912841131 0 -0.1128262058075663 0.47712989456420413 0 -0.13658493448725709 0.4741720690565609 0 -0.1128262058075663 0.47712989456420413 0 -0.12486760291151711 0.48782549090519051 0 -0.1128262058075663 0.47712989456420413 0 -0.12486760291151711 0.48782549090519051 0 -0.1111193355525044 0.49999999999999689 0 -0.1128262058075663 0.47712989456420413 0 -0.1111193355525044 0.49999999999999689 0 -0.13893993579874081 0.5 0 -0.12486760291151711 0.48782549090519051 0 -0.1111193355525044 0.49999999999999689 0 -0.085366849555014945 0.5 0 -0.1111193355525044 0.49999999999999689 0 -0.1031905111707445 0.48154385887336509 0 -0.1128262058075663 0.47712989456420413 0 -0.1111193355525044 0.49999999999999689 0 -0.1031905111707445 0.48154385887336509 0 -0.090837211724945591 0.48277151442326649 0 -0.096568775283140118 0.4772240054055612 0 -0.1031905111707445 0.48154385887336509 0 -0.087305403902769099 0.46295575425619978 0 -0.1104866718142453 0.4738564840340036 0 -0.097363018316382791 0.47164812979546328 0 -0.096568775283140118 0.4772240054055612 0 -0.10205156945524679 0.47599017176976932 0 -0.1031905111707445 0.48154385887336509 0 -0.089401565748380873 0.47416635216594138 0 -0.096568775283140118 0.4772240054055612 0 -0.097363018316382791 0.47164812979546328 0 -0.096568775283140118 0.4772240054055612 0 -0.097363018316382791 0.47164812979546328 0 -0.10205156945524679 0.47599017176976932 0 -0.1104866718142453 0.4738564840340036 0 -0.097363018316382791 0.47164812979546328 0 -0.10205156945524679 0.47599017176976932 0 -0.1104866718142453 0.4738564840340036 0 -0.10205156945524679 0.47599017176976932 0 -0.1031905111707445 0.48154385887336509 0 -0.1104866718142453 0.4738564840340036 0 -0.1128262058075663 0.47712989456420413 0 -0.1031905111707445 0.48154385887336509 0 -0.16369569718877569 0.088380260452922882 0 -0.17746861043296519 0.064189363737405608 0 -0.15430550330685461 0.064325027355095585 0 -0.17746861043296519 0.064189363737405608 0 -0.1829762999788985 0.0847955441979312 0 -0.20109787098036569 0.077298844989742072 0 -0.16369569718877569 0.088380260452922882 0 -0.1829762999788985 0.0847955441979312 0 -0.17707671772125741 0.1034981312854069 0 -0.16369569718877569 0.088380260452922882 0 -0.17746861043296519 0.064189363737405608 0 -0.1829762999788985 0.0847955441979312 0 -0.1829762999788985 0.0847955441979312 0 -0.17707671772125741 0.1034981312854069 0 -0.19702206639959829 0.1003700655735373 0 -0.16203481118702431 0.11696448850678499 0 -0.1821062093704845 0.1280841327827423 0 -0.17707671772125741 0.1034981312854069 0 -0.19702206639959829 0.1003700655735373 0 -0.1821062093704845 0.1280841327827423 0 -0.17707671772125741 0.1034981312854069 0 -0.16203481118702431 0.11696448850678499 0 -0.1821062093704845 0.1280841327827423 0 -0.16369569718877569 0.088380260452922882 0 -0.17707671772125741 0.1034981312854069 0 -0.16203481118702431 0.11696448850678499 0 -0.16369569718877569 0.088380260452922882 0 -0.16203481118702431 0.11696448850678499 0 -0.14452805981501071 0.10285429671470681 0 -0.14452805981501071 0.10285429671470681 0 -0.1475114603071154 0.12407848479939949 0 -0.1328379497467283 0.11360837612822811 0 -0.16203481118702431 0.11696448850678499 0 -0.14452805981501071 0.10285429671470681 0 -0.1475114603071154 0.12407848479939949 0 -0.1475114603071154 0.12407848479939949 0 -0.1328379497467283 0.11360837612822811 0 -0.13296141461048341 0.1325899882640679 0 -0.1328379497467283 0.11360837612822811 0 -0.13296141461048341 0.1325899882640679 0 -0.1180008709843651 0.120139897032757 0 -0.14452805981501071 0.10285429671470681 0 -0.1328379497467283 0.11360837612822811 0 -0.1226446117569864 0.096817057281193941 0 -0.14452805981501071 0.10285429671470681 0 -0.1381557993672439 0.077153108590418212 0 -0.1226446117569864 0.096817057281193941 0 -0.1381557993672439 0.077153108590418212 0 -0.1191496686604165 0.076198709000374648 0 -0.1226446117569864 0.096817057281193941 0 -0.16369569718877569 0.088380260452922882 0 -0.14452805981501071 0.10285429671470681 0 -0.1381557993672439 0.077153108590418212 0 -0.15430550330685461 0.064325027355095585 0 -0.1381557993672439 0.077153108590418212 0 -0.12947265284527409 0.056162465831325399 0 -0.16369569718877569 0.088380260452922882 0 -0.15430550330685461 0.064325027355095585 0 -0.1381557993672439 0.077153108590418212 0 -0.1381557993672439 0.077153108590418212 0 -0.12947265284527409 0.056162465831325399 0 -0.1191496686604165 0.076198709000374648 0 -0.12947265284527409 0.056162465831325399 0 -0.15540060346532339 0.041842173775328631 0 -0.12479563010715181 0.029960724278435699 0 -0.15430550330685461 0.064325027355095585 0 -0.12947265284527409 0.056162465831325399 0 -0.15540060346532339 0.041842173775328631 0 -0.12839483168315949 0.0032512382866605248 0 -0.15116489535107711 0.017536247625611491 0 -0.12479563010715181 0.029960724278435699 0 -0.12839483168315949 0.0032512382866605248 0 -0.12479563010715181 0.029960724278435699 0 -0.15540060346532339 0.041842173775328631 0 -0.15116489535107711 0.017536247625611491 0 -0.12479563010715181 0.029960724278435699 0 -0.15450135822047331 -0.001610050133174211 0 -0.12839483168315949 0.0032512382866605248 0 -0.15116489535107711 0.017536247625611491 0 -0.15450135822047331 -0.001610050133174211 0 -0.15116489535107711 0.017536247625611491 0 -0.17465612102363831 0.0049552152978548118 0 -0.15116489535107711 0.017536247625611491 0 -0.1775765434881465 0.02506079199544849 0 -0.17465612102363831 0.0049552152978548118 0 -0.15540060346532339 0.041842173775328631 0 -0.15116489535107711 0.017536247625611491 0 -0.1775765434881465 0.02506079199544849 0 -0.1775765434881465 0.02506079199544849 0 -0.17465612102363831 0.0049552152978548118 0 -0.19804701718721701 0.01262081618211458 0 -0.17746861043296519 0.064189363737405608 0 -0.15540060346532339 0.041842173775328631 0 -0.18252778875976991 0.042869703217516493 0 -0.17746861043296519 0.064189363737405608 0 -0.15430550330685461 0.064325027355095585 0 -0.15540060346532339 0.041842173775328631 0 -0.15540060346532339 0.041842173775328631 0 -0.1775765434881465 0.02506079199544849 0 -0.18252778875976991 0.042869703217516493 0 -0.17746861043296519 0.064189363737405608 0 -0.18252778875976991 0.042869703217516493 0 -0.20231297005557 0.051057416751340623 0 -0.1775765434881465 0.02506079199544849 0 -0.18252778875976991 0.042869703217516493 0 -0.20400425106496081 0.031272870598342523 0 -0.18252778875976991 0.042869703217516493 0 -0.20231297005557 0.051057416751340623 0 -0.20400425106496081 0.031272870598342523 0 -0.20231297005557 0.051057416751340623 0 -0.20400425106496081 0.031272870598342523 0 -0.2214925002600415 0.03692897934075158 0 -0.20231297005557 0.051057416751340623 0 -0.22526064817467711 0.053909367463529381 0 -0.20109787098036569 0.077298844989742072 0 -0.20231297005557 0.051057416751340623 0 -0.22526064817467711 0.053909367463529381 0 -0.2214925002600415 0.03692897934075158 0 -0.19511981502586639 -0.0092261396848500928 0 -0.19804701718721701 0.01262081618211458 0 -0.21434551636442331 0.003296708171382477 0 -0.19511981502586639 -0.0092261396848500928 0 -0.17465612102363831 0.0049552152978548118 0 -0.19804701718721701 0.01262081618211458 0 -0.1775765434881465 0.02506079199544849 0 -0.20400425106496081 0.031272870598342523 0 -0.19804701718721701 0.01262081618211458 0 -0.20400425106496081 0.031272870598342523 0 -0.2183908394931858 0.020688006200749929 0 -0.2214925002600415 0.03692897934075158 0 -0.20400425106496081 0.031272870598342523 0 -0.19804701718721701 0.01262081618211458 0 -0.2183908394931858 0.020688006200749929 0 -0.19804701718721701 0.01262081618211458 0 -0.2183908394931858 0.020688006200749929 0 -0.21434551636442331 0.003296708171382477 0 -0.2183908394931858 0.020688006200749929 0 -0.21434551636442331 0.003296708171382477 0 -0.23009814833602471 0.0107853422671099 0 -0.23525551404541989 -0.0058437881859296492 0 -0.21434551636442331 0.003296708171382477 0 -0.23009814833602471 0.0107853422671099 0 -0.2183908394931858 0.020688006200749929 0 -0.23009814833602471 0.0107853422671099 0 -0.2354572083616944 0.024431517118178991 0 -0.2183908394931858 0.020688006200749929 0 -0.2354572083616944 0.024431517118178991 0 -0.2214925002600415 0.03692897934075158 0 -0.25230047812993422 0.029389928005160559 0 -0.2354572083616944 0.024431517118178991 0 -0.240653919666514 0.03821811310960993 0 -0.25230047812993422 0.029389928005160559 0 -0.2354572083616944 0.024431517118178991 0 -0.24871267462756741 0.019211461924962529 0 -0.2354572083616944 0.024431517118178991 0 -0.24871267462756741 0.019211461924962529 0 -0.24416649867175319 0.0093576832284096249 0 -0.2354572083616944 0.024431517118178991 0 -0.24416649867175319 0.0093576832284096249 0 -0.23525551404541989 -0.0058437881859296492 0 -0.23009814833602471 0.0107853422671099 0 -0.24416649867175319 0.0093576832284096249 0 -0.23009814833602471 0.0107853422671099 0 -0.2354572083616944 0.024431517118178991 0 -0.24416649867175319 0.0093576832284096249 0 -0.25545130467109289 0.01215657243201815 0 -0.24871267462756741 0.019211461924962529 0 -0.24416649867175319 0.0093576832284096249 0 -0.25287578898181168 -0.0057161506613598251 0 -0.24416649867175319 0.0093576832284096249 0 -0.22526064817467711 0.053909367463529381 0 -0.2214925002600415 0.03692897934075158 0 -0.240653919666514 0.03821811310960993 0 -0.2354572083616944 0.024431517118178991 0 -0.2214925002600415 0.03692897934075158 0 -0.240653919666514 0.03821811310960993 0 -0.25472996435869488 0.041159460772283628 0 -0.25230047812993422 0.029389928005160559 0 -0.240653919666514 0.03821811310960993 0 -0.25472996435869488 0.041159460772283628 0 -0.240653919666514 0.03821811310960993 0 -0.24851981088750691 0.051999342459804407 0 -0.22526064817467711 0.053909367463529381 0 -0.24851981088750691 0.051999342459804407 0 -0.24067193939498899 0.06819422486430364 0 -0.22526064817467711 0.053909367463529381 0 -0.240653919666514 0.03821811310960993 0 -0.24851981088750691 0.051999342459804407 0 -0.24067193939498899 0.06819422486430364 0 -0.24449326852184169 0.085316800970515722 0 -0.2244884159021022 0.078631440378809231 0 -0.2605975534888173 0.071114173048859516 0 -0.24851981088750691 0.051999342459804407 0 -0.24067193939498899 0.06819422486430364 0 -0.2605975534888173 0.071114173048859516 0 -0.24067193939498899 0.06819422486430364 0 -0.24449326852184169 0.085316800970515722 0 -0.24449326852184169 0.085316800970515722 0 -0.2244884159021022 0.078631440378809231 0 -0.22371618362952719 0.10335351329408909 0 -0.2244884159021022 0.078631440378809231 0 -0.22371618362952719 0.10335351329408909 0 -0.22526064817467711 0.053909367463529381 0 -0.2244884159021022 0.078631440378809231 0 -0.22526064817467711 0.053909367463529381 0 -0.24067193939498899 0.06819422486430364 0 -0.2244884159021022 0.078631440378809231 0 -0.22526064817467711 0.053909367463529381 0 -0.2244884159021022 0.078631440378809231 0 -0.20109787098036569 0.077298844989742072 0 -0.20109787098036569 0.077298844989742072 0 -0.19702206639959829 0.1003700655735373 0 -0.22371618362952719 0.10335351329408909 0 -0.2244884159021022 0.078631440378809231 0 -0.20109787098036569 0.077298844989742072 0 -0.22371618362952719 0.10335351329408909 0 -0.1829762999788985 0.0847955441979312 0 -0.20109787098036569 0.077298844989742072 0 -0.19702206639959829 0.1003700655735373 0 -0.17746861043296519 0.064189363737405608 0 -0.20231297005557 0.051057416751340623 0 -0.20109787098036569 0.077298844989742072 0 -0.19702206639959829 0.1003700655735373 0 -0.2056009323274039 0.11956999120468841 0 -0.1821062093704845 0.1280841327827423 0 -0.19702206639959829 0.1003700655735373 0 -0.22371618362952719 0.10335351329408909 0 -0.19702206639959829 0.1003700655735373 0 -0.2056009323274039 0.11956999120468841 0 -0.22371618362952719 0.10335351329408909 0 -0.2056009323274039 0.11956999120468841 0 -0.22371618362952719 0.10335351329408909 0 -0.22298259468346471 0.12683846731437351 0 -0.22371618362952719 0.10335351329408909 0 -0.22298259468346471 0.12683846731437351 0 -0.22371618362952719 0.10335351329408909 0 -0.237181774833154 0.1174545139127125 0 -0.22298259468346471 0.12683846731437351 0 -0.25221713248247618 0.1065389001775183 0 -0.24449326852184169 0.085316800970515722 0 -0.22371618362952719 0.10335351329408909 0 -0.25221713248247618 0.1065389001775183 0 -0.22371618362952719 0.10335351329408909 0 -0.237181774833154 0.1174545139127125 0 -0.25221713248247618 0.1065389001775183 0 -0.22371618362952719 0.10335351329408909 0 -0.25097225161313158 0.1211644647075064 0 -0.237181774833154 0.1174545139127125 0 -0.24008582364047701 0.13335709933843251 0 -0.25097225161313158 0.1211644647075064 0 -0.25221713248247618 0.1065389001775183 0 -0.237181774833154 0.1174545139127125 0 -0.2617064254417234 0.13412533882024219 0 -0.24008582364047701 0.13335709933843251 0 -0.24813703473676049 0.14800806981713691 0 -0.237181774833154 0.1174545139127125 0 -0.24008582364047701 0.13335709933843251 0 -0.22298259468346471 0.12683846731437351 0 -0.22298259468346471 0.12683846731437351 0 -0.2222490057374045 0.1503234213346579 0 -0.24008582364047701 0.13335709933843251 0 -0.22298259468346471 0.12683846731437351 0 -0.2222490057374045 0.1503234213346579 0 -0.24008582364047701 0.13335709933843251 0 -0.2222490057374045 0.1503234213346579 0 -0.24813703473676049 0.14800806981713691 0 -0.2222490057374045 0.1503234213346579 0 -0.24813703473676049 0.14800806981713691 0 -0.24390239082926071 0.162319493426444 0 -0.2479223765060691 0.1822822784690315 0 -0.23361831060263821 0.18031527062706851 0 -0.2402965196261784 0.19747063957166511 0 -0.24390239082926071 0.162319493426444 0 -0.2479223765060691 0.1822822784690315 0 -0.23361831060263821 0.18031527062706851 0 -0.23361831060263821 0.18031527062706851 0 -0.2216329003319896 0.17004728330862121 0 -0.221016794926577 0.18977114528258451 0 -0.2216329003319896 0.17004728330862121 0 -0.221016794926577 0.18977114528258451 0 -0.2222490057374045 0.1503234213346579 0 -0.24390239082926071 0.162319493426444 0 -0.2216329003319896 0.17004728330862121 0 -0.24390239082926071 0.162319493426444 0 -0.23361831060263821 0.18031527062706851 0 -0.2216329003319896 0.17004728330862121 0 -0.2222490057374045 0.1503234213346579 0 -0.24390239082926071 0.162319493426444 0 -0.2222490057374045 0.1503234213346579 0 -0.2216329003319896 0.17004728330862121 0 -0.2222490057374045 0.1503234213346579 0 -0.2216329003319896 0.17004728330862121 0 -0.20380772990927601 0.1611482766285576 0 -0.2216329003319896 0.17004728330862121 0 -0.20380772990927601 0.1611482766285576 0 -0.20330699402603519 0.18144299556108889 0 -0.2216329003319896 0.17004728330862121 0 -0.20330699402603519 0.18144299556108889 0 -0.221016794926577 0.18977114528258451 0 -0.20380772990927601 0.1611482766285576 0 -0.20330699402603519 0.18144299556108889 0 -0.18494195537186051 0.1764008903415675 0 -0.20330699402603519 0.18144299556108889 0 -0.19528828252690919 0.20227066995258661 0 -0.18494195537186051 0.1764008903415675 0 -0.20380772990927601 0.1611482766285576 0 -0.18853791643442169 0.1494712921667109 0 -0.18494195537186051 0.1764008903415675 0 -0.20380772990927601 0.1611482766285576 0 -0.18853791643442169 0.1494712921667109 0 -0.20217760755394479 0.13920377705869971 0 -0.18853791643442169 0.1494712921667109 0 -0.20217760755394479 0.13920377705869971 0 -0.1821062093704845 0.1280841327827423 0 -0.20217760755394479 0.13920377705869971 0 -0.1821062093704845 0.1280841327827423 0 -0.2056009323274039 0.11956999120468841 0 -0.20217760755394479 0.13920377705869971 0 -0.1821062093704845 0.1280841327827423 0 -0.2056009323274039 0.11956999120468841 0 -0.22298259468346471 0.12683846731437351 0 -0.20217760755394479 0.13920377705869971 0 -0.22298259468346471 0.12683846731437351 0 -0.2222490057374045 0.1503234213346579 0 -0.20217760755394479 0.13920377705869971 0 -0.2222490057374045 0.1503234213346579 0 -0.20217760755394479 0.13920377705869971 0 -0.2222490057374045 0.1503234213346579 0 -0.20380772990927601 0.1611482766285576 0 -0.20217760755394479 0.13920377705869971 0 -0.23470146103004619 0.2576133879202952 0 -0.21992226260849121 0.23678413181489211 0 -0.24073725663843479 0.2441767401728587 0 -0.21992226260849121 0.23678413181489211 0 -0.24073725663843479 0.2441767401728587 0 -0.24058118071880791 0.22977053695574759 0 -0.25234987340265957 0.2440367309260684 0 -0.25055533274392472 0.25134788921301499 0 -0.24073725663843479 0.2441767401728587 0 -0.25234987340265957 0.2440367309260684 0 -0.24073725663843479 0.2441767401728587 0 -0.24058118071880791 0.22977053695574759 0 -0.25675184090881259 0.22079634245678861 0 -0.25234987340265957 0.2440367309260684 0 -0.24058118071880791 0.22977053695574759 0 -0.25675184090881259 0.22079634245678861 0 -0.24058118071880791 0.22977053695574759 0 -0.23116363441915661 0.21536839514028441 0 -0.21992226260849121 0.23678413181489211 0 -0.24058118071880791 0.22977053695574759 0 -0.23116363441915661 0.21536839514028441 0 -0.21992226260849121 0.23678413181489211 0 -0.23116363441915661 0.21536839514028441 0 -0.2118668591035022 0.21567382658577741 0 -0.23116363441915661 0.21536839514028441 0 -0.221016794926577 0.18977114528258451 0 -0.2118668591035022 0.21567382658577741 0 -0.25675184090881259 0.22079634245678861 0 -0.23116363441915661 0.21536839514028441 0 -0.2402965196261784 0.19747063957166511 0 -0.26115380841496549 0.19755595398750869 0 -0.2479223765060691 0.1822822784690315 0 -0.2402965196261784 0.19747063957166511 0 -0.23116363441915661 0.21536839514028441 0 -0.2402965196261784 0.19747063957166511 0 -0.221016794926577 0.18977114528258451 0 -0.23361831060263821 0.18031527062706851 0 -0.2402965196261784 0.19747063957166511 0 -0.221016794926577 0.18977114528258451 0 -0.19528828252690919 0.20227066995258661 0 -0.19194332103637721 0.2341747907385395 0 -0.17613182657849369 0.21272388074241941 0 -0.19528828252690919 0.20227066995258661 0 -0.2118668591035022 0.21567382658577741 0 -0.19194332103637721 0.2341747907385395 0 -0.221016794926577 0.18977114528258451 0 -0.19528828252690919 0.20227066995258661 0 -0.2118668591035022 0.21567382658577741 0 -0.20330699402603519 0.18144299556108889 0 -0.221016794926577 0.18977114528258451 0 -0.19528828252690919 0.20227066995258661 0 -0.21992226260849121 0.23678413181489211 0 -0.2118668591035022 0.21567382658577741 0 -0.19194332103637721 0.2341747907385395 0 -0.21992226260849121 0.23678413181489211 0 -0.19194332103637721 0.2341747907385395 0 -0.20718098390481751 0.25855008801643242 0 -0.21992226260849121 0.23678413181489211 0 -0.19194332103637721 0.2341747907385395 0 -0.17292255148752469 0.26159386925778699 0 -0.16396437946426329 0.2315654496621869 0 -0.14863886251325631 0.24562728203107351 0 -0.17292255148752469 0.26159386925778699 0 -0.19194332103637721 0.2341747907385395 0 -0.16396437946426329 0.2315654496621869 0 -0.19194332103637721 0.2341747907385395 0 -0.16396437946426329 0.2315654496621869 0 -0.19194332103637721 0.2341747907385395 0 -0.16396437946426329 0.2315654496621869 0 -0.17613182657849369 0.21272388074241941 0 -0.16396437946426329 0.2315654496621869 0 -0.17613182657849369 0.21272388074241941 0 -0.1589104449821114 0.19991410561846101 0 -0.19528828252690919 0.20227066995258661 0 -0.17613182657849369 0.21272388074241941 0 -0.17562800285251701 0.19439193146371259 0 -0.19528828252690919 0.20227066995258661 0 -0.17562800285251701 0.19439193146371259 0 -0.18494195537186051 0.1764008903415675 0 -0.17613182657849369 0.21272388074241941 0 -0.17562800285251701 0.19439193146371259 0 -0.1589104449821114 0.19991410561846101 0 -0.17562800285251701 0.19439193146371259 0 -0.1589104449821114 0.19991410561846101 0 -0.16216161373308999 0.17714019822457361 0 -0.16396437946426329 0.2315654496621869 0 -0.1589104449821114 0.19991410561846101 0 -0.13577762800014961 0.2092360662106815 0 -0.1589104449821114 0.19991410561846101 0 -0.14120285849766459 0.18779732807347041 0 -0.16216161373308999 0.17714019822457361 0 -0.1589104449821114 0.19991410561846101 0 -0.14120285849766459 0.18779732807347041 0 -0.13577762800014961 0.2092360662106815 0 -0.14120285849766459 0.18779732807347041 0 -0.13577762800014961 0.2092360662106815 0 -0.12070262147354931 0.19220491940713619 0 -0.16396437946426329 0.2315654496621869 0 -0.13598543789214951 0.2289561085858344 0 -0.16396437946426329 0.2315654496621869 0 -0.13577762800014961 0.2092360662106815 0 -0.13598543789214951 0.2289561085858344 0 -0.13577762800014961 0.2092360662106815 0 -0.13598543789214951 0.2289561085858344 0 -0.10800649632003551 0.22634676750948179 0 -0.122588684227444 0.25205124103256221 0 -0.13598543789214951 0.2289561085858344 0 -0.14863886251325631 0.24562728203107351 0 -0.16396437946426329 0.2315654496621869 0 -0.13598543789214951 0.2289561085858344 0 -0.14863886251325631 0.24562728203107351 0 -0.16568972461197959 0.1371924245629024 0 -0.17213759472836049 0.15786530079389011 0 -0.15544045107719859 0.15496207904294071 0 -0.16203481118702431 0.11696448850678499 0 -0.1475114603071154 0.12407848479939949 0 -0.16568972461197959 0.1371924245629024 0 -0.16203481118702431 0.11696448850678499 0 -0.16568972461197959 0.1371924245629024 0 -0.1821062093704845 0.1280841327827423 0 -0.18853791643442169 0.1494712921667109 0 -0.16568972461197959 0.1371924245629024 0 -0.1821062093704845 0.1280841327827423 0 -0.18853791643442169 0.1494712921667109 0 -0.16568972461197959 0.1371924245629024 0 -0.17213759472836049 0.15786530079389011 0 -0.17213759472836049 0.15786530079389011 0 -0.18494195537186051 0.1764008903415675 0 -0.16216161373308999 0.17714019822457361 0 -0.18853791643442169 0.1494712921667109 0 -0.17213759472836049 0.15786530079389011 0 -0.18494195537186051 0.1764008903415675 0 -0.17562800285251701 0.19439193146371259 0 -0.18494195537186051 0.1764008903415675 0 -0.16216161373308999 0.17714019822457361 0 -0.17213759472836049 0.15786530079389011 0 -0.16216161373308999 0.17714019822457361 0 -0.15544045107719859 0.15496207904294071 0 -0.14661196532705281 0.16847799227484739 0 -0.13600599116682391 0.15176946895837121 0 -0.15544045107719859 0.15496207904294071 0 -0.16216161373308999 0.17714019822457361 0 -0.14661196532705281 0.16847799227484739 0 -0.15544045107719859 0.15496207904294071 0 -0.14120285849766459 0.18779732807347041 0 -0.16216161373308999 0.17714019822457361 0 -0.14661196532705281 0.16847799227484739 0 -0.14120285849766459 0.18779732807347041 0 -0.11859674352584849 0.1699747464843353 0 -0.12070262147354931 0.19220491940713619 0 -0.14120285849766459 0.18779732807347041 0 -0.14661196532705281 0.16847799227484739 0 -0.11859674352584849 0.1699747464843353 0 -0.14661196532705281 0.16847799227484739 0 -0.13600599116682391 0.15176946895837121 0 -0.11859674352584849 0.1699747464843353 0 -0.13600599116682391 0.15176946895837121 0 -0.14701680187146629 0.14126133461970711 0 -0.13296141461048341 0.1325899882640679 0 -0.13600599116682391 0.15176946895837121 0 -0.13296141461048341 0.1325899882640679 0 -0.1146058651438305 0.14288361348052811 0 -0.16568972461197959 0.1371924245629024 0 -0.14701680187146629 0.14126133461970711 0 -0.15544045107719859 0.15496207904294071 0 -0.13600599116682391 0.15176946895837121 0 -0.14701680187146629 0.14126133461970711 0 -0.15544045107719859 0.15496207904294071 0 -0.1475114603071154 0.12407848479939949 0 -0.16568972461197959 0.1371924245629024 0 -0.14701680187146629 0.14126133461970711 0 -0.1475114603071154 0.12407848479939949 0 -0.14701680187146629 0.14126133461970711 0 -0.13296141461048341 0.1325899882640679 0 -0.10446905169833989 0.12897527175658469 0 -0.1146058651438305 0.14288361348052811 0 -0.1180008709843651 0.120139897032757 0 -0.13296141461048341 0.1325899882640679 0 -0.1146058651438305 0.14288361348052811 0 -0.1180008709843651 0.120139897032757 0 -0.10446905169833989 0.12897527175658469 0 -0.098569685307776392 0.14141171627560051 0 -0.1146058651438305 0.14288361348052811 0 -0.10446905169833989 0.12897527175658469 0 -0.098569685307776392 0.14141171627560051 0 -0.086746546958877402 0.13304638954289211 0 -0.098569685307776392 0.14141171627560051 0 -0.1016089821345401 0.15509082851213341 0 -0.1146058651438305 0.14288361348052811 0 -0.098569685307776392 0.14141171627560051 0 -0.1016089821345401 0.15509082851213341 0 -0.087925273446823771 0.15119937508387141 0 -0.1016089821345401 0.15509082851213341 0 -0.1146058651438305 0.14288361348052811 0 -0.11859674352584849 0.1699747464843353 0 -0.13600599116682391 0.15176946895837121 0 -0.1146058651438305 0.14288361348052811 0 -0.11859674352584849 0.1699747464843353 0 -0.11859674352584849 0.1699747464843353 0 -0.12070262147354931 0.19220491940713619 0 -0.1035845337602727 0.18961582389573189 0 -0.093098353536546372 0.1737504298531958 0 -0.1035845337602727 0.18961582389573189 0 -0.08710154274899512 0.19883835879449441 0 -0.11859674352584849 0.1699747464843353 0 -0.093098353536546372 0.1737504298531958 0 -0.1035845337602727 0.18961582389573189 0 -0.1016089821345401 0.15509082851213341 0 -0.093098353536546372 0.1737504298531958 0 -0.087925273446823771 0.15119937508387141 0 -0.1016089821345401 0.15509082851213341 0 -0.11859674352584849 0.1699747464843353 0 -0.093098353536546372 0.1737504298531958 0 -0.093098353536546372 0.1737504298531958 0 -0.076248897470308385 0.17301939056110369 0 -0.077076081143690273 0.15996132546602501 0 -0.093098353536546372 0.1737504298531958 0 -0.077076081143690273 0.15996132546602501 0 -0.087925273446823771 0.15119937508387141 0 -0.093098353536546372 0.1737504298531958 0 -0.077076081143690273 0.15996132546602501 0 -0.093098353536546372 0.1737504298531958 0 -0.075186487949635061 0.18729019048926071 0 -0.08710154274899512 0.19883835879449441 0 -0.093098353536546372 0.1737504298531958 0 -0.075186487949635061 0.18729019048926071 0 -0.076248897470308385 0.17301939056110369 0 -0.075186487949635061 0.18729019048926071 0 -0.076248897470308385 0.17301939056110369 0 -0.065684096994603786 0.17828859702457919 0 -0.076248897470308385 0.17301939056110369 0 -0.065684096994603786 0.17828859702457919 0 -0.068639091317081111 0.16749972977450359 0 -0.075186487949635061 0.18729019048926071 0 -0.065684096994603786 0.17828859702457919 0 -0.060734248774786809 0.19180114791885169 0 -0.077076081143690273 0.15996132546602501 0 -0.068639091317081111 0.16749972977450359 0 -0.066510554586613035 0.15689858016505201 0 -0.076248897470308385 0.17301939056110369 0 -0.077076081143690273 0.15996132546602501 0 -0.068639091317081111 0.16749972977450359 0 -0.068639091317081111 0.16749972977450359 0 -0.066510554586613035 0.15689858016505201 0 -0.057675826390190123 0.16933075565575789 0 -0.065684096994603786 0.17828859702457919 0 -0.068639091317081111 0.16749972977450359 0 -0.057675826390190123 0.16933075565575789 0 -0.077076081143690273 0.15996132546602501 0 -0.066510554586613035 0.15689858016505201 0 -0.061053808750833848 0.1461722210788545 0 -0.077076081143690273 0.15996132546602501 0 -0.061053808750833848 0.1461722210788545 0 -0.077076081143690273 0.15996132546602501 0 -0.076498323243310282 0.14442954720507861 0 -0.061053808750833848 0.1461722210788545 0 -0.066510554586613035 0.15689858016505201 0 -0.061053808750833848 0.1461722210788545 0 -0.076498323243310282 0.14442954720507861 0 -0.069980842695592238 0.13834565837196999 0 -0.061053808750833848 0.1461722210788545 0 -0.069980842695592238 0.13834565837196999 0 -0.065299499162917718 0.12811078916509741 0 -0.061053808750833848 0.1461722210788545 0 -0.069980842695592238 0.13834565837196999 0 -0.065299499162917718 0.12811078916509741 0 -0.075235374678628286 0.13347659597059261 0 -0.065299499162917718 0.12811078916509741 0 -0.075235374678628286 0.13347659597059261 0 -0.077651661332443805 0.1234505955679249 0 -0.076498323243310282 0.14442954720507861 0 -0.069980842695592238 0.13834565837196999 0 -0.075235374678628286 0.13347659597059261 0 -0.10446905169833989 0.12897527175658469 0 -0.086746546958877402 0.13304638954289211 0 -0.088657036247980076 0.1161410376006681 0 -0.076498323243310282 0.14442954720507861 0 -0.075235374678628286 0.13347659597059261 0 -0.086746546958877402 0.13304638954289211 0 -0.075235374678628286 0.13347659597059261 0 -0.086746546958877402 0.13304638954289211 0 -0.077651661332443805 0.1234505955679249 0 -0.098569685307776392 0.14141171627560051 0 -0.086746546958877402 0.13304638954289211 0 -0.087925273446823771 0.15119937508387141 0 -0.076498323243310282 0.14442954720507861 0 -0.086746546958877402 0.13304638954289211 0 -0.087925273446823771 0.15119937508387141 0 -0.077076081143690273 0.15996132546602501 0 -0.076498323243310282 0.14442954720507861 0 -0.087925273446823771 0.15119937508387141 0 -0.122588684227444 0.25205124103256221 0 -0.10800649632003551 0.22634676750948179 0 -0.092730215776092806 0.2425017759887918 0 -0.122588684227444 0.25205124103256221 0 -0.13598543789214951 0.2289561085858344 0 -0.10800649632003551 0.22634676750948179 0 -0.13598543789214951 0.2289561085858344 0 -0.10800649632003551 0.22634676750948179 0 -0.10800649632003551 0.22634676750948179 0 -0.080027554747921587 0.2237374264331293 0 -0.10800649632003551 0.22634676750948179 0 -0.1058667295084873 0.20666322704177589 0 -0.080027554747921587 0.2237374264331293 0 -0.13577762800014961 0.2092360662106815 0 -0.10800649632003551 0.22634676750948179 0 -0.1058667295084873 0.20666322704177589 0 -0.1058667295084873 0.20666322704177589 0 -0.12070262147354931 0.19220491940713619 0 -0.1035845337602727 0.18961582389573189 0 -0.13577762800014961 0.2092360662106815 0 -0.1058667295084873 0.20666322704177589 0 -0.12070262147354931 0.19220491940713619 0 -0.1058667295084873 0.20666322704177589 0 -0.1035845337602727 0.18961582389573189 0 -0.08710154274899512 0.19883835879449441 0 -0.075186487949635061 0.18729019048926071 0 -0.08710154274899512 0.19883835879449441 0 -0.066853972820845209 0.20835765261512151 0 -0.075186487949635061 0.18729019048926071 0 -0.066853972820845209 0.20835765261512151 0 -0.060734248774786809 0.19180114791885169 0 -0.08710154274899512 0.19883835879449441 0 -0.066853972820845209 0.20835765261512151 0 -0.080027554747921587 0.2237374264331293 0 -0.066853972820845209 0.20835765261512151 0 -0.080027554747921587 0.2237374264331293 0 -0.062520564093216671 0.22301842987084469 0 -0.1058667295084873 0.20666322704177589 0 -0.08710154274899512 0.19883835879449441 0 -0.080027554747921587 0.2237374264331293 0 -0.10800649632003551 0.22634676750948179 0 -0.080027554747921587 0.2237374264331293 0 -0.092730215776092806 0.2425017759887918 0 -0.080027554747921587 0.2237374264331293 0 -0.062520564093216671 0.22301842987084469 0 -0.06302109409229166 0.23575781475278551 0 -0.072964295206045152 0.24637303244624581 0 -0.06302109409229166 0.23575781475278551 0 -0.056642681332391573 0.24834970351117289 0 -0.080027554747921587 0.2237374264331293 0 -0.072964295206045152 0.24637303244624581 0 -0.06302109409229166 0.23575781475278551 0 -0.080027554747921587 0.2237374264331293 0 -0.072964295206045152 0.24637303244624581 0 -0.092730215776092806 0.2425017759887918 0 -0.033828902001825457 0.25149246051837337 0 -0.044690918883066963 0.24564285983037329 0 -0.025544046729380852 0.23880510785949441 0 -0.037198602526327271 0.2383985209736969 0 -0.044690918883066963 0.24564285983037329 0 -0.025544046729380852 0.23880510785949441 0 -0.044690918883066963 0.24564285983037329 0 -0.025544046729380852 0.23880510785949441 0 -0.037198602526327271 0.2383985209736969 0 -0.031722426800571558 0.23188435988480691 0 -0.025544046729380852 0.23880510785949441 0 -0.043502843754386331 0.23946333626676661 0 -0.047786388048848237 0.2367140128768021 0 -0.040202389824012238 0.2311827214892952 0 -0.037198602526327271 0.2383985209736969 0 -0.043502843754386331 0.23946333626676661 0 -0.044690918883066963 0.24564285983037329 0 -0.037198602526327271 0.2383985209736969 0 -0.043502843754386331 0.23946333626676661 0 -0.040202389824012238 0.2311827214892952 0 -0.043502843754386331 0.23946333626676661 0 -0.048835798068700011 0.24324867993819599 0 -0.047786388048848237 0.2367140128768021 0 -0.043502843754386331 0.23946333626676661 0 -0.044690918883066963 0.24564285983037329 0 -0.048835798068700011 0.24324867993819599 0 -0.044690918883066963 0.24564285983037329 0 -0.046813962699940322 0.24883597713967601 0 -0.048835798068700011 0.24324867993819599 0 -0.033828902001825457 0.25149246051837337 0 -0.044690918883066963 0.24564285983037329 0 -0.046813962699940322 0.24883597713967601 0 -0.048835798068700011 0.24324867993819599 0 -0.056642681332391573 0.24834970351117289 0 -0.054177932983078159 0.23942124689165031 0 -0.046813962699940322 0.24883597713967601 0 -0.048835798068700011 0.24324867993819599 0 -0.056642681332391573 0.24834970351117289 0 -0.06302109409229166 0.23575781475278551 0 -0.056642681332391573 0.24834970351117289 0 -0.054177932983078159 0.23942124689165031 0 -0.06302109409229166 0.23575781475278551 0 -0.054177932983078159 0.23942124689165031 0 -0.052580450982633212 0.22913414486676889 0 -0.054177932983078159 0.23942124689165031 0 -0.047786388048848237 0.2367140128768021 0 -0.052580450982633212 0.22913414486676889 0 -0.048835798068700011 0.24324867993819599 0 -0.054177932983078159 0.23942124689165031 0 -0.047786388048848237 0.2367140128768021 0 -0.062520564093216671 0.22301842987084469 0 -0.06302109409229166 0.23575781475278551 0 -0.052580450982633212 0.22913414486676889 0 -0.062520564093216671 0.22301842987084469 0 -0.052580450982633212 0.22913414486676889 0 -0.050119747822391682 0.2181051106864183 0 -0.052580450982633212 0.22913414486676889 0 -0.042315363835960157 0.22374916810141129 0 -0.050119747822391682 0.2181051106864183 0 -0.042315363835960157 0.22374916810141129 0 -0.03444635102908427 0.21511756590796069 0 -0.050119747822391682 0.2181051106864183 0 -0.052580450982633212 0.22913414486676889 0 -0.042315363835960157 0.22374916810141129 0 -0.040202389824012238 0.2311827214892952 0 -0.047786388048848237 0.2367140128768021 0 -0.052580450982633212 0.22913414486676889 0 -0.040202389824012238 0.2311827214892952 0 -0.037198602526327271 0.2383985209736969 0 -0.040202389824012238 0.2311827214892952 0 -0.031722426800571558 0.23188435988480691 0 -0.042315363835960157 0.22374916810141129 0 -0.040202389824012238 0.2311827214892952 0 -0.034227879521679438 0.22520629755661339 0 -0.040202389824012238 0.2311827214892952 0 -0.031722426800571558 0.23188435988480691 0 -0.034227879521679438 0.22520629755661339 0 -0.042315363835960157 0.22374916810141129 0 -0.034227879521679438 0.22520629755661339 0 -0.03444635102908427 0.21511756590796069 0 -0.03444635102908427 0.21511756590796069 0 -0.050119747822391682 0.2181051106864183 0 -0.046763350840665047 0.2014433628375393 0 -0.03444635102908427 0.21511756590796069 0 -0.046763350840665047 0.2014433628375393 0 -0.033853886193392538 0.20055707681508339 0 -0.066853972820845209 0.20835765261512151 0 -0.062520564093216671 0.22301842987084469 0 -0.050119747822391682 0.2181051106864183 0 -0.066853972820845209 0.20835765261512151 0 -0.050119747822391682 0.2181051106864183 0 -0.046763350840665047 0.2014433628375393 0 -0.060734248774786809 0.19180114791885169 0 -0.046763350840665047 0.2014433628375393 0 -0.050621982278884793 0.18384178196375489 0 -0.066853972820845209 0.20835765261512151 0 -0.060734248774786809 0.19180114791885169 0 -0.046763350840665047 0.2014433628375393 0 -0.046763350840665047 0.2014433628375393 0 -0.050621982278884793 0.18384178196375489 0 -0.033568137175266521 0.18623888226706839 0 -0.046763350840665047 0.2014433628375393 0 -0.033853886193392538 0.20055707681508339 0 -0.033568137175266521 0.18623888226706839 0 -0.033853886193392538 0.20055707681508339 0 -0.020637705728554331 0.1994284962477654 0 -0.033568137175266521 0.18623888226706839 0 -0.020637705728554331 0.1994284962477654 0 -0.0002250364717256656 0.1777900650132834 0 0.00231455973472771 0.19614268912411009 0 -0.011614743497326651 0.21747389849180221 0 0.0076062033559146274 0.2120033846671707 0 0.00231455973472771 0.19614268912411009 0 -0.011614743497326651 0.21747389849180221 0 0.00231455973472771 0.19614268912411009 0 -0.020637705728554331 0.1994284962477654 0 -0.011614743497326651 0.21747389849180221 0 0.00231455973472771 0.19614268912411009 0 -0.020637705728554331 0.1994284962477654 0 -0.023368613688238251 0.22660079394936841 0 -0.03444635102908427 0.21511756590796069 0 -0.033853886193392538 0.20055707681508339 0 -0.020637705728554331 0.1994284962477654 0 -0.03444635102908427 0.21511756590796069 0 -0.020637705728554331 0.1994284962477654 0 -0.023368613688238251 0.22660079394936841 0 -0.020637705728554331 0.1994284962477654 0 -0.011614743497326651 0.21747389849180221 0 -0.023368613688238251 0.22660079394936841 0 -0.011614743497326651 0.21747389849180221 0 -0.023368613688238251 0.22660079394936841 0 -0.025544046729380852 0.23880510785949441 0 -0.011614743497326651 0.21747389849180221 0 -0.025544046729380852 0.23880510785949441 0 -0.034227879521679438 0.22520629755661339 0 -0.03444635102908427 0.21511756590796069 0 -0.023368613688238251 0.22660079394936841 0 -0.031722426800571558 0.23188435988480691 0 -0.034227879521679438 0.22520629755661339 0 -0.023368613688238251 0.22660079394936841 0 -0.031722426800571558 0.23188435988480691 0 -0.023368613688238251 0.22660079394936841 0 -0.025544046729380852 0.23880510785949441 0 -0.025544046729380852 0.23880510785949441 0 0.00081703479512371113 0.22939100953043801 0 -0.011614743497326651 0.21747389849180221 0 0.00081703479512371113 0.22939100953043801 0 0.0076062033559146274 0.2120033846671707 0 -0.011614743497326651 0.21747389849180221 0 -0.025544046729380852 0.23880510785949441 0 0.00081703479512371113 0.22939100953043801 0 -0.0073964723180061174 0.24596544541674961 0 0.0055251154326985304 0.24248337757999319 0 0.00081703479512371113 0.22939100953043801 0 -0.0073964723180061174 0.24596544541674961 0 -0.025544046729380852 0.23880510785949441 0 0.00081703479512371113 0.22939100953043801 0 -0.020105285393165421 0.25412588478139569 0 -0.0073964723180061174 0.24596544541674961 0 -0.025544046729380852 0.23880510785949441 0 -0.033828902001825457 0.25149246051837337 0 -0.025544046729380852 0.23880510785949441 0 -0.033828902001825457 0.25149246051837337 0 -0.020105285393165421 0.25412588478139569 0 -0.025544046729380852 0.23880510785949441 0 -0.03559658423145641 0.14626707025709701 0 -0.048900009916774477 0.14620613209984959 0 -0.051399649344929028 0.1578346799161931 0 -0.03559658423145641 0.14626707025709701 0 -0.051399649344929028 0.1578346799161931 0 -0.032342104179654073 0.1628090920103504 0 -0.03559658423145641 0.14626707025709701 0 -0.047549997339878657 0.13455055714725381 0 -0.048900009916774477 0.14620613209984959 0 -0.03559658423145641 0.14626707025709701 0 -0.026858788142684709 0.12152319813810381 0 -0.034046185928923181 0.1229288932156534 0 -0.03559658423145641 0.14626707025709701 0 -0.047549997339878657 0.13455055714725381 0 -0.034046185928923181 0.1229288932156534 0 -0.047549997339878657 0.13455055714725381 0 -0.034046185928923181 0.1229288932156534 0 -0.047549997339878657 0.13455055714725381 0 -0.034046185928923181 0.1229288932156534 0 -0.04820110613121658 0.1209075839352001 0 -0.065299499162917718 0.12811078916509741 0 -0.061053808750833848 0.1461722210788545 0 -0.04820110613121658 0.1209075839352001 0 -0.061053808750833848 0.1461722210788545 0 -0.04820110613121658 0.1209075839352001 0 -0.047549997339878657 0.13455055714725381 0 -0.061053808750833848 0.1461722210788545 0 -0.04820110613121658 0.1209075839352001 0 -0.047549997339878657 0.13455055714725381 0 -0.061053808750833848 0.1461722210788545 0 -0.047549997339878657 0.13455055714725381 0 -0.061053808750833848 0.1461722210788545 0 -0.048900009916774477 0.14620613209984959 0 -0.061053808750833848 0.1461722210788545 0 -0.048900009916774477 0.14620613209984959 0 -0.051399649344929028 0.1578346799161931 0 -0.066510554586613035 0.15689858016505201 0 -0.061053808750833848 0.1461722210788545 0 -0.051399649344929028 0.1578346799161931 0 -0.066510554586613035 0.15689858016505201 0 -0.057675826390190123 0.16933075565575789 0 -0.051399649344929028 0.1578346799161931 0 -0.057675826390190123 0.16933075565575789 0 -0.051399649344929028 0.1578346799161931 0 -0.044304056882595061 0.17120884559393559 0 -0.065684096994603786 0.17828859702457919 0 -0.060734248774786809 0.19180114791885169 0 -0.050621982278884793 0.18384178196375489 0 -0.065684096994603786 0.17828859702457919 0 -0.057675826390190123 0.16933075565575789 0 -0.050621982278884793 0.18384178196375489 0 -0.057675826390190123 0.16933075565575789 0 -0.050621982278884793 0.18384178196375489 0 -0.044304056882595061 0.17120884559393559 0 -0.033568137175266521 0.18623888226706839 0 -0.032342104179654073 0.1628090920103504 0 -0.044304056882595061 0.17120884559393559 0 -0.050621982278884793 0.18384178196375489 0 -0.033568137175266521 0.18623888226706839 0 -0.044304056882595061 0.17120884559393559 0 -0.051399649344929028 0.1578346799161931 0 -0.032342104179654073 0.1628090920103504 0 -0.044304056882595061 0.17120884559393559 0 -0.032342104179654073 0.1628090920103504 0 -0.017906797768870431 0.1722561985461625 0 -0.01517588980918654 0.1450839008445596 0 -0.017906797768870431 0.1722561985461625 0 -0.01517588980918654 0.1450839008445596 0 -0.033568137175266521 0.18623888226706839 0 -0.032342104179654073 0.1628090920103504 0 -0.017906797768870431 0.1722561985461625 0 -0.020637705728554331 0.1994284962477654 0 -0.033568137175266521 0.18623888226706839 0 -0.017906797768870431 0.1722561985461625 0 -0.020637705728554331 0.1994284962477654 0 -0.017906797768870431 0.1722561985461625 0 -0.020637705728554331 0.1994284962477654 0 -0.017906797768870431 0.1722561985461625 0 -0.0002250364717256656 0.1777900650132834 0 -0.017906797768870431 0.1722561985461625 0 -0.0002250364717256656 0.1777900650132834 0 0.00190887613581995 0.15806234687746451 0 -0.017906797768870431 0.1722561985461625 0 -0.01517588980918654 0.1450839008445596 0 0.00190887613581995 0.15806234687746451 0 -0.01517588980918654 0.1450839008445596 0 0.0025284648582058868 0.14150240607776571 0 0.00190887613581995 0.15806234687746451 0 -0.03559658423145641 0.14626707025709701 0 -0.01517588980918654 0.1450839008445596 0 -0.02251906100820757 0.1326964430956793 0 -0.03559658423145641 0.14626707025709701 0 -0.032342104179654073 0.1628090920103504 0 -0.01517588980918654 0.1450839008445596 0 -0.01517588980918654 0.1450839008445596 0 -0.02251906100820757 0.1326964430956793 0 -0.012444981849502639 0.11791160314295671 0 -0.03559658423145641 0.14626707025709701 0 -0.026858788142684709 0.12152319813810381 0 -0.03559658423145641 0.14626707025709701 0 -0.02251906100820757 0.1326964430956793 0 -0.026858788142684709 0.12152319813810381 0 -0.01517588980918654 0.1450839008445596 0 -0.0028456286927773708 0.1301338680264498 0 0.0025284648582058868 0.14150240607776571 0 -0.01517588980918654 0.1450839008445596 0 -0.012444981849502639 0.11791160314295671 0 -0.01517588980918654 0.1450839008445596 0 -0.0028456286927773708 0.1301338680264498 0 -0.012444981849502639 0.11791160314295671 0 -0.0028456286927773708 0.1301338680264498 0 -0.012444981849502639 0.11791160314295671 0 0.00014490038531176429 0.11798652458348351 0 -0.012444981849502639 0.11791160314295671 0 -5.6510957086331757e-05 0.1052786656453796 0 0.00014490038531176429 0.11798652458348351 0 -0.012444981849502639 0.11791160314295671 0 -0.018120992053913001 0.096779326019110615 0 -0.0097140738898187397 0.090739305441353849 0 -0.012444981849502639 0.11791160314295671 0 -5.6510957086331757e-05 0.1052786656453796 0 -0.0097140738898187397 0.090739305441353849 0 -0.012444981849502639 0.11791160314295671 0 -0.0097140738898187397 0.090739305441353849 0 -5.6510957086331757e-05 0.1052786656453796 0 -0.0097140738898187397 0.090739305441353849 0 0.0072548012530301246 0.092352409281406506 0 -0.018120992053913001 0.096779326019110615 0 -0.026858788142684709 0.12152319813810381 0 -0.018120992053913001 0.096779326019110615 0 -0.032031622670321537 0.1102128852337141 0 -0.035348403511599749 0.09564294679154553 0 -0.012444981849502639 0.11791160314295671 0 -0.018120992053913001 0.096779326019110615 0 -0.026858788142684709 0.12152319813810381 0 -0.018120992053913001 0.096779326019110615 0 -0.026858788142684709 0.12152319813810381 0 -0.032031622670321537 0.1102128852337141 0 -0.026858788142684709 0.12152319813810381 0 -0.033493926678567543 0.1175796206958642 0 -0.032031622670321537 0.1102128852337141 0 -0.02251906100820757 0.1326964430956793 0 -0.012444981849502639 0.11791160314295671 0 -0.026858788142684709 0.12152319813810381 0 -0.009383195965142227 0.07203545390011705 0 -0.0037931707484633861 0.05620550459732003 0 -0.009383195965142227 0.07203545390011705 0 -0.0037931707484633861 0.05620550459732003 0 -0.014537241370674249 0.061630052610992331 0 -0.009383195965142227 0.07203545390011705 0 -0.0037931707484633861 0.05620550459732003 0 0.0076722768885474019 0.061715838032808223 0 -0.009383195965142227 0.07203545390011705 0 -0.020413377189843179 0.06411515866407487 0 -0.014537241370674249 0.061630052610992331 0 -0.018120992053913001 0.096779326019110615 0 -0.009383195965142227 0.07203545390011705 0 -0.0097140738898187397 0.090739305441353849 0 0.00101807366693869 0.082589937842136668 0 0.0072548012530301246 0.092352409281406506 0 -0.018120992053913001 0.096779326019110615 0 -0.009383195965142227 0.07203545390011705 0 -0.0097140738898187397 0.090739305441353849 0 -0.009383195965142227 0.07203545390011705 0 -0.0097140738898187397 0.090739305441353849 0 0.00101807366693869 0.082589937842136668 0 -0.018120992053913001 0.096779326019110615 0 -0.009383195965142227 0.07203545390011705 0 -0.022495700891983071 0.070378309647890935 0 -0.022495700891983071 0.070378309647890935 0 -0.034039164587010742 0.078469904232030263 0 -0.035348403511599749 0.09564294679154553 0 -0.018120992053913001 0.096779326019110615 0 -0.022495700891983071 0.070378309647890935 0 -0.035348403511599749 0.09564294679154553 0 -0.022495700891983071 0.070378309647890935 0 -0.035348403511599749 0.09564294679154553 0 -0.009383195965142227 0.07203545390011705 0 -0.022495700891983071 0.070378309647890935 0 -0.022495700891983071 0.070378309647890935 0 -0.026117507909521491 0.065607550076740309 0 -0.037401968230431328 0.068494471633729279 0 -0.022495700891983071 0.070378309647890935 0 -0.037401968230431328 0.068494471633729279 0 -0.026117507909521491 0.065607550076740309 0 -0.020413377189843179 0.06411515866407487 0 -0.024957246400328179 0.059531757239426143 0 -0.009383195965142227 0.07203545390011705 0 -0.022495700891983071 0.070378309647890935 0 -0.020413377189843179 0.06411515866407487 0 -0.022495700891983071 0.070378309647890935 0 -0.026117507909521491 0.065607550076740309 0 -0.020413377189843179 0.06411515866407487 0 -0.037401968230431328 0.068494471633729279 0 -0.050183993597497242 0.072260646471872775 0 -0.047857891676973872 0.05754927511417024 0 -0.026117507909521491 0.065607550076740309 0 -0.037401968230431328 0.068494471633729279 0 -0.035870829565548608 0.057131972093673447 0 -0.037401968230431328 0.068494471633729279 0 -0.040910585714028808 0.079363888854955295 0 -0.034039164587010742 0.078469904232030263 0 -0.022495700891983071 0.070378309647890935 0 -0.037401968230431328 0.068494471633729279 0 -0.034039164587010742 0.078469904232030263 0 -0.037401968230431328 0.068494471633729279 0 -0.040910585714028808 0.079363888854955295 0 -0.050183993597497242 0.072260646471872775 0 -0.040910585714028808 0.079363888854955295 0 -0.051111641276620358 0.087552653191430255 0 -0.035348403511599749 0.09564294679154553 0 -0.040910585714028808 0.079363888854955295 0 -0.034039164587010742 0.078469904232030263 0 -0.035348403511599749 0.09564294679154553 0 -0.051111641276620358 0.087552653191430255 0 -0.067374676801230021 0.095375472261802832 0 -0.062621601081504108 0.077949655835367448 0 -0.040910585714028808 0.079363888854955295 0 -0.051111641276620358 0.087552653191430255 0 -0.050183993597497242 0.072260646471872775 0 -0.051111641276620358 0.087552653191430255 0 -0.050183993597497242 0.072260646471872775 0 -0.062621601081504108 0.077949655835367448 0 -0.050183993597497242 0.072260646471872775 0 -0.061200273605424918 0.062653934201584244 0 -0.062621601081504108 0.077949655835367448 0 -0.050183993597497242 0.072260646471872775 0 -0.061200273605424918 0.062653934201584244 0 -0.047857891676973872 0.05754927511417024 0 -0.033493926678567543 0.1175796206958642 0 -0.032031622670321537 0.1102128852337141 0 -0.04820110613121658 0.1209075839352001 0 -0.034046185928923181 0.1229288932156534 0 -0.033493926678567543 0.1175796206958642 0 -0.04820110613121658 0.1209075839352001 0 -0.026858788142684709 0.12152319813810381 0 -0.034046185928923181 0.1229288932156534 0 -0.033493926678567543 0.1175796206958642 0 -0.035348403511599749 0.09564294679154553 0 -0.054395850764842997 0.1018546232630226 0 -0.04820110613121658 0.1209075839352001 0 -0.035348403511599749 0.09564294679154553 0 -0.04820110613121658 0.1209075839352001 0 -0.032031622670321537 0.1102128852337141 0 -0.035348403511599749 0.09564294679154553 0 -0.04820110613121658 0.1209075839352001 0 -0.051111641276620358 0.087552653191430255 0 -0.054395850764842997 0.1018546232630226 0 -0.067374676801230021 0.095375472261802832 0 -0.051111641276620358 0.087552653191430255 0 -0.035348403511599749 0.09564294679154553 0 -0.054395850764842997 0.1018546232630226 0 -0.054395850764842997 0.1018546232630226 0 -0.060115252918616552 0.11562703836003529 0 -0.04820110613121658 0.1209075839352001 0 -0.065299499162917718 0.12811078916509741 0 -0.060115252918616552 0.11562703836003529 0 -0.04820110613121658 0.1209075839352001 0 -0.054395850764842997 0.1018546232630226 0 -0.060115252918616552 0.11562703836003529 0 -0.07226518384756285 0.1109142649021935 0 -0.065299499162917718 0.12811078916509741 0 -0.07226518384756285 0.1109142649021935 0 -0.077651661332443805 0.1234505955679249 0 -0.065299499162917718 0.12811078916509741 0 -0.060115252918616552 0.11562703836003529 0 -0.07226518384756285 0.1109142649021935 0 -0.07226518384756285 0.1109142649021935 0 -0.077651661332443805 0.1234505955679249 0 -0.088657036247980076 0.1161410376006681 0 -0.086746546958877402 0.13304638954289211 0 -0.077651661332443805 0.1234505955679249 0 -0.088657036247980076 0.1161410376006681 0 -0.088657036247980076 0.1161410376006681 0 -0.085485319070182891 0.097504954847537684 0 -0.103640853591868 0.10849817676708259 0 -0.07226518384756285 0.1109142649021935 0 -0.088657036247980076 0.1161410376006681 0 -0.085485319070182891 0.097504954847537684 0 -0.07226518384756285 0.1109142649021935 0 -0.085485319070182891 0.097504954847537684 0 -0.067374676801230021 0.095375472261802832 0 -0.054395850764842997 0.1018546232630226 0 -0.07226518384756285 0.1109142649021935 0 -0.067374676801230021 0.095375472261802832 0 -0.067374676801230021 0.095375472261802832 0 -0.075686075433095634 0.084301816661312118 0 -0.062621601081504108 0.077949655835367448 0 -0.085485319070182891 0.097504954847537684 0 -0.067374676801230021 0.095375472261802832 0 -0.075686075433095634 0.084301816661312118 0 -0.061200273605424918 0.062653934201584244 0 -0.062621601081504108 0.077949655835367448 0 -0.081725207987782877 0.065779529766913314 0 -0.075686075433095634 0.084301816661312118 0 -0.062621601081504108 0.077949655835367448 0 -0.081725207987782877 0.065779529766913314 0 -0.075686075433095634 0.084301816661312118 0 -0.081725207987782877 0.065779529766913314 0 -0.088964769795018717 0.0794414766830185 0 -0.081725207987782877 0.065779529766913314 0 -0.088964769795018717 0.0794414766830185 0 -0.1023583177264141 0.064492250480146673 0 -0.085485319070182891 0.097504954847537684 0 -0.075686075433095634 0.084301816661312118 0 -0.088964769795018717 0.0794414766830185 0 -0.085485319070182891 0.097504954847537684 0 -0.088964769795018717 0.0794414766830185 0 -0.10311696160616381 0.086368662818789022 0 -0.10311696160616381 0.086368662818789022 0 -0.1023583177264141 0.064492250480146673 0 -0.1191496686604165 0.076198709000374648 0 -0.088964769795018717 0.0794414766830185 0 -0.10311696160616381 0.086368662818789022 0 -0.1023583177264141 0.064492250480146673 0 -0.12947265284527409 0.056162465831325399 0 -0.1023583177264141 0.064492250480146673 0 -0.1191496686604165 0.076198709000374648 0 -0.10311696160616381 0.086368662818789022 0 -0.1191496686604165 0.076198709000374648 0 -0.1226446117569864 0.096817057281193941 0 -0.10311696160616381 0.086368662818789022 0 -0.1226446117569864 0.096817057281193941 0 -0.103640853591868 0.10849817676708259 0 -0.1226446117569864 0.096817057281193941 0 -0.1180008709843651 0.120139897032757 0 -0.103640853591868 0.10849817676708259 0 -0.1328379497467283 0.11360837612822811 0 -0.1226446117569864 0.096817057281193941 0 -0.1180008709843651 0.120139897032757 0 -0.10446905169833989 0.12897527175658469 0 -0.088657036247980076 0.1161410376006681 0 -0.103640853591868 0.10849817676708259 0 -0.10446905169833989 0.12897527175658469 0 -0.1180008709843651 0.120139897032757 0 -0.103640853591868 0.10849817676708259 0 -0.085485319070182891 0.097504954847537684 0 -0.10311696160616381 0.086368662818789022 0 -0.103640853591868 0.10849817676708259 0 -0.096450536493173797 0.029263410267200508 0 -0.1109798875384293 0.01510834388195318 0 -0.081353365851132092 0.014387702781658501 0 -0.096450536493173797 0.029263410267200508 0 -0.1109798875384293 0.01510834388195318 0 -0.1103163310110685 0.042081230677807127 0 -0.11854318320085259 -0.0093427144561414356 0 -0.097885428762332777 -0.0003836894102953251 0 -0.1109798875384293 0.01510834388195318 0 -0.097885428762332777 -0.0003836894102953251 0 -0.1109798875384293 0.01510834388195318 0 -0.081353365851132092 0.014387702781658501 0 -0.11854318320085259 -0.0093427144561414356 0 -0.12839483168315949 0.0032512382866605248 0 -0.1109798875384293 0.01510834388195318 0 -0.1109798875384293 0.01510834388195318 0 -0.12479563010715181 0.029960724278435699 0 -0.1103163310110685 0.042081230677807127 0 -0.12839483168315949 0.0032512382866605248 0 -0.1109798875384293 0.01510834388195318 0 -0.12479563010715181 0.029960724278435699 0 -0.12947265284527409 0.056162465831325399 0 -0.12479563010715181 0.029960724278435699 0 -0.1103163310110685 0.042081230677807127 0 -0.12947265284527409 0.056162465831325399 0 -0.1023583177264141 0.064492250480146673 0 -0.1103163310110685 0.042081230677807127 0 -0.1023583177264141 0.064492250480146673 0 -0.1103163310110685 0.042081230677807127 0 -0.089478637135950251 0.048318669499440248 0 -0.096450536493173797 0.029263410267200508 0 -0.1103163310110685 0.042081230677807127 0 -0.089478637135950251 0.048318669499440248 0 -0.089478637135950251 0.048318669499440248 0 -0.07190569855157182 0.05169420811138313 0 -0.073433665831910952 0.035946857539520663 0 -0.096450536493173797 0.029263410267200508 0 -0.089478637135950251 0.048318669499440248 0 -0.073433665831910952 0.035946857539520663 0 -0.096450536493173797 0.029263410267200508 0 -0.073433665831910952 0.035946857539520663 0 -0.081725207987782877 0.065779529766913314 0 -0.089478637135950251 0.048318669499440248 0 -0.07190569855157182 0.05169420811138313 0 -0.081725207987782877 0.065779529766913314 0 -0.1023583177264141 0.064492250480146673 0 -0.089478637135950251 0.048318669499440248 0 -0.061200273605424918 0.062653934201584244 0 -0.081725207987782877 0.065779529766913314 0 -0.07190569855157182 0.05169420811138313 0 -0.07190569855157182 0.05169420811138313 0 -0.073433665831910952 0.035946857539520663 0 -0.050416795170648121 0.042630304811840818 0 -0.073433665831910952 0.035946857539520663 0 -0.081353365851132092 0.014387702781658501 0 -0.056987978981126487 0.0251181453920419 0 -0.096450536493173797 0.029263410267200508 0 -0.073433665831910952 0.035946857539520663 0 -0.081353365851132092 0.014387702781658501 0 -0.097885428762332777 -0.0003836894102953251 0 -0.076083884416815156 -0.0027293419722991658 0 -0.081353365851132092 0.014387702781658501 0 -0.076083884416815156 -0.0027293419722991658 0 -0.081353365851132092 0.014387702781658501 0 -0.058384621118931182 0.0053599481787374751 0 -0.081353365851132092 0.014387702781658501 0 -0.058384621118931182 0.0053599481787374751 0 -0.056987978981126487 0.0251181453920419 0 -0.047051976389369338 -0.0081844754486175703 0 -0.058384621118931182 0.0053599481787374751 0 -0.041731582901854747 0.0034814502937183379 0 -0.058384621118931182 0.0053599481787374751 0 -0.056987978981126487 0.0251181453920419 0 -0.040181177596556178 0.018678265108696489 0 -0.056987978981126487 0.0251181453920419 0 -0.040181177596556178 0.018678265108696489 0 -0.03815824831758044 0.033705793931797463 0 -0.040181177596556178 0.018678265108696489 0 -0.03815824831758044 0.033705793931797463 0 -0.02374984324271609 0.026213638575174669 0 -0.058384621118931182 0.0053599481787374751 0 -0.040181177596556178 0.018678265108696489 0 -0.041731582901854747 0.0034814502937183379 0 -0.040181177596556178 0.018678265108696489 0 -0.041731582901854747 0.0034814502937183379 0 -0.028241164028168311 0.0071075928835653123 0 -0.034798975376248743 -0.0055540792537900098 0 -0.041731582901854747 0.0034814502937183379 0 -0.028241164028168311 0.0071075928835653123 0 -0.061200273605424918 0.062653934201584244 0 -0.07190569855157182 0.05169420811138313 0 -0.050416795170648121 0.042630304811840818 0 -0.061200273605424918 0.062653934201584244 0 -0.047857891676973872 0.05754927511417024 0 -0.050416795170648121 0.042630304811840818 0 -0.073433665831910952 0.035946857539520663 0 -0.050416795170648121 0.042630304811840818 0 -0.056987978981126487 0.0251181453920419 0 -0.050416795170648121 0.042630304811840818 0 -0.03815824831758044 0.033705793931797463 0 -0.073433665831910952 0.035946857539520663 0 -0.056987978981126487 0.0251181453920419 0 -0.050416795170648121 0.042630304811840818 0 -0.050416795170648121 0.042630304811840818 0 -0.03815824831758044 0.033705793931797463 0 -0.02739992450938528 0.049313752084160979 0 -0.050416795170648121 0.042630304811840818 0 -0.02739992450938528 0.049313752084160979 0 -0.050416795170648121 0.042630304811840818 0 -0.035870829565548608 0.057131972093673447 0 -0.02739992450938528 0.049313752084160979 0 -0.047857891676973872 0.05754927511417024 0 -0.050416795170648121 0.042630304811840818 0 -0.035870829565548608 0.057131972093673447 0 -0.037401968230431328 0.068494471633729279 0 -0.047857891676973872 0.05754927511417024 0 -0.035870829565548608 0.057131972093673447 0 -0.024957246400328179 0.059531757239426143 0 -0.02739992450938528 0.049313752084160979 0 -0.014537241370674249 0.061630052610992331 0 -0.020413377189843179 0.06411515866407487 0 -0.024957246400328179 0.059531757239426143 0 -0.014537241370674249 0.061630052610992331 0 -0.035870829565548608 0.057131972093673447 0 -0.024957246400328179 0.059531757239426143 0 -0.02739992450938528 0.049313752084160979 0 -0.026117507909521491 0.065607550076740309 0 -0.035870829565548608 0.057131972093673447 0 -0.024957246400328179 0.059531757239426143 0 -0.03815824831758044 0.033705793931797463 0 -0.02739992450938528 0.049313752084160979 0 -0.02374984324271609 0.026213638575174669 0 -0.02739992450938528 0.049313752084160979 0 -0.01240746958075073 0.039890855433797202 0 -0.02374984324271609 0.026213638575174669 0 -0.01240746958075073 0.039890855433797202 0 -0.0037931707484633861 0.05620550459732003 0 0.00066392746214062257 0.043583801478533843 0 -0.01240746958075073 0.039890855433797202 0 -0.02374984324271609 0.026213638575174669 0 -0.0095666406627871649 0.028217909944752689 0 -5.1275490087831638e-05 0.03335635492380036 0 -0.01240746958075073 0.039890855433797202 0 0.00066392746214062257 0.043583801478533843 0 -5.1275490087831638e-05 0.03335635492380036 0 -0.01240746958075073 0.039890855433797202 0 -0.0095666406627871649 0.028217909944752689 0 -0.02739992450938528 0.049313752084160979 0 -0.0037931707484633861 0.05620550459732003 0 -0.014537241370674249 0.061630052610992331 0 -0.02739992450938528 0.049313752084160979 0 -0.0037931707484633861 0.05620550459732003 0 -0.02739992450938528 0.049313752084160979 0 -0.01240746958075073 0.039890855433797202 0 -0.0037931707484633861 0.05620550459732003 0 -0.0037931707484633861 0.05620550459732003 0 0.00066392746214062257 0.043583801478533843 0 -0.017013146103504621 0.011042656972175061 0 -0.028241164028168311 0.0071075928835653123 0 -0.02374984324271609 0.026213638575174669 0 -0.01630040215263432 -0.00060373546677246063 0 -0.017013146103504621 0.011042656972175061 0 -0.028241164028168311 0.0071075928835653123 0 -0.01630040215263432 -0.00060373546677246063 0 -0.02514859205216086 -0.0048315903344443283 0 -0.028241164028168311 0.0071075928835653123 0 -0.040181177596556178 0.018678265108696489 0 -0.028241164028168311 0.0071075928835653123 0 -0.02374984324271609 0.026213638575174669 0 -0.017013146103504621 0.011042656972175061 0 -0.02374984324271609 0.026213638575174669 0 -0.01143421581045102 0.01949333589527006 0 -0.02374984324271609 0.026213638575174669 0 -0.01143421581045102 0.01949333589527006 0 -0.0095666406627871649 0.028217909944752689 0 -5.1275490087831638e-05 0.03335635492380036 0 -0.0095666406627871649 0.028217909944752689 0 0.00036042706514125521 0.021302345187835109 0 -0.01143421581045102 0.01949333589527006 0 -0.0048983386870967184 0.01124686669143137 0 0.00036042706514125521 0.021302345187835109 0 -0.01143421581045102 0.01949333589527006 0 -0.0095666406627871649 0.028217909944752689 0 0.00036042706514125521 0.021302345187835109 0 -0.017013146103504621 0.011042656972175061 0 -0.01143421581045102 0.01949333589527006 0 -0.0048983386870967184 0.01124686669143137 0 -0.017013146103504621 0.011042656972175061 0 -0.0048983386870967184 0.01124686669143137 0 -0.0097743015143398962 0.0044287445144430742 0 -0.01630040215263432 -0.00060373546677246063 0 -0.007783247847578046 -0.001462573894568412 0 -0.0097743015143398962 0.0044287445144430742 0 -0.01630040215263432 -0.00060373546677246063 0 -0.017013146103504621 0.011042656972175061 0 -0.0097743015143398962 0.0044287445144430742 0 -0.0048983386870967184 0.01124686669143137 0 -0.0032185631707065052 0.0025149352420844452 0 0.0017882158867646291 0.0058010459109042473 0 -0.007783247847578046 -0.001462573894568412 0 -0.0097743015143398962 0.0044287445144430742 0 -0.0032185631707065052 0.0025149352420844452 0 -0.0048983386870967184 0.01124686669143137 0 -0.0097743015143398962 0.0044287445144430742 0 -0.0032185631707065052 0.0025149352420844452 0 0.0017882158867646291 0.0058010459109042473 0 0.0073732065746625018 0.0028305149654728442 0 0.0047144692555022979 0.012515488923483449 0 -0.0032185631707065052 0.0025149352420844452 0 0.0017882158867646291 0.0058010459109042473 0 0.0034447570176767239 -0.0014554546116130019 0 0.0017882158867646291 0.0058010459109042473 0 0.0073732065746625018 0.0028305149654728442 0 0.0034447570176767239 -0.0014554546116130019 0 0.0073732065746625018 0.0028305149654728442 0 0.01323028230064981 0.0054834565258577821 0 0.0047144692555022979 0.012515488923483449 0 0.01323028230064981 0.0054834565258577821 0 0.017159351834783579 0.00037219059176784799 0 0.01086543067817302 -0.002826484430407907 0 0.0073732065746625018 0.0028305149654728442 0 0.01323028230064981 0.0054834565258577821 0 0.01086543067817302 -0.002826484430407907 0 0.01447817919568218 0.0126587699755785 0 0.0047144692555022979 0.012515488923483449 0 0.0101649103343146 0.018338052973294931 0 0.01323028230064981 0.0054834565258577821 0 0.01447817919568218 0.0126587699755785 0 0.0047144692555022979 0.012515488923483449 0 -0.0048983386870967184 0.01124686669143137 0 0.0047144692555022979 0.012515488923483449 0 0.00036042706514125521 0.021302345187835109 0 -0.0048983386870967184 0.01124686669143137 0 0.0017882158867646291 0.0058010459109042473 0 0.0047144692555022979 0.012515488923483449 0 0.00036042706514125521 0.021302345187835109 0 0.011482017872486049 0.027630106051804361 0 0.0101649103343146 0.018338052973294931 0 0.0047144692555022979 0.012515488923483449 0 0.00036042706514125521 0.021302345187835109 0 0.0101649103343146 0.018338052973294931 0 -5.1275490087831638e-05 0.03335635492380036 0 0.00036042706514125521 0.021302345187835109 0 0.011482017872486049 0.027630106051804361 0 0.011482017872486049 0.027630106051804361 0 0.0101649103343146 0.018338052973294931 0 0.01782546905047095 0.020360362660015081 0 0.01447817919568218 0.0126587699755785 0 0.0101649103343146 0.018338052973294931 0 0.01782546905047095 0.020360362660015081 0 0.01782546905047095 0.020360362660015081 0 0.025938857034161971 0.02092719877972157 0 0.022645054302074821 0.013879735592498509 0 0.01782546905047095 0.020360362660015081 0 0.022243795564106082 0.028728312587192599 0 0.025938857034161971 0.02092719877972157 0 0.01447817919568218 0.0126587699755785 0 0.01782546905047095 0.020360362660015081 0 0.022645054302074821 0.013879735592498509 0 0.011482017872486049 0.027630106051804361 0 0.01782546905047095 0.020360362660015081 0 0.022243795564106082 0.028728312587192599 0 0.011482017872486049 0.027630106051804361 0 0.022243795564106082 0.028728312587192599 0 0.0183308791521304 0.037356321829797673 0 0.022243795564106082 0.028728312587192599 0 0.025938857034161971 0.02092719877972157 0 0.033268041947231958 0.027382335996898509 0 0.025938857034161971 0.02092719877972157 0 0.022645054302074821 0.013879735592498509 0 0.032722919418205348 0.01410836553212508 0 0.025938857034161971 0.02092719877972157 0 0.032722919418205348 0.01410836553212508 0 0.033268041947231958 0.027382335996898509 0 0.026571045611232001 0.0073436007134434073 0 0.022645054302074821 0.013879735592498509 0 0.032722919418205348 0.01410836553212508 0 0.026571045611232001 0.0073436007134434073 0 0.034412494338961423 0.0025317902110671112 0 0.032722919418205348 0.01410836553212508 0 0.023769565398601179 0.0022798778514989781 0 0.034412494338961423 0.0025317902110671112 0 0.0203173381770556 -0.0040466698387773767 0 0.023769565398601179 0.0022798778514989781 0 0.026571045611232001 0.0073436007134434073 0 0.034412494338961423 0.0025317902110671112 0 0.023769565398601179 0.0022798778514989781 0 0.026571045611232001 0.0073436007134434073 0 0.019435505758433721 0.0067025300398394216 0 0.023769565398601179 0.0022798778514989781 0 0.017159351834783579 0.00037219059176784799 0 0.019435505758433721 0.0067025300398394216 0 0.01323028230064981 0.0054834565258577821 0 0.017159351834783579 0.00037219059176784799 0 0.019435505758433721 0.0067025300398394216 0 0.01323028230064981 0.0054834565258577821 0 0.01447817919568218 0.0126587699755785 0 0.019435505758433721 0.0067025300398394216 0 0.01447817919568218 0.0126587699755785 0 0.019435505758433721 0.0067025300398394216 0 0.022645054302074821 0.013879735592498509 0 0.026571045611232001 0.0073436007134434073 0 0.019435505758433721 0.0067025300398394216 0 0.022645054302074821 0.013879735592498509 0 0.0076722768885474019 0.061715838032808223 0 0.01314313305904777 0.049895800339557483 0 0.00066392746214062257 0.043583801478533843 0 -0.0037931707484633861 0.05620550459732003 0 0.0076722768885474019 0.061715838032808223 0 0.00066392746214062257 0.043583801478533843 0 0.01314313305904777 0.049895800339557483 0 0.0091600849032429706 0.039513111446079018 0 0.0183308791521304 0.037356321829797673 0 0.01314313305904777 0.049895800339557483 0 0.0091600849032429706 0.039513111446079018 0 0.00066392746214062257 0.043583801478533843 0 -5.1275490087831638e-05 0.03335635492380036 0 0.0091600849032429706 0.039513111446079018 0 0.00066392746214062257 0.043583801478533843 0 -5.1275490087831638e-05 0.03335635492380036 0 0.011482017872486049 0.027630106051804361 0 0.0091600849032429706 0.039513111446079018 0 0.011482017872486049 0.027630106051804361 0 0.0091600849032429706 0.039513111446079018 0 0.0183308791521304 0.037356321829797673 0 0.022243795564106082 0.028728312587192599 0 0.0183308791521304 0.037356321829797673 0 0.028043565273285428 0.03777391360946325 0 0.022243795564106082 0.028728312587192599 0 0.028043565273285428 0.03777391360946325 0 0.033268041947231958 0.027382335996898509 0 0.0183308791521304 0.037356321829797673 0 0.028043565273285428 0.03777391360946325 0 0.02663956800737707 0.049453020888891017 0 0.028043565273285428 0.03777391360946325 0 0.02663956800737707 0.049453020888891017 0 0.036448469641076717 0.047908300756381139 0 0.01314313305904777 0.049895800339557483 0 0.0183308791521304 0.037356321829797673 0 0.02663956800737707 0.049453020888891017 0 0.0076722768885474019 0.061715838032808223 0 0.01314313305904777 0.049895800339557483 0 0.02647941828949665 0.062845123636497927 0 0.01314313305904777 0.049895800339557483 0 0.02663956800737707 0.049453020888891017 0 0.02647941828949665 0.062845123636497927 0 0.02663956800737707 0.049453020888891017 0 0.037808189365183459 0.057118441581871397 0 0.02647941828949665 0.062845123636497927 0 0.037808189365183459 0.057118441581871397 0 0.050196660846239922 0.059984935614774249 0 0.041670698023122822 0.066101290471142313 0 0.037808189365183459 0.057118441581871397 0 0.04558908326995452 0.05021470969148574 0 0.050196660846239922 0.059984935614774249 0 0.037808189365183459 0.057118441581871397 0 0.041670698023122822 0.066101290471142313 0 0.02647941828949665 0.062845123636497927 0 0.02663956800737707 0.049453020888891017 0 0.037808189365183459 0.057118441581871397 0 0.036448469641076717 0.047908300756381139 0 0.037808189365183459 0.057118441581871397 0 0.036448469641076717 0.047908300756381139 0 0.04558908326995452 0.05021470969148574 0 0.036448469641076717 0.047908300756381139 0 0.04558908326995452 0.05021470969148574 0 0.045626150300694807 0.040497616607985502 0 0.036448469641076717 0.047908300756381139 0 0.045626150300694807 0.040497616607985502 0 0.036986878103429349 0.039046407011375198 0 0.028043565273285428 0.03777391360946325 0 0.036448469641076717 0.047908300756381139 0 0.036986878103429349 0.039046407011375198 0 0.036986878103429349 0.039046407011375198 0 0.042628987464077513 0.031577058619776652 0 0.033268041947231958 0.027382335996898509 0 0.028043565273285428 0.03777391360946325 0 0.036986878103429349 0.039046407011375198 0 0.033268041947231958 0.027382335996898509 0 0.045626150300694807 0.040497616607985502 0 0.036986878103429349 0.039046407011375198 0 0.042628987464077513 0.031577058619776652 0 0.045626150300694807 0.040497616607985502 0 0.042628987464077513 0.031577058619776652 0 0.053866083850258699 0.033214316319175569 0 0.053866083850258699 0.033214316319175569 0 0.056849711020145403 0.048690198018403047 0 0.068656875129277331 0.041031194689713057 0 0.04558908326995452 0.05021470969148574 0 0.045626150300694807 0.040497616607985502 0 0.056849711020145403 0.048690198018403047 0 0.045626150300694807 0.040497616607985502 0 0.053866083850258699 0.033214316319175569 0 0.056849711020145403 0.048690198018403047 0 0.04558908326995452 0.05021470969148574 0 0.056849711020145403 0.048690198018403047 0 0.050196660846239922 0.059984935614774249 0 0.056849711020145403 0.048690198018403047 0 0.050196660846239922 0.059984935614774249 0 0.063214811247621489 0.062220139696017231 0 0.039628495652171893 0.0083401814472741902 0 0.048667786916670862 0.01122692313450077 0 0.040094737154391602 -0.0045297582184353714 0 0.039628495652171893 0.0083401814472741902 0 0.043380555790933237 0.020247575581540559 0 0.048667786916670862 0.01122692313450077 0 0.039628495652171893 0.0083401814472741902 0 0.034412494338961423 0.0025317902110671112 0 0.040094737154391602 -0.0045297582184353714 0 0.039628495652171893 0.0083401814472741902 0 0.032722919418205348 0.01410836553212508 0 0.043380555790933237 0.020247575581540559 0 0.039628495652171893 0.0083401814472741902 0 0.034412494338961423 0.0025317902110671112 0 0.032722919418205348 0.01410836553212508 0 0.032722919418205348 0.01410836553212508 0 0.033268041947231958 0.027382335996898509 0 0.043380555790933237 0.020247575581540559 0 0.042628987464077513 0.031577058619776652 0 0.033268041947231958 0.027382335996898509 0 0.043380555790933237 0.020247575581540559 0 0.042628987464077513 0.031577058619776652 0 0.053866083850258699 0.033214316319175569 0 0.043380555790933237 0.020247575581540559 0 0.043380555790933237 0.020247575581540559 0 0.056161933811537543 0.0211994733877078 0 0.048667786916670862 0.01122692313450077 0 0.053866083850258699 0.033214316319175569 0 0.043380555790933237 0.020247575581540559 0 0.056161933811537543 0.0211994733877078 0 0.053866083850258699 0.033214316319175569 0 0.056161933811537543 0.0211994733877078 0 0.068025609231062947 0.028079434009191249 0 0.048667786916670862 0.01122692313450077 0 0.063861490407629992 0.01069907151653403 0 0.040094737154391602 -0.0045297582184353714 0 0.063861490407629992 0.01069907151653403 0 0.05533751268785668 -0.0044747256901473756 0 0.040094737154391602 -0.0045297582184353714 0 0.063861490407629992 0.01069907151653403 0 0.040094737154391602 -0.0045297582184353714 0 0.056161933811537543 0.0211994733877078 0 0.048667786916670862 0.01122692313450077 0 0.063861490407629992 0.01069907151653403 0 0.063861490407629992 0.01069907151653403 0 0.075151696961741316 0.0020970942345153289 0 0.070267476057544756 -0.0071952763856458907 0 0.063861490407629992 0.01069907151653403 0 0.075151696961741316 0.0020970942345153289 0 0.083614078059266891 0.0082656203097049626 0 0.063861490407629992 0.01069907151653403 0 0.083614078059266891 0.0082656203097049626 0 0.084931317717338653 0.01561895679398451 0 0.083614078059266891 0.0082656203097049626 0 0.089292260289784139 0.002822130931789089 0 0.082863743322523623 -0.0033810385025317882 0 0.075151696961741316 0.0020970942345153289 0 0.083614078059266891 0.0082656203097049626 0 0.082863743322523623 -0.0033810385025317882 0 0.083614078059266891 0.0082656203097049626 0 0.084931317717338653 0.01561895679398451 0 0.092966526695652557 0.0085929256999123377 0 0.083614078059266891 0.0082656203097049626 0 0.092966526695652557 0.0085929256999123377 0 0.089292260289784139 0.002822130931789089 0 0.092966526695652557 0.0085929256999123377 0 0.089292260289784139 0.002822130931789089 0 0.0960124581584475 -0.002810374149942594 0 0.063861490407629992 0.01069907151653403 0 0.084931317717338653 0.01561895679398451 0 0.087628243660868382 0.025927901251503439 0 0.084931317717338653 0.01561895679398451 0 0.092966526695652557 0.0085929256999123377 0 0.094738838494575456 0.023010453313175559 0 0.084931317717338653 0.01561895679398451 0 0.087628243660868382 0.025927901251503439 0 0.094738838494575456 0.023010453313175559 0 0.087628243660868382 0.025927901251503439 0 0.068025609231062947 0.028079434009191249 0 0.078256483438978119 0.034948270656587947 0 0.056161933811537543 0.0211994733877078 0 0.063861490407629992 0.01069907151653403 0 0.068025609231062947 0.028079434009191249 0 0.063861490407629992 0.01069907151653403 0 0.087628243660868382 0.025927901251503439 0 0.063861490407629992 0.01069907151653403 0 0.087628243660868382 0.025927901251503439 0 0.068025609231062947 0.028079434009191249 0 0.068656875129277331 0.041031194689713057 0 0.084701256579528775 0.045207288135410133 0 0.078256483438978119 0.034948270656587947 0 0.053866083850258699 0.033214316319175569 0 0.068025609231062947 0.028079434009191249 0 0.068656875129277331 0.041031194689713057 0 0.068656875129277331 0.041031194689713057 0 0.069665330414940149 0.053151901953289407 0 0.084701256579528775 0.045207288135410133 0 0.068025609231062947 0.028079434009191249 0 0.068656875129277331 0.041031194689713057 0 0.078256483438978119 0.034948270656587947 0 0.069665330414940149 0.053151901953289407 0 0.084701256579528775 0.045207288135410133 0 0.074663674664482066 0.067404122957644821 0 0.063214811247621489 0.062220139696017231 0 0.069665330414940149 0.053151901953289407 0 0.074663674664482066 0.067404122957644821 0 0.056849711020145403 0.048690198018403047 0 0.063214811247621489 0.062220139696017231 0 0.069665330414940149 0.053151901953289407 0 0.056849711020145403 0.048690198018403047 0 0.068656875129277331 0.041031194689713057 0 0.069665330414940149 0.053151901953289407 0 0.086872951385663949 0.046105307292740913 0 0.080012685142025849 0.063586432421748315 0 0.074663674664482066 0.067404122957644821 0 0.086872951385663949 0.046105307292740913 0 0.074663674664482066 0.067404122957644821 0 0.086872951385663949 0.046105307292740913 0 0.084701256579528775 0.045207288135410133 0 0.074663674664482066 0.067404122957644821 0 0.086872951385663949 0.046105307292740913 0 0.096272282628314512 0.061167662865787807 0 0.080012685142025849 0.063586432421748315 0 0.084701256579528775 0.045207288135410133 0 0.074663674664482066 0.067404122957644821 0 0.087628243660868382 0.025927901251503439 0 0.084701256579528775 0.045207288135410133 0 0.078256483438978119 0.034948270656587947 0 0.087628243660868382 0.025927901251503439 0 0.084701256579528775 0.045207288135410133 0 0.094738838494575456 0.023010453313175559 0 0.086872951385663949 0.046105307292740913 0 0.094738838494575456 0.023010453313175559 0 0.099082228106845832 0.024806491627836959 0 0.084701256579528775 0.045207288135410133 0 0.094738838494575456 0.023010453313175559 0 0.086872951385663949 0.046105307292740913 0 0.084701256579528775 0.045207288135410133 0 0.094738838494575456 0.023010453313175559 0 0.086872951385663949 0.046105307292740913 0 0.099082228106845832 0.024806491627836959 0 0.086872951385663949 0.046105307292740913 0 0.10622166916568471 0.042754722468924117 0 0.099082228106845832 0.024806491627836959 0 0.10622166916568471 0.042754722468924117 0 0.119587754618935 0.027161684605333049 0 0.099082228106845832 0.024806491627836959 0 0.086872951385663949 0.046105307292740913 0 0.10622166916568471 0.042754722468924117 0 0.096272282628314512 0.061167662865787807 0 0.10622166916568471 0.042754722468924117 0 0.096272282628314512 0.061167662865787807 0 0.1124385232683779 0.055813048192955003 0 0.10622166916568471 0.042754722468924117 0 0.1124385232683779 0.055813048192955003 0 0.123130506169726 0.043940242126542288 0 0.1124385232683779 0.055813048192955003 0 0.1096713883783723 0.070690735987408479 0 0.12656340569962909 0.058146044072635641 0 0.1124385232683779 0.055813048192955003 0 0.123130506169726 0.043940242126542288 0 0.12656340569962909 0.058146044072635641 0 0.10622166916568471 0.042754722468924117 0 0.123130506169726 0.043940242126542288 0 0.119587754618935 0.027161684605333049 0 0.119587754618935 0.027161684605333049 0 0.1112915048280291 0.003507675962933767 0 0.099082228106845832 0.024806491627836959 0 0.1112915048280291 0.003507675962933767 0 0.13097410797853409 0.0070937128756059439 0 0.1223276663332285 -0.002819512479007595 0 0.119587754618935 0.027161684605333049 0 0.1112915048280291 0.003507675962933767 0 0.1375099350801175 0.014349278832269909 0 0.1112915048280291 0.003507675962933767 0 0.1375099350801175 0.014349278832269909 0 0.092966526695652557 0.0085929256999123377 0 0.10477642040962271 0.00081361849094114679 0 0.094738838494575456 0.023010453313175559 0 0.1112915048280291 0.003507675962933767 0 0.099082228106845832 0.024806491627836959 0 0.1112915048280291 0.003507675962933767 0 0.10477642040962271 0.00081361849094114679 0 0.099082228106845832 0.024806491627836959 0 0.10477642040962271 0.00081361849094114679 0 0.094738838494575456 0.023010453313175559 0 0.1112915048280291 0.003507675962933767 0 0.10477642040962271 0.00081361849094114679 0 0.092966526695652557 0.0085929256999123377 0 0.10477642040962271 0.00081361849094114679 0 0.0960124581584475 -0.002810374149942594 0 0.10477642040962271 0.00081361849094114679 0 0.094738838494575456 0.023010453313175559 0 0.099082228106845832 0.024806491627836959 0 0.1016932633850083 0.11374475395530841 0 0.092531682951117994 0.092549309257822787 0 0.1015471333955006 0.1115225046048082 0 0.1016932633850083 0.11374475395530841 0 0.092531682951117994 0.092549309257822787 0 0.1034722632041562 0.1009875660925703 0 0.1015471333955006 0.1115225046048082 0 0.092531682951117994 0.092549309257822787 0 0.1034722632041562 0.1009875660925703 0 0.1088870250878483 0.093269764480319359 0 0.092531682951117994 0.092549309257822787 0 0.1016932633850083 0.11374475395530841 0 0.092531682951117994 0.092549309257822787 0 0.090265203916093453 0.10853501145106 0 0.1034722632041562 0.1009875660925703 0 0.1015471333955006 0.1115225046048082 0 0.11092321138215799 0.10660868602733101 0 0.1034722632041562 0.1009875660925703 0 0.11092321138215799 0.10660868602733101 0 0.1088870250878483 0.093269764480319359 0 0.1016932633850083 0.11374475395530841 0 0.1118599333128197 0.13578400804826249 0 0.1015471333955006 0.1115225046048082 0 0.11509535145098659 0.12764043256033261 0 0.093998544074809981 0.1207887184285326 0 0.1016932633850083 0.11374475395530841 0 0.1118599333128197 0.13578400804826249 0 0.093998544074809981 0.1207887184285326 0 0.1016932633850083 0.11374475395530841 0 0.090265203916093453 0.10853501145106 0 0.1015471333955006 0.1115225046048082 0 0.1016932633850083 0.11374475395530841 0 0.11509535145098659 0.12764043256033261 0 0.1015471333955006 0.1115225046048082 0 0.1119772014924726 0.11612210571152499 0 0.11092321138215799 0.10660868602733101 0 0.1174538765651273 0.11355351645501389 0 0.1221192706145401 0.1079832845487874 0 0.11092321138215799 0.10660868602733101 0 0.1016932633850083 0.11374475395530841 0 0.1119355413279146 0.13216876674437439 0 0.11509535145098659 0.12764043256033261 0 0.1119772014924726 0.11612210571152499 0 0.1174538765651273 0.11355351645501389 0 0.11092321138215799 0.10660868602733101 0 0.1015471333955006 0.1115225046048082 0 0.1119772014924726 0.11612210571152499 0 0.11509535145098659 0.12764043256033261 0 0.1119772014924726 0.11612210571152499 0 0.116661725729058 0.1194510392998327 0 0.1174538765651273 0.11355351645501389 0 0.116661725729058 0.1194510392998327 0 0.11915773775151089 0.12281016184854129 0 0.11509535145098659 0.12764043256033261 0 0.1119772014924726 0.11612210571152499 0 0.116661725729058 0.1194510392998327 0 0.11509535145098659 0.12764043256033261 0 0.116661725729058 0.1194510392998327 0 0.12228756165776621 0.1188438325191048 0 0.1174538765651273 0.11355351645501389 0 0.116661725729058 0.1194510392998327 0 0.11915773775151089 0.12281016184854129 0 0.12228756165776621 0.1188438325191048 0 0.11915773775151089 0.12281016184854129 0 0.12228756165776621 0.1188438325191048 0 0.1225863121682329 0.12530534301489529 0 0.12228756165776621 0.1188438325191048 0 0.1174538765651273 0.11355351645501389 0 0.1221192706145401 0.1079832845487874 0 0.1221192706145401 0.1079832845487874 0 0.11092321138215799 0.10660868602733101 0 0.12101836062075851 0.097790038425026204 0 0.11092321138215799 0.10660868602733101 0 0.12101836062075851 0.097790038425026204 0 0.1088870250878483 0.093269764480319359 0 0.1249251295610091 0.086468623374269679 0 0.1096713883783723 0.070690735987408479 0 0.1088870250878483 0.093269764480319359 0 0.12101836062075851 0.097790038425026204 0 0.1249251295610091 0.086468623374269679 0 0.1088870250878483 0.093269764480319359 0 0.1096713883783723 0.070690735987408479 0 0.12656340569962909 0.058146044072635641 0 0.13597267423951659 0.070027607414481108 0 0.1096713883783723 0.070690735987408479 0 0.13597267423951659 0.070027607414481108 0 0.1249251295610091 0.086468623374269679 0 0.1096713883783723 0.070690735987408479 0 0.13597267423951659 0.070027607414481108 0 0.1096713883783723 0.070690735987408479 0 0.098068162580325663 0.080881210149252925 0 0.08337010251722804 0.07135386456033703 0 0.1096713883783723 0.070690735987408479 0 0.08337010251722804 0.07135386456033703 0 0.096272282628314512 0.061167662865787807 0 0.1096713883783723 0.070690735987408479 0 0.08337010251722804 0.07135386456033703 0 0.096272282628314512 0.061167662865787807 0 0.1124385232683779 0.055813048192955003 0 0.1096713883783723 0.070690735987408479 0 0.098068162580325663 0.080881210149252925 0 0.1088870250878483 0.093269764480319359 0 0.092531682951117994 0.092549309257822787 0 0.1096713883783723 0.070690735987408479 0 0.098068162580325663 0.080881210149252925 0 0.1088870250878483 0.093269764480319359 0 0.092531682951117994 0.092549309257822787 0 0.08337010251722804 0.07135386456033703 0 0.077751664675522678 0.081834398398726749 0 0.092531682951117994 0.092549309257822787 0 0.07363435004169494 0.092611273909887548 0 0.077751664675522678 0.081834398398726749 0 0.092531682951117994 0.092549309257822787 0 0.08337010251722804 0.07135386456033703 0 0.098068162580325663 0.080881210149252925 0 0.092531682951117994 0.092549309257822787 0 0.08337010251722804 0.07135386456033703 0 0.096272282628314512 0.061167662865787807 0 0.08337010251722804 0.07135386456033703 0 0.080012685142025849 0.063586432421748315 0 0.08337010251722804 0.07135386456033703 0 0.080012685142025849 0.063586432421748315 0 0.074663674664482066 0.067404122957644821 0 0.08337010251722804 0.07135386456033703 0 0.080012685142025849 0.063586432421748315 0 0.063214811247621489 0.062220139696017231 0 0.072238653430823765 0.071634519353652462 0 0.052656499110180638 0.072128239931346205 0 0.072238653430823765 0.071634519353652462 0 0.066510681739341618 0.081626840436772014 0 0.052656499110180638 0.072128239931346205 0 0.08337010251722804 0.07135386456033703 0 0.074663674664482066 0.067404122957644821 0 0.07375794127016716 0.069407037077474004 0 0.074663674664482066 0.067404122957644821 0 0.07375794127016716 0.069407037077474004 0 0.072238653430823765 0.071634519353652462 0 0.074663674664482066 0.067404122957644821 0 0.072238653430823765 0.071634519353652462 0 0.074663674664482066 0.067404122957644821 0 0.07375794127016716 0.069407037077474004 0 0.08337010251722804 0.07135386456033703 0 0.072238653430823765 0.071634519353652462 0 0.08337010251722804 0.07135386456033703 0 0.072238653430823765 0.071634519353652462 0 0.077751664675522678 0.081834398398726749 0 0.08337010251722804 0.07135386456033703 0 0.07375794127016716 0.069407037077474004 0 0.072238653430823765 0.071634519353652462 0 0.072238653430823765 0.071634519353652462 0 0.077751664675522678 0.081834398398726749 0 0.071944182238118604 0.078841573990161173 0 0.072238653430823765 0.071634519353652462 0 0.071944182238118604 0.078841573990161173 0 0.066510681739341618 0.081626840436772014 0 0.072238653430823765 0.071634519353652462 0 0.066510681739341618 0.081626840436772014 0 0.063214811247621489 0.062220139696017231 0 0.074663674664482066 0.067404122957644821 0 0.072238653430823765 0.071634519353652462 0 0.07363435004169494 0.092611273909887548 0 0.077751664675522678 0.081834398398726749 0 0.071498950786603455 0.084813074862341159 0 0.07363435004169494 0.092611273909887548 0 0.071498950786603455 0.084813074862341159 0 0.06779617159413831 0.086646412744471712 0 0.077751664675522678 0.081834398398726749 0 0.071944182238118604 0.078841573990161173 0 0.071498950786603455 0.084813074862341159 0 0.071498950786603455 0.084813074862341159 0 0.066510681739341618 0.081626840436772014 0 0.06779617159413831 0.086646412744471712 0 0.071944182238118604 0.078841573990161173 0 0.071498950786603455 0.084813074862341159 0 0.066510681739341618 0.081626840436772014 0 0.066510681739341618 0.081626840436772014 0 0.060285944586641597 0.092485757979999708 0 0.066510681739341618 0.081626840436772014 0 0.06779617159413831 0.086646412744471712 0 0.060285944586641597 0.092485757979999708 0 0.07363435004169494 0.092611273909887548 0 0.06779617159413831 0.086646412744471712 0 0.060285944586641597 0.092485757979999708 0 0.063757419964460965 0.1063907345653376 0 0.077142244330721893 0.10663723820427071 0 0.060285944586641597 0.092485757979999708 0 0.07363435004169494 0.092611273909887548 0 0.077142244330721893 0.10663723820427071 0 0.060285944586641597 0.092485757979999708 0 0.077142244330721893 0.10663723820427071 0 0.060285944586641597 0.092485757979999708 0 0.092531682951117994 0.092549309257822787 0 0.07363435004169494 0.092611273909887548 0 0.077142244330721893 0.10663723820427071 0 0.092531682951117994 0.092549309257822787 0 0.077142244330721893 0.10663723820427071 0 0.090265203916093453 0.10853501145106 0 0.093998544074809981 0.1207887184285326 0 0.077142244330721893 0.10663723820427071 0 0.093998544074809981 0.1207887184285326 0 0.077142244330721893 0.10663723820427071 0 0.090265203916093453 0.10853501145106 0 0.093998544074809981 0.1207887184285326 0 0.079502902797766076 0.1131515194180908 0 0.089355798233096209 0.13318690657889579 0 0.093998544074809981 0.1207887184285326 0 0.077142244330721893 0.10663723820427071 0 0.079502902797766076 0.1131515194180908 0 0.079502902797766076 0.1131515194180908 0 0.067503819656019773 0.116107028213663 0 0.071355325915070225 0.12534087384750489 0 0.077142244330721893 0.10663723820427071 0 0.079502902797766076 0.1131515194180908 0 0.067503819656019773 0.116107028213663 0 0.063757419964460965 0.1063907345653376 0 0.077142244330721893 0.10663723820427071 0 0.067503819656019773 0.116107028213663 0 0.067503819656019773 0.116107028213663 0 0.059339702065863892 0.13057700641282291 0 0.071355325915070225 0.12534087384750489 0 0.063757419964460965 0.1063907345653376 0 0.067503819656019773 0.116107028213663 0 0.047288900748790323 0.1151588161154472 0 0.067503819656019773 0.116107028213663 0 0.047288900748790323 0.1151588161154472 0 0.059339702065863892 0.13057700641282291 0 0.063757419964460965 0.1063907345653376 0 0.047288900748790323 0.1151588161154472 0 0.060285944586641597 0.092485757979999708 0 0.047288900748790323 0.1151588161154472 0 0.060285944586641597 0.092485757979999708 0 0.047288900748790323 0.1151588161154472 0 0.043963156519659777 0.096585374922912415 0 0.060285944586641597 0.092485757979999708 0 0.031486349062067168 0.1082197264599415 0 0.043963156519659777 0.096585374922912415 0 0.025143336893083179 0.095232736798870746 0 0.047288900748790323 0.1151588161154472 0 0.031486349062067168 0.1082197264599415 0 0.043963156519659777 0.096585374922912415 0 0.047288900748790323 0.1151588161154472 0 0.031486349062067168 0.1082197264599415 0 0.026719444247948969 0.1244823219329763 0 0.072238653430823765 0.071634519353652462 0 0.052656499110180638 0.072128239931346205 0 0.066510681739341618 0.081626840436772014 0 0.052656499110180638 0.072128239931346205 0 0.041212722504513431 0.078429711591221751 0 0.050196660846239922 0.059984935614774249 0 0.052656499110180638 0.072128239931346205 0 0.041670698023122822 0.066101290471142313 0 0.050196660846239922 0.059984935614774249 0 0.063214811247621489 0.062220139696017231 0 0.052656499110180638 0.072128239931346205 0 0.066510681739341618 0.081626840436772014 0 0.047554834564108812 0.088050459053970936 0 0.041212722504513431 0.078429711591221751 0 0.043963156519659777 0.096585374922912415 0 0.058661095377390997 0.091121637633248209 0 0.060285944586641597 0.092485757979999708 0 0.066510681739341618 0.081626840436772014 0 0.041212722504513431 0.078429711591221751 0 0.066510681739341618 0.081626840436772014 0 0.058661095377390997 0.091121637633248209 0 0.047554834564108812 0.088050459053970936 0 0.066510681739341618 0.081626840436772014 0 0.058661095377390997 0.091121637633248209 0 0.060285944586641597 0.092485757979999708 0 0.058661095377390997 0.091121637633248209 0 0.060285944586641597 0.092485757979999708 0 0.043963156519659777 0.096585374922912415 0 0.058661095377390997 0.091121637633248209 0 0.047554834564108812 0.088050459053970936 0 0.043963156519659777 0.096585374922912415 0 0.034757762750210162 0.086706173022529032 0 0.025143336893083179 0.095232736798870746 0 0.043963156519659777 0.096585374922912415 0 0.047554834564108812 0.088050459053970936 0 0.034757762750210162 0.086706173022529032 0 0.047554834564108812 0.088050459053970936 0 0.034757762750210162 0.086706173022529032 0 0.041212722504513431 0.078429711591221751 0 0.052656499110180638 0.072128239931346205 0 0.041212722504513431 0.078429711591221751 0 0.041670698023122822 0.066101290471142313 0 0.041212722504513431 0.078429711591221751 0 0.041670698023122822 0.066101290471142313 0 0.02647941828949665 0.062845123636497927 0 0.0076722768885474019 0.061715838032808223 0 0.015914763269685599 0.075232582745669296 0 0.02647941828949665 0.062845123636497927 0 0.041212722504513431 0.078429711591221751 0 0.015914763269685599 0.075232582745669296 0 0.041212722504513431 0.078429711591221751 0 0.015914763269685599 0.075232582745669296 0 0.02647941828949665 0.062845123636497927 0 0.034757762750210162 0.086706173022529032 0 0.015914763269685599 0.075232582745669296 0 0.025143336893083179 0.095232736798870746 0 0.034757762750210162 0.086706173022529032 0 0.041212722504513431 0.078429711591221751 0 0.015914763269685599 0.075232582745669296 0 0.015914763269685599 0.075232582745669296 0 0.0072548012530301246 0.092352409281406506 0 0.025143336893083179 0.095232736798870746 0 0.015914763269685599 0.075232582745669296 0 0.00101807366693869 0.082589937842136668 0 0.0072548012530301246 0.092352409281406506 0 -0.009383195965142227 0.07203545390011705 0 0.015914763269685599 0.075232582745669296 0 -0.009383195965142227 0.07203545390011705 0 0.015914763269685599 0.075232582745669296 0 0.00101807366693869 0.082589937842136668 0 -0.009383195965142227 0.07203545390011705 0 0.0076722768885474019 0.061715838032808223 0 0.015914763269685599 0.075232582745669296 0 0.031486349062067168 0.1082197264599415 0 0.026719444247948969 0.1244823219329763 0 0.014316906900853641 0.1096393825295007 0 0.026719444247948969 0.1244823219329763 0 0.014316906900853641 0.1096393825295007 0 0.0098526557809115161 0.1283869751643312 0 0.031486349062067168 0.1082197264599415 0 0.025143336893083179 0.095232736798870746 0 0.014316906900853641 0.1096393825295007 0 0.0072548012530301246 0.092352409281406506 0 0.025143336893083179 0.095232736798870746 0 0.014316906900853641 0.1096393825295007 0 -5.6510957086331757e-05 0.1052786656453796 0 0.0072548012530301246 0.092352409281406506 0 0.014316906900853641 0.1096393825295007 0 0.014316906900853641 0.1096393825295007 0 0.00014490038531176429 0.11798652458348351 0 0.0098526557809115161 0.1283869751643312 0 -5.6510957086331757e-05 0.1052786656453796 0 0.014316906900853641 0.1096393825295007 0 0.00014490038531176429 0.11798652458348351 0 -0.0028456286927773708 0.1301338680264498 0 0.00014490038531176429 0.11798652458348351 0 0.0098526557809115161 0.1283869751643312 0 0.0098526557809115161 0.1283869751643312 0 0.018902310876261881 0.14584493947602359 0 0.0025284648582058868 0.14150240607776571 0 -0.0028456286927773708 0.1301338680264498 0 0.0098526557809115161 0.1283869751643312 0 0.0025284648582058868 0.14150240607776571 0 0.026719444247948969 0.1244823219329763 0 0.0098526557809115161 0.1283869751643312 0 0.018902310876261881 0.14584493947602359 0 0.026719444247948969 0.1244823219329763 0 0.018902310876261881 0.14584493947602359 0 0.037985509702662852 0.13809464650321229 0 0.018902310876261881 0.14584493947602359 0 0.035288459128142227 0.16085492036490059 0 0.037985509702662852 0.13809464650321229 0 0.018902310876261881 0.14584493947602359 0 0.0025284648582058868 0.14150240607776571 0 0.00190887613581995 0.15806234687746451 0 -0.0002250364717256656 0.1777900650132834 0 0.00190887613581995 0.15806234687746451 0 0.01751487303827336 0.17244553779170629 0 0.018902310876261881 0.14584493947602359 0 0.00190887613581995 0.15806234687746451 0 0.01751487303827336 0.17244553779170629 0 -0.0002250364717256656 0.1777900650132834 0 0.01751487303827336 0.17244553779170629 0 0.00231455973472771 0.19614268912411009 0 0.030825735641889909 0.1799659348357231 0 0.01751487303827336 0.17244553779170629 0 0.025167859882190901 0.1952240267605248 0 0.018902310876261881 0.14584493947602359 0 0.01751487303827336 0.17244553779170629 0 0.035288459128142227 0.16085492036490059 0 0.030825735641889909 0.1799659348357231 0 0.01751487303827336 0.17244553779170629 0 0.035288459128142227 0.16085492036490059 0 0.030825735641889909 0.1799659348357231 0 0.035288459128142227 0.16085492036490059 0 0.045487140754732668 0.1756325025852869 0 0.030825735641889909 0.1799659348357231 0 0.045487140754732668 0.1756325025852869 0 0.048758923614350809 0.19567786333931811 0 0.045487140754732668 0.1756325025852869 0 0.060878105224310322 0.18294617317624959 0 0.060593708205048717 0.16423968203839051 0 0.045487140754732668 0.1756325025852869 0 0.048758923614350809 0.19567786333931811 0 0.045487140754732668 0.1756325025852869 0 0.060878105224310322 0.18294617317624959 0 0.048758923614350809 0.19567786333931811 0 0.035288459128142227 0.16085492036490059 0 0.060593708205048717 0.16423968203839051 0 0.051295357568197773 0.14776104691351119 0 0.035288459128142227 0.16085492036490059 0 0.045487140754732668 0.1756325025852869 0 0.060593708205048717 0.16423968203839051 0 0.047288900748790323 0.1151588161154472 0 0.059339702065863892 0.13057700641282291 0 0.037985509702662852 0.13809464650321229 0 0.051295357568197773 0.14776104691351119 0 0.059339702065863892 0.13057700641282291 0 0.037985509702662852 0.13809464650321229 0 0.047288900748790323 0.1151588161154472 0 0.026719444247948969 0.1244823219329763 0 0.037985509702662852 0.13809464650321229 0 0.035288459128142227 0.16085492036490059 0 0.051295357568197773 0.14776104691351119 0 0.037985509702662852 0.13809464650321229 0 0.029538426512437242 0.24676143775986309 0 0.018570022172103962 0.24066617337593721 0 0.032045236836732917 0.23477605182860181 0 0.029538426512437242 0.24676143775986309 0 0.018570022172103962 0.24066617337593721 0 0.022132016671386961 0.25245973457324739 0 0.018570022172103962 0.24066617337593721 0 0.011003056284647339 0.25476209704203712 0 0.022132016671386961 0.25245973457324739 0 0.018570022172103962 0.24066617337593721 0 0.0055251154326985304 0.24248337757999319 0 0.00081703479512371113 0.22939100953043801 0 -0.0073964723180061174 0.24596544541674961 0 0.0055251154326985304 0.24248337757999319 0 0.011003056284647339 0.25476209704203712 0 0.018570022172103962 0.24066617337593721 0 0.0055251154326985304 0.24248337757999319 0 0.011003056284647339 0.25476209704203712 0 0.00081703479512371113 0.22939100953043801 0 0.02717811631962817 0.21997691120138141 0 0.0076062033559146274 0.2120033846671707 0 0.00081703479512371113 0.22939100953043801 0 0.02717811631962817 0.21997691120138141 0 0.018570022172103962 0.24066617337593721 0 0.00081703479512371113 0.22939100953043801 0 0.02717811631962817 0.21997691120138141 0 0.018570022172103962 0.24066617337593721 0 0.02717811631962817 0.21997691120138141 0 0.032045236836732917 0.23477605182860181 0 0.02717811631962817 0.21997691120138141 0 0.025167859882190901 0.1952240267605248 0 0.037874701184501952 0.20774406363244499 0 0.02717811631962817 0.21997691120138141 0 0.0076062033559146274 0.2120033846671707 0 0.025167859882190901 0.1952240267605248 0 0.0076062033559146274 0.2120033846671707 0 0.00231455973472771 0.19614268912411009 0 0.025167859882190901 0.1952240267605248 0 0.01751487303827336 0.17244553779170629 0 0.00231455973472771 0.19614268912411009 0 0.025167859882190901 0.1952240267605248 0 0.030825735641889909 0.1799659348357231 0 0.025167859882190901 0.1952240267605248 0 0.048758923614350809 0.19567786333931811 0 0.025167859882190901 0.1952240267605248 0 0.048758923614350809 0.19567786333931811 0 0.037874701184501952 0.20774406363244499 0 0.060878105224310322 0.18294617317624959 0 0.048758923614350809 0.19567786333931811 0 0.06150902696746037 0.19955996647210569 0 0.048758923614350809 0.19567786333931811 0 0.05203070647396895 0.21572322409334951 0 0.048758923614350809 0.19567786333931811 0 0.06150902696746037 0.19955996647210569 0 0.05203070647396895 0.21572322409334951 0 0.06150902696746037 0.19955996647210569 0 0.05203070647396895 0.21572322409334951 0 0.066616551965477597 0.21062635313636971 0 0.05203070647396895 0.21572322409334951 0 0.06294306932519865 0.22166808943744479 0 0.066616551965477597 0.21062635313636971 0 0.02717811631962817 0.21997691120138141 0 0.037874701184501952 0.20774406363244499 0 0.042105424078247522 0.22752987807466299 0 0.05203070647396895 0.21572322409334951 0 0.037874701184501952 0.20774406363244499 0 0.042105424078247522 0.22752987807466299 0 0.048758923614350809 0.19567786333931811 0 0.05203070647396895 0.21572322409334951 0 0.037874701184501952 0.20774406363244499 0 0.042105424078247522 0.22752987807466299 0 0.037899363463478053 0.2387894280714789 0 0.032045236836732917 0.23477605182860181 0 0.02717811631962817 0.21997691120138141 0 0.042105424078247522 0.22752987807466299 0 0.032045236836732917 0.23477605182860181 0 0.05203070647396895 0.21572322409334951 0 0.05530248933358687 0.23576858484738089 0 0.06294306932519865 0.22166808943744479 0 0.05203070647396895 0.21572322409334951 0 0.05530248933358687 0.23576858484738089 0 0.05203070647396895 0.21572322409334951 0 0.042105424078247522 0.22752987807466299 0 0.05530248933358687 0.23576858484738089 0 0.05530248933358687 0.23576858484738089 0 0.051680701138755211 0.2447037550343846 0 0.045141991043535432 0.24082824642218531 0 0.05530248933358687 0.23576858484738089 0 0.058535721190617153 0.25557775365730551 0 0.042105424078247522 0.22752987807466299 0 0.05530248933358687 0.23576858484738089 0 0.045141991043535432 0.24082824642218531 0 0.05530248933358687 0.23576858484738089 0 0.065548467388690065 0.2440099168503666 0 0.058535721190617153 0.25557775365730551 0 0.05530248933358687 0.23576858484738089 0 0.051680701138755211 0.2447037550343846 0 0.058535721190617153 0.25557775365730551 0 0.05530248933358687 0.23576858484738089 0 0.045141991043535432 0.24082824642218531 0 0.051680701138755211 0.2447037550343846 0 0.047965014048372397 0.2485014103471137 0 0.045141991043535432 0.24082824642218531 0 0.051680701138755211 0.2447037550343846 0 0.047965014048372397 0.2485014103471137 0 0.05176115807188883 0.25100255985287662 0 0.047965014048372397 0.2485014103471137 0 0.041690168459959077 0.24528883050625999 0 0.045141991043535432 0.24082824642218531 0 0.042105424078247522 0.22752987807466299 0 0.045141991043535432 0.24082824642218531 0 0.037899363463478053 0.2387894280714789 0 0.041690168459959077 0.24528883050625999 0 0.045141991043535432 0.24082824642218531 0 0.037899363463478053 0.2387894280714789 0 0.037899363463478053 0.2387894280714789 0 0.032045236836732917 0.23477605182860181 0 0.035570197895927143 0.24359492000481869 0 0.029538426512437242 0.24676143775986309 0 0.032045236836732917 0.23477605182860181 0 0.035570197895927143 0.24359492000481869 0 0.029538426512437242 0.24676143775986309 0 0.035570197895927143 0.24359492000481869 0 0.03664919285105489 0.25055911942351589 0 0.041690168459959077 0.24528883050625999 0 0.035570197895927143 0.24359492000481869 0 0.03664919285105489 0.25055911942351589 0 0.041690168459959077 0.24528883050625999 0 0.037899363463478053 0.2387894280714789 0 0.035570197895927143 0.24359492000481869 0 0.085774276331296875 0.23664479247268519 0 0.077528559488186502 0.24404334712007811 0 0.094721653028028263 0.2524647309139062 0 0.085774276331296875 0.23664479247268519 0 0.093024363281212691 0.22551689618407941 0 0.094721653028028263 0.2524647309139062 0 0.085774276331296875 0.23664479247268519 0 0.077528559488186502 0.24404334712007811 0 0.077822529527760684 0.22455419567267909 0 0.077528559488186502 0.24404334712007811 0 0.065548467388690065 0.2440099168503666 0 0.077822529527760684 0.22455419567267909 0 0.05530248933358687 0.23576858484738089 0 0.065548467388690065 0.2440099168503666 0 0.077822529527760684 0.22455419567267909 0 0.077528559488186502 0.24404334712007811 0 0.065548467388690065 0.2440099168503666 0 0.068278184641193063 0.25385239848015118 0 0.05530248933358687 0.23576858484738089 0 0.077822529527760684 0.22455419567267909 0 0.05530248933358687 0.23576858484738089 0 0.06294306932519865 0.22166808943744479 0 0.077822529527760684 0.22455419567267909 0 0.077528559488186502 0.24404334712007811 0 0.077822529527760684 0.22455419567267909 0 0.06294306932519865 0.22166808943744479 0 0.077822529527760684 0.22455419567267909 0 0.066616551965477597 0.21062635313636971 0 0.077822529527760684 0.22455419567267909 0 0.094082312541434926 0.21645725032802771 0 0.077822529527760684 0.22455419567267909 0 0.093024363281212691 0.22551689618407941 0 0.094082312541434926 0.21645725032802771 0 0.085774276331296875 0.23664479247268519 0 0.077822529527760684 0.22455419567267909 0 0.093024363281212691 0.22551689618407941 0 0.078218831826363869 0.198280785200147 0 0.097238533929582371 0.19977429197146529 0 0.094082312541434926 0.21645725032802771 0 0.077822529527760684 0.22455419567267909 0 0.078218831826363869 0.198280785200147 0 0.094082312541434926 0.21645725032802771 0 0.077822529527760684 0.22455419567267909 0 0.076420976339125646 0.19977737849653171 0 0.078218831826363869 0.198280785200147 0 0.077822529527760684 0.22455419567267909 0 0.078218831826363869 0.198280785200147 0 0.077822529527760684 0.22455419567267909 0 0.066616551965477597 0.21062635313636971 0 0.076420976339125646 0.19977737849653171 0 0.06150902696746037 0.19955996647210569 0 0.066616551965477597 0.21062635313636971 0 0.068846712045215225 0.20041442372442919 0 0.066616551965477597 0.21062635313636971 0 0.076420976339125646 0.19977737849653171 0 0.068846712045215225 0.20041442372442919 0 0.076420976339125646 0.19977737849653171 0 0.068846712045215225 0.20041442372442919 0 0.070840292908797314 0.19169399679270949 0 0.060878105224310322 0.18294617317624959 0 0.06150902696746037 0.19955996647210569 0 0.070840292908797314 0.19169399679270949 0 0.076420976339125646 0.19977737849653171 0 0.070840292908797314 0.19169399679270949 0 0.078218831826363869 0.198280785200147 0 0.076420976339125646 0.19977737849653171 0 0.078218831826363869 0.198280785200147 0 0.06150902696746037 0.19955996647210569 0 0.068846712045215225 0.20041442372442919 0 0.070840292908797314 0.19169399679270949 0 0.078218831826363869 0.198280785200147 0 0.097238533929582371 0.19977429197146529 0 0.094672305952759994 0.18458437897923341 0 0.078218831826363869 0.198280785200147 0 0.094672305952759994 0.18458437897923341 0 0.097238533929582371 0.19977429197146529 0 0.11073393781712861 0.1896241388708442 0 0.094672305952759994 0.18458437897923341 0 0.097238533929582371 0.19977429197146529 0 0.11073393781712861 0.1896241388708442 0 0.110342095555107 0.20836030498337199 0 0.11073393781712861 0.1896241388708442 0 0.110342095555107 0.20836030498337199 0 0.1112441718038065 0.191271267162236 0 0.11834436274991519 0.1881007350012357 0 0.1118336340411787 0.207617557949731 0 0.1112441718038065 0.191271267162236 0 0.110342095555107 0.20836030498337199 0 0.1118336340411787 0.207617557949731 0 0.11834436274991519 0.1881007350012357 0 0.1118336340411787 0.207617557949731 0 0.13476006963941481 0.19620079452610761 0 0.11073393781712861 0.1896241388708442 0 0.1112441718038065 0.191271267162236 0 0.110342095555107 0.20836030498337199 0 0.1118336340411787 0.207617557949731 0 0.13476006963941481 0.19620079452610761 0 0.1112441718038065 0.191271267162236 0 0.1118336340411787 0.207617557949731 0 0.11073393781712861 0.1896241388708442 0 0.1112441718038065 0.191271267162236 0 0.11834436274991519 0.1881007350012357 0 0.110342095555107 0.20836030498337199 0 0.1118336340411787 0.207617557949731 0 0.11256198466170859 0.2278153421054698 0 0.1118336340411787 0.207617557949731 0 0.11256198466170859 0.2278153421054698 0 0.1118336340411787 0.207617557949731 0 0.1190482607424337 0.2185770417268679 0 0.12964795323621439 0.21592618210674289 0 0.1118336340411787 0.207617557949731 0 0.1190482607424337 0.2185770417268679 0 0.11256198466170859 0.2278153421054698 0 0.110342095555107 0.20836030498337199 0 0.1118336340411787 0.207617557949731 0 0.110342095555107 0.20836030498337199 0 0.094082312541434926 0.21645725032802771 0 0.097238533929582371 0.19977429197146529 0 0.110342095555107 0.20836030498337199 0 0.094082312541434926 0.21645725032802771 0 0.093024363281212691 0.22551689618407941 0 0.094082312541434926 0.21645725032802771 0 0.1097916164846965 0.23468178253749999 0 0.110342095555107 0.20836030498337199 0 0.094082312541434926 0.21645725032802771 0 0.1097916164846965 0.23468178253749999 0 0.110342095555107 0.20836030498337199 0 0.11256198466170859 0.2278153421054698 0 0.1097916164846965 0.23468178253749999 0 0.110342095555107 0.20836030498337199 0 0.1097916164846965 0.23468178253749999 0 0.1190482607424337 0.2185770417268679 0 0.1233076911337095 0.2271403827435482 0 0.12964795323621439 0.21592618210674289 0 0.1190482607424337 0.2185770417268679 0 0.1233076911337095 0.2271403827435482 0 0.11256198466170859 0.2278153421054698 0 0.1233076911337095 0.2271403827435482 0 0.11256198466170859 0.2278153421054698 0 0.12013826102235881 0.23728147107358991 0 0.1233076911337095 0.2271403827435482 0 0.12013826102235881 0.23728147107358991 0 0.1267350715644939 0.23666717217591371 0 0.1097916164846965 0.23468178253749999 0 0.1132903352822376 0.24801312626120869 0 0.1092411374142887 0.26100326009162811 0 0.1097916164846965 0.23468178253749999 0 0.1092411374142887 0.26100326009162811 0 0.11256198466170859 0.2278153421054698 0 0.1097916164846965 0.23468178253749999 0 0.1132903352822376 0.24801312626120869 0 0.11256198466170859 0.2278153421054698 0 0.1132903352822376 0.24801312626120869 0 0.11256198466170859 0.2278153421054698 0 0.12013826102235881 0.23728147107358991 0 0.1132903352822376 0.24801312626120869 0 0.12013826102235881 0.23728147107358991 0 0.1247962224696446 0.24677133208180879 0 0.1267350715644939 0.23666717217591371 0 0.12013826102235881 0.23728147107358991 0 0.1247962224696446 0.24677133208180879 0 0.1132903352822376 0.24801312626120869 0 0.093024363281212691 0.22551689618407941 0 0.094721653028028263 0.2524647309139062 0 0.1097916164846965 0.23468178253749999 0 0.1078161922253372 0.2441770434637876 0 0.1092411374142887 0.26100326009162811 0 0.093024363281212691 0.22551689618407941 0 0.1097916164846965 0.23468178253749999 0 0.1078161922253372 0.2441770434637876 0 0.093024363281212691 0.22551689618407941 0 0.1078161922253372 0.2441770434637876 0 0.094721653028028263 0.2524647309139062 0 0.1078161922253372 0.2441770434637876 0 0.094721653028028263 0.2524647309139062 0 0.079074879140631188 0.1415279413454428 0 0.092622379098466268 0.15157783513550099 0 0.089355798233096209 0.13318690657889579 0 0.079074879140631188 0.1415279413454428 0 0.0786468554834963 0.1699043632727949 0 0.079074879140631188 0.1415279413454428 0 0.092622379098466268 0.15157783513550099 0 0.0786468554834963 0.1699043632727949 0 0.079502902797766076 0.1131515194180908 0 0.079074879140631188 0.1415279413454428 0 0.089355798233096209 0.13318690657889579 0 0.079502902797766076 0.1131515194180908 0 0.079074879140631188 0.1415279413454428 0 0.059339702065863892 0.13057700641282291 0 0.079074879140631188 0.1415279413454428 0 0.071355325915070225 0.12534087384750489 0 0.051295357568197773 0.14776104691351119 0 0.059339702065863892 0.13057700641282291 0 0.079074879140631188 0.1415279413454428 0 0.079502902797766076 0.1131515194180908 0 0.079074879140631188 0.1415279413454428 0 0.071355325915070225 0.12534087384750489 0 0.060593708205048717 0.16423968203839051 0 0.051295357568197773 0.14776104691351119 0 0.079074879140631188 0.1415279413454428 0 0.060593708205048717 0.16423968203839051 0 0.079074879140631188 0.1415279413454428 0 0.0786468554834963 0.1699043632727949 0 0.060878105224310322 0.18294617317624959 0 0.070840292908797314 0.19169399679270949 0 0.0786468554834963 0.1699043632727949 0 0.070840292908797314 0.19169399679270949 0 0.078218831826363869 0.198280785200147 0 0.0786468554834963 0.1699043632727949 0 0.060878105224310322 0.18294617317624959 0 0.060593708205048717 0.16423968203839051 0 0.0786468554834963 0.1699043632727949 0 0.078218831826363869 0.198280785200147 0 0.0786468554834963 0.1699043632727949 0 0.094672305952759994 0.18458437897923341 0 0.0786468554834963 0.1699043632727949 0 0.095513495424002171 0.16527122069155289 0 0.094672305952759994 0.18458437897923341 0 0.078218831826363869 0.198280785200147 0 0.0786468554834963 0.1699043632727949 0 0.092622379098466268 0.15157783513550099 0 0.0786468554834963 0.1699043632727949 0 0.095513495424002171 0.16527122069155289 0 0.099692097150098205 0.157505505611297 0 0.095513495424002171 0.16527122069155289 0 0.1047525605871184 0.16136943402615439 0 0.092622379098466268 0.15157783513550099 0 0.099692097150098205 0.157505505611297 0 0.095513495424002171 0.16527122069155289 0 0.1047525605871184 0.16136943402615439 0 0.1111257800791533 0.17088797275831641 0 0.1114740447506421 0.15423549453289681 0 0.095513495424002171 0.16527122069155289 0 0.1047525605871184 0.16136943402615439 0 0.1111257800791533 0.17088797275831641 0 0.099692097150098205 0.157505505611297 0 0.1047525605871184 0.16136943402615439 0 0.10587995349080601 0.15180353259197979 0 0.095513495424002171 0.16527122069155289 0 0.094672305952759994 0.18458437897923341 0 0.1111257800791533 0.17088797275831641 0 0.094672305952759994 0.18458437897923341 0 0.1111257800791533 0.17088797275831641 0 0.11073393781712861 0.1896241388708442 0 0.094672305952759994 0.18458437897923341 0 0.1111257800791533 0.17088797275831641 0 0.11073393781712861 0.1896241388708442 0 0.11834436274991519 0.1881007350012357 0 0.1111257800791533 0.17088797275831641 0 0.11834436274991519 0.1881007350012357 0 0.1111257800791533 0.17088797275831641 0 0.1265368924244456 0.17668874625573361 0 0.11073393781712861 0.1896241388708442 0 0.1111257800791533 0.17088797275831641 0 0.1111257800791533 0.17088797275831641 0 0.1114740447506421 0.15423549453289681 0 0.1111257800791533 0.17088797275831641 0 0.1243867321591297 0.15984912557210981 0 0.1114740447506421 0.15423549453289681 0 0.1111257800791533 0.17088797275831641 0 0.1243867321591297 0.15984912557210981 0 0.1265368924244456 0.17668874625573361 0 0.1111257800791533 0.17088797275831641 0 0.1243867321591297 0.15984912557210981 0 0.1243867321591297 0.15984912557210981 0 0.1114740447506421 0.15423549453289681 0 0.1243867321591297 0.15984912557210981 0 0.1199079326122082 0.15588464641971031 0 0.1114740447506421 0.15423549453289681 0 0.12386828636735971 0.145865459692885 0 0.1118599333128197 0.13578400804826249 0 0.1286435695064724 0.14375836051585711 0 0.1243867321591297 0.15984912557210981 0 0.1237416211648487 0.15213202474892659 0 0.1199079326122082 0.15588464641971031 0 0.1237416211648487 0.15213202474892659 0 0.12386828636735971 0.145865459692885 0 0.1169052534022533 0.1489379059966936 0 0.1237416211648487 0.15213202474892659 0 0.1199079326122082 0.15588464641971031 0 0.1169052534022533 0.1489379059966936 0 0.1199079326122082 0.15588464641971031 0 0.1169052534022533 0.1489379059966936 0 0.12386828636735971 0.145865459692885 0 0.1169052534022533 0.1489379059966936 0 0.1118599333128197 0.13578400804826249 0 0.12386828636735971 0.145865459692885 0 0.1118599333128197 0.13578400804826249 0 0.12386828636735971 0.145865459692885 0 0.1169052534022533 0.1489379059966936 0 0.11153528174065851 0.1513074121681996 0 0.1081653001988042 0.14833168309157929 0 0.1087298512554933 0.1425027165315445 0 0.11153528174065851 0.1513074121681996 0 0.1087298512554933 0.1425027165315445 0 0.1118599333128197 0.13578400804826249 0 0.11153528174065851 0.1513074121681996 0 0.1118599333128197 0.13578400804826249 0 0.1169052534022533 0.1489379059966936 0 0.1118599333128197 0.13578400804826249 0 0.1169052534022533 0.1489379059966936 0 0.11153528174065851 0.1513074121681996 0 0.1118599333128197 0.13578400804826249 0 0.1199079326122082 0.15588464641971031 0 0.1169052534022533 0.1489379059966936 0 0.1114740447506421 0.15423549453289681 0 0.1169052534022533 0.1489379059966936 0 0.11153528174065851 0.1513074121681996 0 0.1114740447506421 0.15423549453289681 0 0.1169052534022533 0.1489379059966936 0 0.11153528174065851 0.1513074121681996 0 0.11153528174065851 0.1513074121681996 0 0.1091012003279021 0.15238145339093481 0 0.1081653001988042 0.14833168309157929 0 0.11153528174065851 0.1513074121681996 0 0.1091012003279021 0.15238145339093481 0 0.11153528174065851 0.1513074121681996 0 0.1114740447506421 0.15423549453289681 0 0.1091012003279021 0.15238145339093481 0 0.11153528174065851 0.1513074121681996 0 0.1114740447506421 0.15423549453289681 0 0.1114740447506421 0.15423549453289681 0 0.10587995349080601 0.15180353259197979 0 0.1114740447506421 0.15423549453289681 0 0.1091012003279021 0.15238145339093481 0 0.10587995349080601 0.15180353259197979 0 0.1047525605871184 0.16136943402615439 0 0.1114740447506421 0.15423549453289681 0 0.10587995349080601 0.15180353259197979 0 0.092622379098466268 0.15157783513550099 0 0.089355798233096209 0.13318690657889579 0 0.1012634504862428 0.14073717339302819 0 0.1091012003279021 0.15238145339093481 0 0.10587995349080601 0.15180353259197979 0 0.1081653001988042 0.14833168309157929 0 0.10587995349080601 0.15180353259197979 0 0.1081653001988042 0.14833168309157929 0 0.1012634504862428 0.14073717339302819 0 0.1081653001988042 0.14833168309157929 0 0.1087298512554933 0.1425027165315445 0 0.1012634504862428 0.14073717339302819 0 0.092622379098466268 0.15157783513550099 0 0.10587995349080601 0.15180353259197979 0 0.1012634504862428 0.14073717339302819 0 0.092622379098466268 0.15157783513550099 0 0.099692097150098205 0.157505505611297 0 0.10587995349080601 0.15180353259197979 0 0.1016932633850083 0.11374475395530841 0 0.1119355413279146 0.13216876674437439 0 0.1118599333128197 0.13578400804826249 0 0.093998544074809981 0.1207887184285326 0 0.1118599333128197 0.13578400804826249 0 0.093998544074809981 0.1207887184285326 0 0.089355798233096209 0.13318690657889579 0 0.1012634504862428 0.14073717339302819 0 0.093998544074809981 0.1207887184285326 0 0.1012634504862428 0.14073717339302819 0 0.1118599333128197 0.13578400804826249 0 0.1087298512554933 0.1425027165315445 0 0.1012634504862428 0.14073717339302819 0 0.1118599333128197 0.13578400804826249 0 0.11509535145098659 0.12764043256033261 0 0.1118599333128197 0.13578400804826249 0 0.1286435695064724 0.14375836051585711 0 0.11509535145098659 0.12764043256033261 0 0.1263047527183295 0.13145484659144471 0 0.1286435695064724 0.14375836051585711 0 0.11509535145098659 0.12764043256033261 0 0.1286435695064724 0.14375836051585711 0 0.1119355413279146 0.13216876674437439 0 0.11509535145098659 0.12764043256033261 0 0.1118599333128197 0.13578400804826249 0 0.1119355413279146 0.13216876674437439 0 0.1118599333128197 0.13578400804826249 0 0.11509535145098659 0.12764043256033261 0 0.1225863121682329 0.12530534301489529 0 0.1263047527183295 0.13145484659144471 0 0.11915773775151089 0.12281016184854129 0 0.11509535145098659 0.12764043256033261 0 0.1225863121682329 0.12530534301489529 0 0.1358831611393494 0.1316308012019306 0 0.14468119009079769 0.13668174198868571 0 0.1286435695064724 0.14375836051585711 0 0.1225863121682329 0.12530534301489529 0 0.1263047527183295 0.13145484659144471 0 0.13220205993800449 0.122955312111125 0 0.1263047527183295 0.13145484659144471 0 0.1358831611393494 0.1316308012019306 0 0.13220205993800449 0.122955312111125 0 0.14468119009079769 0.13668174198868571 0 0.1286435695064724 0.14375836051585711 0 0.1263047527183295 0.13145484659144471 0 0.1358831611393494 0.1316308012019306 0 0.1286435695064724 0.14375836051585711 0 0.1358831611393494 0.1316308012019306 0 0.13220205993800449 0.122955312111125 0 0.14780729971058071 0.1220551881468436 0 0.14468119009079769 0.13668174198868571 0 0.16114420170319019 0.12941741918115171 0 0.14780729971058071 0.1220551881468436 0 0.14468119009079769 0.13668174198868571 0 0.14778371003376831 0.14037272132756279 0 0.16114420170319019 0.12941741918115171 0 0.14468119009079769 0.13668174198868571 0 0.16114420170319019 0.12941741918115171 0 0.1358831611393494 0.1316308012019306 0 0.14468119009079769 0.13668174198868571 0 0.14780729971058071 0.1220551881468436 0 0.14778371003376831 0.14037272132756279 0 0.16114420170319019 0.12941741918115171 0 0.14778371003376831 0.14037272132756279 0 0.1348486093924135 0.1511403191936109 0 0.15394430447522819 0.1567081847260465 0 0.14778371003376831 0.14037272132756279 0 0.15394430447522819 0.1567081847260465 0 0.16147397487024859 0.1488226435542043 0 0.14468119009079769 0.13668174198868571 0 0.14778371003376831 0.14037272132756279 0 0.1348486093924135 0.1511403191936109 0 0.14778371003376831 0.14037272132756279 0 0.1348486093924135 0.1511403191936109 0 0.14468119009079769 0.13668174198868571 0 0.1348486093924135 0.1511403191936109 0 0.1286435695064724 0.14375836051585711 0 0.1348486093924135 0.1511403191936109 0 0.1286435695064724 0.14375836051585711 0 0.12386828636735971 0.145865459692885 0 0.1286435695064724 0.14375836051585711 0 0.12386828636735971 0.145865459692885 0 0.1286435695064724 0.14375836051585711 0 0.13042250336198141 0.15136796460754701 0 0.1243867321591297 0.15984912557210981 0 0.1237416211648487 0.15213202474892659 0 0.13042250336198141 0.15136796460754701 0 0.1243867321591297 0.15984912557210981 0 0.1348486093924135 0.1511403191936109 0 0.13042250336198141 0.15136796460754701 0 0.1243867321591297 0.15984912557210981 0 0.13385923042340001 0.15612806794313841 0 0.1348486093924135 0.1511403191936109 0 0.1243867321591297 0.15984912557210981 0 0.1348486093924135 0.1511403191936109 0 0.1348486093924135 0.1511403191936109 0 0.1286435695064724 0.14375836051585711 0 0.13042250336198141 0.15136796460754701 0 0.1237416211648487 0.15213202474892659 0 0.12386828636735971 0.145865459692885 0 0.13042250336198141 0.15136796460754701 0 0.12386828636735971 0.145865459692885 0 0.13042250336198141 0.15136796460754701 0 0.13385923042340001 0.15612806794313841 0 0.1348486093924135 0.1511403191936109 0 0.1440675174946156 0.1684051034208979 0 0.1243867321591297 0.15984912557210981 0 0.13385923042340001 0.15612806794313841 0 0.1440675174946156 0.1684051034208979 0 0.1243867321591297 0.15984912557210981 0 0.1440675174946156 0.1684051034208979 0 0.1243867321591297 0.15984912557210981 0 0.1265368924244456 0.17668874625573361 0 0.1440675174946156 0.1684051034208979 0 0.13385923042340001 0.15612806794313841 0 0.1440675174946156 0.1684051034208979 0 0.1265368924244456 0.17668874625573361 0 0.1440675174946156 0.1684051034208979 0 0.13476006963941481 0.19620079452610761 0 0.11834436274991519 0.1881007350012357 0 0.1265368924244456 0.17668874625573361 0 0.13476006963941481 0.19620079452610761 0 0.1440675174946156 0.1684051034208979 0 0.15778723233531139 0.18473387165055369 0 0.13476006963941481 0.19620079452610761 0 0.1524090602627553 0.17203148590169601 0 0.1440675174946156 0.1684051034208979 0 0.15778723233531139 0.18473387165055369 0 0.1440675174946156 0.1684051034208979 0 0.15778723233531139 0.18473387165055369 0 0.1348486093924135 0.1511403191936109 0 0.1524090602627553 0.17203148590169601 0 0.1440675174946156 0.1684051034208979 0 0.1348486093924135 0.1511403191936109 0 0.1524090602627553 0.17203148590169601 0 0.1348486093924135 0.1511403191936109 0 0.1524090602627553 0.17203148590169601 0 0.15394430447522819 0.1567081847260465 0 0.1524090602627553 0.17203148590169601 0 0.1440675174946156 0.1684051034208979 0 0.1524090602627553 0.17203148590169601 0 0.15394430447522819 0.1567081847260465 0 0.1603998306941567 0.16542638550260799 0 0.1524090602627553 0.17203148590169601 0 0.1603998306941567 0.16542638550260799 0 0.1688518258570782 0.17303459958529829 0 0.15394430447522819 0.1567081847260465 0 0.1603998306941567 0.16542638550260799 0 0.16639413218156501 0.15993127179739131 0 0.1603998306941567 0.16542638550260799 0 0.16639413218156501 0.15993127179739131 0 0.1688518258570782 0.17303459958529829 0 0.16639413218156501 0.15993127179739131 0 0.1688518258570782 0.17303459958529829 0 0.17481938217338941 0.1678098751515853 0 0.1524090602627553 0.17203148590169601 0 0.17949190002783591 0.18380541530351369 0 0.1524090602627553 0.17203148590169601 0 0.1650578856249415 0.18707943206515279 0 0.17949190002783591 0.18380541530351369 0 0.1524090602627553 0.17203148590169601 0 0.1688518258570782 0.17303459958529829 0 0.17949190002783591 0.18380541530351369 0 0.1524090602627553 0.17203148590169601 0 0.15778723233531139 0.18473387165055369 0 0.1650578856249415 0.18707943206515279 0 0.1524090602627553 0.17203148590169601 0 0.1650578856249415 0.18707943206515279 0 0.17949190002783591 0.18380541530351369 0 0.18329760823086561 0.1730141468509831 0 0.1804836918036436 0.19091556709612051 0 0.18329760823086561 0.1730141468509831 0 0.1804836918036436 0.19091556709612051 0 0.18329760823086561 0.1730141468509831 0 0.1846222012883017 0.1764733887359691 0 0.1804836918036436 0.19091556709612051 0 0.1650578856249415 0.18707943206515279 0 0.17949190002783591 0.18380541530351369 0 0.17244580028963241 0.1903043379501568 0 0.1688518258570782 0.17303459958529829 0 0.17949190002783591 0.18380541530351369 0 0.17661517907229199 0.17441600922284509 0 0.17949190002783591 0.18380541530351369 0 0.17661517907229199 0.17441600922284509 0 0.18329760823086561 0.1730141468509831 0 0.18329760823086561 0.1730141468509831 0 0.1846222012883017 0.1764733887359691 0 0.19058217548333731 0.17383886691981071 0 0.18329760823086561 0.1730141468509831 0 0.1846222012883017 0.1764733887359691 0 0.1846222012883017 0.1764733887359691 0 0.1804836918036436 0.19091556709612051 0 0.18795134370496391 0.18524142722571951 0 0.1846222012883017 0.1764733887359691 0 0.18795134370496391 0.18524142722571951 0 0.18955448671705941 0.17868967478534459 0 0.18329760823086561 0.1730141468509831 0 0.18596787729889591 0.15602657455068611 0 0.18329760823086561 0.1730141468509831 0 0.17744393609180009 0.1577269854614696 0 0.18596787729889591 0.15602657455068611 0 0.18329760823086561 0.1730141468509831 0 0.18596787729889591 0.15602657455068611 0 0.19154284269764749 0.16560655629025059 0 0.16639413218156501 0.15993127179739131 0 0.17744393609180009 0.1577269854614696 0 0.17481938217338941 0.1678098751515853 0 0.16639413218156501 0.15993127179739131 0 0.17744393609180009 0.1577269854614696 0 0.18329760823086561 0.1730141468509831 0 0.17744393609180009 0.1577269854614696 0 0.17481938217338941 0.1678098751515853 0 0.17661517907229199 0.17441600922284509 0 0.18329760823086561 0.1730141468509831 0 0.17481938217338941 0.1678098751515853 0 0.1688518258570782 0.17303459958529829 0 0.17661517907229199 0.17441600922284509 0 0.17481938217338941 0.1678098751515853 0 0.18329760823086561 0.1730141468509831 0 0.17744393609180009 0.1577269854614696 0 0.17744393609180009 0.1577269854614696 0 0.18596787729889591 0.15602657455068611 0 0.17744393609180009 0.1577269854614696 0 0.18596787729889591 0.15602657455068611 0 0.18243038605856721 0.15287709543758929 0 0.17744393609180009 0.1577269854614696 0 0.17401216321291979 0.14467632612285081 0 0.17114460151781441 0.141275954041997 0 0.17744393609180009 0.1577269854614696 0 0.18243038605856721 0.15287709543758929 0 0.17931029474009841 0.14928414578501681 0 0.18596787729889591 0.15602657455068611 0 0.1862035959224112 0.15452699265182629 0 0.19019796585243601 0.14961754319257231 0 0.17744393609180009 0.1577269854614696 0 0.17114460151781441 0.141275954041997 0 0.18596787729889591 0.15602657455068611 0 0.1862035959224112 0.15452699265182629 0 0.18596787729889591 0.15602657455068611 0 0.1862035959224112 0.15452699265182629 0 0.18243038605856721 0.15287709543758929 0 0.1862035959224112 0.15452699265182629 0 0.18401852999586099 0.14824923853887589 0 0.19019796585243601 0.14961754319257231 0 0.1862035959224112 0.15452699265182629 0 0.18243038605856721 0.15287709543758929 0 0.18401852999586099 0.14824923853887589 0 0.18243038605856721 0.15287709543758929 0 0.17931029474009841 0.14928414578501681 0 0.18401852999586099 0.14824923853887589 0 0.17744393609180009 0.1577269854614696 0 0.17931029474009841 0.14928414578501681 0 0.17401216321291979 0.14467632612285081 0 0.17401216321291979 0.14467632612285081 0 0.1762549152309556 0.1397400951154571 0 0.17114460151781441 0.141275954041997 0 0.17401216321291979 0.14467632612285081 0 0.17114460151781441 0.141275954041997 0 0.17931029474009841 0.14928414578501681 0 0.17401216321291979 0.14467632612285081 0 0.1789541090124156 0.14349248639201731 0 0.17401216321291979 0.14467632612285081 0 0.1789541090124156 0.14349248639201731 0 0.1762549152309556 0.1397400951154571 0 0.1789541090124156 0.14349248639201731 0 0.18401852999586099 0.14824923853887589 0 0.18156608953810119 0.13766502214213541 0 0.17931029474009841 0.14928414578501681 0 0.1789541090124156 0.14349248639201731 0 0.18401852999586099 0.14824923853887589 0 0.18156608953810119 0.13766502214213541 0 0.18349370697376649 0.1303570718396031 0 0.1755976128735274 0.13159068687828501 0 0.18156608953810119 0.13766502214213541 0 0.18349370697376649 0.1303570718396031 0 0.19143517945983121 0.13467991059459589 0 0.18401852999586099 0.14824923853887589 0 0.18156608953810119 0.13766502214213541 0 0.19143517945983121 0.13467991059459589 0 0.18349370697376649 0.1303570718396031 0 0.18816584327429409 0.123294224477854 0 0.17906421607901549 0.12151019222860179 0 0.18349370697376649 0.1303570718396031 0 0.1755976128735274 0.13159068687828501 0 0.17906421607901549 0.12151019222860179 0 0.1755976128735274 0.13159068687828501 0 0.16581467060654151 0.1273565694061958 0 0.17906421607901549 0.12151019222860179 0 0.18156608953810119 0.13766502214213541 0 0.1755976128735274 0.13159068687828501 0 0.1762549152309556 0.1397400951154571 0 0.1755976128735274 0.13159068687828501 0 0.1762549152309556 0.1397400951154571 0 0.17114460151781441 0.141275954041997 0 0.1789541090124156 0.14349248639201731 0 0.18156608953810119 0.13766502214213541 0 0.1762549152309556 0.1397400951154571 0 0.16581467060654151 0.1273565694061958 0 0.17114460151781441 0.141275954041997 0 0.1755976128735274 0.13159068687828501 0 0.16581467060654151 0.1273565694061958 0 0.17114460151781441 0.141275954041997 0 0.16114420170319019 0.12941741918115171 0 0.16045305976002891 0.13789877231328601 0 0.17114460151781441 0.141275954041997 0 0.16114420170319019 0.12941741918115171 0 0.17114460151781441 0.141275954041997 0 0.16581467060654151 0.1273565694061958 0 0.16114420170319019 0.12941741918115171 0 0.17114460151781441 0.141275954041997 0 0.16581467060654151 0.1273565694061958 0 0.16523586253313211 0.12584498279499209 0 0.16114420170319019 0.12941741918115171 0 0.16581467060654151 0.1273565694061958 0 0.16523586253313211 0.12584498279499209 0 0.16523586253313211 0.12584498279499209 0 0.16114420170319019 0.12941741918115171 0 0.16581467060654151 0.1273565694061958 0 0.16114420170319019 0.12941741918115171 0 0.14778371003376831 0.14037272132756279 0 0.16114420170319019 0.12941741918115171 0 0.16045305976002891 0.13789877231328601 0 0.16639413218156501 0.15993127179739131 0 0.17744393609180009 0.1577269854614696 0 0.16147397487024859 0.1488226435542043 0 0.17744393609180009 0.1577269854614696 0 0.16147397487024859 0.1488226435542043 0 0.17114460151781441 0.141275954041997 0 0.14778371003376831 0.14037272132756279 0 0.16045305976002891 0.13789877231328601 0 0.16147397487024859 0.1488226435542043 0 0.15394430447522819 0.1567081847260465 0 0.16639413218156501 0.15993127179739131 0 0.16147397487024859 0.1488226435542043 0 0.16045305976002891 0.13789877231328601 0 0.16147397487024859 0.1488226435542043 0 0.17114460151781441 0.141275954041997 0 0.15257509911684189 0.2487488013275852 0 0.14414592160026549 0.23686924808704179 0 0.15593737212073841 0.2307235920877681 0 0.15257509911684189 0.2487488013275852 0 0.14414592160026549 0.23686924808704179 0 0.13483905121851 0.24408860570344321 0 0.1247962224696446 0.24677133208180879 0 0.13483905121851 0.24408860570344321 0 0.1341160518439613 0.25890554388568071 0 0.1247962224696446 0.24677133208180879 0 0.13483905121851 0.24408860570344321 0 0.1267350715644939 0.23666717217591371 0 0.13483905121851 0.24408860570344321 0 0.1267350715644939 0.23666717217591371 0 0.13388661465056001 0.22981706580252181 0 0.14414592160026549 0.23686924808704179 0 0.13483905121851 0.24408860570344321 0 0.13388661465056001 0.22981706580252181 0 0.14414592160026549 0.23686924808704179 0 0.13388661465056001 0.22981706580252181 0 0.14313994575824651 0.22314004200550941 0 0.1233076911337095 0.2271403827435482 0 0.1267350715644939 0.23666717217591371 0 0.13388661465056001 0.22981706580252181 0 0.1233076911337095 0.2271403827435482 0 0.13388661465056001 0.22981706580252181 0 0.12964795323621439 0.21592618210674289 0 0.13388661465056001 0.22981706580252181 0 0.14313994575824651 0.22314004200550941 0 0.12964795323621439 0.21592618210674289 0 0.14414592160026549 0.23686924808704179 0 0.14313994575824651 0.22314004200550941 0 0.15593737212073841 0.2307235920877681 0 0.14313994575824651 0.22314004200550941 0 0.15593737212073841 0.2307235920877681 0 0.15493560377746851 0.21682297748238449 0 0.15493560377746851 0.21682297748238449 0 0.14260778828823151 0.21047865140083591 0 0.1536916468216947 0.20229571486510831 0 0.14313994575824651 0.22314004200550941 0 0.15493560377746851 0.21682297748238449 0 0.14260778828823151 0.21047865140083591 0 0.14260778828823151 0.21047865140083591 0 0.12964795323621439 0.21592618210674289 0 0.13476006963941481 0.19620079452610761 0 0.14313994575824651 0.22314004200550941 0 0.14260778828823151 0.21047865140083591 0 0.12964795323621439 0.21592618210674289 0 0.1118336340411787 0.207617557949731 0 0.12964795323621439 0.21592618210674289 0 0.13476006963941481 0.19620079452610761 0 0.15778723233531139 0.18473387165055369 0 0.13476006963941481 0.19620079452610761 0 0.14260778828823151 0.21047865140083591 0 0.13476006963941481 0.19620079452610761 0 0.1536916468216947 0.20229571486510831 0 0.15778723233531139 0.18473387165055369 0 0.13476006963941481 0.19620079452610761 0 0.1536916468216947 0.20229571486510831 0 0.15778723233531139 0.18473387165055369 0 0.1536916468216947 0.20229571486510831 0 0.16768640162706469 0.19681044472999371 0 0.15778723233531139 0.18473387165055369 0 0.16768640162706469 0.19681044472999371 0 0.15778723233531139 0.18473387165055369 0 0.1650578856249415 0.18707943206515279 0 0.16768640162706469 0.19681044472999371 0 0.1536916468216947 0.20229571486510831 0 0.16768640162706469 0.19681044472999371 0 0.16426205261911681 0.20963356637571029 0 0.1650578856249415 0.18707943206515279 0 0.16768640162706469 0.19681044472999371 0 0.17244580028963241 0.1903043379501568 0 0.1804836918036436 0.19091556709612051 0 0.17766977537642231 0.208816987341258 0 0.17949190002783591 0.18380541530351369 0 0.17244580028963241 0.1903043379501568 0 0.1804836918036436 0.19091556709612051 0 0.16768640162706469 0.19681044472999371 0 0.17244580028963241 0.1903043379501568 0 0.1804836918036436 0.19091556709612051 0 0.1804836918036436 0.19091556709612051 0 0.17766977537642231 0.208816987341258 0 0.1904051852313004 0.196221995180835 0 0.16768640162706469 0.19681044472999371 0 0.1804836918036436 0.19091556709612051 0 0.17766977537642231 0.208816987341258 0 0.1804836918036436 0.19091556709612051 0 0.1904051852313004 0.196221995180835 0 0.18795134370496391 0.18524142722571951 0 0.16768640162706469 0.19681044472999371 0 0.17766977537642231 0.208816987341258 0 0.17766977537642231 0.208816987341258 0 0.16426205261911681 0.20963356637571029 0 0.16526112617448391 0.2202671798902805 0 0.16768640162706469 0.19681044472999371 0 0.17766977537642231 0.208816987341258 0 0.16426205261911681 0.20963356637571029 0 0.15493560377746851 0.21682297748238449 0 0.1536916468216947 0.20229571486510831 0 0.16426205261911681 0.20963356637571029 0 0.15493560377746851 0.21682297748238449 0 0.16426205261911681 0.20963356637571029 0 0.16526112617448391 0.2202671798902805 0 0.15593737212073841 0.2307235920877681 0 0.16526112617448391 0.2202671798902805 0 0.17350082697867411 0.2353387761642812 0 0.15593737212073841 0.2307235920877681 0 0.15493560377746851 0.21682297748238449 0 0.16526112617448391 0.2202671798902805 0 0.17766977537642231 0.208816987341258 0 0.16526112617448391 0.2202671798902805 0 0.17350082697867411 0.2353387761642812 0 0.17766977537642231 0.208816987341258 0 0.17350082697867411 0.2353387761642812 0 0.17766977537642231 0.208816987341258 0 0.1949474293427777 0.2295960239453019 0 0.17766977537642231 0.208816987341258 0 0.17350082697867411 0.2353387761642812 0 0.1949474293427777 0.2295960239453019 0 0.17350082697867411 0.2353387761642812 0 0.1949474293427777 0.2295960239453019 0 0.19088572936116729 0.25370130756520798 0 0.15257509911684189 0.2487488013275852 0 0.17350082697867411 0.2353387761642812 0 0.16933187858092549 0.26186056498730442 0 0.17350082697867411 0.2353387761642812 0 0.16933187858092549 0.26186056498730442 0 0.15257509911684189 0.2487488013275852 0 0.15593737212073841 0.2307235920877681 0 0.17350082697867411 0.2353387761642812 0 0.1949474293427777 0.2295960239453019 0 0.21857286887046579 0.23061600247625469 0 0.21222508330913359 0.25037506054934539 0 0.1949474293427777 0.2295960239453019 0 0.21222508330913359 0.25037506054934539 0 0.1949474293427777 0.2295960239453019 0 0.19088572936116729 0.25370130756520798 0 0.21222508330913359 0.25037506054934539 0 0.1949474293427777 0.2295960239453019 0 0.21857286887046579 0.23061600247625469 0 0.2160912383306931 0.2100868143136527 0 0.2160912383306931 0.2100868143136527 0 0.1971822946514154 0.20631337552435081 0 0.20982678960681389 0.19420508501755371 0 0.17766977537642231 0.208816987341258 0 0.1971822946514154 0.20631337552435081 0 0.1904051852313004 0.196221995180835 0 0.1949474293427777 0.2295960239453019 0 0.2160912383306931 0.2100868143136527 0 0.1971822946514154 0.20631337552435081 0 0.17766977537642231 0.208816987341258 0 0.1949474293427777 0.2295960239453019 0 0.1971822946514154 0.20631337552435081 0 0.1971822946514154 0.20631337552435081 0 0.19830218773092451 0.18820753559991399 0 0.20982678960681389 0.19420508501755371 0 0.1971822946514154 0.20631337552435081 0 0.1904051852313004 0.196221995180835 0 0.19830218773092451 0.18820753559991399 0 0.1904051852313004 0.196221995180835 0 0.19830218773092451 0.18820753559991399 0 0.18795134370496391 0.18524142722571951 0 0.19830218773092451 0.18820753559991399 0 0.20982678960681389 0.19420508501755371 0 0.2050550695975199 0.18063944815999541 0 0.2160912383306931 0.2100868143136527 0 0.20982678960681389 0.19420508501755371 0 0.2226200628520312 0.1920608938409234 0 0.20982678960681389 0.19420508501755371 0 0.2226200628520312 0.1920608938409234 0 0.2152913123268102 0.18258584138349651 0 0.2226200628520312 0.1920608938409234 0 0.2320848923449336 0.20552670526115019 0 0.23425112670904299 0.1864960829618654 0 0.2160912383306931 0.2100868143136527 0 0.2226200628520312 0.1920608938409234 0 0.2320848923449336 0.20552670526115019 0 0.24544868239401091 0.19570015869455601 0 0.2320848923449336 0.20552670526115019 0 0.23425112670904299 0.1864960829618654 0 0.24544868239401091 0.19570015869455601 0 0.23884963897379649 0.22206275028958219 0 0.25913713103775649 0.21503730897447779 0 0.24544868239401091 0.19570015869455601 0 0.2320848923449336 0.20552670526115019 0 0.23884963897379649 0.22206275028958219 0 0.24544868239401091 0.19570015869455601 0 0.23884963897379649 0.22206275028958219 0 0.2160912383306931 0.2100868143136527 0 0.2320848923449336 0.20552670526115019 0 0.23884963897379649 0.22206275028958219 0 0.23884963897379649 0.22206275028958219 0 0.22906390573163971 0.24555310806953359 0 0.24616920022930519 0.25355762987910191 0 0.23884963897379649 0.22206275028958219 0 0.24616920022930519 0.25355762987910191 0 0.26283566318311302 0.23596116260481981 0 0.21857286887046579 0.23061600247625469 0 0.2160912383306931 0.2100868143136527 0 0.23884963897379649 0.22206275028958219 0 0.21857286887046579 0.23061600247625469 0 0.23884963897379649 0.22206275028958219 0 0.22906390573163971 0.24555310806953359 0 0.21857286887046579 0.23061600247625469 0 0.22906390573163971 0.24555310806953359 0 0.21222508330913359 0.25037506054934539 0 0.20761644744345881 0.15170797779100589 0 0.21405842325591121 0.13424998184081821 0 0.20196530818753239 0.13783752785932901 0 0.20761644744345881 0.15170797779100589 0 0.22926501758802101 0.14738938103132179 0 0.20761644744345881 0.15170797779100589 0 0.21405842325591121 0.13424998184081821 0 0.22926501758802101 0.14738938103132179 0 0.21405842325591121 0.13424998184081821 0 0.20196530818753239 0.13783752785932901 0 0.19885182892380079 0.1211105826503156 0 0.21405842325591121 0.13424998184081821 0 0.19885182892380079 0.1211105826503156 0 0.20196530818753239 0.13783752785932901 0 0.19143517945983121 0.13467991059459589 0 0.19885182892380079 0.1211105826503156 0 0.20196530818753239 0.13783752785932901 0 0.19143517945983121 0.13467991059459589 0 0.19617535075066139 0.14753702525000989 0 0.19143517945983121 0.13467991059459589 0 0.18816584327429409 0.123294224477854 0 0.19885182892380079 0.1211105826503156 0 0.19143517945983121 0.13467991059459589 0 0.19885182892380079 0.1211105826503156 0 0.18349370697376649 0.1303570718396031 0 0.19143517945983121 0.13467991059459589 0 0.18816584327429409 0.123294224477854 0 0.18401852999586099 0.14824923853887589 0 0.19143517945983121 0.13467991059459589 0 0.19019796585243601 0.14961754319257231 0 0.18596787729889591 0.15602657455068611 0 0.20761644744345881 0.15170797779100589 0 0.19617535075066139 0.14753702525000989 0 0.18596787729889591 0.15602657455068611 0 0.20761644744345881 0.15170797779100589 0 0.18401852999586099 0.14824923853887589 0 0.19143517945983121 0.13467991059459589 0 0.19143517945983121 0.13467991059459589 0 0.19617535075066139 0.14753702525000989 0 0.19019796585243601 0.14961754319257231 0 0.20761644744345881 0.15170797779100589 0 0.20196530818753239 0.13783752785932901 0 0.19617535075066139 0.14753702525000989 0 0.18596787729889591 0.15602657455068611 0 0.19617535075066139 0.14753702525000989 0 0.19019796585243601 0.14961754319257231 0 0.18596787729889591 0.15602657455068611 0 0.20761644744345881 0.15170797779100589 0 0.19980361225015761 0.1618813702742293 0 0.18596787729889591 0.15602657455068611 0 0.19154284269764749 0.16560655629025059 0 0.19980361225015761 0.1618813702742293 0 0.19154284269764749 0.16560655629025059 0 0.1993741758643921 0.17103378051050219 0 0.19058217548333731 0.17383886691981071 0 0.18329760823086561 0.1730141468509831 0 0.19154284269764749 0.16560655629025059 0 0.19058217548333731 0.17383886691981071 0 0.19154284269764749 0.16560655629025059 0 0.1993741758643921 0.17103378051050219 0 0.19980361225015761 0.1618813702742293 0 0.19830218773092451 0.18820753559991399 0 0.18795134370496391 0.18524142722571951 0 0.19506222639163459 0.17920501625987911 0 0.18795134370496391 0.18524142722571951 0 0.19506222639163459 0.17920501625987911 0 0.18955448671705941 0.17868967478534459 0 0.1993741758643921 0.17103378051050219 0 0.19506222639163459 0.17920501625987911 0 0.19058217548333731 0.17383886691981071 0 0.19506222639163459 0.17920501625987911 0 0.18955448671705941 0.17868967478534459 0 0.19058217548333731 0.17383886691981071 0 0.1846222012883017 0.1764733887359691 0 0.18955448671705941 0.17868967478534459 0 0.19058217548333731 0.17383886691981071 0 0.1993741758643921 0.17103378051050219 0 0.19506222639163459 0.17920501625987911 0 0.2050550695975199 0.18063944815999541 0 0.19830218773092451 0.18820753559991399 0 0.19506222639163459 0.17920501625987911 0 0.2050550695975199 0.18063944815999541 0 0.20982678960681389 0.19420508501755371 0 0.2050550695975199 0.18063944815999541 0 0.2152913123268102 0.18258584138349651 0 0.1993741758643921 0.17103378051050219 0 0.2050550695975199 0.18063944815999541 0 0.21247372566454389 0.1685994301886268 0 0.2050550695975199 0.18063944815999541 0 0.2152913123268102 0.18258584138349651 0 0.21247372566454389 0.1685994301886268 0 0.2152913123268102 0.18258584138349651 0 0.21247372566454389 0.1685994301886268 0 0.22474318903369139 0.17848127935087449 0 0.20761644744345881 0.15170797779100589 0 0.21247372566454389 0.1685994301886268 0 0.22141216815076081 0.15858425981420921 0 0.20761644744345881 0.15170797779100589 0 0.19980361225015761 0.1618813702742293 0 0.21247372566454389 0.1685994301886268 0 0.1993741758643921 0.17103378051050219 0 0.19980361225015761 0.1618813702742293 0 0.21247372566454389 0.1685994301886268 0 0.22141216815076081 0.15858425981420921 0 0.22706360200702899 0.16734690780846281 0 0.23064204805075109 0.1578776022516285 0 0.21247372566454389 0.1685994301886268 0 0.22141216815076081 0.15858425981420921 0 0.22706360200702899 0.16734690780846281 0 0.21247372566454389 0.1685994301886268 0 0.22706360200702899 0.16734690780846281 0 0.22474318903369139 0.17848127935087449 0 0.22706360200702899 0.16734690780846281 0 0.233272890980115 0.1740725653869897 0 0.23580069898874501 0.16603191158321129 0 0.22706360200702899 0.16734690780846281 0 0.23064204805075109 0.1578776022516285 0 0.23580069898874501 0.16603191158321129 0 0.2226200628520312 0.1920608938409234 0 0.2152913123268102 0.18258584138349651 0 0.22474318903369139 0.17848127935087449 0 0.22706360200702899 0.16734690780846281 0 0.22474318903369139 0.17848127935087449 0 0.233272890980115 0.1740725653869897 0 0.22474318903369139 0.17848127935087449 0 0.233272890980115 0.1740725653869897 0 0.23425112670904299 0.1864960829618654 0 0.2226200628520312 0.1920608938409234 0 0.22474318903369139 0.17848127935087449 0 0.23425112670904299 0.1864960829618654 0 0.24544868239401091 0.19570015869455601 0 0.25204772581422552 0.1693375670995301 0 0.24544868239401091 0.19570015869455601 0 0.24450583816206661 0.17200664523053449 0 0.25204772581422552 0.1693375670995301 0 0.24544868239401091 0.19570015869455601 0 0.23425112670904299 0.1864960829618654 0 0.24450583816206661 0.17200664523053449 0 0.233272890980115 0.1740725653869897 0 0.23425112670904299 0.1864960829618654 0 0.24450583816206661 0.17200664523053449 0 0.23064204805075109 0.1578776022516285 0 0.24088919625777311 0.15743336066725189 0 0.23580069898874501 0.16603191158321129 0 0.24450583816206661 0.17200664523053449 0 0.24088919625777311 0.15743336066725189 0 0.23580069898874501 0.16603191158321129 0 0.233272890980115 0.1740725653869897 0 0.24450583816206661 0.17200664523053449 0 0.23580069898874501 0.16603191158321129 0 0.24450583816206661 0.17200664523053449 0 0.24088919625777311 0.15743336066725189 0 0.25204772581422552 0.1693375670995301 0 0.24088919625777311 0.15743336066725189 0 0.2539054022089885 0.16868013441577409 0 0.25204772581422552 0.1693375670995301 0 0.24450583816206661 0.17200664523053449 0 0.25204772581422552 0.1693375670995301 0 0.24088919625777311 0.15743336066725189 0 0.2539054022089885 0.16868013441577409 0 0.24088919625777311 0.15743336066725189 0 0.24486819119757949 0.14427675906409859 0 0.25885130783348831 0.14215786199141109 0 0.24486819119757949 0.14427675906409859 0 0.22926501758802101 0.14738938103132179 0 0.2338864468490939 0.13555071023389581 0 0.24486819119757949 0.14427675906409859 0 0.22926501758802101 0.14738938103132179 0 0.24088919625777311 0.15743336066725189 0 0.22926501758802101 0.14738938103132179 0 0.24088919625777311 0.15743336066725189 0 0.24486819119757949 0.14427675906409859 0 0.22926501758802101 0.14738938103132179 0 0.23064204805075109 0.1578776022516285 0 0.24088919625777311 0.15743336066725189 0 0.22926501758802101 0.14738938103132179 0 0.22141216815076081 0.15858425981420921 0 0.23064204805075109 0.1578776022516285 0 0.22926501758802101 0.14738938103132179 0 0.20761644744345881 0.15170797779100589 0 0.22141216815076081 0.15858425981420921 0 0.22926501758802101 0.14738938103132179 0 0.21405842325591121 0.13424998184081821 0 0.22926501758802101 0.14738938103132179 0 0.21405842325591121 0.13424998184081821 0 0.2338864468490939 0.13555071023389581 0 0.2315647572127717 0.1230322353105251 0 0.21405842325591121 0.13424998184081821 0 0.2315647572127717 0.1230322353105251 0 0.21556815600255999 0.11782939252515411 0 0.21405842325591121 0.13424998184081821 0 0.22926501758802101 0.14738938103132179 0 0.2338864468490939 0.13555071023389581 0 0.24486819119757949 0.14427675906409859 0 0.2338864468490939 0.13555071023389581 0 0.2496758449911857 0.128805193922715 0 0.2338864468490939 0.13555071023389581 0 0.2496758449911857 0.128805193922715 0 0.2315647572127717 0.1230322353105251 0 0.2496758449911857 0.128805193922715 0 0.24778822092052369 0.11130368671626199 0 0.2315647572127717 0.1230322353105251 0 0.24778822092052369 0.11130368671626199 0 0.22762651454731719 0.1080881504882162 0 0.2315647572127717 0.1230322353105251 0 0.24778822092052369 0.11130368671626199 0 0.2386906194201924 0.092799800911881614 0 0.25776014581165352 0.092373460621308204 0 0.24778822092052369 0.11130368671626199 0 0.22762651454731719 0.1080881504882162 0 0.2386906194201924 0.092799800911881614 0 0.22762651454731719 0.1080881504882162 0 0.2200742145243256 0.082282603605001836 0 0.2386906194201924 0.092799800911881614 0 0.22762651454731719 0.1080881504882162 0 0.20946302172406361 0.1016965931276589 0 0.2200742145243256 0.082282603605001836 0 0.22762651454731719 0.1080881504882162 0 0.2315647572127717 0.1230322353105251 0 0.21556815600255999 0.11782939252515411 0 0.21405842325591121 0.13424998184081821 0 0.21556815600255999 0.11782939252515411 0 0.19885182892380079 0.1211105826503156 0 0.21556815600255999 0.11782939252515411 0 0.20946302172406361 0.1016965931276589 0 0.19885182892380079 0.1211105826503156 0 0.20946302172406361 0.1016965931276589 0 0.19885182892380079 0.1211105826503156 0 0.22762651454731719 0.1080881504882162 0 0.21556815600255999 0.11782939252515411 0 0.20946302172406361 0.1016965931276589 0 0.20946302172406361 0.1016965931276589 0 0.1970267323270726 0.1032304674716145 0 0.20449062969888379 0.088951756594103246 0 0.20946302172406361 0.1016965931276589 0 0.1970267323270726 0.1032304674716145 0 0.19885182892380079 0.1211105826503156 0 0.1970267323270726 0.1032304674716145 0 0.1920873481761646 0.090163893485635693 0 0.20449062969888379 0.088951756594103246 0 0.1970267323270726 0.1032304674716145 0 0.1920873481761646 0.090163893485635693 0 0.1862437792071312 0.1031132893772863 0 0.1970267323270726 0.1032304674716145 0 0.19102378623239141 0.11434668959468711 0 0.1862437792071312 0.1031132893772863 0 0.1970267323270726 0.1032304674716145 0 0.19102378623239141 0.11434668959468711 0 0.19885182892380079 0.1211105826503156 0 0.19102378623239141 0.11434668959468711 0 0.18816584327429409 0.123294224477854 0 0.19885182892380079 0.1211105826503156 0 0.19102378623239141 0.11434668959468711 0 0.19885182892380079 0.1211105826503156 0 0.1891449394275479 0.065495253115888455 0 0.19985256240053981 0.076081485716800124 0 0.18333326694673649 0.077694393082336569 0 0.1891449394275479 0.065495253115888455 0 0.19985256240053981 0.076081485716800124 0 0.20942682774800259 0.063501192038563248 0 0.19985256240053981 0.076081485716800124 0 0.1920873481761646 0.090163893485635693 0 0.18333326694673649 0.077694393082336569 0 0.19985256240053981 0.076081485716800124 0 0.1920873481761646 0.090163893485635693 0 0.20449062969888379 0.088951756594103246 0 0.19985256240053981 0.076081485716800124 0 0.20449062969888379 0.088951756594103246 0 0.2200742145243256 0.082282603605001836 0 0.20946302172406361 0.1016965931276589 0 0.2200742145243256 0.082282603605001836 0 0.20946302172406361 0.1016965931276589 0 0.20449062969888379 0.088951756594103246 0 0.2200742145243256 0.082282603605001836 0 0.19985256240053981 0.076081485716800124 0 0.20942682774800259 0.063501192038563248 0 0.2200742145243256 0.082282603605001836 0 0.23068540732458759 0.062868614082344787 0 0.2200742145243256 0.082282603605001836 0 0.2459016485729186 0.07535992969777211 0 0.20942682774800259 0.063501192038563248 0 0.23068540732458759 0.062868614082344787 0 0.2200742145243256 0.082282603605001836 0 0.23068540732458759 0.062868614082344787 0 0.2200742145243256 0.082282603605001836 0 0.2386906194201924 0.092799800911881614 0 0.2459016485729186 0.07535992969777211 0 0.25776014581165352 0.092373460621308204 0 0.2200742145243256 0.082282603605001836 0 0.2386906194201924 0.092799800911881614 0 0.2459016485729186 0.07535992969777211 0 0.23068540732458759 0.062868614082344787 0 0.2459016485729186 0.07535992969777211 0 0.24881233264342081 0.045153272571155083 0 0.23068540732458759 0.062868614082344787 0 0.24881233264342081 0.045153272571155083 0 0.22507942183432339 0.044266368694401273 0 0.24881233264342081 0.045153272571155083 0 0.22507942183432339 0.044266368694401273 0 0.23217418535436751 0.02620844948859561 0 0.22507942183432339 0.044266368694401273 0 0.23217418535436751 0.02620844948859561 0 0.21250698781862981 0.0245442078081217 0 0.20942682774800259 0.063501192038563248 0 0.23068540732458759 0.062868614082344787 0 0.22507942183432339 0.044266368694401273 0 0.23304639974351971 0.0004284117930741173 0 0.25038356872345918 0.01850288112326702 0 0.25903132009979979 -0.0037638123808381501 0 0.23217418535436751 0.02620844948859561 0 0.23304639974351971 0.0004284117930741173 0 0.25038356872345918 0.01850288112326702 0 0.24881233264342081 0.045153272571155083 0 0.23217418535436751 0.02620844948859561 0 0.25038356872345918 0.01850288112326702 0 0.23217418535436751 0.02620844948859561 0 0.2152167747240277 0.0033049180125912072 0 0.21250698781862981 0.0245442078081217 0 0.23217418535436751 0.02620844948859561 0 0.23304639974351971 0.0004284117930741173 0 0.2152167747240277 0.0033049180125912072 0 0.23217418535436751 0.02620844948859561 0 0.23304639974351971 0.0004284117930741173 0 0.23304639974351971 0.0004284117930741173 0 0.2152167747240277 0.0033049180125912072 0 0.2152167747240277 0.0033049180125912072 0 0.2060209084744124 0.01357718661074443 0 0.19779322192045601 0.001847593168912076 0 0.2152167747240277 0.0033049180125912072 0 0.2060209084744124 0.01357718661074443 0 0.21250698781862981 0.0245442078081217 0 0.2060209084744124 0.01357718661074443 0 0.21250698781862981 0.0245442078081217 0 0.20008721986229641 0.027519020085867891 0 0.20008721986229641 0.027519020085867891 0 0.18971575281524861 0.027687938908811771 0 0.1943095515205451 0.016900800749884971 0 0.18971575281524861 0.027687938908811771 0 0.1943095515205451 0.016900800749884971 0 0.1810039053760788 0.01951239154359018 0 0.2060209084744124 0.01357718661074443 0 0.20008721986229641 0.027519020085867891 0 0.1943095515205451 0.016900800749884971 0 0.2060209084744124 0.01357718661074443 0 0.1943095515205451 0.016900800749884971 0 0.19779322192045601 0.001847593168912076 0 0.1943095515205451 0.016900800749884971 0 0.18396150608490339 0.003928518230093556 0 0.1943095515205451 0.016900800749884971 0 0.19779322192045601 0.001847593168912076 0 0.18396150608490339 0.003928518230093556 0 0.20942682774800259 0.063501192038563248 0 0.2066454326209744 0.042757870685124107 0 0.19643806872240979 0.053247101528511781 0 0.20942682774800259 0.063501192038563248 0 0.22507942183432339 0.044266368694401273 0 0.2066454326209744 0.042757870685124107 0 0.21250698781862981 0.0245442078081217 0 0.20008721986229641 0.027519020085867891 0 0.2066454326209744 0.042757870685124107 0 0.22507942183432339 0.044266368694401273 0 0.21250698781862981 0.0245442078081217 0 0.2066454326209744 0.042757870685124107 0 0.2066454326209744 0.042757870685124107 0 0.19132468592396851 0.039646115752520382 0 0.19643806872240979 0.053247101528511781 0 0.20008721986229641 0.027519020085867891 0 0.2066454326209744 0.042757870685124107 0 0.19132468592396851 0.039646115752520382 0 0.20008721986229641 0.027519020085867891 0 0.18971575281524861 0.027687938908811771 0 0.19132468592396851 0.039646115752520382 0 0.1891449394275479 0.065495253115888455 0 0.20942682774800259 0.063501192038563248 0 0.19643806872240979 0.053247101528511781 0 0.1891449394275479 0.065495253115888455 0 0.19643806872240979 0.053247101528511781 0 0.1831835438285461 0.049677661935494839 0 0.19132468592396851 0.039646115752520382 0 0.19643806872240979 0.053247101528511781 0 0.1831835438285461 0.049677661935494839 0 0.1831835438285461 0.049677661935494839 0 0.17116415244668209 0.041906856196052868 0 0.1707331225327115 0.062178378942537721 0 0.1891449394275479 0.065495253115888455 0 0.1831835438285461 0.049677661935494839 0 0.1707331225327115 0.062178378942537721 0 0.19132468592396851 0.039646115752520382 0 0.1831835438285461 0.049677661935494839 0 0.18018093647079281 0.040579820785839618 0 0.19132468592396851 0.039646115752520382 0 0.18018093647079281 0.040579820785839618 0 0.17990204202864021 0.031878870951679537 0 0.18971575281524861 0.027687938908811771 0 0.19132468592396851 0.039646115752520382 0 0.17990204202864021 0.031878870951679537 0 0.17527684489074569 0.035828705866752193 0 0.17116415244668209 0.041906856196052868 0 0.1699469571848137 0.02776233630908043 0 0.18018093647079281 0.040579820785839618 0 0.17990204202864021 0.031878870951679537 0 0.17527684489074569 0.035828705866752193 0 0.17990204202864021 0.031878870951679537 0 0.17527684489074569 0.035828705866752193 0 0.1699469571848137 0.02776233630908043 0 0.18018093647079281 0.040579820785839618 0 0.17527684489074569 0.035828705866752193 0 0.17116415244668209 0.041906856196052868 0 0.1831835438285461 0.049677661935494839 0 0.18018093647079281 0.040579820785839618 0 0.17116415244668209 0.041906856196052868 0 0.1583218696326146 0.045369077236276208 0 0.16372836533220589 0.02519088170160599 0 0.1583218696326146 0.045369077236276208 0 0.1699469571848137 0.02776233630908043 0 0.16372836533220589 0.02519088170160599 0 0.17116415244668209 0.041906856196052868 0 0.1583218696326146 0.045369077236276208 0 0.1699469571848137 0.02776233630908043 0 0.1583218696326146 0.045369077236276208 0 0.1707331225327115 0.062178378942537721 0 0.15291537393302429 0.065547272770946741 0 0.17116415244668209 0.041906856196052868 0 0.1583218696326146 0.045369077236276208 0 0.1707331225327115 0.062178378942537721 0 0.17178020891703669 0.0093592860096909543 0 0.17361346064926211 -0.0090437642896982889 0 0.18396150608490339 0.003928518230093556 0 0.17178020891703669 0.0093592860096909543 0 0.17361346064926211 -0.0090437642896982889 0 0.1943095515205451 0.016900800749884971 0 0.18396150608490339 0.003928518230093556 0 0.1810039053760788 0.01951239154359018 0 0.18396150608490339 0.003928518230093556 0 0.1810039053760788 0.01951239154359018 0 0.17178020891703669 0.0093592860096909543 0 0.1810039053760788 0.01951239154359018 0 0.1699469571848137 0.02776233630908043 0 0.17178020891703669 0.0093592860096909543 0 0.18971575281524861 0.027687938908811771 0 0.17990204202864021 0.031878870951679537 0 0.1810039053760788 0.01951239154359018 0 0.17990204202864021 0.031878870951679537 0 0.1810039053760788 0.01951239154359018 0 0.1699469571848137 0.02776233630908043 0 0.17990204202864021 0.031878870951679537 0 0.1699469571848137 0.02776233630908043 0 0.16372836533220589 0.02519088170160599 0 0.16840429246959401 0.0077393239224586834 0 0.1699469571848137 0.02776233630908043 0 0.16372836533220589 0.02519088170160599 0 0.17178020891703669 0.0093592860096909543 0 0.1699469571848137 0.02776233630908043 0 0.17178020891703669 0.0093592860096909543 0 0.1699469571848137 0.02776233630908043 0 0.16372836533220589 0.02519088170160599 0 0.17178020891703669 0.0093592860096909543 0 0.16840429246959401 0.0077393239224586834 0 0.17361346064926211 -0.0090437642896982889 0 0.16372836533220589 0.02519088170160599 0 0.17178020891703669 0.0093592860096909543 0 0.16840429246959401 0.0077393239224586834 0 0.16372836533220589 0.02519088170160599 0 0.15931635762950269 0.0087799817755543942 0 0.14921482984096149 0.00954130724882187 0 0.16372836533220589 0.02519088170160599 0 0.15931635762950269 0.0087799817755543942 0 0.16840429246959401 0.0077393239224586834 0 0.15931635762950269 0.0087799817755543942 0 0.16166098532517281 0.0011724919484129149 0 0.15403515242118701 -0.0002721037150884772 0 0.15931635762950269 0.0087799817755543942 0 0.16166098532517281 0.0011724919484129149 0 0.16840429246959401 0.0077393239224586834 0 0.16166098532517281 0.0011724919484129149 0 0.16840429246959401 0.0077393239224586834 0 0.16622175267777631 -0.0057108265085095648 0 0.14921482984096149 0.00954130724882187 0 0.13923765294229029 0.0022891475430473298 0 0.1465946890200821 -0.0004105235846931203 0 0.15931635762950269 0.0087799817755543942 0 0.14921482984096149 0.00954130724882187 0 0.15403515242118701 -0.0002721037150884772 0 0.14921482984096149 0.00954130724882187 0 0.15403515242118701 -0.0002721037150884772 0 0.1465946890200821 -0.0004105235846931203 0 0.14921482984096149 0.00954130724882187 0 0.1375099350801175 0.014349278832269909 0 0.13923765294229029 0.0022891475430473298 0 0.16372836533220589 0.02519088170160599 0 0.1375099350801175 0.014349278832269909 0 0.14029068436320699 0.033611696613491102 0 0.16372836533220589 0.02519088170160599 0 0.1375099350801175 0.014349278832269909 0 0.16372836533220589 0.02519088170160599 0 0.14921482984096149 0.00954130724882187 0 0.1375099350801175 0.014349278832269909 0 0.119587754618935 0.027161684605333049 0 0.1375099350801175 0.014349278832269909 0 0.14029068436320699 0.033611696613491102 0 0.1112915048280291 0.003507675962933767 0 0.1375099350801175 0.014349278832269909 0 0.13097410797853409 0.0070937128756059439 0 0.1375099350801175 0.014349278832269909 0 0.13097410797853409 0.0070937128756059439 0 0.13923765294229029 0.0022891475430473298 0 0.13097410797853409 0.0070937128756059439 0 0.13923765294229029 0.0022891475430473298 0 0.13252035001615531 -0.0026602361061354952 0 0.1583218696326146 0.045369077236276208 0 0.15291537393302429 0.065547272770946741 0 0.1583218696326146 0.045369077236276208 0 0.146537215750596 0.057119722456743377 0 0.15291537393302429 0.065547272770946741 0 0.1583218696326146 0.045369077236276208 0 0.146537215750596 0.057119722456743377 0 0.1396865886794792 0.049308033798308913 0 0.146537215750596 0.057119722456743377 0 0.1379783575520232 0.060083135681354469 0 0.1437838889558386 0.065291092796830555 0 0.146537215750596 0.057119722456743377 0 0.1396865886794792 0.049308033798308913 0 0.1379783575520232 0.060083135681354469 0 0.1583218696326146 0.045369077236276208 0 0.14029068436320699 0.033611696613491102 0 0.1396865886794792 0.049308033798308913 0 0.1583218696326146 0.045369077236276208 0 0.16372836533220589 0.02519088170160599 0 0.14029068436320699 0.033611696613491102 0 0.123130506169726 0.043940242126542288 0 0.14029068436320699 0.033611696613491102 0 0.1396865886794792 0.049308033798308913 0 0.123130506169726 0.043940242126542288 0 0.119587754618935 0.027161684605333049 0 0.14029068436320699 0.033611696613491102 0 0.123130506169726 0.043940242126542288 0 0.1396865886794792 0.049308033798308913 0 0.12656340569962909 0.058146044072635641 0 0.1396865886794792 0.049308033798308913 0 0.1379783575520232 0.060083135681354469 0 0.12656340569962909 0.058146044072635641 0 0.13597267423951659 0.070027607414481108 0 0.14548563556840749 0.07426626435699113 0 0.13687539933470499 0.080796050026978747 0 0.1379783575520232 0.060083135681354469 0 0.13597267423951659 0.070027607414481108 0 0.1437838889558386 0.065291092796830555 0 0.1379783575520232 0.060083135681354469 0 0.12656340569962909 0.058146044072635641 0 0.13597267423951659 0.070027607414481108 0 0.146537215750596 0.057119722456743377 0 0.1437838889558386 0.065291092796830555 0 0.15291537393302429 0.065547272770946741 0 0.13597267423951659 0.070027607414481108 0 0.1437838889558386 0.065291092796830555 0 0.14548563556840749 0.07426626435699113 0 0.1437838889558386 0.065291092796830555 0 0.14548563556840749 0.07426626435699113 0 0.15291537393302429 0.065547272770946741 0 0.14548563556840749 0.07426626435699113 0 0.1601221308320552 0.073814053601523599 0 0.15961661942392669 0.084316794312472618 0 0.14548563556840749 0.07426626435699113 0 0.15291537393302429 0.065547272770946741 0 0.1601221308320552 0.073814053601523599 0 0.14548563556840749 0.07426626435699113 0 0.1413085616355961 0.090651066054875232 0 0.13687539933470499 0.080796050026978747 0 0.14548563556840749 0.07426626435699113 0 0.15536074905077021 0.1000556235759914 0 0.14548563556840749 0.07426626435699113 0 0.15536074905077021 0.1000556235759914 0 0.15961661942392669 0.084316794312472618 0 0.14548563556840749 0.07426626435699113 0 0.1413085616355961 0.090651066054875232 0 0.15536074905077021 0.1000556235759914 0 0.1249251295610091 0.086468623374269679 0 0.13597267423951659 0.070027607414481108 0 0.13687539933470499 0.080796050026978747 0 0.1249251295610091 0.086468623374269679 0 0.1413085616355961 0.090651066054875232 0 0.13687539933470499 0.080796050026978747 0 0.1249251295610091 0.086468623374269679 0 0.1413085616355961 0.090651066054875232 0 0.1429934403204125 0.1078941360526347 0 0.12101836062075851 0.097790038425026204 0 0.1249251295610091 0.086468623374269679 0 0.1429934403204125 0.1078941360526347 0 0.1221192706145401 0.1079832845487874 0 0.12101836062075851 0.097790038425026204 0 0.1429934403204125 0.1078941360526347 0 0.1249251295610091 0.086468623374269679 0 0.1429934403204125 0.1078941360526347 0 0.1221192706145401 0.1079832845487874 0 0.13169268990988939 0.11475319227211291 0 0.1429934403204125 0.1078941360526347 0 0.12228756165776621 0.1188438325191048 0 0.1225863121682329 0.12530534301489529 0 0.13220205993800449 0.122955312111125 0 0.12228756165776621 0.1188438325191048 0 0.13220205993800449 0.122955312111125 0 0.13169268990988939 0.11475319227211291 0 0.12228756165776621 0.1188438325191048 0 0.1221192706145401 0.1079832845487874 0 0.13169268990988939 0.11475319227211291 0 0.13169268990988939 0.11475319227211291 0 0.13872737091229381 0.11667872542660281 0 0.1429934403204125 0.1078941360526347 0 0.13220205993800449 0.122955312111125 0 0.13872737091229381 0.11667872542660281 0 0.14780729971058071 0.1220551881468436 0 0.13220205993800449 0.122955312111125 0 0.13169268990988939 0.11475319227211291 0 0.13872737091229381 0.11667872542660281 0 0.16114420170319019 0.12941741918115171 0 0.14780729971058071 0.1220551881468436 0 0.1429934403204125 0.1078941360526347 0 0.16114420170319019 0.12941741918115171 0 0.1429934403204125 0.1078941360526347 0 0.16114420170319019 0.12941741918115171 0 0.1559267517254736 0.1146242335896616 0 0.1429934403204125 0.1078941360526347 0 0.13872737091229381 0.11667872542660281 0 0.14780729971058071 0.1220551881468436 0 0.1429934403204125 0.1078941360526347 0 0.1413085616355961 0.090651066054875232 0 0.1429934403204125 0.1078941360526347 0 0.15536074905077021 0.1000556235759914 0 0.1559267517254736 0.1146242335896616 0 0.1429934403204125 0.1078941360526347 0 0.15536074905077021 0.1000556235759914 0 0.15536074905077021 0.1000556235759914 0 0.16561438887158639 0.1015331789098854 0 0.1664627264073951 0.092629328280709425 0 0.15536074905077021 0.1000556235759914 0 0.16561438887158639 0.1015331789098854 0 0.16459161297211619 0.1101346363959454 0 0.16561438887158639 0.1015331789098854 0 0.16459161297211619 0.1101346363959454 0 0.17424495059096479 0.1033669563979578 0 0.16459161297211619 0.1101346363959454 0 0.17423111334696809 0.1130969385686319 0 0.17424495059096479 0.1033669563979578 0 0.16561438887158639 0.1015331789098854 0 0.17424495059096479 0.1033669563979578 0 0.1664627264073951 0.092629328280709425 0 0.16523586253313211 0.12584498279499209 0 0.15536074905077021 0.1000556235759914 0 0.16459161297211619 0.1101346363959454 0 0.16523586253313211 0.12584498279499209 0 0.16459161297211619 0.1101346363959454 0 0.16859491869784299 0.1176721088597526 0 0.16523586253313211 0.12584498279499209 0 0.15536074905077021 0.1000556235759914 0 0.16523586253313211 0.12584498279499209 0 0.1559267517254736 0.1146242335896616 0 0.15536074905077021 0.1000556235759914 0 0.16523586253313211 0.12584498279499209 0 0.16114420170319019 0.12941741918115171 0 0.1559267517254736 0.1146242335896616 0 0.16459161297211619 0.1101346363959454 0 0.16859491869784299 0.1176721088597526 0 0.17423111334696809 0.1130969385686319 0 0.16859491869784299 0.1176721088597526 0 0.17032108593915579 0.1216118776794413 0 0.17423111334696809 0.1130969385686319 0 0.16581467060654151 0.1273565694061958 0 0.17032108593915579 0.1216118776794413 0 0.17906421607901549 0.12151019222860179 0 0.16523586253313211 0.12584498279499209 0 0.16859491869784299 0.1176721088597526 0 0.17032108593915579 0.1216118776794413 0 0.16581467060654151 0.1273565694061958 0 0.16523586253313211 0.12584498279499209 0 0.17032108593915579 0.1216118776794413 0 0.16523586253313211 0.12584498279499209 0 0.17032108593915579 0.1216118776794413 0 0.17032108593915579 0.1216118776794413 0 0.17906421607901549 0.12151019222860179 0 0.17423111334696809 0.1130969385686319 0 0.16581467060654151 0.1273565694061958 0 0.17906421607901549 0.12151019222860179 0 0.17906421607901549 0.12151019222860179 0 0.17423111334696809 0.1130969385686319 0 0.1821622814551275 0.1131213817741698 0 0.17423111334696809 0.1130969385686319 0 0.1821622814551275 0.1131213817741698 0 0.17424495059096479 0.1033669563979578 0 0.19102378623239141 0.11434668959468711 0 0.18816584327429409 0.123294224477854 0 0.1821622814551275 0.1131213817741698 0 0.19102378623239141 0.11434668959468711 0 0.1821622814551275 0.1131213817741698 0 0.1862437792071312 0.1031132893772863 0 0.18816584327429409 0.123294224477854 0 0.17906421607901549 0.12151019222860179 0 0.1821622814551275 0.1131213817741698 0 0.17424495059096479 0.1033669563979578 0 0.1787235147783823 0.091259779621368678 0 0.1664627264073951 0.092629328280709425 0 0.1821622814551275 0.1131213817741698 0 0.17424495059096479 0.1033669563979578 0 0.1862437792071312 0.1031132893772863 0 0.1920873481761646 0.090163893485635693 0 0.1862437792071312 0.1031132893772863 0 0.1787235147783823 0.091259779621368678 0 0.17424495059096479 0.1033669563979578 0 0.1862437792071312 0.1031132893772863 0 0.1787235147783823 0.091259779621368678 0 0.1920873481761646 0.090163893485635693 0 0.1787235147783823 0.091259779621368678 0 0.18333326694673649 0.077694393082336569 0 0.1787235147783823 0.091259779621368678 0 0.18333326694673649 0.077694393082336569 0 0.1703339480396367 0.080307423884641613 0 0.1707331225327115 0.062178378942537721 0 0.18333326694673649 0.077694393082336569 0 0.1703339480396367 0.080307423884641613 0 0.1891449394275479 0.065495253115888455 0 0.1707331225327115 0.062178378942537721 0 0.18333326694673649 0.077694393082336569 0 0.1707331225327115 0.062178378942537721 0 0.1601221308320552 0.073814053601523599 0 0.1703339480396367 0.080307423884641613 0 0.1707331225327115 0.062178378942537721 0 0.15291537393302429 0.065547272770946741 0 0.1601221308320552 0.073814053601523599 0 0.1601221308320552 0.073814053601523599 0 0.15961661942392669 0.084316794312472618 0 0.1703339480396367 0.080307423884641613 0 0.15536074905077021 0.1000556235759914 0 0.15961661942392669 0.084316794312472618 0 0.1664627264073951 0.092629328280709425 0 0.1787235147783823 0.091259779621368678 0 0.1664627264073951 0.092629328280709425 0 0.1703339480396367 0.080307423884641613 0 0.15961661942392669 0.084316794312472618 0 0.1664627264073951 0.092629328280709425 0 0.1703339480396367 0.080307423884641613 0 0.10577550605393569 0.47243900355916141 0 0.094934611260200419 0.46693739007739687 0 0.082236854606235657 0.4775903428071655 0 0.10577550605393569 0.47243900355916141 0 0.11036855730510341 0.48506022853810998 0 0.082236854606235657 0.4775903428071655 0 0.11036855730510341 0.48506022853810998 0 0.082236854606235657 0.4775903428071655 0 0.095623118707652999 0.5 0 0.11036855730510341 0.48506022853810998 0 0.082236854606235657 0.4775903428071655 0 0.095623118707652999 0.5 0 0.1192927333727148 0.5 0 0.11036855730510341 0.48506022853810998 0 0.11036855730510341 0.48506022853810998 0 0.13850026000397109 0.49253011426905452 0 0.1192927333727148 0.5 0 0.11036855730510341 0.48506022853810998 0 0.13850026000397109 0.49253011426905452 0 0.11036855730510341 0.48506022853810998 0 0.1199096170358844 0.47245291019796132 0 0.12943507843200899 0.48119807208297127 0 0.10577550605393569 0.47243900355916141 0 0.11036855730510341 0.48506022853810998 0 0.1199096170358844 0.47245291019796132 0 0.1199096170358844 0.47245291019796132 0 0.11858960983297499 0.45601938317618179 0 0.1057020135492244 0.45947964451870899 0 0.1199096170358844 0.47245291019796132 0 0.11858960983297499 0.45601938317618179 0 0.1316002695443716 0.4618084308569132 0 0.10577550605393569 0.47243900355916141 0 0.1199096170358844 0.47245291019796132 0 0.1057020135492244 0.45947964451870899 0 0.11858960983297499 0.45601938317618179 0 0.1171575311569153 0.43965523556095559 0 0.12775486578457421 0.44620465087251682 0 0.11858960983297499 0.45601938317618179 0 0.1171575311569153 0.43965523556095559 0 0.1022443453602508 0.44572614370388047 0 0.1022443453602508 0.44572614370388047 0 0.08981813824248755 0.43889213824331957 0 0.1065076650675508 0.43004782546102172 0 0.1171575311569153 0.43965523556095559 0 0.1022443453602508 0.44572614370388047 0 0.1065076650675508 0.43004782546102172 0 0.1057020135492244 0.45947964451870899 0 0.094934611260200419 0.46693739007739687 0 0.086024070831405938 0.45824056942455171 0 0.11858960983297499 0.45601938317618179 0 0.1022443453602508 0.44572614370388047 0 0.1057020135492244 0.45947964451870899 0 0.1022443453602508 0.44572614370388047 0 0.1057020135492244 0.45947964451870899 0 0.086024070831405938 0.45824056942455171 0 0.10577550605393569 0.47243900355916141 0 0.1057020135492244 0.45947964451870899 0 0.094934611260200419 0.46693739007739687 0 0.086024070831405938 0.45824056942455171 0 0.067961913990732731 0.46440266936283398 0 0.082236854606235657 0.4775903428071655 0 0.094934611260200419 0.46693739007739687 0 0.086024070831405938 0.45824056942455171 0 0.082236854606235657 0.4775903428071655 0 0.1022443453602508 0.44572614370388047 0 0.086024070831405938 0.45824056942455171 0 0.08981813824248755 0.43889213824331957 0 0.086024070831405938 0.45824056942455171 0 0.08981813824248755 0.43889213824331957 0 0.077079835975536443 0.44713041909335688 0 0.08981813824248755 0.43889213824331957 0 0.077079835975536443 0.44713041909335688 0 0.077245236944870427 0.4319077093179699 0 0.077079835975536443 0.44713041909335688 0 0.061050726255349991 0.44900588894738219 0 0.077245236944870427 0.4319077093179699 0 0.061050726255349991 0.44900588894738219 0 0.077245236944870427 0.4319077093179699 0 0.077079835975536443 0.44713041909335688 0 0.067961913990732731 0.46440266936283398 0 0.061050726255349991 0.44900588894738219 0 0.086024070831405938 0.45824056942455171 0 0.077079835975536443 0.44713041909335688 0 0.067961913990732731 0.46440266936283398 0 0.067961913990732731 0.46440266936283398 0 0.082236854606235657 0.4775903428071655 0 0.058404859804213963 0.48305203428839499 0 0.095623118707652999 0.5 0 0.082236854606235657 0.4775903428071655 0 0.071953504042591265 0.49999999999999978 0 0.071953504042591265 0.49999999999999978 0 0.058404859804213963 0.48305203428839499 0 0.082236854606235657 0.4775903428071655 0 0.071953504042591265 0.49999999999999978 0 0.058404859804213963 0.48305203428839499 0 0.058404859804213963 0.48305203428839499 0 0.045639930522567929 0.5 0 0.043052195427110938 0.486365660896245 0 0.071953504042591265 0.49999999999999978 0 0.058404859804213963 0.48305203428839499 0 0.045639930522567929 0.5 0 0.067961913990732731 0.46440266936283398 0 0.058404859804213963 0.48305203428839499 0 0.044856215565830568 0.46610406857679532 0 0.058404859804213963 0.48305203428839499 0 0.039271078526733713 0.47827911229585868 0 0.043052195427110938 0.486365660896245 0 0.058404859804213963 0.48305203428839499 0 0.040597571552972361 0.47060034893410579 0 0.044856215565830568 0.46610406857679532 0 0.058404859804213963 0.48305203428839499 0 0.044856215565830568 0.46610406857679532 0 0.058404859804213963 0.48305203428839499 0 0.040597571552972361 0.47060034893410579 0 0.039271078526733713 0.47827911229585868 0 0.039271078526733713 0.47827911229585868 0 0.02889291285492818 0.48413149700072622 0 0.02990937023065279 0.47329869483366582 0 0.039271078526733713 0.47827911229585868 0 0.043052195427110938 0.486365660896245 0 0.02889291285492818 0.48413149700072622 0 0.039271078526733713 0.47827911229585868 0 0.036275161124366587 0.47086397555953902 0 0.02990937023065279 0.47329869483366582 0 0.040597571552972361 0.47060034893410579 0 0.039271078526733713 0.47827911229585868 0 0.036275161124366587 0.47086397555953902 0 0.036275161124366587 0.47086397555953902 0 0.02990937023065279 0.47329869483366582 0 0.032921688442290563 0.4662923913235123 0 0.040597571552972361 0.47060034893410579 0 0.036275161124366587 0.47086397555953902 0 0.038676096869183559 0.46584933041055199 0 0.045639930522567929 0.5 0 0.043052195427110938 0.486365660896245 0 0.02889291285492818 0.48413149700072622 0 0.045639930522567929 0.5 0 0.01932635700254454 0.5 0 0.02889291285492818 0.48413149700072622 0 0.01932635700254454 0.5 0 0.02889291285492818 0.48413149700072622 0 0.017417779607118749 0.47571496647477118 0 0.02889291285492818 0.48413149700072622 0 0.02990937023065279 0.47329869483366582 0 0.017417779607118749 0.47571496647477118 0 0.02990937023065279 0.47329869483366582 0 0.017417779607118749 0.47571496647477118 0 0.024949451837257861 0.46572163446119941 0 -0.010319240548168211 0.46562344186472371 0 0.0021037123018497828 0.48396290958902749 0 0.0088917133248617511 0.46464424244084662 0 0.017417779607118749 0.47571496647477118 0 0.0021037123018497828 0.48396290958902749 0 0.0088917133248617511 0.46464424244084662 0 0.01932635700254454 0.5 0 0.017417779607118749 0.47571496647477118 0 0.0021037123018497828 0.48396290958902749 0 -0.0069872165174788003 0.5 0 0.01932635700254454 0.5 0 0.0021037123018497828 0.48396290958902749 0 -0.0059189913490451966 0.44691037536877021 0 0.014328320956513809 0.44843516279708823 0 0.0098739943498266682 0.43389399897103781 0 0.015398682916978001 0.45192936292980251 0 0.014328320956513809 0.44843516279708823 0 0.014328320956513809 0.44843516279708823 0 0.0098739943498266682 0.43389399897103781 0 0.015398682916978001 0.45192936292980251 0 0.014328320956513809 0.44843516279708823 0 0.0088917133248617511 0.46464424244084662 0 -0.010319240548168211 0.46562344186472371 0 0.014328320956513809 0.44843516279708823 0 -0.010319240548168211 0.46562344186472371 0 0.014328320956513809 0.44843516279708823 0 0.0088917133248617511 0.46464424244084662 0 0.017417779607118749 0.47571496647477118 0 0.0088917133248617511 0.46464424244084662 0 0.01782351835761534 0.46316653127705543 0 0.015398682916978001 0.45192936292980251 0 0.0088917133248617511 0.46464424244084662 0 0.01782351835761534 0.46316653127705543 0 0.015398682916978001 0.45192936292980251 0 0.022459964101860359 0.45782245007865718 0 0.028109213522147181 0.45045216926005249 0 0.015398682916978001 0.45192936292980251 0 0.022459964101860359 0.45782245007865718 0 0.01782351835761534 0.46316653127705543 0 0.022459964101860359 0.45782245007865718 0 0.01782351835761534 0.46316653127705543 0 0.024949451837257861 0.46572163446119941 0 0.017417779607118749 0.47571496647477118 0 0.01782351835761534 0.46316653127705543 0 0.024949451837257861 0.46572163446119941 0 0.02990937023065279 0.47329869483366582 0 0.024949451837257861 0.46572163446119941 0 0.032921688442290563 0.4662923913235123 0 0.022459964101860359 0.45782245007865718 0 0.024949451837257861 0.46572163446119941 0 0.029463320418036839 0.45961918644896221 0 0.024949451837257861 0.46572163446119941 0 0.029463320418036839 0.45961918644896221 0 0.032921688442290563 0.4662923913235123 0 0.029463320418036839 0.45961918644896221 0 0.028109213522147181 0.45045216926005249 0 0.03578831877524119 0.45585809658649351 0 0.022459964101860359 0.45782245007865718 0 0.029463320418036839 0.45961918644896221 0 0.028109213522147181 0.45045216926005249 0 0.014328320956513809 0.44843516279708823 0 0.028109213522147181 0.45045216926005249 0 0.034872525450327208 0.43410841002701922 0 0.014328320956513809 0.44843516279708823 0 0.034872525450327208 0.43410841002701922 0 0.0098739943498266682 0.43389399897103781 0 0.014328320956513809 0.44843516279708823 0 0.034872525450327208 0.43410841002701922 0 0.015398682916978001 0.45192936292980251 0 0.014328320956513809 0.44843516279708823 0 0.028109213522147181 0.45045216926005249 0 0.028109213522147181 0.45045216926005249 0 0.044188004768835241 0.44623559530441498 0 0.034872525450327208 0.43410841002701922 0 0.028109213522147181 0.45045216926005249 0 0.044188004768835241 0.44623559530441498 0 0.03578831877524119 0.45585809658649351 0 0.036275161124366587 0.47086397555953902 0 0.038676096869183559 0.46584933041055199 0 0.032921688442290563 0.4662923913235123 0 0.029463320418036839 0.45961918644896221 0 0.032921688442290563 0.4662923913235123 0 0.035756750106769222 0.46177327891485359 0 0.038676096869183559 0.46584933041055199 0 0.035756750106769222 0.46177327891485359 0 0.040914284091740957 0.46117311620362011 0 0.038676096869183559 0.46584933041055199 0 0.032921688442290563 0.4662923913235123 0 0.035756750106769222 0.46177327891485359 0 0.035756750106769222 0.46177327891485359 0 0.03578831877524119 0.45585809658649351 0 0.040914284091740957 0.46117311620362011 0 0.029463320418036839 0.45961918644896221 0 0.035756750106769222 0.46177327891485359 0 0.03578831877524119 0.45585809658649351 0 0.044188004768835241 0.44623559530441498 0 0.03578831877524119 0.45585809658649351 0 0.040914284091740957 0.46117311620362011 0 0.038676096869183559 0.46584933041055199 0 0.040914284091740957 0.46117311620362011 0 0.044856215565830568 0.46610406857679532 0 0.040914284091740957 0.46117311620362011 0 0.044856215565830568 0.46610406857679532 0 0.040597571552972361 0.47060034893410579 0 0.038676096869183559 0.46584933041055199 0 0.044856215565830568 0.46610406857679532 0 0.040597571552972361 0.47060034893410579 0 0.044856215565830568 0.46610406857679532 0 0.067961913990732731 0.46440266936283398 0 0.044856215565830568 0.46610406857679532 0 0.061050726255349991 0.44900588894738219 0 0.044856215565830568 0.46610406857679532 0 0.061050726255349991 0.44900588894738219 0 0.040914284091740957 0.46117311620362011 0 0.044856215565830568 0.46610406857679532 0 0.061050726255349991 0.44900588894738219 0 0.044188004768835241 0.44623559530441498 0 0.040914284091740957 0.46117311620362011 0 0.061050726255349991 0.44900588894738219 0 0.044188004768835241 0.44623559530441498 0 0.061050726255349991 0.44900588894738219 0 0.05541672994414297 0.41978165725695332 0 0.05541672994414297 0.41978165725695332 0 0.040804998234533249 0.41166462848321322 0 0.058531443748742071 0.39895891542276762 0 0.05541672994414297 0.41978165725695332 0 0.040804998234533249 0.41166462848321322 0 0.05541672994414297 0.41978165725695332 0 0.040804998234533249 0.41166462848321322 0 0.034872525450327208 0.43410841002701922 0 0.040804998234533249 0.41166462848321322 0 0.033398107514925258 0.41349536713156121 0 0.034872525450327208 0.43410841002701922 0 0.040804998234533249 0.41166462848321322 0 0.033398107514925258 0.41349536713156121 0 0.026193266524919229 0.40354759970948068 0 0.040804998234533249 0.41166462848321322 0 0.026193266524919229 0.40354759970948068 0 0.05541672994414297 0.41978165725695332 0 0.034872525450327208 0.43410841002701922 0 0.044188004768835241 0.44623559530441498 0 0.05541672994414297 0.41978165725695332 0 0.034872525450327208 0.43410841002701922 0 0.033398107514925258 0.41349536713156121 0 0.034872525450327208 0.43410841002701922 0 0.025709864549370812 0.42440454765816871 0 0.034872525450327208 0.43410841002701922 0 0.025709864549370812 0.42440454765816871 0 0.0098739943498266682 0.43389399897103781 0 0.025709864549370812 0.42440454765816871 0 0.0098739943498266682 0.43389399897103781 0 0.014836677133725039 0.42273177003813062 0 0.033398107514925258 0.41349536713156121 0 0.025709864549370812 0.42440454765816871 0 0.02590045237467686 0.41134267384918488 0 0.033398107514925258 0.41349536713156121 0 0.026193266524919229 0.40354759970948068 0 0.033398107514925258 0.41349536713156121 0 0.02590045237467686 0.41134267384918488 0 0.026193266524919229 0.40354759970948068 0 0.02590045237467686 0.41134267384918488 0 0.018343181892565331 0.41327569837832789 0 0.015764435779284061 0.40619996222328858 0 0.02590045237467686 0.41134267384918488 0 0.015764435779284061 0.40619996222328858 0 0.026193266524919229 0.40354759970948068 0 0.025709864549370812 0.42440454765816871 0 0.02590045237467686 0.41134267384918488 0 0.018343181892565331 0.41327569837832789 0 0.025709864549370812 0.42440454765816871 0 0.018343181892565331 0.41327569837832789 0 0.014836677133725039 0.42273177003813062 0 0.018343181892565331 0.41327569837832789 0 0.0054196677431368467 0.41935283514498828 0 0.014836677133725039 0.42273177003813062 0 0.018343181892565331 0.41327569837832789 0 0.0054196677431368467 0.41935283514498828 0 -0.0024522814328623438 0.39365483122523831 0 0.0054196677431368467 0.41935283514498828 0 0.018343181892565331 0.41327569837832789 0 0.0054196677431368467 0.41935283514498828 0 0.015764435779284061 0.40619996222328858 0 0.0054196677431368467 0.41935283514498828 0 0.0079680970840247181 0.40399034769718922 0 0.015764435779284061 0.40619996222328858 0 0.0054196677431368467 0.41935283514498828 0 0.0098739943498266682 0.43389399897103781 0 0.0054196677431368467 0.41935283514498828 0 0.0098739943498266682 0.43389399897103781 0 0.014836677133725039 0.42273177003813062 0 -0.0024522814328623438 0.39365483122523831 0 0.0079680970840247181 0.40399034769718922 0 0.011641031951423599 0.39744570904301041 0 -0.0024522814328623438 0.39365483122523831 0 0.01139678442165828 0.38311800760156722 0 0.011641031951423599 0.39744570904301041 0 -0.0024522814328623438 0.39365483122523831 0 0.0054196677431368467 0.41935283514498828 0 0.0079680970840247181 0.40399034769718922 0 0.01139678442165828 0.38311800760156722 0 0.011641031951423599 0.39744570904301041 0 0.021653735876390041 0.40102582463000003 0 0.0079680970840247181 0.40399034769718922 0 0.011641031951423599 0.39744570904301041 0 0.015764435779284061 0.40619996222328858 0 0.01139678442165828 0.38311800760156722 0 0.021653735876390041 0.40102582463000003 0 0.026193266524919229 0.40354759970948068 0 0.01139678442165828 0.38311800760156722 0 0.026193266524919229 0.40354759970948068 0 0.015764435779284061 0.40619996222328858 0 0.021653735876390041 0.40102582463000003 0 0.026193266524919229 0.40354759970948068 0 0.011641031951423599 0.39744570904301041 0 0.015764435779284061 0.40619996222328858 0 0.021653735876390041 0.40102582463000003 0 0.021653735876390041 0.40102582463000003 0 0.026193266524919229 0.40354759970948068 0 0.01139678442165828 0.38311800760156722 0 0.026193266524919229 0.40354759970948068 0 0.029670821746849589 0.3780873521524214 0 0.029670821746849589 0.3780873521524214 0 0.041298635858602793 0.39186592027272699 0 0.056997829194306862 0.37349674864413762 0 0.040804998234533249 0.41166462848321322 0 0.026193266524919229 0.40354759970948068 0 0.041298635858602793 0.39186592027272699 0 0.026193266524919229 0.40354759970948068 0 0.029670821746849589 0.3780873521524214 0 0.041298635858602793 0.39186592027272699 0 0.040804998234533249 0.41166462848321322 0 0.041298635858602793 0.39186592027272699 0 0.058531443748742071 0.39895891542276762 0 0.041298635858602793 0.39186592027272699 0 0.056997829194306862 0.37349674864413762 0 0.041298635858602793 0.39186592027272699 0 0.058531443748742071 0.39895891542276762 0 0.056997829194306862 0.37349674864413762 0 0.058531443748742071 0.39895891542276762 0 0.072410259708125896 0.3875867371343043 0 0.056997829194306862 0.37349674864413762 0 0.072410259708125896 0.3875867371343043 0 0.080282369051736746 0.37283891587525192 0 0.056997829194306862 0.37349674864413762 0 0.072410259708125896 0.3875867371343043 0 0.086232858112042093 0.3854320975094761 0 0.080282369051736746 0.37283891587525192 0 0.086232858112042093 0.3854320975094761 0 0.094846398730141973 0.37447492880816657 0 0.080282369051736746 0.37283891587525192 0 0.079340030661879987 0.40309845032480179 0 0.1032633313796148 0.38641524339264749 0 0.072410259708125896 0.3875867371343043 0 0.086232858112042093 0.3854320975094761 0 0.079340030661879987 0.40309845032480179 0 0.086232858112042093 0.3854320975094761 0 0.079340030661879987 0.40309845032480179 0 0.1032633313796148 0.38641524339264749 0 0.079340030661879987 0.40309845032480179 0 0.1032633313796148 0.38641524339264749 0 0.096105443538438445 0.40022118075199309 0 0.058531443748742071 0.39895891542276762 0 0.072410259708125896 0.3875867371343043 0 0.079340030661879987 0.40309845032480179 0 0.05541672994414297 0.41978165725695332 0 0.079340030661879987 0.40309845032480179 0 0.05541672994414297 0.41978165725695332 0 0.079340030661879987 0.40309845032480179 0 0.078446392032326104 0.41751425996913011 0 0.05541672994414297 0.41978165725695332 0 0.058531443748742071 0.39895891542276762 0 0.079340030661879987 0.40309845032480179 0 0.061050726255349991 0.44900588894738219 0 0.05541672994414297 0.41978165725695332 0 0.077245236944870427 0.4319077093179699 0 0.05541672994414297 0.41978165725695332 0 0.077245236944870427 0.4319077093179699 0 0.05541672994414297 0.41978165725695332 0 0.077245236944870427 0.4319077093179699 0 0.078446392032326104 0.41751425996913011 0 0.077245236944870427 0.4319077093179699 0 0.09275348991673181 0.41553408123281571 0 0.08981813824248755 0.43889213824331957 0 0.077245236944870427 0.4319077093179699 0 0.09275348991673181 0.41553408123281571 0 0.08981813824248755 0.43889213824331957 0 0.077245236944870427 0.4319077093179699 0 0.079340030661879987 0.40309845032480179 0 0.09275348991673181 0.41553408123281571 0 0.096105443538438445 0.40022118075199309 0 0.077245236944870427 0.4319077093179699 0 0.078446392032326104 0.41751425996913011 0 0.09275348991673181 0.41553408123281571 0 0.079340030661879987 0.40309845032480179 0 0.078446392032326104 0.41751425996913011 0 0.09275348991673181 0.41553408123281571 0 0.09275348991673181 0.41553408123281571 0 0.11693450376169851 0.41413506421706098 0 0.1136075823661226 0.40551041976680741 0 0.09275348991673181 0.41553408123281571 0 0.1065076650675508 0.43004782546102172 0 0.11693450376169851 0.41413506421706098 0 0.09275348991673181 0.41553408123281571 0 0.1136075823661226 0.40551041976680741 0 0.1082617428885899 0.39916045314765819 0 0.09275348991673181 0.41553408123281571 0 0.1082617428885899 0.39916045314765819 0 0.08981813824248755 0.43889213824331957 0 0.09275348991673181 0.41553408123281571 0 0.1065076650675508 0.43004782546102172 0 0.1065076650675508 0.43004782546102172 0 0.1206822442387028 0.42730429125050617 0 0.11693450376169851 0.41413506421706098 0 0.1171575311569153 0.43965523556095559 0 0.1206822442387028 0.42730429125050617 0 0.13329196495027809 0.43488032029245632 0 0.1171575311569153 0.43965523556095559 0 0.1065076650675508 0.43004782546102172 0 0.1206822442387028 0.42730429125050617 0 0.11693450376169851 0.41413506421706098 0 0.11914222170790539 0.39697168053808202 0 0.1321320151601848 0.42241101764459649 0 0.1206822442387028 0.42730429125050617 0 0.11693450376169851 0.41413506421706098 0 0.1321320151601848 0.42241101764459649 0 0.11693450376169851 0.41413506421706098 0 0.1136075823661226 0.40551041976680741 0 0.11914222170790539 0.39697168053808202 0 0.1136075823661226 0.40551041976680741 0 0.11914222170790539 0.39697168053808202 0 0.1082617428885899 0.39916045314765819 0 0.11914222170790539 0.39697168053808202 0 0.1082617428885899 0.39916045314765819 0 0.11605721924160441 0.39092998187649619 0 0.11914222170790539 0.39697168053808202 0 0.1082617428885899 0.39916045314765819 0 0.11605721924160441 0.39092998187649619 0 0.1082617428885899 0.39916045314765819 0 0.11605721924160441 0.39092998187649619 0 0.1082617428885899 0.39916045314765819 0 0.1059046941522945 0.39455360895038388 0 0.11605721924160441 0.39092998187649619 0 0.11914222170790539 0.39697168053808202 0 0.12824835776104779 0.38851344114018721 0 0.11605721924160441 0.39092998187649619 0 0.11914222170790539 0.39697168053808202 0 0.11605721924160441 0.39092998187649619 0 0.10683688478297131 0.37287278971331911 0 0.11605721924160441 0.39092998187649619 0 0.1173954322843922 0.36951501347730531 0 0.13470024970488501 0.3712466527652315 0 0.11605721924160441 0.39092998187649619 0 0.10683688478297131 0.37287278971331911 0 0.1173954322843922 0.36951501347730531 0 0.086232858112042093 0.3854320975094761 0 0.1032633313796148 0.38641524339264749 0 0.094846398730141973 0.37447492880816657 0 0.11605721924160441 0.39092998187649619 0 0.1032633313796148 0.38641524339264749 0 0.10683688478297131 0.37287278971331911 0 0.1032633313796148 0.38641524339264749 0 0.094846398730141973 0.37447492880816657 0 0.10683688478297131 0.37287278971331911 0 0.09275348991673181 0.41553408123281571 0 0.1060227749301432 0.39961085536087598 0 0.1082617428885899 0.39916045314765819 0 0.09275348991673181 0.41553408123281571 0 0.096105443538438445 0.40022118075199309 0 0.1060227749301432 0.39961085536087598 0 0.1060227749301432 0.39961085536087598 0 0.1082617428885899 0.39916045314765819 0 0.1060227749301432 0.39961085536087598 0 0.1082617428885899 0.39916045314765819 0 0.1059046941522945 0.39455360895038388 0 0.096105443538438445 0.40022118075199309 0 0.1060227749301432 0.39961085536087598 0 0.1059046941522945 0.39455360895038388 0 0.1032633313796148 0.38641524339264749 0 0.096105443538438445 0.40022118075199309 0 0.1059046941522945 0.39455360895038388 0 0.11605721924160441 0.39092998187649619 0 0.1032633313796148 0.38641524339264749 0 0.1059046941522945 0.39455360895038388 0 0.097616550324344853 0.35481559755013858 0 0.1003931265742341 0.34251060085684598 0 0.088396215865715833 0.33675840538695939 0 0.1070779330373106 0.35690922487757831 0 0.097616550324344853 0.35481559755013858 0 0.1003931265742341 0.34251060085684598 0 0.1070779330373106 0.35690922487757831 0 0.097616550324344853 0.35481559755013858 0 0.10683688478297131 0.37287278971331911 0 0.097616550324344853 0.35481559755013858 0 0.094846398730141973 0.37447492880816657 0 0.10683688478297131 0.37287278971331911 0 0.097616550324344853 0.35481559755013858 0 0.10683688478297131 0.37287278971331911 0 0.1070779330373106 0.35690922487757831 0 0.10683688478297131 0.37287278971331911 0 0.1173954322843922 0.36951501347730531 0 0.1070779330373106 0.35690922487757831 0 0.1173954322843922 0.36951501347730531 0 0.1223048746551878 0.3556164181539001 0 0.1173954322843922 0.36951501347730531 0 0.1223048746551878 0.3556164181539001 0 0.13470024970488501 0.3712466527652315 0 0.1070779330373106 0.35690922487757831 0 0.1223048746551878 0.3556164181539001 0 0.11934869014789661 0.34379891692940018 0 0.1070779330373106 0.35690922487757831 0 0.11934869014789661 0.34379891692940018 0 0.1077971002648714 0.33005073793225798 0 0.11890678732032101 0.332344886435465 0 0.11971652451546989 0.3247163385122358 0 0.128764834353046 0.33081355236796589 0 0.11934869014789661 0.34379891692940018 0 0.11890678732032101 0.332344886435465 0 0.128764834353046 0.33081355236796589 0 0.11890678732032101 0.332344886435465 0 0.11971652451546989 0.3247163385122358 0 0.1077971002648714 0.33005073793225798 0 0.11934869014789661 0.34379891692940018 0 0.11890678732032101 0.332344886435465 0 0.1077971002648714 0.33005073793225798 0 0.1105750701739688 0.31706767469987368 0 0.135249395519976 0.31092909010494579 0 0.11971652451546989 0.3247163385122358 0 0.1105750701739688 0.31706767469987368 0 0.135249395519976 0.31092909010494579 0 0.11971652451546989 0.3247163385122358 0 0.1105750701739688 0.31706767469987368 0 0.1077971002648714 0.33005073793225798 0 0.1105750701739688 0.31706767469987368 0 0.1081488697238676 0.3136463969492197 0 0.1193743986817306 0.30932222756879318 0 0.1081488697238676 0.3136463969492197 0 0.1077971002648714 0.33005073793225798 0 0.1081488697238676 0.3136463969492197 0 0.099232255186326251 0.32407946948254379 0 0.1077971002648714 0.33005073793225798 0 0.1081488697238676 0.3136463969492197 0 0.099232255186326251 0.32407946948254379 0 0.097728721133562513 0.30020788995966452 0 0.1105750701739688 0.31706767469987368 0 0.1081488697238676 0.3136463969492197 0 0.1077971002648714 0.33005073793225798 0 0.1081488697238676 0.3136463969492197 0 0.099232255186326251 0.32407946948254379 0 0.1070779330373106 0.35690922487757831 0 0.1077971002648714 0.33005073793225798 0 0.1003931265742341 0.34251060085684598 0 0.099232255186326251 0.32407946948254379 0 0.1003931265742341 0.34251060085684598 0 0.1070779330373106 0.35690922487757831 0 0.1077971002648714 0.33005073793225798 0 0.099232255186326251 0.32407946948254379 0 0.1003931265742341 0.34251060085684598 0 0.088396215865715833 0.33675840538695939 0 0.099232255186326251 0.32407946948254379 0 0.1077971002648714 0.33005073793225798 0 0.1003931265742341 0.34251060085684598 0 0.099232255186326251 0.32407946948254379 0 0.088396215865715833 0.33675840538695939 0 0.088396215865715833 0.33675840538695939 0 0.075094965046996531 0.33068819230852209 0 0.072697022530010924 0.3551275770155482 0 0.099232255186326251 0.32407946948254379 0 0.076482014210249971 0.31342551765614518 0 0.097728721133562513 0.30020788995966452 0 0.088396215865715833 0.33675840538695939 0 0.076482014210249971 0.31342551765614518 0 0.076458552187654169 0.31498096498096129 0 0.088396215865715833 0.33675840538695939 0 0.076482014210249971 0.31342551765614518 0 0.088396215865715833 0.33675840538695939 0 0.076458552187654169 0.31498096498096129 0 0.075094965046996531 0.33068819230852209 0 0.099232255186326251 0.32407946948254379 0 0.088396215865715833 0.33675840538695939 0 0.076482014210249971 0.31342551765614518 0 0.076458552187654169 0.31498096498096129 0 0.069185856901206613 0.32132175663017681 0 0.075094965046996531 0.33068819230852209 0 0.076482014210249971 0.31342551765614518 0 0.069185856901206613 0.32132175663017681 0 0.056715196851391363 0.31410066552363869 0 0.076482014210249971 0.31342551765614518 0 0.076458552187654169 0.31498096498096129 0 0.069185856901206613 0.32132175663017681 0 0.076482014210249971 0.31342551765614518 0 0.076458552187654169 0.31498096498096129 0 0.075094965046996531 0.33068819230852209 0 0.072697022530010924 0.3551275770155482 0 0.061178556209741039 0.33341344268161671 0 0.069185856901206613 0.32132175663017681 0 0.075094965046996531 0.33068819230852209 0 0.061178556209741039 0.33341344268161671 0 0.097616550324344853 0.35481559755013858 0 0.088396215865715833 0.33675840538695939 0 0.088396215865715833 0.33675840538695939 0 0.072697022530010924 0.3551275770155482 0 0.097616550324344853 0.35481559755013858 0 0.088396215865715833 0.33675840538695939 0 0.072697022530010924 0.3551275770155482 0 0.097616550324344853 0.35481559755013858 0 0.094846398730141973 0.37447492880816657 0 0.080282369051736746 0.37283891587525192 0 0.097616550324344853 0.35481559755013858 0 0.072697022530010924 0.3551275770155482 0 0.080282369051736746 0.37283891587525192 0 0.072697022530010924 0.3551275770155482 0 0.080282369051736746 0.37283891587525192 0 0.056997829194306862 0.37349674864413762 0 0.072697022530010924 0.3551275770155482 0 0.056997829194306862 0.37349674864413762 0 0.056997829194306862 0.37349674864413762 0 0.050660459333886583 0.35077556285369582 0 0.03530627208372121 0.36017895492021412 0 0.072697022530010924 0.3551275770155482 0 0.056997829194306862 0.37349674864413762 0 0.050660459333886583 0.35077556285369582 0 0.072697022530010924 0.3551275770155482 0 0.050660459333886583 0.35077556285369582 0 0.061178556209741039 0.33341344268161671 0 0.050660459333886583 0.35077556285369582 0 0.03530627208372121 0.36017895492021412 0 0.0286688668855338 0.34271103996394281 0 0.029670821746849589 0.3780873521524214 0 0.056997829194306862 0.37349674864413762 0 0.03530627208372121 0.36017895492021412 0 0.029670821746849589 0.3780873521524214 0 0.03530627208372121 0.36017895492021412 0 0.018337632121288808 0.36089424175989809 0 0.01139678442165828 0.38311800760156722 0 0.029670821746849589 0.3780873521524214 0 0.018337632121288808 0.36089424175989809 0 0.03530627208372121 0.36017895492021412 0 0.018337632121288808 0.36089424175989809 0 0.0286688668855338 0.34271103996394281 0 0.018337632121288808 0.36089424175989809 0 0.0083827452715723623 0.33858168042759013 0 0.0286688668855338 0.34271103996394281 0 -0.003399697681602355 0.36268841549365338 0 0.018337632121288808 0.36089424175989809 0 0.0083827452715723623 0.33858168042759013 0 -0.003399697681602355 0.36268841549365338 0 0.01139678442165828 0.38311800760156722 0 0.018337632121288808 0.36089424175989809 0 -0.003399697681602355 0.36268841549365338 0 0.01139678442165828 0.38311800760156722 0 -0.002820925647400913 0.31420057308133631 0 0.022321371585102459 0.32231085286841737 0 0.01725669443356324 0.30149321183204519 0 -0.002820925647400913 0.31420057308133631 0 0.0083827452715723623 0.33858168042759013 0 0.022321371585102459 0.32231085286841737 0 0.0083827452715723623 0.33858168042759013 0 0.0286688668855338 0.34271103996394281 0 0.022321371585102459 0.32231085286841737 0 0.0286688668855338 0.34271103996394281 0 0.022321371585102459 0.32231085286841737 0 0.042364567460633967 0.32865886016596191 0 0.042364567460633967 0.32865886016596191 0 0.056715196851391363 0.31410066552363869 0 0.037210844109595347 0.30867338851724918 0 0.022321371585102459 0.32231085286841737 0 0.042364567460633967 0.32865886016596191 0 0.037210844109595347 0.30867338851724918 0 0.050660459333886583 0.35077556285369582 0 0.0286688668855338 0.34271103996394281 0 0.042364567460633967 0.32865886016596191 0 0.050660459333886583 0.35077556285369582 0 0.042364567460633967 0.32865886016596191 0 0.061178556209741039 0.33341344268161671 0 0.069185856901206613 0.32132175663017681 0 0.061178556209741039 0.33341344268161671 0 0.056715196851391363 0.31410066552363869 0 0.042364567460633967 0.32865886016596191 0 0.061178556209741039 0.33341344268161671 0 0.056715196851391363 0.31410066552363869 0 0.056715196851391363 0.31410066552363869 0 0.050908585234465703 0.29788418276677098 0 0.06694697440286887 0.29475200349480479 0 0.056715196851391363 0.31410066552363869 0 0.050908585234465703 0.29788418276677098 0 0.037210844109595347 0.30867338851724918 0 0.050908585234465703 0.29788418276677098 0 0.037334314514527317 0.28878585058275408 0 0.057411934595491217 0.27607848933346268 0 0.050908585234465703 0.29788418276677098 0 0.057411934595491217 0.27607848933346268 0 0.06694697440286887 0.29475200349480479 0 0.037334314514527317 0.28878585058275408 0 0.057411934595491217 0.27607848933346268 0 0.057411934595491217 0.27607848933346268 0 0.06694697440286887 0.29475200349480479 0 0.050908585234465703 0.29788418276677098 0 0.037334314514527317 0.28878585058275408 0 0.037210844109595347 0.30867338851724918 0 0.037334314514527317 0.28878585058275408 0 0.037210844109595347 0.30867338851724918 0 0.01725669443356324 0.30149321183204519 0 0.022321371585102459 0.32231085286841737 0 0.037210844109595347 0.30867338851724918 0 0.01725669443356324 0.30149321183204519 0 0.037334314514527317 0.28878585058275408 0 0.01725669443356324 0.30149321183204519 0 0.024394682876467771 0.27875564049172441 0 0.037334314514527317 0.28878585058275408 0 0.01725669443356324 0.30149321183204519 0 0.01725669443356324 0.30149321183204519 0 0.0078891299894427221 0.27928127077915732 0 0.024394682876467771 0.27875564049172441 0 -0.003161642513542244 0.29251205401540592 0 0.01725669443356324 0.30149321183204519 0 0.0078891299894427221 0.27928127077915732 0 -0.003161642513542244 0.29251205401540592 0 -0.002820925647400913 0.31420057308133631 0 0.01725669443356324 0.30149321183204519 0 -0.002820925647400913 0.31420057308133631 0 0.01725669443356324 0.30149321183204519 0 -0.0019485653653287681 0.26326166934363848 0 -0.0073964723180061174 0.24596544541674961 0 0.011003056284647339 0.25476209704203712 0 -0.0019485653653287681 0.26326166934363848 0 0.011003056284647339 0.25476209704203712 0 0.012657097792702909 0.26713403261751167 0 0.0078891299894427221 0.27928127077915732 0 0.012657097792702909 0.26713403261751167 0 0.024394682876467771 0.27875564049172441 0 -0.0019485653653287681 0.26326166934363848 0 0.0078891299894427221 0.27928127077915732 0 0.012657097792702909 0.26713403261751167 0 0.012657097792702909 0.26713403261751167 0 0.024394682876467771 0.27875564049172441 0 0.02404647996943159 0.26405412027989128 0 0.024394682876467771 0.27875564049172441 0 0.02404647996943159 0.26405412027989128 0 0.037976927309882537 0.27109251580686622 0 0.02404647996943159 0.26405412027989128 0 0.022132016671386961 0.25245973457324739 0 0.033498932377619348 0.25802273922201868 0 0.011003056284647339 0.25476209704203712 0 0.012657097792702909 0.26713403261751167 0 0.02404647996943159 0.26405412027989128 0 0.011003056284647339 0.25476209704203712 0 0.02404647996943159 0.26405412027989128 0 0.022132016671386961 0.25245973457324739 0 0.029538426512437242 0.24676143775986309 0 0.022132016671386961 0.25245973457324739 0 0.033498932377619348 0.25802273922201868 0 0.033498932377619348 0.25802273922201868 0 0.037976927309882537 0.27109251580686622 0 0.049551051527723447 0.2606836599198622 0 0.03664919285105489 0.25055911942351589 0 0.033498932377619348 0.25802273922201868 0 0.049551051527723447 0.2606836599198622 0 0.029538426512437242 0.24676143775986309 0 0.03664919285105489 0.25055911942351589 0 0.033498932377619348 0.25802273922201868 0 0.02404647996943159 0.26405412027989128 0 0.033498932377619348 0.25802273922201868 0 0.037976927309882537 0.27109251580686622 0 0.041690168459959077 0.24528883050625999 0 0.049551051527723447 0.2606836599198622 0 0.041690168459959077 0.24528883050625999 0 0.03664919285105489 0.25055911942351589 0 0.049551051527723447 0.2606836599198622 0 0.047965014048372397 0.2485014103471137 0 0.041690168459959077 0.24528883050625999 0 0.049551051527723447 0.2606836599198622 0 0.037334314514527317 0.28878585058275408 0 0.024394682876467771 0.27875564049172441 0 0.037976927309882537 0.27109251580686622 0 0.037334314514527317 0.28878585058275408 0 0.037976927309882537 0.27109251580686622 0 0.057411934595491217 0.27607848933346268 0 0.037976927309882537 0.27109251580686622 0 0.057411934595491217 0.27607848933346268 0 0.049551051527723447 0.2606836599198622 0 0.057411934595491217 0.27607848933346268 0 0.049551051527723447 0.2606836599198622 0 0.057411934595491217 0.27607848933346268 0 0.049551051527723447 0.2606836599198622 0 0.062543585689859724 0.26209847620552917 0 0.05176115807188883 0.25100255985287662 0 0.049551051527723447 0.2606836599198622 0 0.058535721190617153 0.25557775365730551 0 0.051680701138755211 0.2447037550343846 0 0.05176115807188883 0.25100255985287662 0 0.058535721190617153 0.25557775365730551 0 0.047965014048372397 0.2485014103471137 0 0.05176115807188883 0.25100255985287662 0 0.049551051527723447 0.2606836599198622 0 0.049551051527723447 0.2606836599198622 0 0.058535721190617153 0.25557775365730551 0 0.062543585689859724 0.26209847620552917 0 0.058535721190617153 0.25557775365730551 0 0.068278184641193063 0.25385239848015118 0 0.062543585689859724 0.26209847620552917 0 0.077528559488186502 0.24404334712007811 0 0.068278184641193063 0.25385239848015118 0 0.077234589448614333 0.26353249856747701 0 0.077528559488186502 0.24404334712007811 0 0.077234589448614333 0.26353249856747701 0 0.065548467388690065 0.2440099168503666 0 0.058535721190617153 0.25557775365730551 0 0.068278184641193063 0.25385239848015118 0 0.068278184641193063 0.25385239848015118 0 0.062543585689859724 0.26209847620552917 0 0.077234589448614333 0.26353249856747701 0 0.077234589448614333 0.26353249856747701 0 0.094721653028028263 0.2524647309139062 0 0.077234589448614333 0.26353249856747701 0 0.094721653028028263 0.2524647309139062 0 0.096225187080797511 0.27633631043678519 0 0.077528559488186502 0.24404334712007811 0 0.077234589448614333 0.26353249856747701 0 0.094721653028028263 0.2524647309139062 0 0.077234589448614333 0.26353249856747701 0 0.076858301829430917 0.2884790081118111 0 0.096225187080797511 0.27633631043678519 0 0.057411934595491217 0.27607848933346268 0 0.077234589448614333 0.26353249856747701 0 0.076858301829430917 0.2884790081118111 0 0.057411934595491217 0.27607848933346268 0 0.077234589448614333 0.26353249856747701 0 0.057411934595491217 0.27607848933346268 0 0.062543585689859724 0.26209847620552917 0 0.077234589448614333 0.26353249856747701 0 0.077234589448614333 0.26353249856747701 0 0.076858301829430917 0.2884790081118111 0 0.057411934595491217 0.27607848933346268 0 0.06694697440286887 0.29475200349480479 0 0.076858301829430917 0.2884790081118111 0 0.076482014210249971 0.31342551765614518 0 0.06694697440286887 0.29475200349480479 0 0.076858301829430917 0.2884790081118111 0 0.076482014210249971 0.31342551765614518 0 0.056715196851391363 0.31410066552363869 0 0.06694697440286887 0.29475200349480479 0 0.076482014210249971 0.31342551765614518 0 0.06694697440286887 0.29475200349480479 0 0.076482014210249971 0.31342551765614518 0 0.076858301829430917 0.2884790081118111 0 0.076482014210249971 0.31342551765614518 0 0.076858301829430917 0.2884790081118111 0 0.097728721133562513 0.30020788995966452 0 0.076858301829430917 0.2884790081118111 0 0.097728721133562513 0.30020788995966452 0 0.096225187080797511 0.27633631043678519 0 0.1088142805319875 0.28732782253725581 0 0.097728721133562513 0.30020788995966452 0 0.096225187080797511 0.27633631043678519 0 0.097728721133562513 0.30020788995966452 0 0.096225187080797511 0.27633631043678519 0 0.10877514479188689 0.28887573380565451 0 0.1088142805319875 0.28732782253725581 0 0.097728721133562513 0.30020788995966452 0 0.10877514479188689 0.28887573380565451 0 0.1088142805319875 0.28732782253725581 0 0.1081488697238676 0.3136463969492197 0 0.10877514479188689 0.28887573380565451 0 0.099232255186326251 0.32407946948254379 0 0.097728721133562513 0.30020788995966452 0 0.1081488697238676 0.3136463969492197 0 0.10877514479188689 0.28887573380565451 0 0.097728721133562513 0.30020788995966452 0 0.1081488697238676 0.3136463969492197 0 0.1235329497595045 0.29564593027046909 0 0.1105750701739688 0.31706767469987368 0 0.1193743986817306 0.30932222756879318 0 0.135249395519976 0.31092909010494579 0 0.1081488697238676 0.3136463969492197 0 0.1193743986817306 0.30932222756879318 0 0.1235329497595045 0.29564593027046909 0 0.1081488697238676 0.3136463969492197 0 0.10877514479188689 0.28887573380565451 0 0.11592321059163301 0.29276455859729911 0 0.1081488697238676 0.3136463969492197 0 0.11592321059163301 0.29276455859729911 0 0.1235329497595045 0.29564593027046909 0 0.10877514479188689 0.28887573380565451 0 0.11477485348536449 0.28426457751223588 0 0.1115120170744255 0.27820623422425311 0 0.10877514479188689 0.28887573380565451 0 0.11477485348536449 0.28426457751223588 0 0.11592321059163301 0.29276455859729911 0 0.10877514479188689 0.28887573380565451 0 0.1088142805319875 0.28732782253725581 0 0.1115120170744255 0.27820623422425311 0 0.11592321059163301 0.29276455859729911 0 0.1235329497595045 0.29564593027046909 0 0.1217517755119023 0.28178762634810328 0 0.11477485348536449 0.28426457751223588 0 0.11592321059163301 0.29276455859729911 0 0.1217517755119023 0.28178762634810328 0 0.11477485348536449 0.28426457751223588 0 0.1217517755119023 0.28178762634810328 0 0.1159116109087346 0.27968872172827758 0 0.1217517755119023 0.28178762634810328 0 0.1173811957492491 0.27478905419328947 0 0.12440853511509239 0.26986869723108847 0 0.1088142805319875 0.28732782253725581 0 0.1115120170744255 0.27820623422425311 0 0.1091908975011702 0.26410159066795802 0 0.1217517755119023 0.28178762634810328 0 0.1173811957492491 0.27478905419328947 0 0.1159116109087346 0.27968872172827758 0 0.11477485348536449 0.28426457751223588 0 0.1159116109087346 0.27968872172827758 0 0.1115120170744255 0.27820623422425311 0 0.1173811957492491 0.27478905419328947 0 0.1159116109087346 0.27968872172827758 0 0.1115120170744255 0.27820623422425311 0 0.1173811957492491 0.27478905419328947 0 0.1115120170744255 0.27820623422425311 0 0.11307642223762079 0.27132776985989171 0 0.1115120170744255 0.27820623422425311 0 0.11307642223762079 0.27132776985989171 0 0.1091908975011702 0.26410159066795802 0 0.11307642223762079 0.27132776985989171 0 0.1140186859027667 0.2682109104169475 0 0.1091908975011702 0.26410159066795802 0 0.1173811957492491 0.27478905419328947 0 0.11307642223762079 0.27132776985989171 0 0.1140186859027667 0.2682109104169475 0 0.1173811957492491 0.27478905419328947 0 0.1140186859027667 0.2682109104169475 0 0.12440853511509239 0.26986869723108847 0 0.1140186859027667 0.2682109104169475 0 0.12440853511509239 0.26986869723108847 0 0.1219512409969106 0.25857744331958821 0 0.1132903352822376 0.24801312626120869 0 0.1140186859027667 0.2682109104169475 0 0.1219512409969106 0.25857744331958821 0 0.1132903352822376 0.24801312626120869 0 0.1140186859027667 0.2682109104169475 0 0.1092411374142887 0.26100326009162811 0 0.1132903352822376 0.24801312626120869 0 0.1140186859027667 0.2682109104169475 0 0.1247962224696446 0.24677133208180879 0 0.1132903352822376 0.24801312626120869 0 0.1219512409969106 0.25857744331958821 0 0.1140186859027667 0.2682109104169475 0 0.1091908975011702 0.26410159066795802 0 0.1092411374142887 0.26100326009162811 0 0.094721653028028263 0.2524647309139062 0 0.096225187080797511 0.27633631043678519 0 0.1078161922253372 0.2441770434637876 0 0.1092411374142887 0.26100326009162811 0 0.094721653028028263 0.2524647309139062 0 0.1092411374142887 0.26100326009162811 0 0.094721653028028263 0.2524647309139062 0 0.096225187080797511 0.27633631043678519 0 0.1091908975011702 0.26410159066795802 0 0.1092411374142887 0.26100326009162811 0 0.1088142805319875 0.28732782253725581 0 0.1091908975011702 0.26410159066795802 0 0.1088142805319875 0.28732782253725581 0 0.1091908975011702 0.26410159066795802 0 0.096225187080797511 0.27633631043678519 0 0.1091908975011702 0.26410159066795802 0 0.1092411374142887 0.26100326009162811 0 0.096225187080797511 0.27633631043678519 0 0.1533002151917838 0.27086037250374467 0 0.13891702979514239 0.27764546359171938 0 0.1435906070789057 0.29268090802753749 0 0.1533002151917838 0.27086037250374467 0 0.1341160518439613 0.25890554388568071 0 0.13891702979514239 0.27764546359171938 0 0.15257509911684189 0.2487488013275852 0 0.1533002151917838 0.27086037250374467 0 0.1341160518439613 0.25890554388568071 0 0.15257509911684189 0.2487488013275852 0 0.13483905121851 0.24408860570344321 0 0.1341160518439613 0.25890554388568071 0 0.1247962224696446 0.24677133208180879 0 0.1219512409969106 0.25857744331958821 0 0.1341160518439613 0.25890554388568071 0 0.12440853511509239 0.26986869723108847 0 0.1219512409969106 0.25857744331958821 0 0.1341160518439613 0.25890554388568071 0 0.12440853511509239 0.26986869723108847 0 0.1341160518439613 0.25890554388568071 0 0.13891702979514239 0.27764546359171938 0 0.1217517755119023 0.28178762634810328 0 0.12440853511509239 0.26986869723108847 0 0.13891702979514239 0.27764546359171938 0 0.1235329497595045 0.29564593027046909 0 0.13891702979514239 0.27764546359171938 0 0.1435906070789057 0.29268090802753749 0 0.1235329497595045 0.29564593027046909 0 0.1217517755119023 0.28178762634810328 0 0.13891702979514239 0.27764546359171938 0 0.1235329497595045 0.29564593027046909 0 0.13891702979514239 0.27764546359171938 0 0.1193743986817306 0.30932222756879318 0 0.1235329497595045 0.29564593027046909 0 0.135249395519976 0.31092909010494579 0 0.1235329497595045 0.29564593027046909 0 0.135249395519976 0.31092909010494579 0 0.1435906070789057 0.29268090802753749 0 0.135249395519976 0.31092909010494579 0 0.1435906070789057 0.29268090802753749 0 0.1599237208659833 0.30479050551001791 0 0.135249395519976 0.31092909010494579 0 0.1599237208659833 0.30479050551001791 0 0.1533002151917838 0.27086037250374467 0 0.1435906070789057 0.29268090802753749 0 0.1662843485498248 0.28465092427413102 0 0.1662843485498248 0.28465092427413102 0 0.1599237208659833 0.30479050551001791 0 0.18459804621199061 0.29865192091509007 0 0.1435906070789057 0.29268090802753749 0 0.1662843485498248 0.28465092427413102 0 0.1599237208659833 0.30479050551001791 0 0.1599237208659833 0.30479050551001791 0 0.17540967306386859 0.31145381385011212 0 0.18459804621199061 0.29865192091509007 0 0.1599237208659833 0.30479050551001791 0 0.18459804621199061 0.29865192091509007 0 0.17540967306386859 0.31145381385011212 0 0.18459804621199061 0.29865192091509007 0 0.19062934109472149 0.31219666543143232 0 0.1662843485498248 0.28465092427413102 0 0.18459804621199061 0.29865192091509007 0 0.18849753753259521 0.27700086513216149 0 0.1662843485498248 0.28465092427413102 0 0.16933187858092549 0.26186056498730442 0 0.18849753753259521 0.27700086513216149 0 0.1533002151917838 0.27086037250374467 0 0.1662843485498248 0.28465092427413102 0 0.16933187858092549 0.26186056498730442 0 0.15257509911684189 0.2487488013275852 0 0.1533002151917838 0.27086037250374467 0 0.16933187858092549 0.26186056498730442 0 0.17350082697867411 0.2353387761642812 0 0.16933187858092549 0.26186056498730442 0 0.19088572936116729 0.25370130756520798 0 0.16933187858092549 0.26186056498730442 0 0.19088572936116729 0.25370130756520798 0 0.18849753753259521 0.27700086513216149 0 0.19088572936116729 0.25370130756520798 0 0.18849753753259521 0.27700086513216149 0 0.20737646500044241 0.27025927504401093 0 0.18849753753259521 0.27700086513216149 0 0.20737646500044241 0.27025927504401093 0 0.20927237155799841 0.29251333632016419 0 0.20737646500044241 0.27025927504401093 0 0.22950273727549661 0.27115409715338312 0 0.20927237155799841 0.29251333632016419 0 0.19088572936116729 0.25370130756520798 0 0.20737646500044241 0.27025927504401093 0 0.21222508330913359 0.25037506054934539 0 0.20737646500044241 0.27025927504401093 0 0.21222508330913359 0.25037506054934539 0 0.22950273727549661 0.27115409715338312 0 0.21222508330913359 0.25037506054934539 0 0.22950273727549661 0.27115409715338312 0 0.22906390573163971 0.24555310806953359 0 0.21222508330913359 0.25037506054934539 0 0.22950273727549661 0.27115409715338312 0 0.22950273727549661 0.27115409715338312 0 0.24872800576435361 0.27025246232820838 0 0.24075105832896701 0.28468193347647941 0 0.22950273727549661 0.27115409715338312 0 0.24075105832896701 0.28468193347647941 0 0.22950273727549661 0.27115409715338312 0 0.24872800576435361 0.27025246232820838 0 0.24616920022930519 0.25355762987910191 0 0.22950273727549661 0.27115409715338312 0 0.24616920022930519 0.25355762987910191 0 0.22906390573163971 0.24555310806953359 0 0.22950273727549661 0.27115409715338312 0 0.24616920022930519 0.25355762987910191 0 0.2368721869336996 0.30122878981556339 0 0.24129208926683121 0.32446491573775238 0 0.25667970616986208 0.30383858270581171 0 0.24075105832896701 0.28468193347647941 0 0.25667970616986208 0.30383858270581171 0 0.2368721869336996 0.30122878981556339 0 0.24075105832896701 0.28468193347647941 0 0.25667970616986208 0.30383858270581171 0 0.22950273727549661 0.27115409715338312 0 0.24075105832896701 0.28468193347647941 0 0.22501171494348179 0.28859763489831769 0 0.22950273727549661 0.27115409715338312 0 0.22501171494348179 0.28859763489831769 0 0.20927237155799841 0.29251333632016419 0 0.22950273727549661 0.27115409715338312 0 0.20927237155799841 0.29251333632016419 0 0.24075105832896701 0.28468193347647941 0 0.22501171494348179 0.28859763489831769 0 0.2368721869336996 0.30122878981556339 0 0.24075105832896701 0.28468193347647941 0 0.22501171494348179 0.28859763489831769 0 0.2368721869336996 0.30122878981556339 0 0.22501171494348179 0.28859763489831769 0 0.21975824943117361 0.30729762635475788 0 0.2368721869336996 0.30122878981556339 0 0.21975824943117361 0.30729762635475788 0 0.24129208926683121 0.32446491573775238 0 0.21975824943117361 0.30729762635475788 0 0.20927237155799841 0.29251333632016419 0 0.19062934109472149 0.31219666543143232 0 0.22501171494348179 0.28859763489831769 0 0.21975824943117361 0.30729762635475788 0 0.20927237155799841 0.29251333632016419 0 0.22501171494348179 0.28859763489831769 0 0.20927237155799841 0.29251333632016419 0 0.18459804621199061 0.29865192091509007 0 0.20927237155799841 0.29251333632016419 0 0.18459804621199061 0.29865192091509007 0 0.18849753753259521 0.27700086513216149 0 0.20927237155799841 0.29251333632016419 0 0.18459804621199061 0.29865192091509007 0 0.20927237155799841 0.29251333632016419 0 0.19062934109472149 0.31219666543143232 0 0.20927237155799841 0.29251333632016419 0 0.19062934109472149 0.31219666543143232 0 0.19062934109472149 0.31219666543143232 0 0.1951253136428214 0.34263326694571689 0 0.21547179279030931 0.32478441592531948 0 0.1951253136428214 0.34263326694571689 0 0.21547179279030931 0.32478441592531948 0 0.21082065963277441 0.34708846582032532 0 0.21975824943117361 0.30729762635475788 0 0.19062934109472149 0.31219666543143232 0 0.21547179279030931 0.32478441592531948 0 0.21547179279030931 0.32478441592531948 0 0.24129208926683121 0.32446491573775238 0 0.21975824943117361 0.30729762635475788 0 0.21547179279030931 0.32478441592531948 0 0.24129208926683121 0.32446491573775238 0 0.21547179279030931 0.32478441592531948 0 0.24129208926683121 0.32446491573775238 0 0.23001221346199721 0.34478417055826249 0 0.21547179279030931 0.32478441592531948 0 0.23001221346199721 0.34478417055826249 0 0.21082065963277441 0.34708846582032532 0 0.24129208926683121 0.32446491573775238 0 0.23001221346199721 0.34478417055826249 0 0.2502360661154257 0.3395434679490193 0 0.24467669917230031 0.35545251167338848 0 0.24600085046713749 0.37771825175899681 0 0.25821337790656679 0.3664501014541181 0 0.23191139725504839 0.36556501880237419 0 0.23213408667638691 0.38156303031317751 0 0.24600085046713749 0.37771825175899681 0 0.24467669917230031 0.35545251167338848 0 0.23191139725504839 0.36556501880237419 0 0.24600085046713749 0.37771825175899681 0 0.24467669917230031 0.35545251167338848 0 0.23001221346199721 0.34478417055826249 0 0.23191139725504839 0.36556501880237419 0 0.24467669917230031 0.35545251167338848 0 0.23001221346199721 0.34478417055826249 0 0.2502360661154257 0.3395434679490193 0 0.23001221346199721 0.34478417055826249 0 0.21659814426319929 0.35983092524824822 0 0.21082065963277441 0.34708846582032532 0 0.23001221346199721 0.34478417055826249 0 0.23191139725504839 0.36556501880237419 0 0.21659814426319929 0.35983092524824822 0 0.23191139725504839 0.36556501880237419 0 0.21659814426319929 0.35983092524824822 0 0.21460438870132939 0.37950102543232422 0 0.21659814426319929 0.35983092524824822 0 0.1968958340055445 0.36340955042407969 0 0.21460438870132939 0.37950102543232422 0 0.21659814426319929 0.35983092524824822 0 0.21082065963277441 0.34708846582032532 0 0.1968958340055445 0.36340955042407969 0 0.1951253136428214 0.34263326694571689 0 0.21082065963277441 0.34708846582032532 0 0.1968958340055445 0.36340955042407969 0 0.1951253136428214 0.34263326694571689 0 0.1968958340055445 0.36340955042407969 0 0.1767224776347236 0.35935303105999727 0 0.1968958340055445 0.36340955042407969 0 0.17393896005325071 0.37477686259547338 0 0.19029891415460079 0.38265743738745578 0 0.1968958340055445 0.36340955042407969 0 0.17393896005325071 0.37477686259547338 0 0.1767224776347236 0.35935303105999727 0 0.1767224776347236 0.35935303105999727 0 0.15334328016816379 0.35156332365396509 0 0.15831964162662579 0.37607279517427761 0 0.1767224776347236 0.35935303105999727 0 0.15831964162662579 0.37607279517427761 0 0.17393896005325071 0.37477686259547338 0 0.1767224776347236 0.35935303105999727 0 0.15831964162662579 0.37607279517427761 0 0.1767224776347236 0.35935303105999727 0 0.1719863106314426 0.33187999454269868 0 0.15334328016816379 0.35156332365396509 0 0.1951253136428214 0.34263326694571689 0 0.1767224776347236 0.35935303105999727 0 0.1951253136428214 0.34263326694571689 0 0.1767224776347236 0.35935303105999727 0 0.1719863106314426 0.33187999454269868 0 0.19062934109472149 0.31219666543143232 0 0.1951253136428214 0.34263326694571689 0 0.1719863106314426 0.33187999454269868 0 0.17540967306386859 0.31145381385011212 0 0.19062934109472149 0.31219666543143232 0 0.1719863106314426 0.33187999454269868 0 0.19062934109472149 0.31219666543143232 0 0.1719863106314426 0.33187999454269868 0 0.1599237208659833 0.30479050551001791 0 0.1719863106314426 0.33187999454269868 0 0.14761531430094249 0.32851780299843891 0 0.1599237208659833 0.30479050551001791 0 0.17540967306386859 0.31145381385011212 0 0.1719863106314426 0.33187999454269868 0 0.1719863106314426 0.33187999454269868 0 0.15334328016816379 0.35156332365396509 0 0.1719863106314426 0.33187999454269868 0 0.14761531430094249 0.32851780299843891 0 0.15334328016816379 0.35156332365396509 0 0.14761531430094249 0.32851780299843891 0 0.13566700569366269 0.34324250900264958 0 0.15334328016816379 0.35156332365396509 0 0.135249395519976 0.31092909010494579 0 0.1599237208659833 0.30479050551001791 0 0.14761531430094249 0.32851780299843891 0 0.135249395519976 0.31092909010494579 0 0.14761531430094249 0.32851780299843891 0 0.128764834353046 0.33081355236796589 0 0.11971652451546989 0.3247163385122358 0 0.135249395519976 0.31092909010494579 0 0.128764834353046 0.33081355236796589 0 0.11934869014789661 0.34379891692940018 0 0.13566700569366269 0.34324250900264958 0 0.128764834353046 0.33081355236796589 0 0.14761531430094249 0.32851780299843891 0 0.13566700569366269 0.34324250900264958 0 0.128764834353046 0.33081355236796589 0 0.1223048746551878 0.3556164181539001 0 0.13566700569366269 0.34324250900264958 0 0.13470024970488501 0.3712466527652315 0 0.1223048746551878 0.3556164181539001 0 0.11934869014789661 0.34379891692940018 0 0.13566700569366269 0.34324250900264958 0 0.13470024970488501 0.3712466527652315 0 0.15334328016816379 0.35156332365396509 0 0.15831964162662579 0.37607279517427761 0 0.13470024970488501 0.3712466527652315 0 0.15334328016816379 0.35156332365396509 0 0.13566700569366269 0.34324250900264958 0 0.13470024970488501 0.3712466527652315 0 0.15334328016816379 0.35156332365396509 0 0.15536627999798019 0.40444586815258649 0 0.1399168056185284 0.39279255928855861 0 0.16510785988656471 0.38772499833800761 0 0.15536627999798019 0.40444586815258649 0 0.1399168056185284 0.39279255928855861 0 0.14065811729008779 0.4098748098106203 0 0.1399168056185284 0.39279255928855861 0 0.15831964162662579 0.37607279517427761 0 0.13470024970488501 0.3712466527652315 0 0.1399168056185284 0.39279255928855861 0 0.15831964162662579 0.37607279517427761 0 0.1399168056185284 0.39279255928855861 0 0.16510785988656471 0.38772499833800761 0 0.1399168056185284 0.39279255928855861 0 0.15831964162662579 0.37607279517427761 0 0.16510785988656471 0.38772499833800761 0 0.11605721924160441 0.39092998187649619 0 0.13470024970488501 0.3712466527652315 0 0.12824835776104779 0.38851344114018721 0 0.13470024970488501 0.3712466527652315 0 0.12824835776104779 0.38851344114018721 0 0.1399168056185284 0.39279255928855861 0 0.11605721924160441 0.39092998187649619 0 0.13470024970488501 0.3712466527652315 0 0.11914222170790539 0.39697168053808202 0 0.1399168056185284 0.39279255928855861 0 0.1270955328886437 0.4044412342859437 0 0.11914222170790539 0.39697168053808202 0 0.1399168056185284 0.39279255928855861 0 0.11914222170790539 0.39697168053808202 0 0.12824835776104779 0.38851344114018721 0 0.1399168056185284 0.39279255928855861 0 0.1399168056185284 0.39279255928855861 0 0.1270955328886437 0.4044412342859437 0 0.14065811729008779 0.4098748098106203 0 0.1399168056185284 0.39279255928855861 0 0.1270955328886437 0.4044412342859437 0 0.11914222170790539 0.39697168053808202 0 0.1321320151601848 0.42241101764459649 0 0.1321320151601848 0.42241101764459649 0 0.1487799527851022 0.425283369681416 0 0.14065811729008779 0.4098748098106203 0 0.1270955328886437 0.4044412342859437 0 0.1321320151601848 0.42241101764459649 0 0.14065811729008779 0.4098748098106203 0 0.11914222170790539 0.39697168053808202 0 0.1270955328886437 0.4044412342859437 0 0.1321320151601848 0.42241101764459649 0 0.1321320151601848 0.42241101764459649 0 0.13329196495027809 0.43488032029245632 0 0.1487799527851022 0.425283369681416 0 0.1206822442387028 0.42730429125050617 0 0.1321320151601848 0.42241101764459649 0 0.13329196495027809 0.43488032029245632 0 0.1487799527851022 0.425283369681416 0 0.1602926345245998 0.43417221728554839 0 0.14340574262093689 0.4422654738635029 0 0.13329196495027809 0.43488032029245632 0 0.1487799527851022 0.425283369681416 0 0.14340574262093689 0.4422654738635029 0 0.15536627999798019 0.40444586815258649 0 0.1487799527851022 0.425283369681416 0 0.14065811729008779 0.4098748098106203 0 0.15536627999798019 0.40444586815258649 0 0.16590840416726441 0.41657677952835509 0 0.1669789740080932 0.40324444437294882 0 0.15536627999798019 0.40444586815258649 0 0.1487799527851022 0.425283369681416 0 0.16590840416726441 0.41657677952835509 0 0.16590840416726441 0.41657677952835509 0 0.18153335198056339 0.40423013147284609 0 0.1669789740080932 0.40324444437294882 0 0.1602926345245998 0.43417221728554839 0 0.1796511708589375 0.42564346375715473 0 0.1696634571104785 0.44533937589475209 0 0.1487799527851022 0.425283369681416 0 0.16590840416726441 0.41657677952835509 0 0.1602926345245998 0.43417221728554839 0 0.16590840416726441 0.41657677952835509 0 0.1602926345245998 0.43417221728554839 0 0.1796511708589375 0.42564346375715473 0 0.1796511708589375 0.42564346375715473 0 0.19785737459003289 0.4282785914942453 0 0.18442429136098229 0.44350012939499778 0 0.1796511708589375 0.42564346375715473 0 0.18153335198056339 0.40423013147284609 0 0.1970720733962768 0.40807316386155218 0 0.16590840416726441 0.41657677952835509 0 0.1796511708589375 0.42564346375715473 0 0.18153335198056339 0.40423013147284609 0 0.18153335198056339 0.40423013147284609 0 0.16510785988656471 0.38772499833800761 0 0.19029891415460079 0.38265743738745578 0 0.18153335198056339 0.40423013147284609 0 0.1669789740080932 0.40324444437294882 0 0.16510785988656471 0.38772499833800761 0 0.15536627999798019 0.40444586815258649 0 0.1669789740080932 0.40324444437294882 0 0.16510785988656471 0.38772499833800761 0 0.17393896005325071 0.37477686259547338 0 0.15831964162662579 0.37607279517427761 0 0.16510785988656471 0.38772499833800761 0 0.17393896005325071 0.37477686259547338 0 0.16510785988656471 0.38772499833800761 0 0.19029891415460079 0.38265743738745578 0 0.16510785988656471 0.38772499833800761 0 0.19029891415460079 0.38265743738745578 0 0.1968958340055445 0.36340955042407969 0 0.19029891415460079 0.38265743738745578 0 0.21460438870132939 0.37950102543232422 0 0.18153335198056339 0.40423013147284609 0 0.19029891415460079 0.38265743738745578 0 0.1970720733962768 0.40807316386155218 0 0.19029891415460079 0.38265743738745578 0 0.2128450045279576 0.40010827822743922 0 0.1970720733962768 0.40807316386155218 0 0.2128450045279576 0.40010827822743922 0 0.21460438870132939 0.37950102543232422 0 0.2262146115584725 0.39371807239696588 0 0.19029891415460079 0.38265743738745578 0 0.2128450045279576 0.40010827822743922 0 0.21460438870132939 0.37950102543232422 0 0.23191139725504839 0.36556501880237419 0 0.21460438870132939 0.37950102543232422 0 0.23213408667638691 0.38156303031317751 0 0.21460438870132939 0.37950102543232422 0 0.23213408667638691 0.38156303031317751 0 0.2262146115584725 0.39371807239696588 0 0.23213408667638691 0.38156303031317751 0 0.2262146115584725 0.39371807239696588 0 0.23852363670589929 0.39104471561592641 0 0.2128450045279576 0.40010827822743922 0 0.2262146115584725 0.39371807239696588 0 0.22467352675250571 0.40875886632633202 0 0.2262146115584725 0.39371807239696588 0 0.2361686179779329 0.40384343630905029 0 0.22467352675250571 0.40875886632633202 0 0.2262146115584725 0.39371807239696588 0 0.23852363670589929 0.39104471561592641 0 0.2361686179779329 0.40384343630905029 0 0.23852363670589929 0.39104471561592641 0 0.2361686179779329 0.40384343630905029 0 0.25210001684956662 0.39838078730144127 0 0.2361686179779329 0.40384343630905029 0 0.24815268574513771 0.40932353444582531 0 0.25210001684956662 0.39838078730144127 0 0.23852363670589929 0.39104471561592641 0 0.24600085046713749 0.37771825175899681 0 0.25210001684956662 0.39838078730144127 0 0.23213408667638691 0.38156303031317751 0 0.23852363670589929 0.39104471561592641 0 0.24600085046713749 0.37771825175899681 0 0.22675557478187611 0.4249951035042156 0 0.25565377497371933 0.4217116155141859 0 0.2421887839726348 0.43532543230149678 0 0.22675557478187611 0.4249951035042156 0 0.25565377497371933 0.4217116155141859 0 0.23795883477205509 0.41389815334580282 0 0.22675557478187611 0.4249951035042156 0 0.25565377497371933 0.4217116155141859 0 0.24815268574513771 0.40932353444582531 0 0.23795883477205509 0.41389815334580282 0 0.25565377497371933 0.4217116155141859 0 0.2361686179779329 0.40384343630905029 0 0.24815268574513771 0.40932353444582531 0 0.23795883477205509 0.41389815334580282 0 0.23795883477205509 0.41389815334580282 0 0.22467352675250571 0.40875886632633202 0 0.22675557478187611 0.4249951035042156 0 0.22467352675250571 0.40875886632633202 0 0.22675557478187611 0.4249951035042156 0 0.21180626892050591 0.41449159733365892 0 0.2361686179779329 0.40384343630905029 0 0.23795883477205509 0.41389815334580282 0 0.22467352675250571 0.40875886632633202 0 0.2421887839726348 0.43532543230149678 0 0.22675557478187611 0.4249951035042156 0 0.23121481290730941 0.43664395523160732 0 0.22675557478187611 0.4249951035042156 0 0.23121481290730941 0.43664395523160732 0 0.2178368535132286 0.42882752755755482 0 0.22675557478187611 0.4249951035042156 0 0.2178368535132286 0.42882752755755482 0 0.19785737459003289 0.4282785914942453 0 0.2178368535132286 0.42882752755755482 0 0.20961638774703581 0.43809440671578492 0 0.21958474536406311 0.44138837450232971 0 0.22675557478187611 0.4249951035042156 0 0.19785737459003289 0.4282785914942453 0 0.22675557478187611 0.4249951035042156 0 0.21180626892050591 0.41449159733365892 0 0.19785737459003289 0.4282785914942453 0 0.2178368535132286 0.42882752755755482 0 0.19785737459003289 0.4282785914942453 0 0.20961638774703581 0.43809440671578492 0 0.2128450045279576 0.40010827822743922 0 0.21180626892050591 0.41449159733365892 0 0.1970720733962768 0.40807316386155218 0 0.2128450045279576 0.40010827822743922 0 0.22467352675250571 0.40875886632633202 0 0.21180626892050591 0.41449159733365892 0 0.1796511708589375 0.42564346375715473 0 0.1970720733962768 0.40807316386155218 0 0.19785737459003289 0.4282785914942453 0 0.21180626892050591 0.41449159733365892 0 0.1970720733962768 0.40807316386155218 0 0.19785737459003289 0.4282785914942453 0 0.19785737459003289 0.4282785914942453 0 0.19927761925859239 0.44126920150331411 0 0.20961638774703581 0.43809440671578492 0 0.19785737459003289 0.4282785914942453 0 0.19927761925859239 0.44126920150331411 0 0.18442429136098229 0.44350012939499778 0 0.19665554894428081 0.45031359495488238 0 0.19927761925859239 0.44126920150331411 0 0.18442429136098229 0.44350012939499778 0 0.19665554894428081 0.45031359495488238 0 0.18868680007655031 0.45387117849067182 0 0.18442429136098229 0.44350012939499778 0 0.19665554894428081 0.45031359495488238 0 0.20486122644206589 0.45665723944466607 0 0.20783449365063 0.44615928495666002 0 0.19665554894428081 0.45031359495488238 0 0.19927761925859239 0.44126920150331411 0 0.20783449365063 0.44615928495666002 0 0.1951546596073517 0.46164020308179982 0 0.1894924170476249 0.47445051053035459 0 0.17851270039358619 0.46003078653100737 0 0.19665554894428081 0.45031359495488238 0 0.1951546596073517 0.46164020308179982 0 0.18868680007655031 0.45387117849067182 0 0.19665554894428081 0.45031359495488238 0 0.1951546596073517 0.46164020308179982 0 0.20486122644206589 0.45665723944466607 0 0.1951546596073517 0.46164020308179982 0 0.20343515708875601 0.47006168874413928 0 0.1894924170476249 0.47445051053035459 0 0.1951546596073517 0.46164020308179982 0 0.20486122644206589 0.45665723944466607 0 0.20343515708875601 0.47006168874413928 0 0.20486122644206589 0.45665723944466607 0 0.2133021409341809 0.46357087299458549 0 0.20343515708875601 0.47006168874413928 0 0.20486122644206589 0.45665723944466607 0 0.2133021409341809 0.46357087299458549 0 0.21560376976516721 0.45253908783024732 0 0.2133021409341809 0.46357087299458549 0 0.21560376976516721 0.45253908783024732 0 0.22333741802169729 0.45854655745043438 0 0.20961638774703581 0.43809440671578492 0 0.20783449365063 0.44615928495666002 0 0.21431218620131731 0.44525788825376728 0 0.19927761925859239 0.44126920150331411 0 0.20961638774703581 0.43809440671578492 0 0.20783449365063 0.44615928495666002 0 0.20486122644206589 0.45665723944466607 0 0.20783449365063 0.44615928495666002 0 0.21560376976516721 0.45253908783024732 0 0.20783449365063 0.44615928495666002 0 0.21560376976516721 0.45253908783024732 0 0.21431218620131731 0.44525788825376728 0 0.21560376976516721 0.45253908783024732 0 0.21431218620131731 0.44525788825376728 0 0.2219792774223244 0.44787773165104688 0 0.20961638774703581 0.43809440671578492 0 0.21431218620131731 0.44525788825376728 0 0.21958474536406311 0.44138837450232971 0 0.21431218620131731 0.44525788825376728 0 0.21958474536406311 0.44138837450232971 0 0.2219792774223244 0.44787773165104688 0 0.2178368535132286 0.42882752755755482 0 0.2322710471296803 0.45102696518524898 0 0.2178368535132286 0.42882752755755482 0 0.21958474536406311 0.44138837450232971 0 0.2322710471296803 0.45102696518524898 0 0.23121481290730941 0.43664395523160732 0 0.2178368535132286 0.42882752755755482 0 0.2322710471296803 0.45102696518524898 0 0.23121481290730941 0.43664395523160732 0 0.2322710471296803 0.45102696518524898 0 0.23933363586504969 0.44290843861080498 0 0.2322710471296803 0.45102696518524898 0 0.2270880915945587 0.45161235597911159 0 0.2219792774223244 0.44787773165104688 0 0.2322710471296803 0.45102696518524898 0 0.2270880915945587 0.45161235597911159 0 0.2270880915945587 0.45161235597911159 0 0.2219792774223244 0.44787773165104688 0 0.22200213920093689 0.45264393322771013 0 0.21958474536406311 0.44138837450232971 0 0.2322710471296803 0.45102696518524898 0 0.2219792774223244 0.44787773165104688 0 0.21560376976516721 0.45253908783024732 0 0.2219792774223244 0.44787773165104688 0 0.22200213920093689 0.45264393322771013 0 0.2322710471296803 0.45102696518524898 0 0.22333741802169729 0.45854655745043438 0 0.2316588954731881 0.46884429426402507 0 0.21560376976516721 0.45253908783024732 0 0.22200213920093689 0.45264393322771013 0 0.22333741802169729 0.45854655745043438 0 0.2270880915945587 0.45161235597911159 0 0.22200213920093689 0.45264393322771013 0 0.22333741802169729 0.45854655745043438 0 0.22333741802169729 0.45854655745043438 0 0.2316588954731881 0.46884429426402507 0 0.2215448846778309 0.46946451951495038 0 0.2133021409341809 0.46357087299458549 0 0.22333741802169729 0.45854655745043438 0 0.2215448846778309 0.46946451951495038 0 0.2322710471296803 0.45102696518524898 0 0.2270880915945587 0.45161235597911159 0 0.22333741802169729 0.45854655745043438 0 0.2322710471296803 0.45102696518524898 0 0.24819231230666991 0.47551348259262421 0 0.25535882861205061 0.44841930732692248 0 0.2322710471296803 0.45102696518524898 0 0.24819231230666991 0.47551348259262421 0 0.2322710471296803 0.45102696518524898 0 0.24819231230666991 0.47551348259262421 0 0.2316588954731881 0.46884429426402507 0 0.2421887839726348 0.43532543230149678 0 0.23933363586504969 0.44290843861080498 0 0.25535882861205061 0.44841930732692248 0 0.2322710471296803 0.45102696518524898 0 0.25535882861205061 0.44841930732692248 0 0.2322710471296803 0.45102696518524898 0 0.23933363586504969 0.44290843861080498 0 0.25535882861205061 0.44841930732692248 0 0.2421887839726348 0.43532543230149678 0 0.23121481290730941 0.43664395523160732 0 0.23933363586504969 0.44290843861080498 0 0.23974317378845519 0.5 0 0.24819231230666991 0.47551348259262421 0 0.23276501476567629 0.48483190972153289 0 0.24819231230666991 0.47551348259262421 0 0.2316588954731881 0.46884429426402507 0 0.23276501476567629 0.48483190972153289 0 0.2316588954731881 0.46884429426402507 0 0.23276501476567629 0.48483190972153289 0 0.21870003089644749 0.47936744209518461 0 0.2316588954731881 0.46884429426402507 0 0.2215448846778309 0.46946451951495038 0 0.21870003089644749 0.47936744209518461 0 0.23974317378845519 0.5 0 0.23276501476567629 0.48483190972153289 0 0.2153727700932497 0.5 0 0.23276501476567629 0.48483190972153289 0 0.2153727700932497 0.5 0 0.21870003089644749 0.47936744209518461 0 0.2153727700932497 0.5 0 0.21870003089644749 0.47936744209518461 0 0.2008054487111888 0.48435266733831039 0 0.2133021409341809 0.46357087299458549 0 0.21870003089644749 0.47936744209518461 0 0.20343515708875601 0.47006168874413928 0 0.21870003089644749 0.47936744209518461 0 0.20343515708875601 0.47006168874413928 0 0.2008054487111888 0.48435266733831039 0 0.2133021409341809 0.46357087299458549 0 0.2215448846778309 0.46946451951495038 0 0.21870003089644749 0.47936744209518461 0 0.2008054487111888 0.48435266733831039 0 0.1894924170476249 0.47445051053035459 0 0.18152835119772409 0.48589032653789621 0 0.20343515708875601 0.47006168874413928 0 0.2008054487111888 0.48435266733831039 0 0.1894924170476249 0.47445051053035459 0 0.2153727700932497 0.5 0 0.2008054487111888 0.48435266733831039 0 0.1910023663980441 0.5 0 0.2008054487111888 0.48435266733831039 0 0.1910023663980441 0.5 0 0.18152835119772409 0.48589032653789621 0 0.1910023663980441 0.5 0 0.18152835119772409 0.48589032653789621 0 0.16663196270283859 0.49999999999999939 0 0.18152835119772409 0.48589032653789621 0 0.16663196270283859 0.49999999999999939 0 0.1654970906923611 0.48192694327574831 0 0.16663196270283859 0.49999999999999939 0 0.1654970906923611 0.48192694327574831 0 0.1528223086005695 0.48618356235871529 0 0.16339313713447731 0.46888389006586551 0 0.1654970906923611 0.48192694327574831 0 0.1508638176956445 0.47401091494114028 0 0.1654970906923611 0.48192694327574831 0 0.1528223086005695 0.48618356235871529 0 0.1508638176956445 0.47401091494114028 0 0.16339313713447731 0.46888389006586551 0 0.1654970906923611 0.48192694327574831 0 0.17574082163428731 0.47461183808296409 0 0.18152835119772409 0.48589032653789621 0 0.1654970906923611 0.48192694327574831 0 0.17574082163428731 0.47461183808296409 0 0.1894924170476249 0.47445051053035459 0 0.18152835119772409 0.48589032653789621 0 0.17574082163428731 0.47461183808296409 0 0.1894924170476249 0.47445051053035459 0 0.17574082163428731 0.47461183808296409 0 0.17851270039358619 0.46003078653100737 0 0.1951546596073517 0.46164020308179982 0 0.18868680007655031 0.45387117849067182 0 0.17851270039358619 0.46003078653100737 0 0.16339313713447731 0.46888389006586551 0 0.17574082163428731 0.47461183808296409 0 0.17851270039358619 0.46003078653100737 0 0.1796511708589375 0.42564346375715473 0 0.18442429136098229 0.44350012939499778 0 0.1696634571104785 0.44533937589475209 0 0.18868680007655031 0.45387117849067182 0 0.17851270039358619 0.46003078653100737 0 0.18442429136098229 0.44350012939499778 0 0.17851270039358619 0.46003078653100737 0 0.18442429136098229 0.44350012939499778 0 0.1696634571104785 0.44533937589475209 0 0.1696634571104785 0.44533937589475209 0 0.162328973283109 0.45546907651024288 0 0.15475129052879369 0.44784905601291741 0 0.1602926345245998 0.43417221728554839 0 0.1696634571104785 0.44533937589475209 0 0.15475129052879369 0.44784905601291741 0 0.16339313713447731 0.46888389006586551 0 0.17851270039358619 0.46003078653100737 0 0.162328973283109 0.45546907651024288 0 0.17851270039358619 0.46003078653100737 0 0.1696634571104785 0.44533937589475209 0 0.162328973283109 0.45546907651024288 0 0.16339313713447731 0.46888389006586551 0 0.162328973283109 0.45546907651024288 0 0.14696120482640901 0.45835841461025539 0 0.14696120482640901 0.45835841461025539 0 0.14340574262093689 0.4422654738635029 0 0.1316002695443716 0.4618084308569132 0 0.16339313713447731 0.46888389006586551 0 0.14696120482640901 0.45835841461025539 0 0.1508638176956445 0.47401091494114028 0 0.14696120482640901 0.45835841461025539 0 0.1508638176956445 0.47401091494114028 0 0.1412674708598505 0.46893646461650518 0 0.162328973283109 0.45546907651024288 0 0.14696120482640901 0.45835841461025539 0 0.15475129052879369 0.44784905601291741 0 0.14696120482640901 0.45835841461025539 0 0.14340574262093689 0.4422654738635029 0 0.15475129052879369 0.44784905601291741 0 0.1602926345245998 0.43417221728554839 0 0.14340574262093689 0.4422654738635029 0 0.15475129052879369 0.44784905601291741 0 0.1171575311569153 0.43965523556095559 0 0.13329196495027809 0.43488032029245632 0 0.12775486578457421 0.44620465087251682 0 0.13329196495027809 0.43488032029245632 0 0.14340574262093689 0.4422654738635029 0 0.12775486578457421 0.44620465087251682 0 0.14340574262093689 0.4422654738635029 0 0.12775486578457421 0.44620465087251682 0 0.1316002695443716 0.4618084308569132 0 0.14696120482640901 0.45835841461025539 0 0.1316002695443716 0.4618084308569132 0 0.1412674708598505 0.46893646461650518 0 0.1316002695443716 0.4618084308569132 0 0.13471715655470401 0.47400715675473448 0 0.1412674708598505 0.46893646461650518 0 0.11858960983297499 0.45601938317618179 0 0.12775486578457421 0.44620465087251682 0 0.1316002695443716 0.4618084308569132 0 0.1199096170358844 0.47245291019796132 0 0.1316002695443716 0.4618084308569132 0 0.13471715655470401 0.47400715675473448 0 0.1199096170358844 0.47245291019796132 0 0.13471715655470401 0.47400715675473448 0 0.12943507843200899 0.48119807208297127 0 0.13471715655470401 0.47400715675473448 0 0.1412674708598505 0.46893646461650518 0 0.1436798012603821 0.48193995065499579 0 0.13471715655470401 0.47400715675473448 0 0.12943507843200899 0.48119807208297127 0 0.1436798012603821 0.48193995065499579 0 0.11036855730510341 0.48506022853810998 0 0.12943507843200899 0.48119807208297127 0 0.13850026000397109 0.49253011426905452 0 0.1192927333727148 0.5 0 0.13850026000397109 0.49253011426905452 0 0.14296234803777669 0.5 0 0.12943507843200899 0.48119807208297127 0 0.13850026000397109 0.49253011426905452 0 0.1436798012603821 0.48193995065499579 0 0.16663196270283859 0.49999999999999939 0 0.13850026000397109 0.49253011426905452 0 0.14296234803777669 0.5 0 0.13850026000397109 0.49253011426905452 0 0.1528223086005695 0.48618356235871529 0 0.1436798012603821 0.48193995065499579 0 0.16663196270283859 0.49999999999999939 0 0.13850026000397109 0.49253011426905452 0 0.16663196270283859 0.49999999999999939 0 0.13850026000397109 0.49253011426905452 0 0.1528223086005695 0.48618356235871529 0 0.1528223086005695 0.48618356235871529 0 0.1508638176956445 0.47401091494114028 0 0.1436798012603821 0.48193995065499579 0 0.1508638176956445 0.47401091494114028 0 0.1412674708598505 0.46893646461650518 0 0.1436798012603821 0.48193995065499579 0 0.35213114372832899 0.48152263372534831 0 0.36405317179174512 0.48440290994933499 0 0.35489172199554642 0.46606953985037392 0 0.35213114372832899 0.48152263372534831 0 0.35489172199554642 0.46606953985037392 0 0.3383988879442732 0.47561808510168452 0 0.35213114372832899 0.48152263372534831 0 0.35118079318175149 0.5 0 0.36405317179174512 0.48440290994933499 0 0.35213114372832899 0.48152263372534831 0 0.35118079318175149 0.5 0 0.3383988879442732 0.47561808510168452 0 0.35118079318175149 0.5 0 0.36405317179174512 0.48440290994933499 0 0.38020319841444861 0.5 0 0.36405317179174512 0.48440290994933499 0 0.37121820907053821 0.46026893410322361 0 0.38379534149928529 0.48001952263285741 0 0.36405317179174512 0.48440290994933499 0 0.37121820907053821 0.46026893410322361 0 0.35489172199554642 0.46606953985037392 0 0.37121820907053821 0.46026893410322361 0 0.35408789191322643 0.44898437496952559 0 0.35489172199554642 0.46606953985037392 0 0.37121820907053821 0.46026893410322361 0 0.37195439854806422 0.44383173962293843 0 0.35408789191322643 0.44898437496952559 0 0.37195439854806422 0.44383173962293843 0 0.35408789191322643 0.44898437496952559 0 0.35723262863151661 0.43371795376457062 0 0.35408789191322643 0.44898437496952559 0 0.34787981333563073 0.4417019222740341 0 0.35723262863151661 0.43371795376457062 0 0.35408789191322643 0.44898437496952559 0 0.34098206794201652 0.45593115352791669 0 0.34352101591741452 0.44658469315262972 0 0.35408789191322643 0.44898437496952559 0 0.34787981333563073 0.4417019222740341 0 0.34352101591741452 0.44658469315262972 0 0.34787981333563073 0.4417019222740341 0 0.34051954279498642 0.4388007995578096 0 0.34352101591741452 0.44658469315262972 0 0.34787981333563073 0.4417019222740341 0 0.34051954279498642 0.4388007995578096 0 0.34391946497759868 0.43544113595417577 0 0.35489172199554642 0.46606953985037392 0 0.34098206794201652 0.45593115352791669 0 0.3383988879442732 0.47561808510168452 0 0.35408789191322643 0.44898437496952559 0 0.35489172199554642 0.46606953985037392 0 0.34098206794201652 0.45593115352791669 0 0.32649413802848332 0.45588763456327058 0 0.32194475288319269 0.47314097861940019 0 0.3383988879442732 0.47561808510168452 0 0.34098206794201652 0.45593115352791669 0 0.32649413802848332 0.45588763456327058 0 0.3383988879442732 0.47561808510168452 0 0.34051954279498642 0.4388007995578096 0 0.32120287126327918 0.44098252803418242 0 0.33940857587473777 0.43386041147499332 0 0.34051954279498642 0.4388007995578096 0 0.33413576360121278 0.44750521543386229 0 0.32120287126327918 0.44098252803418242 0 0.34051954279498642 0.4388007995578096 0 0.32120287126327918 0.44098252803418242 0 0.34051954279498642 0.4388007995578096 0 0.34352101591741452 0.44658469315262972 0 0.33413576360121278 0.44750521543386229 0 0.34098206794201652 0.45593115352791669 0 0.34352101591741452 0.44658469315262972 0 0.33413576360121278 0.44750521543386229 0 0.34098206794201652 0.45593115352791669 0 0.33413576360121278 0.44750521543386229 0 0.32649413802848332 0.45588763456327058 0 0.33413576360121278 0.44750521543386229 0 0.32120287126327918 0.44098252803418242 0 0.32649413802848332 0.45588763456327058 0 0.32120287126327918 0.44098252803418242 0 0.32649413802848332 0.45588763456327058 0 0.32120287126327918 0.44098252803418242 0 0.31298627369226822 0.45036761277311671 0 0.32649413802848332 0.45588763456327058 0 0.32649413802848332 0.45588763456327058 0 0.31257796580553071 0.46177482301094308 0 0.32194475288319269 0.47314097861940019 0 0.31298627369226822 0.45036761277311671 0 0.32649413802848332 0.45588763456327058 0 0.31257796580553071 0.46177482301094308 0 0.31257796580553071 0.46177482301094308 0 0.32194475288319269 0.47314097861940019 0 0.3062879965641172 0.47727271223951512 0 0.32194475288319269 0.47314097861940019 0 0.32215838794905449 0.5 0 0.3062879965641172 0.47727271223951512 0 0.32194475288319269 0.47314097861940019 0 0.3383988879442732 0.47561808510168452 0 0.32215838794905449 0.5 0 0.35118079318175149 0.5 0 0.3383988879442732 0.47561808510168452 0 0.32215838794905449 0.5 0 0.29313598271635771 0.5 0 0.26947695306567582 0.47909339959794639 0 0.28759026717462788 0.46851256054729251 0 0.3062879965641172 0.47727271223951512 0 0.29313598271635771 0.5 0 0.28759026717462788 0.46851256054729251 0 0.32215838794905449 0.5 0 0.3062879965641172 0.47727271223951512 0 0.29313598271635771 0.5 0 0.3062879965641172 0.47727271223951512 0 0.28759026717462788 0.46851256054729251 0 0.29989899851373347 0.46211479710469971 0 0.29313598271635771 0.5 0 0.26947695306567582 0.47909339959794639 0 0.26411357748366082 0.49999999999999878 0 0.26947695306567582 0.47909339959794639 0 0.27149695541509677 0.46172920043536908 0 0.28759026717462788 0.46851256054729251 0 0.24819231230666991 0.47551348259262421 0 0.26947695306567582 0.47909339959794639 0 0.27149695541509677 0.46172920043536908 0 0.24819231230666991 0.47551348259262421 0 0.26411357748366082 0.49999999999999878 0 0.23974317378845519 0.5 0 0.24819231230666991 0.47551348259262421 0 0.26411357748366082 0.49999999999999878 0 0.24819231230666991 0.47551348259262421 0 0.26947695306567582 0.47909339959794639 0 0.26411357748366082 0.49999999999999878 0 0.24819231230666991 0.47551348259262421 0 0.25535882861205061 0.44841930732692248 0 0.27149695541509677 0.46172920043536908 0 0.27149695541509677 0.46172920043536908 0 0.27844661009442112 0.44581164946859669 0 0.28991676123713528 0.45302480307883292 0 0.25535882861205061 0.44841930732692248 0 0.27844661009442112 0.44581164946859669 0 0.25535882861205061 0.44841930732692248 0 0.27149695541509677 0.46172920043536908 0 0.27844661009442112 0.44581164946859669 0 0.25535882861205061 0.44841930732692248 0 0.27844661009442112 0.44581164946859669 0 0.27202296061465969 0.43179092687108811 0 0.27844661009442112 0.44581164946859669 0 0.28991676123713528 0.45302480307883292 0 0.30153439157679168 0.44320399161027291 0 0.27844661009442112 0.44581164946859669 0 0.30153439157679168 0.44320399161027291 0 0.28846692786454881 0.43367337591394928 0 0.27844661009442112 0.44581164946859669 0 0.30153439157679168 0.44320399161027291 0 0.27149695541509677 0.46172920043536908 0 0.28991676123713528 0.45302480307883292 0 0.28759026717462788 0.46851256054729251 0 0.28991676123713528 0.45302480307883292 0 0.28759026717462788 0.46851256054729251 0 0.29989899851373347 0.46211479710469971 0 0.28991676123713528 0.45302480307883292 0 0.29989899851373347 0.46211479710469971 0 0.30312200178725618 0.44998908664691439 0 0.31298627369226822 0.45036761277311671 0 0.31257796580553071 0.46177482301094308 0 0.30312200178725618 0.44998908664691439 0 0.31257796580553071 0.46177482301094308 0 0.29989899851373347 0.46211479710469971 0 0.30312200178725618 0.44998908664691439 0 0.31257796580553071 0.46177482301094308 0 0.3062879965641172 0.47727271223951512 0 0.29989899851373347 0.46211479710469971 0 0.32120287126327918 0.44098252803418242 0 0.30153439157679168 0.44320399161027291 0 0.32120287126327918 0.44098252803418242 0 0.31298627369226822 0.45036761277311671 0 0.30153439157679168 0.44320399161027291 0 0.28991676123713528 0.45302480307883292 0 0.30153439157679168 0.44320399161027291 0 0.30312200178725618 0.44998908664691439 0 0.30153439157679168 0.44320399161027291 0 0.30312200178725618 0.44998908664691439 0 0.31298627369226822 0.45036761277311671 0 0.30153439157679168 0.44320399161027291 0 0.30312200178725618 0.44998908664691439 0 0.32120287126327918 0.44098252803418242 0 0.30153439157679168 0.44320399161027291 0 0.31312746089843729 0.41823469521926232 0 0.30153439157679168 0.44320399161027291 0 0.2960810693226823 0.41989769796484949 0 0.30153439157679168 0.44320399161027291 0 0.2960810693226823 0.41989769796484949 0 0.31312746089843729 0.41823469521926232 0 0.2960810693226823 0.41989769796484949 0 0.30505205053359691 0.39548686240434172 0 0.31312746089843729 0.41823469521926232 0 0.30505205053359691 0.39548686240434172 0 0.31312746089843729 0.41823469521926232 0 0.2960810693226823 0.41989769796484949 0 0.29062774706857308 0.39659140431942602 0 0.2960810693226823 0.41989769796484949 0 0.29062774706857308 0.39659140431942602 0 0.28247724425726439 0.40556538439923612 0 0.2960810693226823 0.41989769796484949 0 0.28455197516556252 0.41842812752415609 0 0.28247724425726439 0.40556538439923612 0 0.30153439157679168 0.44320399161027291 0 0.2960810693226823 0.41989769796484949 0 0.28846692786454881 0.43367337591394928 0 0.28455197516556252 0.41842812752415609 0 0.28846692786454881 0.43367337591394928 0 0.27202296061465969 0.43179092687108811 0 0.2960810693226823 0.41989769796484949 0 0.28455197516556252 0.41842812752415609 0 0.28846692786454881 0.43367337591394928 0 0.27844661009442112 0.44581164946859669 0 0.28846692786454881 0.43367337591394928 0 0.27202296061465969 0.43179092687108811 0 0.28455197516556252 0.41842812752415609 0 0.27202296061465969 0.43179092687108811 0 0.25565377497371933 0.4217116155141859 0 0.28455197516556252 0.41842812752415609 0 0.26198738428662971 0.40986418906244593 0 0.25565377497371933 0.4217116155141859 0 0.28455197516556252 0.41842812752415609 0 0.26198738428662971 0.40986418906244593 0 0.26947846869916242 0.40147688052662078 0 0.28455197516556252 0.41842812752415609 0 0.25565377497371933 0.4217116155141859 0 0.28455197516556252 0.41842812752415609 0 0.26947846869916242 0.40147688052662078 0 0.28247724425726439 0.40556538439923612 0 0.24815268574513771 0.40932353444582531 0 0.26198738428662971 0.40986418906244593 0 0.25565377497371933 0.4217116155141859 0 0.2421887839726348 0.43532543230149678 0 0.25535882861205061 0.44841930732692248 0 0.25565377497371933 0.4217116155141859 0 0.25535882861205061 0.44841930732692248 0 0.27202296061465969 0.43179092687108811 0 0.25565377497371933 0.4217116155141859 0 0.24600085046713749 0.37771825175899681 0 0.26224918157161198 0.3840027939421522 0 0.25821337790656679 0.3664501014541181 0 0.24600085046713749 0.37771825175899681 0 0.26224918157161198 0.3840027939421522 0 0.25210001684956662 0.39838078730144127 0 0.26198738428662971 0.40986418906244593 0 0.25210001684956662 0.39838078730144127 0 0.26947846869916242 0.40147688052662078 0 0.26224918157161198 0.3840027939421522 0 0.25210001684956662 0.39838078730144127 0 0.26947846869916242 0.40147688052662078 0 0.24815268574513771 0.40932353444582531 0 0.26198738428662971 0.40986418906244593 0 0.25210001684956662 0.39838078730144127 0 0.26947846869916242 0.40147688052662078 0 0.2766368830512741 0.38827052467722062 0 0.28247724425726439 0.40556538439923612 0 0.26224918157161198 0.3840027939421522 0 0.26947846869916242 0.40147688052662078 0 0.2766368830512741 0.38827052467722062 0 0.26224918157161198 0.3840027939421522 0 0.2766368830512741 0.38827052467722062 0 0.27106632392750429 0.37357861059401581 0 0.2766368830512741 0.38827052467722062 0 0.28517442481446442 0.3732851106740025 0 0.27106632392750429 0.37357861059401581 0 0.30505205053359691 0.39548686240434172 0 0.30016385269423018 0.38171717118217002 0 0.28517442481446442 0.3732851106740025 0 0.29062774706857308 0.39659140431942602 0 0.28517442481446442 0.3732851106740025 0 0.30505205053359691 0.39548686240434172 0 0.28517442481446442 0.3732851106740025 0 0.29062774706857308 0.39659140431942602 0 0.30505205053359691 0.39548686240434172 0 0.28517442481446442 0.3732851106740025 0 0.2766368830512741 0.38827052467722062 0 0.29062774706857308 0.39659140431942602 0 0.28517442481446442 0.3732851106740025 0 0.2766368830512741 0.38827052467722062 0 0.29062774706857308 0.39659140431942602 0 0.28247724425726439 0.40556538439923612 0 0.2960810693226823 0.41989769796484949 0 0.29062774706857308 0.39659140431942602 0 0.30505205053359691 0.39548686240434172 0 0.30505205053359691 0.39548686240434172 0 0.30016385269423018 0.38171717118217002 0 0.30505205053359691 0.39548686240434172 0 0.30016385269423018 0.38171717118217002 0 0.31280608571488477 0.38332387217546998 0 0.30016385269423018 0.38171717118217002 0 0.31280608571488477 0.38332387217546998 0 0.3051300492434057 0.3691071238160562 0 0.31280608571488477 0.38332387217546998 0 0.32705503533192931 0.38614421965004891 0 0.31951632587675061 0.37026340817531939 0 0.31280608571488477 0.38332387217546998 0 0.32705503533192931 0.38614421965004891 0 0.31991920060939671 0.39722444782488392 0 0.32705503533192931 0.38614421965004891 0 0.34181919044105441 0.38755809852249151 0 0.33814853657598831 0.36667522289412841 0 0.32705503533192931 0.38614421965004891 0 0.34181919044105441 0.38755809852249151 0 0.33186928101571261 0.40504285685409591 0 0.34181919044105441 0.38755809852249151 0 0.33186928101571261 0.40504285685409591 0 0.35066147117109142 0.39978455557347381 0 0.30505205053359691 0.39548686240434172 0 0.31991920060939671 0.39722444782488392 0 0.32223031320416717 0.41467363693966758 0 0.30505205053359691 0.39548686240434172 0 0.32223031320416717 0.41467363693966758 0 0.33186928101571261 0.40504285685409591 0 0.31991920060939671 0.39722444782488392 0 0.32223031320416717 0.41467363693966758 0 0.32705503533192931 0.38614421965004891 0 0.33186928101571261 0.40504285685409591 0 0.31991920060939671 0.39722444782488392 0 0.30505205053359691 0.39548686240434172 0 0.31280608571488477 0.38332387217546998 0 0.31991920060939671 0.39722444782488392 0 0.30505205053359691 0.39548686240434172 0 0.31312746089843729 0.41823469521926232 0 0.32223031320416717 0.41467363693966758 0 0.31312746089843729 0.41823469521926232 0 0.32223031320416717 0.41467363693966758 0 0.32399230531015533 0.42693781791702629 0 0.32120287126327918 0.44098252803418242 0 0.31312746089843729 0.41823469521926232 0 0.32399230531015533 0.42693781791702629 0 0.32120287126327918 0.44098252803418242 0 0.31312746089843729 0.41823469521926232 0 0.32223031320416717 0.41467363693966758 0 0.33940857587473777 0.43386041147499332 0 0.33493413263751698 0.41864095764765291 0 0.32223031320416717 0.41467363693966758 0 0.33940857587473777 0.43386041147499332 0 0.32223031320416717 0.41467363693966758 0 0.32399230531015533 0.42693781791702629 0 0.33940857587473777 0.43386041147499332 0 0.32120287126327918 0.44098252803418242 0 0.32399230531015533 0.42693781791702629 0 0.33940857587473777 0.43386041147499332 0 0.34043812802652479 0.42422891140075347 0 0.33940857587473777 0.43386041147499332 0 0.34403567627712628 0.43062117831257229 0 0.34043812802652479 0.42422891140075347 0 0.33940857587473777 0.43386041147499332 0 0.33493413263751698 0.41864095764765291 0 0.33940857587473777 0.43386041147499332 0 0.34391946497759868 0.43544113595417577 0 0.34403567627712628 0.43062117831257229 0 0.34051954279498642 0.4388007995578096 0 0.33940857587473777 0.43386041147499332 0 0.34391946497759868 0.43544113595417577 0 0.33186928101571261 0.40504285685409591 0 0.34072436506644299 0.41539897156875399 0 0.35066147117109142 0.39978455557347381 0 0.33186928101571261 0.40504285685409591 0 0.32223031320416717 0.41467363693966758 0 0.33493413263751698 0.41864095764765291 0 0.33186928101571261 0.40504285685409591 0 0.33493413263751698 0.41864095764765291 0 0.34072436506644299 0.41539897156875399 0 0.34043812802652479 0.42422891140075347 0 0.34072436506644299 0.41539897156875399 0 0.34782936974039969 0.42518297116893228 0 0.34043812802652479 0.42422891140075347 0 0.33493413263751698 0.41864095764765291 0 0.34072436506644299 0.41539897156875399 0 0.35251872293467779 0.41401819909562859 0 0.37082054942002352 0.41992156173602369 0 0.35066147117109142 0.39978455557347381 0 0.34072436506644299 0.41539897156875399 0 0.35251872293467779 0.41401819909562859 0 0.35066147117109142 0.39978455557347381 0 0.34072436506644299 0.41539897156875399 0 0.35251872293467779 0.41401819909562859 0 0.34782936974039969 0.42518297116893228 0 0.35251872293467779 0.41401819909562859 0 0.34782936974039969 0.42518297116893228 0 0.3568754435031285 0.42254644688632198 0 0.34858284276637019 0.43439246156400629 0 0.34403567627712628 0.43062117831257229 0 0.34782936974039969 0.42518297116893228 0 0.34858284276637019 0.43439246156400629 0 0.34782936974039969 0.42518297116893228 0 0.35723262863151661 0.43371795376457062 0 0.34787981333563073 0.4417019222740341 0 0.34858284276637019 0.43439246156400629 0 0.35723262863151661 0.43371795376457062 0 0.34787981333563073 0.4417019222740341 0 0.34858284276637019 0.43439246156400629 0 0.34391946497759868 0.43544113595417577 0 0.34858284276637019 0.43439246156400629 0 0.34391946497759868 0.43544113595417577 0 0.34403567627712628 0.43062117831257229 0 0.34043812802652479 0.42422891140075347 0 0.34403567627712628 0.43062117831257229 0 0.34782936974039969 0.42518297116893228 0 0.34782936974039969 0.42518297116893228 0 0.3568754435031285 0.42254644688632198 0 0.35723262863151661 0.43371795376457062 0 0.37195439854806422 0.44383173962293843 0 0.35723262863151661 0.43371795376457062 0 0.37082054942002352 0.41992156173602369 0 0.3568754435031285 0.42254644688632198 0 0.35723262863151661 0.43371795376457062 0 0.37082054942002352 0.41992156173602369 0 0.37082054942002352 0.41992156173602369 0 0.35066147117109142 0.39978455557347381 0 0.37631133740558442 0.39923283982968039 0 0.37082054942002352 0.41992156173602369 0 0.35066147117109142 0.39978455557347381 0 0.35251872293467779 0.41401819909562859 0 0.3568754435031285 0.42254644688632198 0 0.37082054942002352 0.41992156173602369 0 0.35722993699078642 0.38295403136190442 0 0.35066147117109142 0.39978455557347381 0 0.37631133740558442 0.39923283982968039 0 0.35722993699078642 0.38295403136190442 0 0.37631133740558442 0.39923283982968039 0 0.37244513500674509 0.38371027012592818 0 0.35722993699078642 0.38295403136190442 0 0.37631133740558442 0.39923283982968039 0 0.37244513500674509 0.38371027012592818 0 0.35722993699078642 0.38295403136190442 0 0.35932255791645412 0.36241100556616052 0 0.34181919044105441 0.38755809852249151 0 0.35722993699078642 0.38295403136190442 0 0.35066147117109142 0.39978455557347381 0 0.34181919044105441 0.38755809852249151 0 0.35722993699078642 0.38295403136190442 0 0.33814853657598831 0.36667522289412841 0 0.35932255791645412 0.36241100556616052 0 0.35325454423280039 0.33818943047170419 0 0.33960280375226493 0.35033008517803632 0 0.35932255791645412 0.36241100556616052 0 0.33960280375226493 0.35033008517803632 0 0.33814853657598831 0.36667522289412841 0 0.35722993699078642 0.38295403136190442 0 0.33814853657598831 0.36667522289412841 0 0.35722993699078642 0.38295403136190442 0 0.35932255791645412 0.36241100556616052 0 0.33814853657598831 0.36667522289412841 0 0.37244513500674509 0.38371027012592818 0 0.35932255791645412 0.36241100556616052 0 0.38267954473695248 0.37200909032310181 0 0.35932255791645412 0.36241100556616052 0 0.37077286763848583 0.34367915713071712 0 0.38267954473695248 0.37200909032310181 0 0.35932255791645412 0.36241100556616052 0 0.37077286763848583 0.34367915713071712 0 0.35325454423280039 0.33818943047170419 0 0.37077286763848583 0.34367915713071712 0 0.36190310010561849 0.3269001569224923 0 0.35325454423280039 0.33818943047170419 0 0.37077286763848583 0.34367915713071712 0 0.36190310010561849 0.3269001569224923 0 0.37676223673745141 0.32128441356802512 0 0.36190310010561849 0.3269001569224923 0 0.36093907668171388 0.3101262241844106 0 0.37676223673745141 0.32128441356802512 0 0.36190310010561849 0.3269001569224923 0 0.34778677523764118 0.32122155925760432 0 0.36093907668171388 0.3101262241844106 0 0.36190310010561849 0.3269001569224923 0 0.34778677523764118 0.32122155925760432 0 0.35325454423280039 0.33818943047170419 0 0.34778677523764118 0.32122155925760432 0 0.35325454423280039 0.33818943047170419 0 0.33649597685411048 0.33456400146261711 0 0.35325454423280039 0.33818943047170419 0 0.33649597685411048 0.33456400146261711 0 0.33960280375226493 0.35033008517803632 0 0.33649597685411048 0.33456400146261711 0 0.32485318161577098 0.34382173394499349 0 0.33960280375226493 0.35033008517803632 0 0.33649597685411048 0.33456400146261711 0 0.32898690003276498 0.32249332135548742 0 0.32392310825739601 0.33225185503534932 0 0.33649597685411048 0.33456400146261711 0 0.32392310825739601 0.33225185503534932 0 0.32485318161577098 0.34382173394499349 0 0.34778677523764118 0.32122155925760432 0 0.33649597685411048 0.33456400146261711 0 0.32898690003276498 0.32249332135548742 0 0.34778677523764118 0.32122155925760432 0 0.32898690003276498 0.32249332135548742 0 0.34628818060054878 0.30219472496965089 0 0.32898690003276498 0.32249332135548742 0 0.32234756844759632 0.31005886438563862 0 0.33514505146773782 0.31016134577591259 0 0.31875297869639718 0.3235064151750513 0 0.30660288134339281 0.30524539280506457 0 0.32234756844759632 0.31005886438563862 0 0.32898690003276498 0.32249332135548742 0 0.31875297869639718 0.3235064151750513 0 0.32234756844759632 0.31005886438563862 0 0.32898690003276498 0.32249332135548742 0 0.31875297869639718 0.3235064151750513 0 0.32392310825739601 0.33225185503534932 0 0.31875297869639718 0.3235064151750513 0 0.32392310825739601 0.33225185503534932 0 0.31052650408793619 0.33687380323859678 0 0.32392310825739601 0.33225185503534932 0 0.32485318161577098 0.34382173394499349 0 0.31052650408793619 0.33687380323859678 0 0.32485318161577098 0.34382173394499349 0 0.31065588278986889 0.35406731907959421 0 0.31052650408793619 0.33687380323859678 0 0.32655534612212878 0.35703155385441437 0 0.32485318161577098 0.34382173394499349 0 0.31065588278986889 0.35406731907959421 0 0.32655534612212878 0.35703155385441437 0 0.33960280375226493 0.35033008517803632 0 0.33814853657598831 0.36667522289412841 0 0.32655534612212878 0.35703155385441437 0 0.32485318161577098 0.34382173394499349 0 0.33960280375226493 0.35033008517803632 0 0.32705503533192931 0.38614421965004891 0 0.33814853657598831 0.36667522289412841 0 0.31951632587675061 0.37026340817531939 0 0.32655534612212878 0.35703155385441437 0 0.31951632587675061 0.37026340817531939 0 0.31065588278986889 0.35406731907959421 0 0.32655534612212878 0.35703155385441437 0 0.33814853657598831 0.36667522289412841 0 0.31951632587675061 0.37026340817531939 0 0.31951632587675061 0.37026340817531939 0 0.3051300492434057 0.3691071238160562 0 0.31065588278986889 0.35406731907959421 0 0.31280608571488477 0.38332387217546998 0 0.31951632587675061 0.37026340817531939 0 0.3051300492434057 0.3691071238160562 0 0.3051300492434057 0.3691071238160562 0 0.31065588278986889 0.35406731907959421 0 0.29530621235461663 0.35977070954058937 0 0.31065588278986889 0.35406731907959421 0 0.29530621235461663 0.35977070954058937 0 0.29646636211892102 0.34360145801771191 0 0.31065588278986889 0.35406731907959421 0 0.29646636211892102 0.34360145801771191 0 0.31052650408793619 0.33687380323859678 0 0.28997143787158369 0.35160137374391831 0 0.29530621235461663 0.35977070954058937 0 0.29646636211892102 0.34360145801771191 0 0.28997143787158369 0.35160137374391831 0 0.28043780923779449 0.34077987689240369 0 0.29646636211892102 0.34360145801771191 0 0.28997143787158369 0.35160137374391831 0 0.29530621235461663 0.35977070954058937 0 0.28023019281254258 0.35215455621226188 0 0.28997143787158369 0.35160137374391831 0 0.28023019281254258 0.35215455621226188 0 0.28043780923779449 0.34077987689240369 0 0.28517442481446442 0.3732851106740025 0 0.28023019281254258 0.35215455621226188 0 0.30016385269423018 0.38171717118217002 0 0.3051300492434057 0.3691071238160562 0 0.28517442481446442 0.3732851106740025 0 0.29530621235461663 0.35977070954058937 0 0.28517442481446442 0.3732851106740025 0 0.28023019281254258 0.35215455621226188 0 0.3051300492434057 0.3691071238160562 0 0.29530621235461663 0.35977070954058937 0 0.28517442481446442 0.3732851106740025 0 0.28517442481446442 0.3732851106740025 0 0.28023019281254258 0.35215455621226188 0 0.2725804235528822 0.35921859723562249 0 0.28517442481446442 0.3732851106740025 0 0.27106632392750429 0.37357861059401581 0 0.2725804235528822 0.35921859723562249 0 0.27106632392750429 0.37357861059401581 0 0.2725804235528822 0.35921859723562249 0 0.25821337790656679 0.3664501014541181 0 0.28517442481446442 0.3732851106740025 0 0.2725804235528822 0.35921859723562249 0 0.28023019281254258 0.35215455621226188 0 0.27141141881813768 0.34946518182420611 0 0.2725804235528822 0.35921859723562249 0 0.28023019281254258 0.35215455621226188 0 0.27141141881813768 0.34946518182420611 0 0.28043780923779449 0.34077987689240369 0 0.27141141881813768 0.34946518182420611 0 0.26098502743107599 0.35370865680088931 0 0.26549717034955722 0.34045497847173167 0 0.27141141881813768 0.34946518182420611 0 0.2725804235528822 0.35921859723562249 0 0.26098502743107599 0.35370865680088931 0 0.24467669917230031 0.35545251167338848 0 0.26098502743107599 0.35370865680088931 0 0.2502360661154257 0.3395434679490193 0 0.24467669917230031 0.35545251167338848 0 0.26098502743107599 0.35370865680088931 0 0.25821337790656679 0.3664501014541181 0 0.26098502743107599 0.35370865680088931 0 0.2502360661154257 0.3395434679490193 0 0.26549717034955722 0.34045497847173167 0 0.26224918157161198 0.3840027939421522 0 0.27106632392750429 0.37357861059401581 0 0.25821337790656679 0.3664501014541181 0 0.2725804235528822 0.35921859723562249 0 0.26098502743107599 0.35370865680088931 0 0.25821337790656679 0.3664501014541181 0 0.24129208926683121 0.32446491573775238 0 0.26711238574335322 0.32414541555018539 0 0.24129208926683121 0.32446491573775238 0 0.26711238574335322 0.32414541555018539 0 0.25667970616986208 0.30383858270581171 0 0.2502360661154257 0.3395434679490193 0 0.26549717034955722 0.34045497847173167 0 0.26711238574335322 0.32414541555018539 0 0.24129208926683121 0.32446491573775238 0 0.2502360661154257 0.3395434679490193 0 0.26711238574335322 0.32414541555018539 0 0.28043780923779449 0.34077987689240369 0 0.26711238574335322 0.32414541555018539 0 0.29293268221987517 0.32382591536261829 0 0.26549717034955722 0.34045497847173167 0 0.28043780923779449 0.34077987689240369 0 0.26711238574335322 0.32414541555018539 0 0.27141141881813768 0.34946518182420611 0 0.26549717034955722 0.34045497847173167 0 0.28043780923779449 0.34077987689240369 0 0.26711238574335322 0.32414541555018539 0 0.29293268221987517 0.32382591536261829 0 0.28125306766720931 0.29801031335843647 0 0.26711238574335322 0.32414541555018539 0 0.29293268221987517 0.32382591536261829 0 0.28043780923779449 0.34077987689240369 0 0.29293268221987517 0.32382591536261829 0 0.29646636211892102 0.34360145801771191 0 0.29293268221987517 0.32382591536261829 0 0.29646636211892102 0.34360145801771191 0 0.31052650408793619 0.33687380323859678 0 0.31875297869639718 0.3235064151750513 0 0.29293268221987517 0.32382591536261829 0 0.30660288134339281 0.30524539280506457 0 0.31875297869639718 0.3235064151750513 0 0.29293268221987517 0.32382591536261829 0 0.31052650408793619 0.33687380323859678 0 0.31875297869639718 0.3235064151750513 0 0.29293268221987517 0.32382591536261829 0 0.30660288134339281 0.30524539280506457 0 0.30155213289245342 0.28583923898349189 0 0.32225003069768893 0.28888784681667651 0 0.30155213289245342 0.28583923898349189 0 0.28125306766720931 0.29801031335843647 0 0.2864870260614133 0.27330354306378662 0 0.30660288134339281 0.30524539280506457 0 0.30155213289245342 0.28583923898349189 0 0.28125306766720931 0.29801031335843647 0 0.29293268221987517 0.32382591536261829 0 0.30660288134339281 0.30524539280506457 0 0.28125306766720931 0.29801031335843647 0 0.26711238574335322 0.32414541555018539 0 0.28125306766720931 0.29801031335843647 0 0.25667970616986208 0.30383858270581171 0 0.28125306766720931 0.29801031335843647 0 0.25667970616986208 0.30383858270581171 0 0.26361904219518939 0.27899273827012999 0 0.28125306766720931 0.29801031335843647 0 0.26361904219518939 0.27899273827012999 0 0.2864870260614133 0.27330354306378662 0 0.24075105832896701 0.28468193347647941 0 0.26361904219518939 0.27899273827012999 0 0.24075105832896701 0.28468193347647941 0 0.25667970616986208 0.30383858270581171 0 0.26361904219518939 0.27899273827012999 0 0.24616920022930519 0.25355762987910191 0 0.26359799079281038 0.26287591286195311 0 0.26479222316116069 0.24972687478661071 0 0.24872800576435361 0.27025246232820838 0 0.24616920022930519 0.25355762987910191 0 0.26359799079281038 0.26287591286195311 0 0.24872800576435361 0.27025246232820838 0 0.26359799079281038 0.26287591286195311 0 0.26361904219518939 0.27899273827012999 0 0.24872800576435361 0.27025246232820838 0 0.24075105832896701 0.28468193347647941 0 0.26361904219518939 0.27899273827012999 0 0.26359799079281038 0.26287591286195311 0 0.26361904219518939 0.27899273827012999 0 0.2864870260614133 0.27330354306378662 0 0.26361904219518939 0.27899273827012999 0 0.2864870260614133 0.27330354306378662 0 0.26359799079281038 0.26287591286195311 0 0.2763218894542922 0.2535630106908609 0 0.2864870260614133 0.27330354306378662 0 0.26359799079281038 0.26287591286195311 0 0.2763218894542922 0.2535630106908609 0 0.26479222316116069 0.24972687478661071 0 0.2763218894542922 0.2535630106908609 0 0.2864870260614133 0.27330354306378662 0 0.29597715581052542 0.2455442968887539 0 0.2864870260614133 0.27330354306378662 0 0.30935500992763693 0.2676143478574422 0 0.30155213289245342 0.28583923898349189 0 0.30935500992763693 0.2676143478574422 0 0.32225003069768893 0.28888784681667651 0 0.30155213289245342 0.28583923898349189 0 0.2864870260614133 0.27330354306378662 0 0.30935500992763693 0.2676143478574422 0 0.30935500992763693 0.2676143478574422 0 0.29597715581052542 0.2455442968887539 0 0.2864870260614133 0.27330354306378662 0 0.30935500992763693 0.2676143478574422 0 0.29597715581052542 0.2455442968887539 0 0.30935500992763693 0.2676143478574422 0 0.29597715581052542 0.2455442968887539 0 0.32381691776900529 0.24151937515801669 0 0.30935500992763693 0.2676143478574422 0 0.33409527125798061 0.26145935942524628 0 0.32381691776900529 0.24151937515801669 0 0.30935500992763693 0.2676143478574422 0 0.33409527125798061 0.26145935942524628 0 0.33409527125798061 0.26145935942524628 0 0.33450928566348059 0.27796337083106759 0 0.34895016971875692 0.27014838095079557 0 0.30935500992763693 0.2676143478574422 0 0.32225003069768893 0.28888784681667651 0 0.30935500992763693 0.2676143478574422 0 0.33450928566348059 0.27796337083106759 0 0.32225003069768893 0.28888784681667651 0 0.30935500992763693 0.2676143478574422 0 0.33409527125798061 0.26145935942524628 0 0.33450928566348059 0.27796337083106759 0 0.32225003069768893 0.28888784681667651 0 0.32234756844759632 0.31005886438563862 0 0.33514505146773782 0.31016134577591259 0 0.30660288134339281 0.30524539280506457 0 0.32225003069768893 0.28888784681667651 0 0.32234756844759632 0.31005886438563862 0 0.32225003069768893 0.28888784681667651 0 0.33514505146773782 0.31016134577591259 0 0.33728740146790942 0.29246361855581948 0 0.32225003069768893 0.28888784681667651 0 0.33514505146773782 0.31016134577591259 0 0.32898690003276498 0.32249332135548742 0 0.33514505146773782 0.31016134577591259 0 0.34628818060054878 0.30219472496965089 0 0.33514505146773782 0.31016134577591259 0 0.33728740146790942 0.29246361855581948 0 0.34628818060054878 0.30219472496965089 0 0.32898690003276498 0.32249332135548742 0 0.34628818060054878 0.30219472496965089 0 0.33450928566348059 0.27796337083106759 0 0.32225003069768893 0.28888784681667651 0 0.33728740146790942 0.29246361855581948 0 0.33450928566348059 0.27796337083106759 0 0.33728740146790942 0.29246361855581948 0 0.34824445891009098 0.28311080438579012 0 0.3556497342880674 0.29341629960553017 0 0.34628818060054878 0.30219472496965089 0 0.36358946116833257 0.28189612858381441 0 0.34628818060054878 0.30219472496965089 0 0.36358946116833257 0.28189612858381441 0 0.33728740146790942 0.29246361855581948 0 0.34824445891009098 0.28311080438579012 0 0.34628818060054878 0.30219472496965089 0 0.34824445891009098 0.28311080438579012 0 0.34628818060054878 0.30219472496965089 0 0.36358946116833257 0.28189612858381441 0 0.3556497342880674 0.29341629960553017 0 0.34628818060054878 0.30219472496965089 0 0.36093907668171388 0.3101262241844106 0 0.34778677523764118 0.32122155925760432 0 0.34628818060054878 0.30219472496965089 0 0.36093907668171388 0.3101262241844106 0 0.3556497342880674 0.29341629960553017 0 0.36093907668171388 0.3101262241844106 0 0.37597999340847471 0.29978758120643278 0 0.36093907668171388 0.3101262241844106 0 0.37597999340847471 0.29978758120643278 0 0.37676223673745141 0.32128441356802512 0 0.3556497342880674 0.29341629960553017 0 0.36358946116833257 0.28189612858381441 0 0.37678191649342002 0.27797067217555149 0 0.3556497342880674 0.29341629960553017 0 0.37678191649342002 0.27797067217555149 0 0.3556497342880674 0.29341629960553017 0 0.37678191649342002 0.27797067217555149 0 0.37597999340847471 0.29978758120643278 0 0.36358946116833257 0.28189612858381441 0 0.38089074173611648 0.26159753219797782 0 0.36358946116833257 0.28189612858381441 0 0.36684746222393372 0.26782437006030529 0 0.38089074173611648 0.26159753219797782 0 0.36358946116833257 0.28189612858381441 0 0.38089074173611648 0.26159753219797782 0 0.37678191649342002 0.27797067217555149 0 0.36358946116833257 0.28189612858381441 0 0.36684746222393372 0.26782437006030529 0 0.35746417449641871 0.27375110516059542 0 0.35968932046097918 0.26577584182227149 0 0.36684746222393372 0.26782437006030529 0 0.35746417449641871 0.27375110516059542 0 0.35888032742717868 0.25577639421568349 0 0.38357579391866758 0.24914938256085259 0 0.35888032742717868 0.25577639421568349 0 0.37839721306297608 0.25915071948063101 0 0.35888032742717868 0.25577639421568349 0 0.37839721306297608 0.25915071948063101 0 0.38357579391866758 0.24914938256085259 0 0.36684746222393372 0.26782437006030529 0 0.37019490528725568 0.26142925994331312 0 0.38089074173611648 0.26159753219797782 0 0.37019490528725568 0.26142925994331312 0 0.35888032742717868 0.25577639421568349 0 0.37839721306297608 0.25915071948063101 0 0.37019490528725568 0.26142925994331312 0 0.36413142364275197 0.26271211287167939 0 0.35888032742717868 0.25577639421568349 0 0.35968932046097918 0.26577584182227149 0 0.36413142364275197 0.26271211287167939 0 0.35888032742717868 0.25577639421568349 0 0.35968932046097918 0.26577584182227149 0 0.36684746222393372 0.26782437006030529 0 0.36413142364275197 0.26271211287167939 0 0.36684746222393372 0.26782437006030529 0 0.37019490528725568 0.26142925994331312 0 0.36413142364275197 0.26271211287167939 0 0.33409527125798061 0.26145935942524628 0 0.35888032742717868 0.25577639421568349 0 0.34895016971875692 0.27014838095079557 0 0.33409527125798061 0.26145935942524628 0 0.35888032742717868 0.25577639421568349 0 0.34194461300836032 0.24481185239477771 0 0.33409527125798061 0.26145935942524628 0 0.35888032742717868 0.25577639421568349 0 0.35968932046097918 0.26577584182227149 0 0.35888032742717868 0.25577639421568349 0 0.34895016971875692 0.27014838095079557 0 0.34824445891009098 0.28311080438579012 0 0.34895016971875692 0.27014838095079557 0 0.35746417449641871 0.27375110516059542 0 0.33450928566348059 0.27796337083106759 0 0.34824445891009098 0.28311080438579012 0 0.34895016971875692 0.27014838095079557 0 0.34824445891009098 0.28311080438579012 0 0.36358946116833257 0.28189612858381441 0 0.35746417449641871 0.27375110516059542 0 0.35968932046097918 0.26577584182227149 0 0.34895016971875692 0.27014838095079557 0 0.35746417449641871 0.27375110516059542 0 0.39499215761844958 0.27963047987317141 0 0.39791409869877409 0.2625250447455747 0 0.40893938799426921 0.27716626422649349 0 0.39791409869877409 0.2625250447455747 0 0.38357579391866758 0.24914938256085259 0 0.40831605524901099 0.24299439412865581 0 0.39791409869877409 0.2625250447455747 0 0.37839721306297608 0.25915071948063101 0 0.39791409869877409 0.2625250447455747 0 0.37839721306297608 0.25915071948063101 0 0.38357579391866758 0.24914938256085259 0 0.39791409869877409 0.2625250447455747 0 0.37839721306297608 0.25915071948063101 0 0.38089074173611648 0.26159753219797782 0 0.37019490528725568 0.26142925994331312 0 0.37839721306297608 0.25915071948063101 0 0.38089074173611648 0.26159753219797782 0 0.39499215761844958 0.27963047987317141 0 0.39791409869877409 0.2625250447455747 0 0.37678191649342002 0.27797067217555149 0 0.39791409869877409 0.2625250447455747 0 0.37678191649342002 0.27797067217555149 0 0.39791409869877409 0.2625250447455747 0 0.38089074173611648 0.26159753219797782 0 0.37678191649342002 0.27797067217555149 0 0.39499215761844958 0.27963047987317141 0 0.37678191649342002 0.27797067217555149 0 0.3894833420914674 0.29251435041972412 0 0.37678191649342002 0.27797067217555149 0 0.3894833420914674 0.29251435041972412 0 0.37597999340847471 0.29978758120643278 0 0.3894833420914674 0.29251435041972412 0 0.37597999340847471 0.29978758120643278 0 0.39297156246907489 0.31018188427347432 0 0.37597999340847471 0.29978758120643278 0 0.39297156246907489 0.31018188427347432 0 0.37676223673745141 0.32128441356802512 0 0.3894833420914674 0.29251435041972412 0 0.39297156246907489 0.31018188427347432 0 0.40669108046791791 0.2950011345699905 0 0.39297156246907489 0.31018188427347432 0 0.40669108046791791 0.2950011345699905 0 0.41095773516461959 0.32286727022279221 0 0.39499215761844958 0.27963047987317141 0 0.40669108046791791 0.2950011345699905 0 0.40893938799426921 0.27716626422649349 0 0.39499215761844958 0.27963047987317141 0 0.3894833420914674 0.29251435041972412 0 0.40669108046791791 0.2950011345699905 0 0.40669108046791791 0.2950011345699905 0 0.43216498314970542 0.29233395339679602 0 0.42229017059103519 0.28143157426364218 0 0.40669108046791791 0.2950011345699905 0 0.42229017059103519 0.28143157426364218 0 0.40893938799426921 0.27716626422649349 0 0.40669108046791791 0.2950011345699905 0 0.42790975439606083 0.31200135046991639 0 0.41095773516461959 0.32286727022279221 0 0.40669108046791791 0.2950011345699905 0 0.42790975439606083 0.31200135046991639 0 0.43216498314970542 0.29233395339679602 0 0.42790975439606083 0.31200135046991639 0 0.43216498314970542 0.29233395339679602 0 0.44712031904785798 0.30465402583849438 0 0.43216498314970542 0.29233395339679602 0 0.42229017059103519 0.28143157426364218 0 0.44892867758068761 0.27134508835367133 0 0.42229017059103519 0.28143157426364218 0 0.42342138813973063 0.26693506654962479 0 0.44892867758068761 0.27134508835367133 0 0.42342138813973063 0.26693506654962479 0 0.44892867758068761 0.27134508835367133 0 0.42229017059103519 0.28143157426364218 0 0.42342138813973063 0.26693506654962479 0 0.40893938799426921 0.27716626422649349 0 0.39791409869877409 0.2625250447455747 0 0.42342138813973063 0.26693506654962479 0 0.40893938799426921 0.27716626422649349 0 0.39791409869877409 0.2625250447455747 0 0.40831605524901099 0.24299439412865581 0 0.41548520763906499 0.24968222522101899 0 0.39791409869877409 0.2625250447455747 0 0.42342138813973063 0.26693506654962479 0 0.41548520763906499 0.24968222522101899 0 0.39791409869877409 0.2625250447455747 0 0.41548520763906499 0.24968222522101899 0 0.39791409869877409 0.2625250447455747 0 0.42342138813973063 0.26693506654962479 0 0.42342138813973063 0.26693506654962479 0 0.43461842790373312 0.2550731983522761 0 0.44892867758068761 0.27134508835367133 0 0.42342138813973063 0.26693506654962479 0 0.43461842790373312 0.2550731983522761 0 0.41548520763906499 0.24968222522101899 0 0.43461842790373312 0.2550731983522761 0 0.44892867758068761 0.27134508835367133 0 0.4532680668000636 0.25130587834546619 0 0.44892867758068761 0.27134508835367133 0 0.47290112568109782 0.2699978184009641 0 0.46582210307437572 0.29745227141880082 0 0.44892867758068761 0.27134508835367133 0 0.4532680668000636 0.25130587834546619 0 0.47290112568109782 0.2699978184009641 0 0.4532680668000636 0.25130587834546619 0 0.47290112568109782 0.2699978184009641 0 0.47413614616963751 0.24585775703299331 0 0.47290112568109782 0.2699978184009641 0 0.48642870602458388 0.25812494195985819 0 0.47413614616963751 0.24585775703299331 0 0.47290112568109782 0.2699978184009641 0 0.5 0.27770168610452722 0 0.48345882031513943 0.29273657207440112 0 0.47290112568109782 0.2699978184009641 0 0.5 0.27770168610452722 0 0.48642870602458388 0.25812494195985819 0 0.5 0.27770168610452722 0 0.48642870602458388 0.25812494195985819 0 0.5 0.24894327741369221 0 0.5 0.30646009479536218 0 0.48345882031513943 0.29273657207440112 0 0.47990511877335751 0.31966657780857011 0 0.5 0.27770168610452722 0 0.5 0.30646009479536218 0 0.48345882031513943 0.29273657207440112 0 0.47290112568109782 0.2699978184009641 0 0.48345882031513943 0.29273657207440112 0 0.46582210307437572 0.29745227141880082 0 0.48345882031513943 0.29273657207440112 0 0.46582210307437572 0.29745227141880082 0 0.47990511877335751 0.31966657780857011 0 0.46582210307437572 0.29745227141880082 0 0.45891218261997258 0.32028840768589911 0 0.47990511877335751 0.31966657780857011 0 0.43216498314970542 0.29233395339679602 0 0.44892867758068761 0.27134508835367133 0 0.44712031904785798 0.30465402583849438 0 0.46582210307437572 0.29745227141880082 0 0.44712031904785798 0.30465402583849438 0 0.45891218261997258 0.32028840768589911 0 0.44892867758068761 0.27134508835367133 0 0.46582210307437572 0.29745227141880082 0 0.44712031904785798 0.30465402583849438 0 0.44712031904785798 0.30465402583849438 0 0.44206310630758072 0.32156128262657019 0 0.45891218261997258 0.32028840768589911 0 0.44206310630758072 0.32156128262657019 0 0.4466058624289696 0.33722429793090358 0 0.45891218261997258 0.32028840768589911 0 0.42790975439606083 0.31200135046991639 0 0.44712031904785798 0.30465402583849438 0 0.44206310630758072 0.32156128262657019 0 0.44206310630758072 0.32156128262657019 0 0.4466058624289696 0.33722429793090358 0 0.42891261077023718 0.33159895518418409 0 0.4466058624289696 0.33722429793090358 0 0.46636107025517998 0.33999933255278952 0 0.45891218261997258 0.32028840768589911 0 0.46636107025517998 0.33999933255278952 0 0.45891218261997258 0.32028840768589911 0 0.47990511877335751 0.31966657780857011 0 0.46636107025517998 0.33999933255278952 0 0.47990511877335751 0.31966657780857011 0 0.48449162055362538 0.34853376797992403 0 0.47990511877335751 0.31966657780857011 0 0.5 0.33521850348619731 0 0.48449162055362538 0.34853376797992403 0 0.5 0.30646009479536218 0 0.47990511877335751 0.31966657780857011 0 0.5 0.33521850348619731 0 0.5 0.36397691217703232 0 0.48449162055362538 0.34853376797992403 0 0.48429072151259922 0.36847943810795142 0 0.5 0.33521850348619731 0 0.5 0.36397691217703232 0 0.48449162055362538 0.34853376797992403 0 0.46636107025517998 0.33999933255278952 0 0.48449162055362538 0.34853376797992403 0 0.46896875222063111 0.3606748052883576 0 0.48449162055362538 0.34853376797992403 0 0.48429072151259922 0.36847943810795142 0 0.46896875222063111 0.3606748052883576 0 0.48429072151259922 0.36847943810795142 0 0.46896875222063111 0.3606748052883576 0 0.46786662405229018 0.38038823023318469 0 0.46896875222063111 0.3606748052883576 0 0.45638616814352262 0.37150094217805119 0 0.46786662405229018 0.38038823023318469 0 0.46896875222063111 0.3606748052883576 0 0.45638616814352262 0.37150094217805119 0 0.45152912171902371 0.35408318082655421 0 0.46636107025517998 0.33999933255278952 0 0.46896875222063111 0.3606748052883576 0 0.45152912171902371 0.35408318082655421 0 0.4466058624289696 0.33722429793090358 0 0.46636107025517998 0.33999933255278952 0 0.45152912171902371 0.35408318082655421 0 0.4466058624289696 0.33722429793090358 0 0.45152912171902371 0.35408318082655421 0 0.43230839143337763 0.35182314772875328 0 0.45152912171902371 0.35408318082655421 0 0.43708095157803112 0.37485511967631191 0 0.43230839143337763 0.35182314772875328 0 0.45638616814352262 0.37150094217805119 0 0.45152912171902371 0.35408318082655421 0 0.43708095157803112 0.37485511967631191 0 0.43708095157803112 0.37485511967631191 0 0.40766675997981011 0.36716280905439619 0 0.43230839143337763 0.35182314772875328 0 0.40766675997981011 0.36716280905439619 0 0.41363081489081532 0.3441163821261693 0 0.43230839143337763 0.35182314772875328 0 0.41363081489081532 0.3441163821261693 0 0.43230839143337763 0.35182314772875328 0 0.42891261077023718 0.33159895518418409 0 0.4466058624289696 0.33722429793090358 0 0.43230839143337763 0.35182314772875328 0 0.42891261077023718 0.33159895518418409 0 0.42790975439606083 0.31200135046991639 0 0.44206310630758072 0.32156128262657019 0 0.42891261077023718 0.33159895518418409 0 0.42790975439606083 0.31200135046991639 0 0.42891261077023718 0.33159895518418409 0 0.41095773516461959 0.32286727022279221 0 0.41363081489081532 0.3441163821261693 0 0.42891261077023718 0.33159895518418409 0 0.41095773516461959 0.32286727022279221 0 0.39297156246907489 0.31018188427347432 0 0.37676223673745141 0.32128441356802512 0 0.39221449835863081 0.3442236113112106 0 0.39297156246907489 0.31018188427347432 0 0.41095773516461959 0.32286727022279221 0 0.39221449835863081 0.3442236113112106 0 0.41363081489081532 0.3441163821261693 0 0.41095773516461959 0.32286727022279221 0 0.39221449835863081 0.3442236113112106 0 0.37077286763848583 0.34367915713071712 0 0.37676223673745141 0.32128441356802512 0 0.39221449835863081 0.3442236113112106 0 0.37676223673745141 0.32128441356802512 0 0.39221449835863081 0.3442236113112106 0 0.37077286763848583 0.34367915713071712 0 0.38267954473695248 0.37200909032310181 0 0.39221449835863081 0.3442236113112106 0 0.40766675997981011 0.36716280905439619 0 0.38267954473695248 0.37200909032310181 0 0.40204495338296847 0.38405117306125081 0 0.40766675997981011 0.36716280905439619 0 0.38267954473695248 0.37200909032310181 0 0.39221449835863081 0.3442236113112106 0 0.40766675997981011 0.36716280905439619 0 0.41363081489081532 0.3441163821261693 0 0.39221449835863081 0.3442236113112106 0 0.40766675997981011 0.36716280905439619 0 0.39221449835863081 0.3442236113112106 0 0.39717158462299929 0.40561721830401509 0 0.40606892394630489 0.39631507906359209 0 0.38922446849905501 0.39258381988565377 0 0.40606892394630489 0.39631507906359209 0 0.40204495338296847 0.38405117306125081 0 0.38922446849905501 0.39258381988565377 0 0.39717158462299929 0.40561721830401509 0 0.40606892394630489 0.39631507906359209 0 0.41103299240574043 0.40812464117199382 0 0.38267954473695248 0.37200909032310181 0 0.40204495338296847 0.38405117306125081 0 0.38922446849905501 0.39258381988565377 0 0.37244513500674509 0.38371027012592818 0 0.38267954473695248 0.37200909032310181 0 0.38922446849905501 0.39258381988565377 0 0.39717158462299929 0.40561721830401509 0 0.38922446849905501 0.39258381988565377 0 0.37631133740558442 0.39923283982968039 0 0.37244513500674509 0.38371027012592818 0 0.38922446849905501 0.39258381988565377 0 0.37631133740558442 0.39923283982968039 0 0.37082054942002352 0.41992156173602369 0 0.37631133740558442 0.39923283982968039 0 0.38253324946677442 0.41432605556994939 0 0.37631133740558442 0.39923283982968039 0 0.38253324946677442 0.41432605556994939 0 0.39539273782038109 0.4155116482974579 0 0.39717158462299929 0.40561721830401509 0 0.37631133740558442 0.39923283982968039 0 0.39539273782038109 0.4155116482974579 0 0.37631133740558442 0.39923283982968039 0 0.39539273782038109 0.4155116482974579 0 0.38253324946677442 0.41432605556994939 0 0.39539273782038109 0.4155116482974579 0 0.39097962766895739 0.44005856789857212 0 0.37082054942002352 0.41992156173602369 0 0.38253324946677442 0.41432605556994939 0 0.39097962766895739 0.44005856789857212 0 0.37082054942002352 0.41992156173602369 0 0.39097962766895739 0.44005856789857212 0 0.37195439854806422 0.44383173962293843 0 0.37082054942002352 0.41992156173602369 0 0.39097962766895739 0.44005856789857212 0 0.39539273782038109 0.4155116482974579 0 0.40049821109103922 0.41986725216843429 0 0.39097962766895739 0.44005856789857212 0 0.39539273782038109 0.4155116482974579 0 0.39097962766895739 0.44005856789857212 0 0.40049821109103922 0.41986725216843429 0 0.40726046328431631 0.43539439247229772 0 0.39097962766895739 0.44005856789857212 0 0.39717158462299929 0.40561721830401509 0 0.39539273782038109 0.4155116482974579 0 0.39717158462299929 0.40561721830401509 0 0.39539273782038109 0.4155116482974579 0 0.40268260709207071 0.41213676344807648 0 0.39539273782038109 0.4155116482974579 0 0.40049821109103922 0.41986725216843429 0 0.40049821109103922 0.41986725216843429 0 0.40268260709207071 0.41213676344807648 0 0.41434810569632557 0.42101933987654389 0 0.39539273782038109 0.4155116482974579 0 0.40049821109103922 0.41986725216843429 0 0.40268260709207071 0.41213676344807648 0 0.39717158462299929 0.40561721830401509 0 0.40268260709207071 0.41213676344807648 0 0.41103299240574043 0.40812464117199382 0 0.40268260709207071 0.41213676344807648 0 0.41103299240574043 0.40812464117199382 0 0.41434810569632557 0.42101933987654389 0 0.41103299240574043 0.40812464117199382 0 0.41434810569632557 0.42101933987654389 0 0.42518480182312929 0.41050925812747152 0 0.41434810569632557 0.42101933987654389 0 0.40726046328431631 0.43539439247229772 0 0.42416930190340202 0.43634902187425151 0 0.40049821109103922 0.41986725216843429 0 0.41434810569632557 0.42101933987654389 0 0.40726046328431631 0.43539439247229772 0 0.43338150368892281 0.43442847437607862 0 0.44206620745562469 0.42772538742895327 0 0.43490659841991092 0.44761462281787801 0 0.42416930190340202 0.43634902187425151 0 0.42970853595475911 0.42411563410429909 0 0.43338150368892281 0.43442847437607862 0 0.42416930190340202 0.43634902187425151 0 0.43338150368892281 0.43442847437607862 0 0.43031087260932532 0.44141712225368779 0 0.41434810569632557 0.42101933987654389 0 0.42416930190340202 0.43634902187425151 0 0.42970853595475911 0.42411563410429909 0 0.42970853595475911 0.42411563410429909 0 0.43638059014546859 0.41396501513031653 0 0.44206620745562469 0.42772538742895327 0 0.42970853595475911 0.42411563410429909 0 0.43338150368892281 0.43442847437607862 0 0.44206620745562469 0.42772538742895327 0 0.41434810569632557 0.42101933987654389 0 0.42970853595475911 0.42411563410429909 0 0.42518480182312929 0.41050925812747152 0 0.42970853595475911 0.42411563410429909 0 0.42518480182312929 0.41050925812747152 0 0.43638059014546859 0.41396501513031653 0 0.42518480182312929 0.41050925812747152 0 0.43638059014546859 0.41396501513031653 0 0.43685154814427851 0.39834231005377613 0 0.42518480182312929 0.41050925812747152 0 0.43685154814427851 0.39834231005377613 0 0.42311902160098941 0.39010200679758161 0 0.41103299240574043 0.40812464117199382 0 0.42518480182312929 0.41050925812747152 0 0.42311902160098941 0.39010200679758161 0 0.40606892394630489 0.39631507906359209 0 0.41103299240574043 0.40812464117199382 0 0.42311902160098941 0.39010200679758161 0 0.40606892394630489 0.39631507906359209 0 0.40204495338296847 0.38405117306125081 0 0.42311902160098941 0.39010200679758161 0 0.40766675997981011 0.36716280905439619 0 0.40204495338296847 0.38405117306125081 0 0.42311902160098941 0.39010200679758161 0 0.40766675997981011 0.36716280905439619 0 0.42311902160098941 0.39010200679758161 0 0.43708095157803112 0.37485511967631191 0 0.43685154814427851 0.39834231005377613 0 0.42311902160098941 0.39010200679758161 0 0.43708095157803112 0.37485511967631191 0 0.40766675997981011 0.36716280905439619 0 0.42311902160098941 0.39010200679758161 0 0.45638616814352262 0.37150094217805119 0 0.43708095157803112 0.37485511967631191 0 0.45283960916700328 0.38967510719801701 0 0.43708095157803112 0.37485511967631191 0 0.43685154814427851 0.39834231005377613 0 0.45283960916700328 0.38967510719801701 0 0.45283960916700328 0.38967510719801701 0 0.44922581649133853 0.40783615204002871 0 0.43685154814427851 0.39834231005377613 0 0.45283960916700328 0.38967510719801701 0 0.44922581649133853 0.40783615204002871 0 0.45283960916700328 0.38967510719801701 0 0.46428752521046901 0.39690726056570702 0 0.44922581649133853 0.40783615204002871 0 0.46428752521046901 0.39690726056570702 0 0.46357294636032048 0.41334674587195308 0 0.44922581649133853 0.40783615204002871 0 0.45283960916700328 0.38967510719801701 0 0.46428752521046901 0.39690726056570702 0 0.46786662405229018 0.38038823023318469 0 0.45638616814352262 0.37150094217805119 0 0.45283960916700328 0.38967510719801701 0 0.46786662405229018 0.38038823023318469 0 0.45638616814352262 0.37150094217805119 0 0.45283960916700328 0.38967510719801701 0 0.48429072151259922 0.36847943810795142 0 0.47932340191710138 0.39787839045411733 0 0.48429072151259922 0.36847943810795142 0 0.46786662405229018 0.38038823023318469 0 0.47932340191710138 0.39787839045411733 0 0.46428752521046901 0.39690726056570702 0 0.46786662405229018 0.38038823023318469 0 0.47932340191710138 0.39787839045411733 0 0.46428752521046901 0.39690726056570702 0 0.47932340191710138 0.39787839045411733 0 0.46357294636032048 0.41334674587195308 0 0.47932340191710138 0.39787839045411733 0 0.5 0.39273532086786739 0 0.5 0.42149372955870262 0 0.5 0.36397691217703232 0 0.48429072151259922 0.36847943810795142 0 0.5 0.39273532086786739 0 0.48429072151259922 0.36847943810795142 0 0.47932340191710138 0.39787839045411733 0 0.5 0.39273532086786739 0 0.5 0.42149372955870262 0 0.47435608232160359 0.42727734280028329 0 0.48958497545226798 0.44351290194238108 0 0.47932340191710138 0.39787839045411733 0 0.5 0.42149372955870262 0 0.47435608232160359 0.42727734280028329 0 0.47932340191710138 0.39787839045411733 0 0.47435608232160359 0.42727734280028329 0 0.46357294636032048 0.41334674587195308 0 0.47932340191710138 0.39787839045411733 0 0.47435608232160359 0.42727734280028329 0 0.47435608232160359 0.42727734280028329 0 0.45945955051065801 0.42958882883832988 0 0.45584435403631912 0.44496058904142932 0 0.47435608232160359 0.42727734280028329 0 0.45945955051065801 0.42958882883832988 0 0.46357294636032048 0.41334674587195308 0 0.45945955051065801 0.42958882883832988 0 0.45379800491438887 0.42111868435994582 0 0.4523860276957174 0.4292971625008829 0 0.45945955051065801 0.42958882883832988 0 0.45148418401195589 0.43561960427690272 0 0.4523860276957174 0.4292971625008829 0 0.45945955051065801 0.42958882883832988 0 0.45148418401195589 0.43561960427690272 0 0.45584435403631912 0.44496058904142932 0 0.45945955051065801 0.42958882883832988 0 0.46357294636032048 0.41334674587195308 0 0.45379800491438887 0.42111868435994582 0 0.46357294636032048 0.41334674587195308 0 0.45379800491438887 0.42111868435994582 0 0.44922581649133853 0.40783615204002871 0 0.44922581649133853 0.40783615204002871 0 0.44206620745562469 0.42772538742895327 0 0.44922581649133853 0.40783615204002871 0 0.44480237134586648 0.43086153252835319 0 0.45379800491438887 0.42111868435994582 0 0.44922581649133853 0.40783615204002871 0 0.44480237134586648 0.43086153252835319 0 0.43638059014546859 0.41396501513031653 0 0.44922581649133853 0.40783615204002871 0 0.44206620745562469 0.42772538742895327 0 0.43638059014546859 0.41396501513031653 0 0.43685154814427851 0.39834231005377613 0 0.44922581649133853 0.40783615204002871 0 0.44922581649133853 0.40783615204002871 0 0.44206620745562469 0.42772538742895327 0 0.44480237134586648 0.43086153252835319 0 0.44206620745562469 0.42772538742895327 0 0.44480237134586648 0.43086153252835319 0 0.43490659841991092 0.44761462281787801 0 0.45148418401195589 0.43561960427690272 0 0.44480237134586648 0.43086153252835319 0 0.4478743154951918 0.44328832077919028 0 0.45148418401195589 0.43561960427690272 0 0.4523860276957174 0.4292971625008829 0 0.44480237134586648 0.43086153252835319 0 0.45379800491438887 0.42111868435994582 0 0.4523860276957174 0.4292971625008829 0 0.44480237134586648 0.43086153252835319 0 0.44480237134586648 0.43086153252835319 0 0.4478743154951918 0.44328832077919028 0 0.44031169250124919 0.4538737928387237 0 0.44480237134586648 0.43086153252835319 0 0.44031169250124919 0.4538737928387237 0 0.43490659841991092 0.44761462281787801 0 0.44480237134586648 0.43086153252835319 0 0.44031169250124919 0.4538737928387237 0 0.44206620745562469 0.42772538742895327 0 0.43490659841991092 0.44761462281787801 0 0.44782866286254469 0.45138256294940049 0 0.45260354383983659 0.45623122606615368 0 0.45584435403631912 0.44496058904142932 0 0.44782866286254469 0.45138256294940049 0 0.4478743154951918 0.44328832077919028 0 0.44031169250124919 0.4538737928387237 0 0.44782866286254469 0.45138256294940049 0 0.4478743154951918 0.44328832077919028 0 0.45584435403631912 0.44496058904142932 0 0.45148418401195589 0.43561960427690272 0 0.4478743154951918 0.44328832077919028 0 0.45584435403631912 0.44496058904142932 0 0.44319811801544162 0.46782494733201863 0 0.44031169250124919 0.4538737928387237 0 0.43582101365663178 0.47688605314909421 0 0.44031169250124919 0.4538737928387237 0 0.43582101365663178 0.47688605314909421 0 0.44782866286254469 0.45138256294940049 0 0.44031169250124919 0.4538737928387237 0 0.44682790739361561 0.45978997916802211 0 0.44319811801544162 0.46782494733201863 0 0.44031169250124919 0.4538737928387237 0 0.44682790739361561 0.45978997916802211 0 0.44782866286254469 0.45138256294940049 0 0.44682790739361561 0.45978997916802211 0 0.45260354383983659 0.45623122606615368 0 0.44319811801544162 0.46782494733201863 0 0.44682790739361561 0.45978997916802211 0 0.45477071051624351 0.46788032756956061 0 0.44682790739361561 0.45978997916802211 0 0.45260354383983659 0.45623122606615368 0 0.45477071051624351 0.46788032756956061 0 0.45260354383983659 0.45623122606615368 0 0.45477071051624351 0.46788032756956061 0 0.46938876272610591 0.4566762951464492 0 0.45477071051624351 0.46788032756956061 0 0.46938876272610591 0.4566762951464492 0 0.47221755040283631 0.47003573099060458 0 0.47435608232160359 0.42727734280028329 0 0.45584435403631912 0.44496058904142932 0 0.46938876272610591 0.4566762951464492 0 0.45260354383983659 0.45623122606615368 0 0.45584435403631912 0.44496058904142932 0 0.46938876272610591 0.4566762951464492 0 0.47435608232160359 0.42727734280028329 0 0.46938876272610591 0.4566762951464492 0 0.47435608232160359 0.42727734280028329 0 0.48030713590714519 0.44737087471429832 0 0.46938876272610591 0.4566762951464492 0 0.47435608232160359 0.42727734280028329 0 0.48030713590714519 0.44737087471429832 0 0.48958497545226798 0.44351290194238108 0 0.46938876272610591 0.4566762951464492 0 0.48789872312860338 0.46201695896807959 0 0.47221755040283631 0.47003573099060458 0 0.48030713590714519 0.44737087471429832 0 0.46938876272610591 0.4566762951464492 0 0.48789872312860338 0.46201695896807959 0 0.48789872312860338 0.46201695896807959 0 0.5 0.45025213824953758 0 0.49999999999999878 0.47901054694037248 0 0.48030713590714519 0.44737087471429832 0 0.48789872312860338 0.46201695896807959 0 0.48958497545226798 0.44351290194238108 0 0.48789872312860338 0.46201695896807959 0 0.48958497545226798 0.44351290194238108 0 0.5 0.45025213824953758 0 0.5 0.42149372955870262 0 0.48958497545226798 0.44351290194238108 0 0.5 0.45025213824953758 0 0.48789872312860338 0.46201695896807959 0 0.48958497545226798 0.44351290194238108 0 0.48443737456536817 0.5 0 0.48621247080494012 0.48052101599377822 0 0.5 0.5 0 0.4926624613425768 0.48988289073353769 0 0.49999999999999878 0.47901054694037248 0 0.48443737456536817 0.5 0 0.4926624613425768 0.48988289073353769 0 0.48621247080494012 0.48052101599377822 0 0.48443737456536817 0.5 0 0.5 0.5 0 0.4926624613425768 0.48988289073353769 0 0.48789872312860338 0.46201695896807959 0 0.49999999999999878 0.47901054694037248 0 0.48621247080494012 0.48052101599377822 0 0.48789872312860338 0.46201695896807959 0 0.48621247080494012 0.48052101599377822 0 0.4926624613425768 0.48988289073353769 0 0.49999999999999878 0.47901054694037248 0 0.48621247080494012 0.48052101599377822 0 0.49999999999999878 0.47901054694037248 0 0.48621247080494012 0.48052101599377822 0 0.48789872312860338 0.46201695896807959 0 0.48621247080494012 0.48052101599377822 0 0.47221755040283631 0.47003573099060458 0 0.48621247080494012 0.48052101599377822 0 0.4753417093409299 0.489350749846232 0 0.46281708483828837 0.48308405727515508 0 0.48621247080494012 0.48052101599377822 0 0.47221755040283631 0.47003573099060458 0 0.46281708483828837 0.48308405727515508 0 0.48621247080494012 0.48052101599377822 0 0.46281708483828837 0.48308405727515508 0 0.48443737456536817 0.5 0 0.48621247080494012 0.48052101599377822 0 0.4753417093409299 0.489350749846232 0 0.48443737456536817 0.5 0 0.4753417093409299 0.489350749846232 0 0.4579580405918337 0.5 0 0.4753417093409299 0.489350749846232 0 0.4579580405918337 0.5 0 0.46281708483828837 0.48308405727515508 0 0.4579580405918337 0.5 0 0.46281708483828837 0.48308405727515508 0 0.43942169887163668 0.48564709855653182 0 0.45477071051624351 0.46788032756956061 0 0.46281708483828837 0.48308405727515508 0 0.44692133688254643 0.4764014299263386 0 0.45477071051624351 0.46788032756956061 0 0.47221755040283631 0.47003573099060458 0 0.46281708483828837 0.48308405727515508 0 0.46281708483828837 0.48308405727515508 0 0.44692133688254643 0.4764014299263386 0 0.43942169887163668 0.48564709855653182 0 0.46281708483828837 0.48308405727515508 0 0.43942169887163668 0.48564709855653182 0 0.44319811801544162 0.46782494733201863 0 0.45477071051624351 0.46788032756956061 0 0.44692133688254643 0.4764014299263386 0 0.44692133688254643 0.4764014299263386 0 0.43942169887163668 0.48564709855653182 0 0.43582101365663178 0.47688605314909421 0 0.44319811801544162 0.46782494733201863 0 0.44692133688254643 0.4764014299263386 0 0.43582101365663178 0.47688605314909421 0 0.4579580405918337 0.5 0 0.43942169887163668 0.48564709855653182 0 0.43147870661829929 0.50000000000000067 0 0.41604922092508623 0.49999999999999878 0 0.4252894562620666 0.47433083081079702 0 0.42961284800124933 0.48375192910340181 0 0.43147870661829929 0.50000000000000067 0 0.42961284800124933 0.48375192910340181 0 0.43942169887163668 0.48564709855653182 0 0.43147870661829929 0.50000000000000067 0 0.42961284800124933 0.48375192910340181 0 0.43147870661829929 0.50000000000000067 0 0.41604922092508623 0.49999999999999878 0 0.42961284800124933 0.48375192910340181 0 0.41604922092508623 0.49999999999999878 0 0.4252894562620666 0.47433083081079702 0 0.41604922092508623 0.49999999999999878 0 0.4252894562620666 0.47433083081079702 0 0.40492850611133169 0.47999149693053139 0 0.41604922092508623 0.49999999999999878 0 0.39812620966976742 0.5 0 0.40492850611133169 0.47999149693053139 0 0.4252894562620666 0.47433083081079702 0 0.40813454196551102 0.45719469935468549 0 0.40492850611133169 0.47999149693053139 0 0.42888157885110201 0.47738396912641923 0 0.4277469893841982 0.46750385820680301 0 0.4252894562620666 0.47433083081079702 0 0.42888157885110201 0.47738396912641923 0 0.4277469893841982 0.46750385820680301 0 0.4252894562620666 0.47433083081079702 0 0.42888157885110201 0.47738396912641923 0 0.4252894562620666 0.47433083081079702 0 0.4277469893841982 0.46750385820680301 0 0.4252894562620666 0.47433083081079702 0 0.42888157885110201 0.47738396912641923 0 0.42961284800124933 0.48375192910340181 0 0.42888157885110201 0.47738396912641923 0 0.42961284800124933 0.48375192910340181 0 0.43942169887163668 0.48564709855653182 0 0.42961284800124933 0.48375192910340181 0 0.43582101365663178 0.47688605314909421 0 0.42888157885110201 0.47738396912641923 0 0.42961284800124933 0.48375192910340181 0 0.43582101365663178 0.47688605314909421 0 0.42888157885110201 0.47738396912641923 0 0.43582101365663178 0.47688605314909421 0 0.4277469893841982 0.46750385820680301 0 0.44031169250124919 0.4538737928387237 0 0.4277469893841982 0.46750385820680301 0 0.43490659841991092 0.44761462281787801 0 0.44031169250124919 0.4538737928387237 0 0.43582101365663178 0.47688605314909421 0 0.4277469893841982 0.46750385820680301 0 0.4277469893841982 0.46750385820680301 0 0.43490659841991092 0.44761462281787801 0 0.42595814564380069 0.45192644004052718 0 0.4277469893841982 0.46750385820680301 0 0.43490659841991092 0.44761462281787801 0 0.4277469893841982 0.46750385820680301 0 0.42595814564380069 0.45192644004052718 0 0.43338150368892281 0.43442847437607862 0 0.43031087260932532 0.44141712225368779 0 0.43490659841991092 0.44761462281787801 0 0.43031087260932532 0.44141712225368779 0 0.43490659841991092 0.44761462281787801 0 0.42595814564380069 0.45192644004052718 0 0.42416930190340202 0.43634902187425151 0 0.42595814564380069 0.45192644004052718 0 0.42416930190340202 0.43634902187425151 0 0.42595814564380069 0.45192644004052718 0 0.41638061319925751 0.44521613843544039 0 0.42416930190340202 0.43634902187425151 0 0.43031087260932532 0.44141712225368779 0 0.42595814564380069 0.45192644004052718 0 0.42595814564380069 0.45192644004052718 0 0.41638061319925751 0.44521613843544039 0 0.40813454196551102 0.45719469935468549 0 0.40726046328431631 0.43539439247229772 0 0.42416930190340202 0.43634902187425151 0 0.41638061319925751 0.44521613843544039 0 0.40726046328431631 0.43539439247229772 0 0.41638061319925751 0.44521613843544039 0 0.40813454196551102 0.45719469935468549 0 0.4277469893841982 0.46750385820680301 0 0.42595814564380069 0.45192644004052718 0 0.40813454196551102 0.45719469935468549 0 0.4252894562620666 0.47433083081079702 0 0.4277469893841982 0.46750385820680301 0 0.40813454196551102 0.45719469935468549 0 0.4252894562620666 0.47433083081079702 0 0.40813454196551102 0.45719469935468549 0 0.40813454196551102 0.45719469935468549 0 0.38738748458412198 0.46003904526571487 0 0.40492850611133169 0.47999149693053139 0 0.40726046328431631 0.43539439247229772 0 0.40813454196551102 0.45719469935468549 0 0.39097962766895739 0.44005856789857212 0 0.40813454196551102 0.45719469935468549 0 0.39097962766895739 0.44005856789857212 0 0.38738748458412198 0.46003904526571487 0 0.40813454196551102 0.45719469935468549 0 0.39097962766895739 0.44005856789857212 0 0.37195439854806422 0.44383173962293843 0 0.39097962766895739 0.44005856789857212 0 0.38738748458412198 0.46003904526571487 0 0.39097962766895739 0.44005856789857212 0 0.38738748458412198 0.46003904526571487 0 0.37121820907053821 0.46026893410322361 0 0.37195439854806422 0.44383173962293843 0 0.38738748458412198 0.46003904526571487 0 0.37121820907053821 0.46026893410322361 0 0.38738748458412198 0.46003904526571487 0 0.38379534149928529 0.48001952263285741 0 0.38738748458412198 0.46003904526571487 0 0.38379534149928529 0.48001952263285741 0 0.36405317179174512 0.48440290994933499 0 0.38379534149928529 0.48001952263285741 0 0.38020319841444861 0.5 0 0.38379534149928529 0.48001952263285741 0 0.38020319841444861 0.5 0 0.39812620966976742 0.5 0 0.38379534149928529 0.48001952263285741 0 0.38020319841444861 0.5 0 0.38379534149928529 0.48001952263285741 0 0.39812620966976742 0.5 0 0.40492850611133169 0.47999149693053139 0 0.38738748458412198 0.46003904526571487 0 0.38379534149928529 0.48001952263285741 0 0.40492850611133169 0.47999149693053139 0 0.33502187568065839 0.086506384852696308 0 0.32548146672945999 0.064420053221907997 0 0.34911266500641541 0.072419814639241492 0 0.33502187568065839 0.086506384852696308 0 0.32548146672945999 0.064420053221907997 0 0.30404680151572178 0.080185941284333775 0 0.33502187568065839 0.086506384852696308 0 0.32188978777712768 0.1002780914399148 0 0.30404680151572178 0.080185941284333775 0 0.32188978777712768 0.1002780914399148 0 0.30301846183091979 0.1172053619396147 0 0.31991666620503822 0.12519096184062159 0 0.32188978777712768 0.1002780914399148 0 0.33435828739299639 0.11617943037293629 0 0.31991666620503822 0.12519096184062159 0 0.33502187568065839 0.086506384852696308 0 0.32188978777712768 0.1002780914399148 0 0.33435828739299639 0.11617943037293629 0 0.33502187568065839 0.086506384852696308 0 0.33435828739299639 0.11617943037293629 0 0.35313943328326752 0.095217950393210876 0 0.33435828739299639 0.11617943037293629 0 0.35313943328326752 0.095217950393210876 0 0.35598985726388938 0.11662507236169441 0 0.35598985726388938 0.11662507236169441 0 0.34540832492806373 0.12543380115928771 0 0.35389759315149849 0.13252358630393371 0 0.33435828739299639 0.11617943037293629 0 0.35598985726388938 0.11662507236169441 0 0.34540832492806373 0.12543380115928771 0 0.35598985726388938 0.11662507236169441 0 0.37353660597855232 0.1160148090550365 0 0.3663409831071901 0.12783738971558081 0 0.35598985726388938 0.11662507236169441 0 0.37353660597855232 0.1160148090550365 0 0.37343516198329108 0.10038013847368869 0 0.37353660597855232 0.1160148090550365 0 0.3663409831071901 0.12783738971558081 0 0.38124671616229938 0.12624965003147609 0 0.35313943328326752 0.095217950393210876 0 0.35598985726388938 0.11662507236169441 0 0.37343516198329108 0.10038013847368869 0 0.35313943328326752 0.095217950393210876 0 0.37343516198329108 0.10038013847368869 0 0.37091875237235461 0.079196861659008161 0 0.35313943328326752 0.095217950393210876 0 0.37091875237235461 0.079196861659008161 0 0.34911266500641541 0.072419814639241492 0 0.33502187568065839 0.086506384852696308 0 0.35313943328326752 0.095217950393210876 0 0.34911266500641541 0.072419814639241492 0 0.37091875237235461 0.079196861659008161 0 0.34911266500641541 0.072419814639241492 0 0.36605404924323431 0.060511854176309429 0 0.36605404924323431 0.060511854176309429 0 0.37116439907938747 0.042448892887969381 0 0.34920156247382222 0.049741225530290617 0 0.37116439907938747 0.042448892887969381 0 0.34988725827304029 0.024940094314197189 0 0.37116439907938747 0.042448892887969381 0 0.34920156247382222 0.049741225530290617 0 0.34988725827304029 0.024940094314197189 0 0.34911266500641541 0.072419814639241492 0 0.36605404924323431 0.060511854176309429 0 0.34920156247382222 0.049741225530290617 0 0.36069381017681429 0.0028134832091187712 0 0.34988725827304029 0.024940094314197189 0 0.32861011746669322 0.0074312957404249896 0 0.36069381017681429 0.0028134832091187712 0 0.34988725827304029 0.024940094314197189 0 0.38076104543909939 0.024110528994575501 0 0.37116439907938747 0.042448892887969381 0 0.34988725827304029 0.024940094314197189 0 0.38076104543909939 0.024110528994575501 0 0.32861011746669322 0.0074312957404249896 0 0.32830844044506419 0.03979025778738049 0 0.30738941445655282 0.025545203995904341 0 0.34988725827304029 0.024940094314197189 0 0.32861011746669322 0.0074312957404249896 0 0.32830844044506419 0.03979025778738049 0 0.34988725827304029 0.024940094314197189 0 0.32861011746669322 0.0074312957404249896 0 0.32861011746669322 0.0074312957404249896 0 0.30164876235935412 0.00658563157575889 0 0.30738941445655282 0.025545203995904341 0 0.32861011746669322 0.0074312957404249896 0 0.30164876235935412 0.00658563157575889 0 0.31100116081235968 -0.01214826072866222 0 0.32548146672945999 0.064420053221907997 0 0.34911266500641541 0.072419814639241492 0 0.34920156247382222 0.049741225530290617 0 0.32548146672945999 0.064420053221907997 0 0.34920156247382222 0.049741225530290617 0 0.32830844044506419 0.03979025778738049 0 0.34920156247382222 0.049741225530290617 0 0.34988725827304029 0.024940094314197189 0 0.32830844044506419 0.03979025778738049 0 0.32830844044506419 0.03979025778738049 0 0.30083950982101582 0.051646815090844331 0 0.32548146672945999 0.064420053221907997 0 0.32830844044506419 0.03979025778738049 0 0.30083950982101582 0.051646815090844331 0 0.30083950982101582 0.051646815090844331 0 0.27885360577618828 0.024488084144348461 0 0.27337057919696722 0.063503372394308213 0 0.32830844044506419 0.03979025778738049 0 0.30083950982101582 0.051646815090844331 0 0.30738941445655282 0.025545203995904341 0 0.30083950982101582 0.051646815090844331 0 0.30738941445655282 0.025545203995904341 0 0.27885360577618828 0.024488084144348461 0 0.30083950982101582 0.051646815090844331 0 0.27337057919696722 0.063503372394308213 0 0.30164876235935412 0.00658563157575889 0 0.27885360577618828 0.024488084144348461 0 0.28501624045607971 -0.0079560365547501743 0 0.30164876235935412 0.00658563157575889 0 0.30738941445655282 0.025545203995904341 0 0.27885360577618828 0.024488084144348461 0 0.27885360577618828 0.024488084144348461 0 0.25903132009979979 -0.0037638123808381501 0 0.28501624045607971 -0.0079560365547501743 0 0.24881233264342081 0.045153272571155083 0 0.27885360577618828 0.024488084144348461 0 0.25038356872345918 0.01850288112326702 0 0.27885360577618828 0.024488084144348461 0 0.25038356872345918 0.01850288112326702 0 0.25903132009979979 -0.0037638123808381501 0 0.24881233264342081 0.045153272571155083 0 0.27885360577618828 0.024488084144348461 0 0.27337057919696722 0.063503372394308213 0 0.2459016485729186 0.07535992969777211 0 0.24881233264342081 0.045153272571155083 0 0.27337057919696722 0.063503372394308213 0 0.2459016485729186 0.07535992969777211 0 0.27337057919696722 0.063503372394308213 0 0.2459016485729186 0.07535992969777211 0 0.25776014581165352 0.092373460621308204 0 0.27337057919696722 0.063503372394308213 0 0.25776014581165352 0.092373460621308204 0 0.27877636489844071 0.093561038100678867 0 0.27337057919696722 0.063503372394308213 0 0.30083950982101582 0.051646815090844331 0 0.27337057919696722 0.063503372394308213 0 0.30404680151572178 0.080185941284333775 0 0.27877636489844071 0.093561038100678867 0 0.30404680151572178 0.080185941284333775 0 0.29658915100536071 0.10052584613289289 0 0.27877636489844071 0.093561038100678867 0 0.27337057919696722 0.063503372394308213 0 0.30404680151572178 0.080185941284333775 0 0.32188978777712768 0.1002780914399148 0 0.30404680151572178 0.080185941284333775 0 0.29658915100536071 0.10052584613289289 0 0.32548146672945999 0.064420053221907997 0 0.30083950982101582 0.051646815090844331 0 0.30404680151572178 0.080185941284333775 0 0.32188978777712768 0.1002780914399148 0 0.30301846183091979 0.1172053619396147 0 0.32188978777712768 0.1002780914399148 0 0.30301846183091979 0.1172053619396147 0 0.29658915100536071 0.10052584613289289 0 0.27877636489844071 0.093561038100678867 0 0.29658915100536071 0.10052584613289289 0 0.28132335779473622 0.1124624234547594 0 0.30301846183091979 0.1172053619396147 0 0.28132335779473622 0.1124624234547594 0 0.28414713588471202 0.13413263243931459 0 0.30301846183091979 0.1172053619396147 0 0.29658915100536071 0.10052584613289289 0 0.28132335779473622 0.1124624234547594 0 0.28132335779473622 0.1124624234547594 0 0.26586463665865018 0.1216432956571105 0 0.28414713588471202 0.13413263243931459 0 0.28132335779473622 0.1124624234547594 0 0.26586463665865018 0.1216432956571105 0 0.26630254521680091 0.1062687809100238 0 0.25776014581165352 0.092373460621308204 0 0.27877636489844071 0.093561038100678867 0 0.26630254521680091 0.1062687809100238 0 0.27877636489844071 0.093561038100678867 0 0.28132335779473622 0.1124624234547594 0 0.26630254521680091 0.1062687809100238 0 0.24778822092052369 0.11130368671626199 0 0.25776014581165352 0.092373460621308204 0 0.26630254521680091 0.1062687809100238 0 0.2496758449911857 0.128805193922715 0 0.24778822092052369 0.11130368671626199 0 0.26586463665865018 0.1216432956571105 0 0.24778822092052369 0.11130368671626199 0 0.26586463665865018 0.1216432956571105 0 0.26630254521680091 0.1062687809100238 0 0.2496758449911857 0.128805193922715 0 0.26586463665865018 0.1216432956571105 0 0.26026619073845891 0.13180927825081601 0 0.2496758449911857 0.128805193922715 0 0.26026619073845891 0.13180927825081601 0 0.25885130783348831 0.14215786199141109 0 0.24486819119757949 0.14427675906409859 0 0.2496758449911857 0.128805193922715 0 0.25885130783348831 0.14215786199141109 0 0.26026619073845891 0.13180927825081601 0 0.26780814958153598 0.13558841106657379 0 0.25885130783348831 0.14215786199141109 0 0.26586463665865018 0.1216432956571105 0 0.26026619073845891 0.13180927825081601 0 0.26780814958153598 0.13558841106657379 0 0.26780814958153598 0.13558841106657379 0 0.26527580993850408 0.15105990293901461 0 0.28414713588471202 0.13413263243931459 0 0.26586463665865018 0.1216432956571105 0 0.26780814958153598 0.13558841106657379 0 0.28414713588471202 0.13413263243931459 0 0.26527580993850408 0.15105990293901461 0 0.28414713588471202 0.13413263243931459 0 0.28335276769942919 0.14870089265048181 0 0.26527580993850408 0.15105990293901461 0 0.28414713588471202 0.13413263243931459 0 0.26527580993850408 0.15105990293901461 0 0.27554099310307278 0.16102328706268049 0 0.28335276769942919 0.14870089265048181 0 0.26291893673622602 0.15618878215735679 0 0.26527580993850408 0.15105990293901461 0 0.27554099310307278 0.16102328706268049 0 0.25885130783348831 0.14215786199141109 0 0.2539054022089885 0.16868013441577409 0 0.26291893673622602 0.15618878215735679 0 0.26527580993850408 0.15105990293901461 0 0.25885130783348831 0.14215786199141109 0 0.26291893673622602 0.15618878215735679 0 0.25885130783348831 0.14215786199141109 0 0.25871627902457961 0.1615774377968264 0 0.24088919625777311 0.15743336066725189 0 0.25885130783348831 0.14215786199141109 0 0.2539054022089885 0.16868013441577409 0 0.26780814958153598 0.13558841106657379 0 0.26527580993850408 0.15105990293901461 0 0.25885130783348831 0.14215786199141109 0 0.2539054022089885 0.16868013441577409 0 0.26637805466538772 0.17945724571432289 0 0.27554099310307278 0.16102328706268049 0 0.25885130783348831 0.14215786199141109 0 0.25871627902457961 0.1615774377968264 0 0.2539054022089885 0.16868013441577409 0 0.2539054022089885 0.16868013441577409 0 0.27554099310307278 0.16102328706268049 0 0.25871627902457961 0.1615774377968264 0 0.2539054022089885 0.16868013441577409 0 0.27554099310307278 0.16102328706268049 0 0.2539054022089885 0.16868013441577409 0 0.25204772581422552 0.1693375670995301 0 0.24544868239401091 0.19570015869455601 0 0.25204772581422552 0.1693375670995301 0 0.25632889882659399 0.17848138445884359 0 0.2539054022089885 0.16868013441577409 0 0.25204772581422552 0.1693375670995301 0 0.25632889882659399 0.17848138445884359 0 0.2539054022089885 0.16868013441577409 0 0.25632889882659399 0.17848138445884359 0 0.26637805466538772 0.17945724571432289 0 0.2539054022089885 0.16868013441577409 0 0.26637805466538772 0.17945724571432289 0 0.25632889882659399 0.17848138445884359 0 0.26637805466538772 0.17945724571432289 0 0.26041148605006198 0.18866968104427609 0 0.26637805466538772 0.17945724571432289 0 0.28304234219177371 0.17529217574677511 0 0.27885070712178722 0.19023435701287161 0 0.26637805466538772 0.17945724571432289 0 0.26041148605006198 0.18866968104427609 0 0.27885070712178722 0.19023435701287161 0 0.26637805466538772 0.17945724571432289 0 0.27554099310307278 0.16102328706268049 0 0.28304234219177371 0.17529217574677511 0 0.26637805466538772 0.17945724571432289 0 0.27885070712178722 0.19023435701287161 0 0.26291893673622602 0.15618878215735679 0 0.25871627902457961 0.1615774377968264 0 0.27554099310307278 0.16102328706268049 0 0.27554099310307278 0.16102328706268049 0 0.2971765839971573 0.15336643970958699 0 0.27554099310307278 0.16102328706268049 0 0.29272453244243879 0.16563041972167039 0 0.2971765839971573 0.15336643970958699 0 0.27554099310307278 0.16102328706268049 0 0.29272453244243879 0.16563041972167039 0 0.28304234219177371 0.17529217574677511 0 0.28304234219177371 0.17529217574677511 0 0.2916045995502029 0.18640162325708001 0 0.27885070712178722 0.19023435701287161 0 0.29272453244243879 0.16563041972167039 0 0.28304234219177371 0.17529217574677511 0 0.29839002168528189 0.1751268917286441 0 0.28304234219177371 0.17529217574677511 0 0.2916045995502029 0.18640162325708001 0 0.29839002168528189 0.1751268917286441 0 0.29993434908468902 0.1967923351100333 0 0.32036657203245711 0.17521997488952881 0 0.30354909525011581 0.18383917673463601 0 0.29993434908468902 0.1967923351100333 0 0.32036657203245711 0.17521997488952881 0 0.30354909525011581 0.18383917673463601 0 0.30794460255069073 0.1743823369283686 0 0.32036657203245711 0.17521997488952881 0 0.2916045995502029 0.18640162325708001 0 0.30354909525011581 0.18383917673463601 0 0.29839002168528189 0.1751268917286441 0 0.30354909525011581 0.18383917673463601 0 0.29839002168528189 0.1751268917286441 0 0.30794460255069073 0.1743823369283686 0 0.29272453244243879 0.16563041972167039 0 0.29839002168528189 0.1751268917286441 0 0.30947272123490832 0.16334330436066541 0 0.29272453244243879 0.16563041972167039 0 0.30947272123490832 0.16334330436066541 0 0.2971765839971573 0.15336643970958699 0 0.29839002168528189 0.1751268917286441 0 0.30794460255069073 0.1743823369283686 0 0.30947272123490832 0.16334330436066541 0 0.2971765839971573 0.15336643970958699 0 0.30107063175141641 0.13738431348935221 0 0.31881217489124181 0.1457095923564935 0 0.2971765839971573 0.15336643970958699 0 0.31881217489124181 0.1457095923564935 0 0.30947272123490832 0.16334330436066541 0 0.2971765839971573 0.15336643970958699 0 0.31881217489124181 0.1457095923564935 0 0.30301846183091979 0.1172053619396147 0 0.30107063175141641 0.13738431348935221 0 0.31991666620503822 0.12519096184062159 0 0.30301846183091979 0.1172053619396147 0 0.28414713588471202 0.13413263243931459 0 0.30107063175141641 0.13738431348935221 0 0.28414713588471202 0.13413263243931459 0 0.28335276769942919 0.14870089265048181 0 0.30301846183091979 0.1172053619396147 0 0.30107063175141641 0.13738431348935221 0 0.28414713588471202 0.13413263243931459 0 0.2971765839971573 0.15336643970958699 0 0.30107063175141641 0.13738431348935221 0 0.28335276769942919 0.14870089265048181 0 0.27554099310307278 0.16102328706268049 0 0.2971765839971573 0.15336643970958699 0 0.28335276769942919 0.14870089265048181 0 0.2750363721462824 0.2426766578963179 0 0.26283566318311302 0.23596116260481981 0 0.27637532912526158 0.2299196329772506 0 0.2750363721462824 0.2426766578963179 0 0.26479222316116069 0.24972687478661071 0 0.26283566318311302 0.23596116260481981 0 0.2763218894542922 0.2535630106908609 0 0.2750363721462824 0.2426766578963179 0 0.26479222316116069 0.24972687478661071 0 0.24616920022930519 0.25355762987910191 0 0.26479222316116069 0.24972687478661071 0 0.26283566318311302 0.23596116260481981 0 0.24616920022930519 0.25355762987910191 0 0.26283566318311302 0.23596116260481981 0 0.23884963897379649 0.22206275028958219 0 0.26283566318311302 0.23596116260481981 0 0.25913713103775649 0.21503730897447779 0 0.26283566318311302 0.23596116260481981 0 0.2795021261369206 0.2183646953305374 0 0.26283566318311302 0.23596116260481981 0 0.2795021261369206 0.2183646953305374 0 0.25913713103775649 0.21503730897447779 0 0.26283566318311302 0.23596116260481981 0 0.27637532912526158 0.2299196329772506 0 0.2795021261369206 0.2183646953305374 0 0.27637532912526158 0.2299196329772506 0 0.28259930169341019 0.2234742459200677 0 0.27637532912526158 0.2299196329772506 0 0.2795021261369206 0.2183646953305374 0 0.28259930169341019 0.2234742459200677 0 0.2795021261369206 0.2183646953305374 0 0.28259930169341019 0.2234742459200677 0 0.2795021261369206 0.2183646953305374 0 0.25913713103775649 0.21503730897447779 0 0.26687809921269162 0.1975382671748194 0 0.2795021261369206 0.2183646953305374 0 0.26687809921269162 0.1975382671748194 0 0.2782497884513 0.2005195729466247 0 0.2795021261369206 0.2183646953305374 0 0.26687809921269162 0.1975382671748194 0 0.24544868239401091 0.19570015869455601 0 0.26041148605006198 0.18866968104427609 0 0.26687809921269162 0.1975382671748194 0 0.24544868239401091 0.19570015869455601 0 0.25913713103775649 0.21503730897447779 0 0.26687809921269162 0.1975382671748194 0 0.24544868239401091 0.19570015869455601 0 0.25632889882659399 0.17848138445884359 0 0.26041148605006198 0.18866968104427609 0 0.26041148605006198 0.18866968104427609 0 0.26687809921269162 0.1975382671748194 0 0.27885070712178722 0.19023435701287161 0 0.26687809921269162 0.1975382671748194 0 0.2782497884513 0.2005195729466247 0 0.27885070712178722 0.19023435701287161 0 0.2916045995502029 0.18640162325708001 0 0.27885070712178722 0.19023435701287161 0 0.28675319205452082 0.19527964907592071 0 0.2782497884513 0.2005195729466247 0 0.28675319205452082 0.19527964907592071 0 0.28666906825779481 0.20278442571457769 0 0.2782497884513 0.2005195729466247 0 0.27885070712178722 0.19023435701287161 0 0.28675319205452082 0.19527964907592071 0 0.28675319205452082 0.19527964907592071 0 0.28666906825779481 0.20278442571457769 0 0.29993434908468902 0.1967923351100333 0 0.2916045995502029 0.18640162325708001 0 0.28675319205452082 0.19527964907592071 0 0.29993434908468902 0.1967923351100333 0 0.30072367712587128 0.20470510554341809 0 0.31884805255833421 0.18593596516677019 0 0.29993434908468902 0.1967923351100333 0 0.30072367712587128 0.20470510554341809 0 0.31884805255833421 0.18593596516677019 0 0.3124938791987073 0.2018866203869589 0 0.30072367712587128 0.20470510554341809 0 0.31884805255833421 0.18593596516677019 0 0.2916045995502029 0.18640162325708001 0 0.30354909525011581 0.18383917673463601 0 0.29993434908468902 0.1967923351100333 0 0.30072367712587128 0.20470510554341809 0 0.3104549862564509 0.2133969108640564 0 0.2983018506897922 0.2209440220745176 0 0.3124938791987073 0.2018866203869589 0 0.30072367712587128 0.20470510554341809 0 0.3104549862564509 0.2133969108640564 0 0.2795021261369206 0.2183646953305374 0 0.29993434908468902 0.1967923351100333 0 0.30072367712587128 0.20470510554341809 0 0.2795021261369206 0.2183646953305374 0 0.2782497884513 0.2005195729466247 0 0.28666906825779481 0.20278442571457769 0 0.2795021261369206 0.2183646953305374 0 0.30072367712587128 0.20470510554341809 0 0.28259930169341019 0.2234742459200677 0 0.30072367712587128 0.20470510554341809 0 0.28259930169341019 0.2234742459200677 0 0.2795021261369206 0.2183646953305374 0 0.28666906825779481 0.20278442571457769 0 0.29993434908468902 0.1967923351100333 0 0.30072367712587128 0.20470510554341809 0 0.28259930169341019 0.2234742459200677 0 0.2983018506897922 0.2209440220745176 0 0.2795021261369206 0.2183646953305374 0 0.29993434908468902 0.1967923351100333 0 0.28259930169341019 0.2234742459200677 0 0.2983018506897922 0.2209440220745176 0 0.29597715581052542 0.2455442968887539 0 0.27637532912526158 0.2299196329772506 0 0.28259930169341019 0.2234742459200677 0 0.29597715581052542 0.2455442968887539 0 0.2983018506897922 0.2209440220745176 0 0.31027636876000442 0.227951095560603 0 0.29597715581052542 0.2455442968887539 0 0.3104549862564509 0.2133969108640564 0 0.2983018506897922 0.2209440220745176 0 0.31027636876000442 0.227951095560603 0 0.31027636876000442 0.227951095560603 0 0.29597715581052542 0.2455442968887539 0 0.32381691776900529 0.24151937515801669 0 0.2763218894542922 0.2535630106908609 0 0.2750363721462824 0.2426766578963179 0 0.29597715581052542 0.2455442968887539 0 0.2750363721462824 0.2426766578963179 0 0.27637532912526158 0.2299196329772506 0 0.29597715581052542 0.2455442968887539 0 0.28259930169341019 0.2234742459200677 0 0.29597715581052542 0.2455442968887539 0 0.34194461300836032 0.24481185239477771 0 0.32381691776900529 0.24151937515801669 0 0.33818762291600701 0.2251389546127936 0 0.33409527125798061 0.26145935942524628 0 0.34194461300836032 0.24481185239477771 0 0.32381691776900529 0.24151937515801669 0 0.31027636876000442 0.227951095560603 0 0.32381691776900529 0.24151937515801669 0 0.32309020462125071 0.22050105051578661 0 0.3104549862564509 0.2133969108640564 0 0.31027636876000442 0.227951095560603 0 0.32309020462125071 0.22050105051578661 0 0.32381691776900529 0.24151937515801669 0 0.32309020462125071 0.22050105051578661 0 0.33818762291600701 0.2251389546127936 0 0.33818762291600701 0.2251389546127936 0 0.3359365461873639 0.20742962885317931 0 0.35093393211534851 0.21152955321695041 0 0.32309020462125071 0.22050105051578661 0 0.33818762291600701 0.2251389546127936 0 0.3359365461873639 0.20742962885317931 0 0.32309020462125071 0.22050105051578661 0 0.3359365461873639 0.20742962885317931 0 0.3213364147353826 0.20588918638109821 0 0.3104549862564509 0.2133969108640564 0 0.32309020462125071 0.22050105051578661 0 0.3213364147353826 0.20588918638109821 0 0.3124938791987073 0.2018866203869589 0 0.3104549862564509 0.2133969108640564 0 0.3213364147353826 0.20588918638109821 0 0.3213364147353826 0.20588918638109821 0 0.32033692012270032 0.19723971544359989 0 0.32866933399837728 0.1952470898395724 0 0.3124938791987073 0.2018866203869589 0 0.32033692012270032 0.19723971544359989 0 0.31884805255833421 0.18593596516677019 0 0.32866933399837728 0.1952470898395724 0 0.31884805255833421 0.18593596516677019 0 0.33495246634368753 0.18323526190991221 0 0.3124938791987073 0.2018866203869589 0 0.3213364147353826 0.20588918638109821 0 0.32033692012270032 0.19723971544359989 0 0.32033692012270032 0.19723971544359989 0 0.32866933399837728 0.1952470898395724 0 0.31884805255833421 0.18593596516677019 0 0.3359365461873639 0.20742962885317931 0 0.32866933399837728 0.1952470898395724 0 0.34551737683460249 0.19142890593895259 0 0.32866933399837728 0.1952470898395724 0 0.34551737683460249 0.19142890593895259 0 0.33495246634368753 0.18323526190991221 0 0.3359365461873639 0.20742962885317931 0 0.3213364147353826 0.20588918638109821 0 0.32866933399837728 0.1952470898395724 0 0.34551737683460249 0.19142890593895259 0 0.36624934414648491 0.1959459857456011 0 0.35093393211534851 0.21152955321695041 0 0.34551737683460249 0.19142890593895259 0 0.36624934414648491 0.1959459857456011 0 0.35934941027709089 0.17733869545276579 0 0.36624934414648491 0.1959459857456011 0 0.36543139163193961 0.2161731813305818 0 0.38055221620739688 0.21142998427081949 0 0.36624934414648491 0.1959459857456011 0 0.36543139163193961 0.2161731813305818 0 0.35093393211534851 0.21152955321695041 0 0.3359365461873639 0.20742962885317931 0 0.34551737683460249 0.19142890593895259 0 0.35093393211534851 0.21152955321695041 0 0.34194461300836032 0.24481185239477771 0 0.33818762291600701 0.2251389546127936 0 0.35428131097569271 0.23306066282059451 0 0.36543139163193961 0.2161731813305818 0 0.35093393211534851 0.21152955321695041 0 0.35428131097569271 0.23306066282059451 0 0.33818762291600701 0.2251389546127936 0 0.35093393211534851 0.21152955321695041 0 0.35428131097569271 0.23306066282059451 0 0.36543139163193961 0.2161731813305818 0 0.35428131097569271 0.23306066282059451 0 0.3720469909492643 0.23197617211791671 0 0.36543139163193961 0.2161731813305818 0 0.3720469909492643 0.23197617211791671 0 0.38055221620739688 0.21142998427081949 0 0.35888032742717868 0.25577639421568349 0 0.3720469909492643 0.23197617211791671 0 0.38357579391866758 0.24914938256085259 0 0.35888032742717868 0.25577639421568349 0 0.35428131097569271 0.23306066282059451 0 0.3720469909492643 0.23197617211791671 0 0.35888032742717868 0.25577639421568349 0 0.34194461300836032 0.24481185239477771 0 0.35428131097569271 0.23306066282059451 0 0.34079879498022531 0.1536476146690243 0 0.33829772926440349 0.13599853379048621 0 0.31881217489124181 0.1457095923564935 0 0.33435828739299639 0.11617943037293629 0 0.33829772926440349 0.13599853379048621 0 0.34540832492806373 0.12543380115928771 0 0.33435828739299639 0.11617943037293629 0 0.33829772926440349 0.13599853379048621 0 0.31991666620503822 0.12519096184062159 0 0.33829772926440349 0.13599853379048621 0 0.31991666620503822 0.12519096184062159 0 0.31881217489124181 0.1457095923564935 0 0.30107063175141641 0.13738431348935221 0 0.31991666620503822 0.12519096184062159 0 0.31881217489124181 0.1457095923564935 0 0.34079879498022531 0.1536476146690243 0 0.31881217489124181 0.1457095923564935 0 0.32254188957017949 0.1593413015650848 0 0.30947272123490832 0.16334330436066541 0 0.31881217489124181 0.1457095923564935 0 0.32254188957017949 0.1593413015650848 0 0.34079879498022531 0.1536476146690243 0 0.32254188957017949 0.1593413015650848 0 0.32036657203245711 0.17521997488952881 0 0.30947272123490832 0.16334330436066541 0 0.32254188957017949 0.1593413015650848 0 0.32036657203245711 0.17521997488952881 0 0.30794460255069073 0.1743823369283686 0 0.30947272123490832 0.16334330436066541 0 0.32036657203245711 0.17521997488952881 0 0.31884805255833421 0.18593596516677019 0 0.32036657203245711 0.17521997488952881 0 0.33697242799079702 0.16716682479012249 0 0.31884805255833421 0.18593596516677019 0 0.33697242799079702 0.16716682479012249 0 0.29993434908468902 0.1967923351100333 0 0.31884805255833421 0.18593596516677019 0 0.32036657203245711 0.17521997488952881 0 0.33495246634368753 0.18323526190991221 0 0.33697242799079702 0.16716682479012249 0 0.3447551403363262 0.17639752381414309 0 0.31884805255833421 0.18593596516677019 0 0.33495246634368753 0.18323526190991221 0 0.33697242799079702 0.16716682479012249 0 0.34551737683460249 0.19142890593895259 0 0.33495246634368753 0.18323526190991221 0 0.3447551403363262 0.17639752381414309 0 0.34079879498022531 0.1536476146690243 0 0.32036657203245711 0.17521997488952881 0 0.34079879498022531 0.1536476146690243 0 0.32036657203245711 0.17521997488952881 0 0.33697242799079702 0.16716682479012249 0 0.33697242799079702 0.16716682479012249 0 0.35301804184324298 0.1651287026734814 0 0.35509680342326277 0.14839768441347759 0 0.33697242799079702 0.16716682479012249 0 0.35509680342326277 0.14839768441347759 0 0.33697242799079702 0.16716682479012249 0 0.35301804184324298 0.1651287026734814 0 0.3447551403363262 0.17639752381414309 0 0.34079879498022531 0.1536476146690243 0 0.33697242799079702 0.16716682479012249 0 0.35509680342326277 0.14839768441347759 0 0.34551737683460249 0.19142890593895259 0 0.3447551403363262 0.17639752381414309 0 0.35934941027709089 0.17733869545276579 0 0.35301804184324298 0.1651287026734814 0 0.3447551403363262 0.17639752381414309 0 0.35934941027709089 0.17733869545276579 0 0.35934941027709089 0.17733869545276579 0 0.37352669419026591 0.16200051689248421 0 0.375411416336276 0.1813289601337586 0 0.36624934414648491 0.1959459857456011 0 0.35934941027709089 0.17733869545276579 0 0.375411416336276 0.1813289601337586 0 0.35301804184324298 0.1651287026734814 0 0.35934941027709089 0.17733869545276579 0 0.37352669419026591 0.16200051689248421 0 0.35301804184324298 0.1651287026734814 0 0.37352669419026591 0.16200051689248421 0 0.35509680342326277 0.14839768441347759 0 0.37352669419026591 0.16200051689248421 0 0.36952335341905529 0.14732303648384371 0 0.3813503952443455 0.14408001583219299 0 0.37352669419026591 0.16200051689248421 0 0.35509680342326277 0.14839768441347759 0 0.37352669419026591 0.16200051689248421 0 0.36952335341905529 0.14732303648384371 0 0.35509680342326277 0.14839768441347759 0 0.36952335341905529 0.14732303648384371 0 0.36248888367232091 0.1407426348705498 0 0.3730615757608749 0.13595756863841099 0 0.36952335341905529 0.14732303648384371 0 0.3730615757608749 0.13595756863841099 0 0.3813503952443455 0.14408001583219299 0 0.36952335341905529 0.14732303648384371 0 0.36248888367232091 0.1407426348705498 0 0.35509680342326277 0.14839768441347759 0 0.33829772926440349 0.13599853379048621 0 0.35509680342326277 0.14839768441347759 0 0.34079879498022531 0.1536476146690243 0 0.33829772926440349 0.13599853379048621 0 0.35509680342326277 0.14839768441347759 0 0.36248888367232091 0.1407426348705498 0 0.35509680342326277 0.14839768441347759 0 0.36248888367232091 0.1407426348705498 0 0.35509680342326277 0.14839768441347759 0 0.35389759315149849 0.13252358630393371 0 0.35598985726388938 0.11662507236169441 0 0.35389759315149849 0.13252358630393371 0 0.3663409831071901 0.12783738971558081 0 0.33829772926440349 0.13599853379048621 0 0.35509680342326277 0.14839768441347759 0 0.35389759315149849 0.13252358630393371 0 0.33829772926440349 0.13599853379048621 0 0.34540832492806373 0.12543380115928771 0 0.35389759315149849 0.13252358630393371 0 0.36248888367232091 0.1407426348705498 0 0.35389759315149849 0.13252358630393371 0 0.3663409831071901 0.12783738971558081 0 0.36248888367232091 0.1407426348705498 0 0.3663409831071901 0.12783738971558081 0 0.3730615757608749 0.13595756863841099 0 0.3663409831071901 0.12783738971558081 0 0.3730615757608749 0.13595756863841099 0 0.38124671616229938 0.12624965003147609 0 0.3730615757608749 0.13595756863841099 0 0.38124671616229938 0.12624965003147609 0 0.3813503952443455 0.14408001583219299 0 0.38124671616229938 0.12624965003147609 0 0.39267454100693888 0.13244775158909911 0 0.3813503952443455 0.14408001583219299 0 0.39267454100693888 0.13244775158909911 0 0.39946647733362012 0.15030113311122059 0 0.40697636970997242 0.1249989168509496 0 0.39946647733362012 0.15030113311122059 0 0.40697636970997242 0.1249989168509496 0 0.39267454100693888 0.13244775158909911 0 0.39946647733362012 0.15030113311122059 0 0.3813503952443455 0.14408001583219299 0 0.37352669419026591 0.16200051689248421 0 0.39946647733362012 0.15030113311122059 0 0.3813503952443455 0.14408001583219299 0 0.37352669419026591 0.16200051689248421 0 0.39946647733362012 0.15030113311122059 0 0.39195658495726832 0.17560334937149169 0 0.37352669419026591 0.16200051689248421 0 0.39195658495726832 0.17560334937149169 0 0.375411416336276 0.1813289601337586 0 0.39195658495726832 0.17560334937149169 0 0.38597504811027 0.1957562532064501 0 0.39195658495726832 0.17560334937149169 0 0.38597504811027 0.1957562532064501 0 0.37352669419026591 0.16200051689248421 0 0.375411416336276 0.1813289601337586 0 0.39195658495726832 0.17560334937149169 0 0.39195658495726832 0.17560334937149169 0 0.40984033867946518 0.17014434011273499 0 0.4078753797576784 0.18735277869124159 0 0.39195658495726832 0.17560334937149169 0 0.4078753797576784 0.18735277869124159 0 0.39195658495726832 0.17560334937149169 0 0.4078753797576784 0.18735277869124159 0 0.38597504811027 0.1957562532064501 0 0.39946647733362012 0.15030113311122059 0 0.39195658495726832 0.17560334937149169 0 0.39946647733362012 0.15030113311122059 0 0.39195658495726832 0.17560334937149169 0 0.40984033867946518 0.17014434011273499 0 0.39946647733362012 0.15030113311122059 0 0.40984033867946518 0.17014434011273499 0 0.42248242933804159 0.15221606258161949 0 0.40984033867946518 0.17014434011273499 0 0.4268859308497307 0.1674807180864509 0 0.42248242933804159 0.15221606258161949 0 0.40984033867946518 0.17014434011273499 0 0.41892375434312928 0.1795399111175513 0 0.4078753797576784 0.18735277869124159 0 0.40984033867946518 0.17014434011273499 0 0.41892375434312928 0.1795399111175513 0 0.4268859308497307 0.1674807180864509 0 0.41892375434312928 0.1795399111175513 0 0.4427939300438658 0.1959076000481674 0 0.43924595991125781 0.17549221975673479 0 0.41892375434312928 0.1795399111175513 0 0.4268859308497307 0.1674807180864509 0 0.43924595991125781 0.17549221975673479 0 0.4268859308497307 0.1674807180864509 0 0.44393717197675941 0.16001105686361411 0 0.43924595991125781 0.17549221975673479 0 0.4268859308497307 0.1674807180864509 0 0.42248242933804159 0.15221606258161949 0 0.44393717197675941 0.16001105686361411 0 0.42248242933804159 0.15221606258161949 0 0.44004156259024718 0.14157930092553619 0 0.44393717197675941 0.16001105686361411 0 0.42248242933804159 0.15221606258161949 0 0.42664456642219822 0.1317690796773604 0 0.44004156259024718 0.14157930092553619 0 0.42664456642219822 0.1317690796773604 0 0.43939413056534149 0.13032780337820371 0 0.44004156259024718 0.14157930092553619 0 0.42664456642219822 0.1317690796773604 0 0.43939413056534149 0.13032780337820371 0 0.43930699350331492 0.1182334269446985 0 0.42664456642219822 0.1317690796773604 0 0.41389246070095798 0.13982129805528751 0 0.40697636970997242 0.1249989168509496 0 0.39946647733362012 0.15030113311122059 0 0.41389246070095798 0.13982129805528751 0 0.40697636970997242 0.1249989168509496 0 0.39946647733362012 0.15030113311122059 0 0.42248242933804159 0.15221606258161949 0 0.41389246070095798 0.13982129805528751 0 0.42248242933804159 0.15221606258161949 0 0.42664456642219822 0.1317690796773604 0 0.41389246070095798 0.13982129805528751 0 0.38357579391866758 0.24914938256085259 0 0.40831605524901099 0.24299439412865581 0 0.38357579391866758 0.24914938256085259 0 0.38947384889664932 0.22719295368089709 0 0.40831605524901099 0.24299439412865581 0 0.3720469909492643 0.23197617211791671 0 0.38357579391866758 0.24914938256085259 0 0.38947384889664932 0.22719295368089709 0 0.3720469909492643 0.23197617211791671 0 0.38947384889664932 0.22719295368089709 0 0.38055221620739688 0.21142998427081949 0 0.38947384889664932 0.22719295368089709 0 0.40536332036097938 0.22476446251095941 0 0.40831605524901099 0.24299439412865581 0 0.38947384889664932 0.22719295368089709 0 0.40536332036097938 0.22476446251095941 0 0.40188865856894768 0.20926740342776751 0 0.38947384889664932 0.22719295368089709 0 0.40188865856894768 0.20926740342776751 0 0.38055221620739688 0.21142998427081949 0 0.40188865856894768 0.20926740342776751 0 0.38055221620739688 0.21142998427081949 0 0.38597504811027 0.1957562532064501 0 0.36624934414648491 0.1959459857456011 0 0.375411416336276 0.1813289601337586 0 0.38597504811027 0.1957562532064501 0 0.36624934414648491 0.1959459857456011 0 0.38055221620739688 0.21142998427081949 0 0.38597504811027 0.1957562532064501 0 0.4078753797576784 0.18735277869124159 0 0.40188865856894768 0.20926740342776751 0 0.38597504811027 0.1957562532064501 0 0.4078753797576784 0.18735277869124159 0 0.4237941745580876 0.19910220801099279 0 0.4078753797576784 0.18735277869124159 0 0.40188865856894768 0.20926740342776751 0 0.4237941745580876 0.19910220801099279 0 0.41892375434312928 0.1795399111175513 0 0.4078753797576784 0.18735277869124159 0 0.4237941745580876 0.19910220801099279 0 0.41892375434312928 0.1795399111175513 0 0.4427939300438658 0.1959076000481674 0 0.4237941745580876 0.19910220801099279 0 0.43752441105778478 0.21240359465618189 0 0.4427939300438658 0.1959076000481674 0 0.41892375434312928 0.1795399111175513 0 0.4237941745580876 0.19910220801099279 0 0.4427939300438658 0.1959076000481674 0 0.4237941745580876 0.19910220801099279 0 0.42177471872930983 0.21960309880651699 0 0.43752441105778478 0.21240359465618189 0 0.40536332036097938 0.22476446251095941 0 0.40188865856894768 0.20926740342776751 0 0.42177471872930983 0.21960309880651699 0 0.40188865856894768 0.20926740342776751 0 0.4237941745580876 0.19910220801099279 0 0.42177471872930983 0.21960309880651699 0 0.42177471872930983 0.21960309880651699 0 0.43305631657935523 0.23683940569646231 0 0.40831605524901099 0.24299439412865581 0 0.40536332036097938 0.22476446251095941 0 0.42177471872930983 0.21960309880651699 0 0.40831605524901099 0.24299439412865581 0 0.42177471872930983 0.21960309880651699 0 0.43305631657935523 0.23683940569646231 0 0.43752441105778478 0.21240359465618189 0 0.43461842790373312 0.2550731983522761 0 0.43305631657935523 0.23683940569646231 0 0.41548520763906499 0.24968222522101899 0 0.43305631657935523 0.23683940569646231 0 0.41548520763906499 0.24968222522101899 0 0.43305631657935523 0.23683940569646231 0 0.40831605524901099 0.24299439412865581 0 0.43305631657935523 0.23683940569646231 0 0.40831605524901099 0.24299439412865581 0 0.41548520763906499 0.24968222522101899 0 0.4532680668000636 0.25130587834546619 0 0.45852974821443659 0.2305020160080973 0 0.47413614616963751 0.24585775703299331 0 0.4532680668000636 0.25130587834546619 0 0.43305631657935523 0.23683940569646231 0 0.45852974821443659 0.2305020160080973 0 0.43461842790373312 0.2550731983522761 0 0.4532680668000636 0.25130587834546619 0 0.43305631657935523 0.23683940569646231 0 0.43305631657935523 0.23683940569646231 0 0.44986021116197961 0.22455734733762359 0 0.43752441105778478 0.21240359465618189 0 0.43305631657935523 0.23683940569646231 0 0.45852974821443659 0.2305020160080973 0 0.43305631657935523 0.23683940569646231 0 0.44986021116197961 0.22455734733762359 0 0.45852974821443659 0.2305020160080973 0 0.43305631657935523 0.23683940569646231 0 0.44986021116197961 0.22455734733762359 0 0.44986021116197961 0.22455734733762359 0 0.45852974821443659 0.2305020160080973 0 0.46666410574460271 0.21227528897878309 0 0.44986021116197961 0.22455734733762359 0 0.46666410574460271 0.21227528897878309 0 0.44921066450205821 0.2112859577551891 0 0.46666410574460271 0.21227528897878309 0 0.4427939300438658 0.1959076000481674 0 0.44986021116197961 0.22455734733762359 0 0.46666410574460271 0.21227528897878309 0 0.46666410574460271 0.21227528897878309 0 0.46327859090961981 0.20044008925593609 0 0.47539506452219132 0.20589378350647919 0 0.44921066450205821 0.2112859577551891 0 0.43752441105778478 0.21240359465618189 0 0.4427939300438658 0.1959076000481674 0 0.44986021116197961 0.22455734733762359 0 0.44921066450205821 0.2112859577551891 0 0.43752441105778478 0.21240359465618189 0 0.46666410574460271 0.21227528897878309 0 0.44921066450205821 0.2112859577551891 0 0.4427939300438658 0.1959076000481674 0 0.4427939300438658 0.1959076000481674 0 0.46068478939429469 0.19271805312934101 0 0.45139887501341369 0.1852700015165373 0 0.4427939300438658 0.1959076000481674 0 0.46068478939429469 0.19271805312934101 0 0.46327859090961981 0.20044008925593609 0 0.46666410574460271 0.21227528897878309 0 0.4427939300438658 0.1959076000481674 0 0.46327859090961981 0.20044008925593609 0 0.46068478939429469 0.19271805312934101 0 0.46327859090961981 0.20044008925593609 0 0.47085506484314471 0.19540572061690961 0 0.46068478939429469 0.19271805312934101 0 0.47085506484314471 0.19540572061690961 0 0.4689107899525774 0.1841654149262113 0 0.47085506484314471 0.19540572061690961 0 0.48284334596490758 0.19144430393012721 0 0.4689107899525774 0.1841654149262113 0 0.46327859090961981 0.20044008925593609 0 0.47085506484314471 0.19540572061690961 0 0.47539506452219132 0.20589378350647919 0 0.47085506484314471 0.19540572061690961 0 0.48284334596490758 0.19144430393012721 0 0.47539506452219132 0.20589378350647919 0 0.48284334596490758 0.19144430393012721 0 0.48996529728875632 0.2053843220840898 0 0.47539506452219132 0.20589378350647919 0 0.48284334596490758 0.19144430393012721 0 0.5 0.19220979851552539 0 0.48996529728875632 0.2053843220840898 0 0.48996529728875632 0.2053843220840898 0 0.48339824871045378 0.21328640037696309 0 0.50000000000000422 0.22018486872285711 0 0.5 0.19220979851552539 0 0.48996529728875632 0.2053843220840898 0 0.50000000000000422 0.22018486872285711 0 0.46666410574460271 0.21227528897878309 0 0.48339824871045378 0.21328640037696309 0 0.48400317984952013 0.22416462631974071 0 0.46666410574460271 0.21227528897878309 0 0.48400317984952013 0.22416462631974071 0 0.46666410574460271 0.21227528897878309 0 0.48339824871045378 0.21328640037696309 0 0.47539506452219132 0.20589378350647919 0 0.48996529728875632 0.2053843220840898 0 0.48339824871045378 0.21328640037696309 0 0.47539506452219132 0.20589378350647919 0 0.46666410574460271 0.21227528897878309 0 0.47539506452219132 0.20589378350647919 0 0.45852974821443659 0.2305020160080973 0 0.46666410574460271 0.21227528897878309 0 0.48400317984952013 0.22416462631974071 0 0.45852974821443659 0.2305020160080973 0 0.48400317984952013 0.22416462631974071 0 0.47413614616963751 0.24585775703299331 0 0.45852974821443659 0.2305020160080973 0 0.48400317984952013 0.22416462631974071 0 0.50000000000000422 0.22018486872285711 0 0.49050990306233888 0.2286262617446517 0 0.5 0.24894327741369221 0 0.48400317984952013 0.22416462631974071 0 0.50000000000000422 0.22018486872285711 0 0.49050990306233888 0.2286262617446517 0 0.48339824871045378 0.21328640037696309 0 0.48400317984952013 0.22416462631974071 0 0.50000000000000422 0.22018486872285711 0 0.48400317984952013 0.22416462631974071 0 0.50000000000000422 0.22018486872285711 0 0.48400317984952013 0.22416462631974071 0 0.49050990306233888 0.2286262617446517 0 0.48701558702121578 0.24114337289418619 0 0.48400317984952013 0.22416462631974071 0 0.49050990306233888 0.2286262617446517 0 0.49050990306233888 0.2286262617446517 0 0.48701558702121578 0.24114337289418619 0 0.5 0.24894327741369221 0 0.48642870602458388 0.25812494195985819 0 0.48701558702121578 0.24114337289418619 0 0.5 0.24894327741369221 0 0.48642870602458388 0.25812494195985819 0 0.48701558702121578 0.24114337289418619 0 0.47413614616963751 0.24585775703299331 0 0.48400317984952013 0.22416462631974071 0 0.48701558702121578 0.24114337289418619 0 0.47413614616963751 0.24585775703299331 0 0.45648485895605129 0.14617877719217401 0 0.44393717197675941 0.16001105686361411 0 0.46013163380042138 0.16054395912160219 0 0.45648485895605129 0.14617877719217401 0 0.46799711302762431 0.15147253317404041 0 0.46013163380042138 0.16054395912160219 0 0.45648485895605129 0.14617877719217401 0 0.46799711302762431 0.15147253317404041 0 0.46500427452686821 0.14290647662979189 0 0.45648485895605129 0.14617877719217401 0 0.46500427452686821 0.14290647662979189 0 0.4624112440355671 0.13622590904287271 0 0.46799711302762431 0.15147253317404041 0 0.46500427452686821 0.14290647662979189 0 0.47312388208822997 0.13774868711008051 0 0.46500427452686821 0.14290647662979189 0 0.4624112440355671 0.13622590904287271 0 0.47312388208822997 0.13774868711008051 0 0.45648485895605129 0.14617877719217401 0 0.4624112440355671 0.13622590904287271 0 0.45158339974560557 0.12972940596521981 0 0.4624112440355671 0.13622590904287271 0 0.46248927714403781 0.12588578796016811 0 0.47312388208822997 0.13774868711008051 0 0.4624112440355671 0.13622590904287271 0 0.46248927714403781 0.12588578796016811 0 0.45158339974560557 0.12972940596521981 0 0.45648485895605129 0.14617877719217401 0 0.45158339974560557 0.12972940596521981 0 0.44004156259024718 0.14157930092553619 0 0.45158339974560557 0.12972940596521981 0 0.43939413056534149 0.13032780337820371 0 0.43930699350331492 0.1182334269446985 0 0.45158339974560557 0.12972940596521981 0 0.43939413056534149 0.13032780337820371 0 0.44004156259024718 0.14157930092553619 0 0.45648485895605129 0.14617877719217401 0 0.44004156259024718 0.14157930092553619 0 0.44393717197675941 0.16001105686361411 0 0.44393717197675941 0.16001105686361411 0 0.43924595991125781 0.17549221975673479 0 0.45987668950416238 0.17453080965171219 0 0.43924595991125781 0.17549221975673479 0 0.45139887501341369 0.1852700015165373 0 0.45987668950416238 0.17453080965171219 0 0.4427939300438658 0.1959076000481674 0 0.43924595991125781 0.17549221975673479 0 0.45139887501341369 0.1852700015165373 0 0.45139887501341369 0.1852700015165373 0 0.45987668950416238 0.17453080965171219 0 0.4689107899525774 0.1841654149262113 0 0.46068478939429469 0.19271805312934101 0 0.45139887501341369 0.1852700015165373 0 0.4689107899525774 0.1841654149262113 0 0.46799711302762431 0.15147253317404041 0 0.46013163380042138 0.16054395912160219 0 0.47798361402656869 0.16459649552010391 0 0.44393717197675941 0.16001105686361411 0 0.45987668950416238 0.17453080965171219 0 0.46013163380042138 0.16054395912160219 0 0.45987668950416238 0.17453080965171219 0 0.46013163380042138 0.16054395912160219 0 0.47798361402656869 0.16459649552010391 0 0.45987668950416238 0.17453080965171219 0 0.47798361402656869 0.16459649552010391 0 0.4689107899525774 0.1841654149262113 0 0.48284334596490758 0.19144430393012721 0 0.47798361402656869 0.16459649552010391 0 0.48284334596490758 0.19144430393012721 0 0.47798361402656869 0.16459649552010391 0 0.4689107899525774 0.1841654149262113 0 0.48284334596490758 0.19144430393012721 0 0.47798361402656869 0.16459649552010391 0 0.49072729731521741 0.1781501692380224 0 0.48284334596490758 0.19144430393012721 0 0.5 0.19220979851552539 0 0.49072729731521741 0.1781501692380224 0 0.5 0.19220979851552539 0 0.49072729731521741 0.1781501692380224 0 0.5 0.16423472830819369 0 0.47798361402656869 0.16459649552010391 0 0.5 0.16423472830819369 0 0.48988320574038102 0.1500012820488322 0 0.47798361402656869 0.16459649552010391 0 0.49072729731521741 0.1781501692380224 0 0.5 0.16423472830819369 0 0.5 0.16423472830819369 0 0.48988320574038102 0.1500012820488322 0 0.5 0.13625965810086199 0 0.48988320574038102 0.1500012820488322 0 0.48826774692419422 0.1392430609652342 0 0.5 0.13625965810086199 0 0.48988320574038102 0.1500012820488322 0 0.48140417567912169 0.14588662131052521 0 0.48826774692419422 0.1392430609652342 0 0.46799711302762431 0.15147253317404041 0 0.47798361402656869 0.16459649552010391 0 0.47312388208822997 0.13774868711008051 0 0.47798361402656869 0.16459649552010391 0 0.48140417567912169 0.14588662131052521 0 0.47312388208822997 0.13774868711008051 0 0.47798361402656869 0.16459649552010391 0 0.47312388208822997 0.13774868711008051 0 0.47798361402656869 0.16459649552010391 0 0.48988320574038102 0.1500012820488322 0 0.48140417567912169 0.14588662131052521 0 0.48140417567912169 0.14588662131052521 0 0.47776242961623427 0.13784358090837501 0 0.48826774692419422 0.1392430609652342 0 0.47312388208822997 0.13774868711008051 0 0.47776242961623427 0.13784358090837501 0 0.47586276286566243 0.1236110526857163 0 0.48140417567912169 0.14588662131052521 0 0.47312388208822997 0.13774868711008051 0 0.47776242961623427 0.13784358090837501 0 0.47776242961623427 0.13784358090837501 0 0.48972777754221108 0.12600174863094021 0 0.48826774692419422 0.1392430609652342 0 0.48972777754221108 0.12600174863094021 0 0.48826774692419422 0.1392430609652342 0 0.5 0.13625965810086199 0 0.48972777754221108 0.12600174863094021 0 0.5 0.13625965810086199 0 0.5 0.1082845878935302 0 0.48972777754221108 0.12600174863094021 0 0.48517495307748959 0.10934053643187221 0 0.5 0.1082845878935302 0 0.48517495307748959 0.10934053643187221 0 0.49258747653874502 0.080837491955369434 0 0.48517495307748959 0.10934053643187221 0 0.49258747653874502 0.080837491955369434 0 0.48130266346342943 0.092244524736520672 0 0.48517495307748959 0.10934053643187221 0 0.5 0.1082845878935302 0 0.49258747653874502 0.080837491955369434 0 0.48517495307748959 0.10934053643187221 0 0.47503113850968331 0.098244079545148702 0 0.48130266346342943 0.092244524736520672 0 0.48517495307748959 0.10934053643187221 0 0.47503113850968331 0.098244079545148702 0 0.4682641501498912 0.1109008787000572 0 0.47503113850968331 0.098244079545148702 0 0.46340441821155243 0.084053070290033935 0 0.4682641501498912 0.1109008787000572 0 0.47776242961623427 0.13784358090837501 0 0.48972777754221108 0.12600174863094021 0 0.48517495307748959 0.10934053643187221 0 0.47776242961623427 0.13784358090837501 0 0.48517495307748959 0.10934053643187221 0 0.47776242961623427 0.13784358090837501 0 0.48517495307748959 0.10934053643187221 0 0.47586276286566243 0.1236110526857163 0 0.48517495307748959 0.10934053643187221 0 0.47586276286566243 0.1236110526857163 0 0.4682641501498912 0.1109008787000572 0 0.47312388208822997 0.13774868711008051 0 0.4682641501498912 0.1109008787000572 0 0.47312388208822997 0.13774868711008051 0 0.47586276286566243 0.1236110526857163 0 0.4682641501498912 0.1109008787000572 0 0.49258747653874502 0.080837491955369434 0 0.50000000000000022 0.05233444747886673 0 0.48864012918045391 0.064595566306645397 0 0.49258747653874502 0.080837491955369434 0 0.48379873222452718 0.073392743074653516 0 0.5 0.080309517686198539 0 0.49258747653874502 0.080837491955369434 0 0.50000000000000022 0.05233444747886673 0 0.48864012918045391 0.064595566306645397 0 0.49258747653874502 0.080837491955369434 0 0.50000000000000022 0.05233444747886673 0 0.5 0.1082845878935302 0 0.5 0.080309517686198539 0 0.49258747653874502 0.080837491955369434 0 0.49258747653874502 0.080837491955369434 0 0.48130266346342943 0.092244524736520672 0 0.48193033623233378 0.081345126926367667 0 0.49258747653874502 0.080837491955369434 0 0.48193033623233378 0.081345126926367667 0 0.48379873222452718 0.073392743074653516 0 0.47503113850968331 0.098244079545148702 0 0.48130266346342943 0.092244524736520672 0 0.47492169950435609 0.084898355196463729 0 0.48130266346342943 0.092244524736520672 0 0.47492169950435609 0.084898355196463729 0 0.48193033623233378 0.081345126926367667 0 0.47503113850968331 0.098244079545148702 0 0.47492169950435609 0.084898355196463729 0 0.46340441821155243 0.084053070290033935 0 0.47492169950435609 0.084898355196463729 0 0.48193033623233378 0.081345126926367667 0 0.47704110943061129 0.075352519668830997 0 0.48379873222452718 0.073392743074653516 0 0.47704110943061129 0.075352519668830997 0 0.47651574118140999 0.064223245090362271 0 0.48193033623233378 0.081345126926367667 0 0.48379873222452718 0.073392743074653516 0 0.47704110943061129 0.075352519668830997 0 0.47492169950435609 0.084898355196463729 0 0.47704110943061129 0.075352519668830997 0 0.46749775854859632 0.072649528400790767 0 0.47704110943061129 0.075352519668830997 0 0.47651574118140999 0.064223245090362271 0 0.46749775854859632 0.072649528400790767 0 0.48864012918045391 0.064595566306645397 0 0.48379873222452718 0.073392743074653516 0 0.47651574118140999 0.064223245090362271 0 0.46749775854859632 0.072649528400790767 0 0.45378479146642842 0.076780376704283268 0 0.46169116168851959 0.049777341823885712 0 0.45378479146642842 0.076780376704283268 0 0.46169116168851959 0.049777341823885712 0 0.46749775854859632 0.072649528400790767 0 0.45378479146642842 0.076780376704283268 0 0.46340441821155243 0.084053070290033935 0 0.45378479146642842 0.076780376704283268 0 0.46340441821155243 0.084053070290033935 0 0.45815989746446217 0.098357138690737644 0 0.47492169950435609 0.084898355196463729 0 0.46749775854859632 0.072649528400790767 0 0.46340441821155243 0.084053070290033935 0 0.45378479146642842 0.076780376704283268 0 0.44587842124433708 0.1037834115846808 0 0.45378479146642842 0.076780376704283268 0 0.44141069311871672 0.084975689773606089 0 0.44587842124433708 0.1037834115846808 0 0.45378479146642842 0.076780376704283268 0 0.45815989746446217 0.098357138690737644 0 0.44587842124433708 0.1037834115846808 0 0.45378479146642842 0.076780376704283268 0 0.44141069311871672 0.084975689773606089 0 0.44071838148424269 0.067241007272432859 0 0.45378479146642842 0.076780376704283268 0 0.44071838148424269 0.067241007272432859 0 0.46169116168851959 0.049777341823885712 0 0.46248927714403781 0.12588578796016811 0 0.47312388208822997 0.13774868711008051 0 0.4682641501498912 0.1109008787000572 0 0.46248927714403781 0.12588578796016811 0 0.45158339974560557 0.12972940596521981 0 0.4551514793018373 0.115160214647447 0 0.46248927714403781 0.12588578796016811 0 0.4551514793018373 0.115160214647447 0 0.4682641501498912 0.1109008787000572 0 0.46340441821155243 0.084053070290033935 0 0.4682641501498912 0.1109008787000572 0 0.45815989746446217 0.098357138690737644 0 0.46340441821155243 0.084053070290033935 0 0.4682641501498912 0.1109008787000572 0 0.4551514793018373 0.115160214647447 0 0.4682641501498912 0.1109008787000572 0 0.45815989746446217 0.098357138690737644 0 0.44587842124433708 0.1037834115846808 0 0.43930699350331492 0.1182334269446985 0 0.42846998474777842 0.1056915643070388 0 0.44141069311871672 0.084975689773606089 0 0.44587842124433708 0.1037834115846808 0 0.43651362554604772 0.093516178650510692 0 0.4551514793018373 0.115160214647447 0 0.45815989746446217 0.098357138690737644 0 0.44587842124433708 0.1037834115846808 0 0.4551514793018373 0.115160214647447 0 0.44587842124433708 0.1037834115846808 0 0.43930699350331492 0.1182334269446985 0 0.45158339974560557 0.12972940596521981 0 0.4551514793018373 0.115160214647447 0 0.43930699350331492 0.1182334269446985 0 0.42664456642219822 0.1317690796773604 0 0.42030811487828162 0.1182228828972096 0 0.42846998474777842 0.1056915643070388 0 0.42664456642219822 0.1317690796773604 0 0.43930699350331492 0.1182334269446985 0 0.42846998474777842 0.1056915643070388 0 0.42664456642219822 0.1317690796773604 0 0.42846998474777842 0.1056915643070388 0 0.40697636970997242 0.1249989168509496 0 0.41448626208632472 0.099696700590678561 0 0.42664456642219822 0.1317690796773604 0 0.40697636970997242 0.1249989168509496 0 0.42030811487828162 0.1182228828972096 0 0.40697636970997242 0.1249989168509496 0 0.42030811487828162 0.1182228828972096 0 0.41448626208632472 0.099696700590678561 0 0.40697636970997242 0.1249989168509496 0 0.41448626208632472 0.099696700590678561 0 0.40236748453464249 0.1000973360805489 0 0.42030811487828162 0.1182228828972096 0 0.41448626208632472 0.099696700590678561 0 0.42846998474777842 0.1056915643070388 0 0.41448626208632472 0.099696700590678561 0 0.40860401152396347 0.091015031511228209 0 0.40236748453464249 0.1000973360805489 0 0.41448626208632472 0.099696700590678561 0 0.42846998474777842 0.1056915643070388 0 0.41876457617188267 0.090260145980200254 0 0.44587842124433708 0.1037834115846808 0 0.42846998474777842 0.1056915643070388 0 0.43651362554604772 0.093516178650510692 0 0.42846998474777842 0.1056915643070388 0 0.43029540307335862 0.079614048936717127 0 0.44141069311871672 0.084975689773606089 0 0.43651362554604772 0.093516178650510692 0 0.43029540307335862 0.079614048936717127 0 0.42846998474777842 0.1056915643070388 0 0.43029540307335862 0.079614048936717127 0 0.41876457617188267 0.090260145980200254 0 0.42846998474777842 0.1056915643070388 0 0.43651362554604772 0.093516178650510692 0 0.43029540307335862 0.079614048936717127 0 0.43029540307335862 0.079614048936717127 0 0.4147740836671126 0.05884622844303887 0 0.43212082139893893 0.053536533566395469 0 0.44071838148424269 0.067241007272432859 0 0.43029540307335862 0.079614048936717127 0 0.43212082139893893 0.053536533566395469 0 0.44141069311871672 0.084975689773606089 0 0.44071838148424269 0.067241007272432859 0 0.43029540307335862 0.079614048936717127 0 0.43029540307335862 0.079614048936717127 0 0.43212082139893893 0.053536533566395469 0 0.41371868069208168 0.077466490035513771 0 0.3924415398857346 0.059957691461741583 0 0.4147740836671126 0.05884622844303887 0 0.43029540307335862 0.079614048936717127 0 0.41371868069208168 0.077466490035513771 0 0.4147740836671126 0.05884622844303887 0 0.43029540307335862 0.079614048936717127 0 0.41371868069208168 0.077466490035513771 0 0.41876457617188267 0.090260145980200254 0 0.41448626208632472 0.099696700590678561 0 0.41876457617188267 0.090260145980200254 0 0.40860401152396347 0.091015031511228209 0 0.41371868069208168 0.077466490035513771 0 0.41876457617188267 0.090260145980200254 0 0.40860401152396347 0.091015031511228209 0 0.41371868069208168 0.077466490035513771 0 0.40860401152396347 0.091015031511228209 0 0.39368305413488602 0.087554484869199506 0 0.40860401152396347 0.091015031511228209 0 0.39368305413488602 0.087554484869199506 0 0.40236748453464249 0.1000973360805489 0 0.41371868069208168 0.077466490035513771 0 0.39368305413488602 0.087554484869199506 0 0.3924415398857346 0.059957691461741583 0 0.41371868069208168 0.077466490035513771 0 0.3924415398857346 0.059957691461741583 0 0.37091875237235461 0.079196861659008161 0 0.36605404924323431 0.060511854176309429 0 0.3924415398857346 0.059957691461741583 0 0.37091875237235461 0.079196861659008161 0 0.39368305413488602 0.087554484869199506 0 0.3924415398857346 0.059957691461741583 0 0.37343516198329108 0.10038013847368869 0 0.37091875237235461 0.079196861659008161 0 0.39368305413488602 0.087554484869199506 0 0.37353660597855232 0.1160148090550365 0 0.37343516198329108 0.10038013847368869 0 0.39083289088693279 0.1117243330001142 0 0.37343516198329108 0.10038013847368869 0 0.39368305413488602 0.087554484869199506 0 0.39083289088693279 0.1117243330001142 0 0.38124671616229938 0.12624965003147609 0 0.39267454100693888 0.13244775158909911 0 0.39083289088693279 0.1117243330001142 0 0.37353660597855232 0.1160148090550365 0 0.38124671616229938 0.12624965003147609 0 0.39083289088693279 0.1117243330001142 0 0.40697636970997242 0.1249989168509496 0 0.39083289088693279 0.1117243330001142 0 0.40236748453464249 0.1000973360805489 0 0.39267454100693888 0.13244775158909911 0 0.40697636970997242 0.1249989168509496 0 0.39083289088693279 0.1117243330001142 0 0.39368305413488602 0.087554484869199506 0 0.39083289088693279 0.1117243330001142 0 0.40236748453464249 0.1000973360805489 0 0.40471765663356729 0.024654021077205501 0 0.38076104543909939 0.024110528994575501 0 0.39707965799140982 0.041504633934410028 0 0.40471765663356729 0.024654021077205501 0 0.39059509510669838 0.0047885620045181121 0 0.38076104543909939 0.024110528994575501 0 0.40471765663356729 0.024654021077205501 0 0.39059509510669838 0.0047885620045181121 0 0.41071483032473471 0.0099177963608512668 0 0.39059509510669838 0.0047885620045181121 0 0.41071483032473471 0.0099177963608512668 0 0.40638347020182503 -0.0029766101573772659 0 0.36069381017681429 0.0028134832091187712 0 0.39059509510669838 0.0047885620045181121 0 0.38076104543909939 0.024110528994575501 0 0.37116439907938747 0.042448892887969381 0 0.38076104543909939 0.024110528994575501 0 0.39707965799140982 0.041504633934410028 0 0.37116439907938747 0.042448892887969381 0 0.3924415398857346 0.059957691461741583 0 0.37116439907938747 0.042448892887969381 0 0.3924415398857346 0.059957691461741583 0 0.39707965799140982 0.041504633934410028 0 0.36605404924323431 0.060511854176309429 0 0.37116439907938747 0.042448892887969381 0 0.3924415398857346 0.059957691461741583 0 0.3924415398857346 0.059957691461741583 0 0.39707965799140982 0.041504633934410028 0 0.4147740836671126 0.05884622844303887 0 0.39707965799140982 0.041504633934410028 0 0.41861922324355721 0.039010440741929359 0 0.4147740836671126 0.05884622844303887 0 0.40471765663356729 0.024654021077205501 0 0.39707965799140982 0.041504633934410028 0 0.41861922324355721 0.039010440741929359 0 0.41861922324355721 0.039010440741929359 0 0.4147740836671126 0.05884622844303887 0 0.43212082139893893 0.053536533566395469 0 0.43212082139893893 0.053536533566395469 0 0.43394623972451912 0.027459018196073801 0 0.41861922324355721 0.039010440741929359 0 0.43212082139893893 0.053536533566395469 0 0.43394623972451912 0.027459018196073801 0 0.43394623972451912 0.027459018196073801 0 0.41982892928019938 0.020221413842502551 0 0.42660384819589697 0.0058763155630957228 0 0.41861922324355721 0.039010440741929359 0 0.43394623972451912 0.027459018196073801 0 0.41982892928019938 0.020221413842502551 0 0.40471765663356729 0.024654021077205501 0 0.41861922324355721 0.039010440741929359 0 0.41982892928019938 0.020221413842502551 0 0.40471765663356729 0.024654021077205501 0 0.41982892928019938 0.020221413842502551 0 0.41071483032473471 0.0099177963608512668 0 0.41071483032473471 0.0099177963608512668 0 0.42660384819589697 0.0058763155630957228 0 0.40638347020182503 -0.0029766101573772659 0 0.41982892928019938 0.020221413842502551 0 0.41071483032473471 0.0099177963608512668 0 0.42660384819589697 0.0058763155630957228 0 0.43394623972451912 0.027459018196073801 0 0.43577165805009932 0.00138150282575214 0 0.43394623972451912 0.027459018196073801 0 0.42660384819589697 0.0058763155630957228 0 0.43577165805009932 0.00138150282575214 0 0.43577165805009932 0.00138150282575214 0 0.44667050306546557 0.00369684813794964 0 0.44568855392129531 0.01497503253580768 0 0.43394623972451912 0.027459018196073801 0 0.43577165805009932 0.00138150282575214 0 0.44568855392129531 0.01497503253580768 0 0.44667050306546557 0.00369684813794964 0 0.45682881981296369 0.005367386063870782 0 0.44839298047750442 -0.0069365288736320434 0 0.44667050306546557 0.00369684813794964 0 0.44568855392129531 0.01497503253580768 0 0.45682881981296369 0.005367386063870782 0 0.44568855392129531 0.01497503253580768 0 0.45599386301366868 0.018868636605057328 0 0.45682881981296369 0.005367386063870782 0 0.44568855392129531 0.01497503253580768 0 0.45599386301366868 0.018868636605057328 0 0.45186054640980428 0.032357820877062862 0 0.43394623972451912 0.027459018196073801 0 0.44568855392129531 0.01497503253580768 0 0.45186054640980428 0.032357820877062862 0 0.45599386301366868 0.018868636605057328 0 0.45186054640980428 0.032357820877062862 0 0.46959753191061099 0.02277430694348799 0 0.45599386301366868 0.018868636605057328 0 0.45682881981296369 0.005367386063870782 0 0.46959753191061099 0.02277430694348799 0 0.46645232670863779 0.0039549346969276556 0 0.45682881981296369 0.005367386063870782 0 0.46959753191061099 0.02277430694348799 0 0.46645232670863779 0.0039549346969276556 0 0.45682881981296369 0.005367386063870782 0 0.46187905297827148 -0.0080932262827391986 0 0.44071838148424269 0.067241007272432859 0 0.43212082139893893 0.053536533566395469 0 0.46169116168851959 0.049777341823885712 0 0.43212082139893893 0.053536533566395469 0 0.43394623972451912 0.027459018196073801 0 0.45186054640980428 0.032357820877062862 0 0.43212082139893893 0.053536533566395469 0 0.45186054640980428 0.032357820877062862 0 0.46169116168851959 0.049777341823885712 0 0.46169116168851959 0.049777341823885712 0 0.46959753191061099 0.02277430694348799 0 0.45186054640980428 0.032357820877062862 0 0.46169116168851959 0.049777341823885712 0 0.46959753191061099 0.02277430694348799 0 0.47651574118140999 0.064223245090362271 0 0.46749775854859632 0.072649528400790767 0 0.46169116168851959 0.049777341823885712 0 0.48864012918045391 0.064595566306645397 0 0.47651574118140999 0.064223245090362271 0 0.48311539195901948 0.043013934891052721 0 0.47651574118140999 0.064223245090362271 0 0.46169116168851959 0.049777341823885712 0 0.48311539195901948 0.043013934891052721 0 0.46169116168851959 0.049777341823885712 0 0.48311539195901948 0.043013934891052721 0 0.46959753191061099 0.02277430694348799 0 0.48311539195901948 0.043013934891052721 0 0.50000000000000022 0.05233444747886673 0 0.50000000000000189 0.023431089765129198 0 0.48864012918045391 0.064595566306645397 0 0.48311539195901948 0.043013934891052721 0 0.50000000000000022 0.05233444747886673 0 0.46959753191061099 0.02277430694348799 0 0.47750390213270488 -0.004228727936908953 0 0.46645232670863779 0.0039549346969276556 0 0.46959753191061099 0.02277430694348799 0 0.47750390213270488 -0.004228727936908953 0 0.46959753191061099 0.02277430694348799 0 0.48875195106635461 0.0096011809141091815 0 0.47750390213270488 -0.004228727936908953 0 0.48875195106635461 0.0096011809141091815 0 0.47750390213270488 -0.004228727936908953 0 0.48875195106635461 0.0096011809141091815 0 0.48628699522344132 -0.0034382115967222121 0 0.47750390213270488 -0.004228727936908953 0 0.48311539195901948 0.043013934891052721 0 0.46959753191061099 0.02277430694348799 0 0.48536621873399632 0.024705128128444769 0 0.46959753191061099 0.02277430694348799 0 0.48536621873399632 0.024705128128444769 0 0.48875195106635461 0.0096011809141091815 0 0.48311539195901948 0.043013934891052721 0 0.48536621873399632 0.024705128128444769 0 0.50000000000000189 0.023431089765129198 0 0.48536621873399632 0.024705128128444769 0 0.50000000000000189 0.023431089765129198 0 0.48875195106635461 0.0096011809141091815 0 0.50000000000000189 0.023431089765129198 0 0.48875195106635461 0.0096011809141091815 0 0.50000000000000189 0.023431089765129198 0 0.48875195106635461 0.0096011809141091815 0 0.5 -0.0030919079132982201 0 0.48875195106635461 0.0096011809141091815 0 0.5 -0.0030919079132982201 0 0.48628699522344132 -0.0034382115967222121 0 0.5 -0.0030919079132982201 0 0.48675736598110692 -0.010540228080222881 0 0.49019431770235122 -0.018207143836558089 0 0.48675736598110692 -0.010540228080222881 0 0.48266921502165577 -0.01541750950950488 0 0.49019431770235122 -0.018207143836558089 0 0.5 -0.0030919079132982201 0 0.48675736598110692 -0.010540228080222881 0 0.48628699522344132 -0.0034382115967222121 0 0.47750390213270488 -0.004228727936908953 0 0.47874118709685698 -0.0084544912272129097 0 0.45877378395974688 -0.02725812873600672 0 0.48628699522344132 -0.0034382115967222121 0 0.47750390213270488 -0.004228727936908953 0 0.47874118709685698 -0.0084544912272129097 0 0.48675736598110692 -0.010540228080222881 0 0.48628699522344132 -0.0034382115967222121 0 0.47874118709685698 -0.0084544912272129097 0 0.47750390213270488 -0.004228727936908953 0 0.47874118709685698 -0.0084544912272129097 0 0.48675736598110692 -0.010540228080222881 0 0.48266921502165577 -0.01541750950950488 0 0.47874118709685698 -0.0084544912272129097 0 0.47498398930630809 -0.02446817489402562 0 0.49019431770235122 -0.018207143836558089 0 0.48375119273482908 -0.037649644773493071 0 0.48266921502165577 -0.01541750950950488 0 0.47874118709685698 -0.0084544912272129097 0 0.47498398930630809 -0.02446817489402562 0 0.47874118709685698 -0.0084544912272129097 0 0.47498398930630809 -0.02446817489402562 0 0.45877378395974688 -0.02725812873600672 0 0.48266921502165577 -0.01541750950950488 0 0.47498398930630809 -0.02446817489402562 0 0.49019431770235122 -0.018207143836558089 0 0.5 -0.029614905591725641 0 0.49019431770235122 -0.018207143836558089 0 0.48375119273482908 -0.037649644773493071 0 0.5 -0.0030919079132982201 0 0.5 -0.029614905591725641 0 0.49019431770235122 -0.018207143836558089 0 0.5 -0.029614905591725641 0 0.49143472024746598 -0.04663216023974194 0 0.48375119273482908 -0.037649644773493071 0 0.5 -0.029614905591725641 0 0.49143472024746598 -0.04663216023974194 0 0.5 -0.056137903270153111 0 0.49143472024746598 -0.04663216023974194 0 0.47898928842813548 -0.054846640856011833 0 0.48375119273482908 -0.037649644773493071 0 0.49443312007436568 -0.054911706707326063 0 0.5 -0.056137903270153111 0 0.49275710437855808 -0.067992178093386729 0 0.49143472024746598 -0.04663216023974194 0 0.49443312007436568 -0.054911706707326063 0 0.5 -0.056137903270153111 0 0.49143472024746598 -0.04663216023974194 0 0.49443312007436568 -0.054911706707326063 0 0.47898928842813548 -0.054846640856011833 0 0.49443312007436568 -0.054911706707326063 0 0.47898928842813548 -0.054846640856011833 0 0.47785856713072372 -0.075302762976631382 0 0.47898928842813548 -0.054846640856011833 0 0.46736961976049329 -0.045921554747547923 0 0.46150830188317948 -0.066975629220598576 0 0.47498398930630809 -0.02446817489402562 0 0.48375119273482908 -0.037649644773493071 0 0.46736961976049329 -0.045921554747547923 0 0.47898928842813548 -0.054846640856011833 0 0.48375119273482908 -0.037649644773493071 0 0.46736961976049329 -0.045921554747547923 0 0.46736961976049329 -0.045921554747547923 0 0.44004366578678739 -0.050287529535103709 0 0.45877378395974688 -0.02725812873600672 0 0.44004366578678739 -0.050287529535103709 0 0.45877378395974688 -0.02725812873600672 0 0.42530100081137717 -0.037371137339234903 0 0.47498398930630809 -0.02446817489402562 0 0.46736961976049329 -0.045921554747547923 0 0.45877378395974688 -0.02725812873600672 0 0.46736961976049329 -0.045921554747547923 0 0.44004366578678739 -0.050287529535103709 0 0.46150830188317948 -0.066975629220598576 0 0.44004366578678739 -0.050287529535103709 0 0.45877378395974688 -0.02725812873600672 0 0.45877378395974688 -0.02725812873600672 0 0.43380561716519589 -0.01462138003356438 0 0.42530100081137717 -0.037371137339234903 0 0.44839298047750442 -0.0069365288736320434 0 0.45877378395974688 -0.02725812873600672 0 0.43380561716519589 -0.01462138003356438 0 0.43577165805009932 0.00138150282575214 0 0.44839298047750442 -0.0069365288736320434 0 0.43380561716519589 -0.01462138003356438 0 0.43577165805009932 0.00138150282575214 0 0.44667050306546557 0.00369684813794964 0 0.44839298047750442 -0.0069365288736320434 0 0.47750390213270488 -0.004228727936908953 0 0.46187905297827148 -0.0080932262827391986 0 0.45877378395974688 -0.02725812873600672 0 0.44839298047750442 -0.0069365288736320434 0 0.46187905297827148 -0.0080932262827391986 0 0.45877378395974688 -0.02725812873600672 0 0.45682881981296369 0.005367386063870782 0 0.44839298047750442 -0.0069365288736320434 0 0.46187905297827148 -0.0080932262827391986 0 0.46645232670863779 0.0039549346969276556 0 0.47750390213270488 -0.004228727936908953 0 0.46187905297827148 -0.0080932262827391986 0 0.47750390213270488 -0.004228727936908953 0 0.45877378395974688 -0.02725812873600672 0 0.47976870791954329 -0.1154980611269258 0 0.46227781782837368 -0.11994759145566759 0 0.47292984870291688 -0.13762791448635439 0 0.47976870791954329 -0.1154980611269258 0 0.5 -0.10918389862700791 0 0.499999999999999 -0.13570689630543539 0 0.47976870791954329 -0.1154980611269258 0 0.5 -0.10918389862700791 0 0.48357672745215058 -0.09508825213459686 0 0.5 -0.10918389862700791 0 0.48357672745215058 -0.09508825213459686 0 0.5 -0.082660900948580529 0 0.47976870791954329 -0.1154980611269258 0 0.48357672745215058 -0.09508825213459686 0 0.46128401418708193 -0.09569381924593659 0 0.48357672745215058 -0.09508825213459686 0 0.47785856713072372 -0.075302762976631382 0 0.46128401418708193 -0.09569381924593659 0 0.47785856713072372 -0.075302762976631382 0 0.46128401418708193 -0.09569381924593659 0 0.48357672745215058 -0.09508825213459686 0 0.5 -0.082660900948580529 0 0.47785856713072372 -0.075302762976631382 0 0.5 -0.056137903270153111 0 0.5 -0.082660900948580529 0 0.49275710437855808 -0.067992178093386729 0 0.5 -0.082660900948580529 0 0.49275710437855808 -0.067992178093386729 0 0.47785856713072372 -0.075302762976631382 0 0.49443312007436568 -0.054911706707326063 0 0.49275710437855808 -0.067992178093386729 0 0.47785856713072372 -0.075302762976631382 0 0.49443312007436568 -0.054911706707326063 0 0.47785856713072372 -0.075302762976631382 0 0.47898928842813548 -0.054846640856011833 0 0.47785856713072372 -0.075302762976631382 0 0.46150830188317948 -0.066975629220598576 0 0.44004366578678739 -0.050287529535103709 0 0.46150830188317948 -0.066975629220598576 0 0.44350465600585548 -0.07980146796236004 0 0.44350465600585548 -0.07980146796236004 0 0.44553902187110461 -0.099827459047531819 0 0.43117742395958247 -0.092163500118407918 0 0.44350465600585548 -0.07980146796236004 0 0.46128401418708193 -0.09569381924593659 0 0.44553902187110461 -0.099827459047531819 0 0.46150830188317948 -0.066975629220598576 0 0.44350465600585548 -0.07980146796236004 0 0.46128401418708193 -0.09569381924593659 0 0.47785856713072372 -0.075302762976631382 0 0.46150830188317948 -0.066975629220598576 0 0.46128401418708193 -0.09569381924593659 0 0.44553902187110461 -0.099827459047531819 0 0.44470946124343952 -0.11608487551524151 0 0.43117742395958247 -0.092163500118407918 0 0.46128401418708193 -0.09569381924593659 0 0.44470946124343952 -0.11608487551524151 0 0.44470946124343952 -0.11608487551524151 0 0.43117742395958247 -0.092163500118407918 0 0.46128401418708193 -0.09569381924593659 0 0.44553902187110461 -0.099827459047531819 0 0.44470946124343952 -0.11608487551524151 0 0.44470946124343952 -0.11608487551524151 0 0.43157346026458487 -0.13224560914252401 0 0.46128401418708193 -0.09569381924593659 0 0.44470946124343952 -0.11608487551524151 0 0.46227781782837368 -0.11994759145566759 0 0.44470946124343952 -0.11608487551524151 0 0.46227781782837368 -0.11994759145566759 0 0.45560937839541121 -0.13535329789076639 0 0.47976870791954329 -0.1154980611269258 0 0.46128401418708193 -0.09569381924593659 0 0.46227781782837368 -0.11994759145566759 0 0.41307096782756181 -0.1230659312744903 0 0.42583165739966328 -0.1141594101283419 0 0.41061941742159958 -0.10466141735040251 0 0.41307096782756181 -0.1230659312744903 0 0.42583165739966328 -0.1141594101283419 0 0.43157346026458487 -0.13224560914252401 0 0.44470946124343952 -0.11608487551524151 0 0.42583165739966328 -0.1141594101283419 0 0.43157346026458487 -0.13224560914252401 0 0.44470946124343952 -0.11608487551524151 0 0.42583165739966328 -0.1141594101283419 0 0.43117742395958247 -0.092163500118407918 0 0.42583165739966328 -0.1141594101283419 0 0.41061941742159958 -0.10466141735040251 0 0.43117742395958247 -0.092163500118407918 0 0.41061941742159958 -0.10466141735040251 0 0.41517084843699459 -0.085114025901303653 0 0.43117742395958247 -0.092163500118407918 0 0.41061941742159958 -0.10466141735040251 0 0.41517084843699459 -0.085114025901303653 0 0.4027501960860348 -0.09101648916649327 0 0.41517084843699459 -0.085114025901303653 0 0.40387623090690922 -0.074961280041641792 0 0.4027501960860348 -0.09101648916649327 0 0.41517084843699459 -0.085114025901303653 0 0.43117742395958247 -0.092163500118407918 0 0.42070945519539099 -0.073658658223737794 0 0.43117742395958247 -0.092163500118407918 0 0.42070945519539099 -0.073658658223737794 0 0.44350465600585548 -0.07980146796236004 0 0.43117742395958247 -0.092163500118407918 0 0.42070945519539099 -0.073658658223737794 0 0.44004366578678739 -0.050287529535103709 0 0.44350465600585548 -0.07980146796236004 0 0.42070945519539099 -0.073658658223737794 0 0.41517084843699459 -0.085114025901303653 0 0.4176453866757257 -0.068242124721574343 0 0.42070945519539099 -0.073658658223737794 0 0.41517084843699459 -0.085114025901303653 0 0.4176453866757257 -0.068242124721574343 0 0.40387623090690922 -0.074961280041641792 0 0.4176453866757257 -0.068242124721574343 0 0.42070945519539099 -0.073658658223737794 0 0.42473766414046271 -0.054996457974931662 0 0.4176453866757257 -0.068242124721574343 0 0.40387623090690922 -0.074961280041641792 0 0.41145210333657178 -0.048015414840062699 0 0.4176453866757257 -0.068242124721574343 0 0.42070945519539099 -0.073658658223737794 0 0.40387623090690922 -0.074961280041641792 0 0.38291407153140861 -0.071214340421547562 0 0.3882838995285815 -0.050785656159168982 0 0.40387623090690922 -0.074961280041641792 0 0.38291407153140861 -0.071214340421547562 0 0.38965162997681851 -0.088032004917658668 0 0.38965162997681851 -0.088032004917658668 0 0.38024207853380593 -0.1056817583094888 0 0.37100022525951332 -0.082658173099585744 0 0.38291407153140861 -0.071214340421547562 0 0.38965162997681851 -0.088032004917658668 0 0.37100022525951332 -0.082658173099585744 0 0.40387623090690922 -0.074961280041641792 0 0.38965162997681851 -0.088032004917658668 0 0.4027501960860348 -0.09101648916649327 0 0.41061941742159958 -0.10466141735040251 0 0.4027501960860348 -0.09101648916649327 0 0.39443285368785191 -0.1023137176214597 0 0.38965162997681851 -0.088032004917658668 0 0.4027501960860348 -0.09101648916649327 0 0.39443285368785191 -0.1023137176214597 0 0.38965162997681851 -0.088032004917658668 0 0.39443285368785191 -0.1023137176214597 0 0.38024207853380593 -0.1056817583094888 0 0.38024207853380593 -0.1056817583094888 0 0.37100022525951332 -0.082658173099585744 0 0.38024207853380593 -0.1056817583094888 0 0.37099728622496458 -0.12225556663045151 0 0.38948393180809859 -0.12870534351939189 0 0.39443285368785191 -0.1023137176214597 0 0.38024207853380593 -0.1056817583094888 0 0.38948393180809859 -0.12870534351939189 0 0.38024207853380593 -0.1056817583094888 0 0.38948393180809859 -0.12870534351939189 0 0.41307096782756181 -0.1230659312744903 0 0.41061941742159958 -0.10466141735040251 0 0.38948393180809859 -0.12870534351939189 0 0.41061941742159958 -0.10466141735040251 0 0.39443285368785191 -0.1023137176214597 0 0.38948393180809859 -0.12870534351939189 0 0.42660384819589697 0.0058763155630957228 0 0.41902797576623441 -0.02106954963848361 0 0.40638347020182503 -0.0029766101573772659 0 0.41902797576623441 -0.02106954963848361 0 0.40638347020182503 -0.0029766101573772659 0 0.39589230276912107 -0.01585434489548937 0 0.42660384819589697 0.0058763155630957228 0 0.41902797576623441 -0.02106954963848361 0 0.42660384819589697 0.0058763155630957228 0 0.43577165805009932 0.00138150282575214 0 0.43380561716519589 -0.01462138003356438 0 0.42660384819589697 0.0058763155630957228 0 0.41902797576623441 -0.02106954963848361 0 0.43380561716519589 -0.01462138003356438 0 0.41902797576623441 -0.02106954963848361 0 0.43380561716519589 -0.01462138003356438 0 0.42530100081137717 -0.037371137339234903 0 0.44004366578678739 -0.050287529535103709 0 0.42530100081137717 -0.037371137339234903 0 0.42473766414046271 -0.054996457974931662 0 0.44004366578678739 -0.050287529535103709 0 0.42070945519539099 -0.073658658223737794 0 0.42473766414046271 -0.054996457974931662 0 0.44004366578678739 -0.050287529535103709 0 0.42070945519539099 -0.073658658223737794 0 0.40387623090690922 -0.074961280041641792 0 0.41145210333657178 -0.048015414840062699 0 0.4176453866757257 -0.068242124721574343 0 0.42473766414046271 -0.054996457974931662 0 0.41145210333657178 -0.048015414840062699 0 0.42530100081137717 -0.037371137339234903 0 0.42473766414046271 -0.054996457974931662 0 0.41145210333657178 -0.048015414840062699 0 0.41902797576623441 -0.02106954963848361 0 0.42530100081137717 -0.037371137339234903 0 0.41145210333657178 -0.048015414840062699 0 0.41902797576623441 -0.02106954963848361 0 0.41145210333657178 -0.048015414840062699 0 0.40054637836392898 -0.032157653870851968 0 0.41902797576623441 -0.02106954963848361 0 0.41145210333657178 -0.048015414840062699 0 0.40054637836392898 -0.032157653870851968 0 0.3882838995285815 -0.050785656159168982 0 0.38481570219319849 -0.03018928347087018 0 0.41145210333657178 -0.048015414840062699 0 0.40054637836392898 -0.032157653870851968 0 0.3882838995285815 -0.050785656159168982 0 0.40387623090690922 -0.074961280041641792 0 0.41145210333657178 -0.048015414840062699 0 0.3882838995285815 -0.050785656159168982 0 0.38291407153140861 -0.071214340421547562 0 0.3882838995285815 -0.050785656159168982 0 0.36175837198522071 -0.05963458788968265 0 0.3882838995285815 -0.050785656159168982 0 0.38481570219319849 -0.03018928347087018 0 0.36787149427896543 -0.037979456430482589 0 0.38481570219319849 -0.03018928347087018 0 0.37398519498284127 -0.013521534239871321 0 0.36787149427896543 -0.037979456430482589 0 0.38481570219319849 -0.03018928347087018 0 0.39589230276912107 -0.01585434489548937 0 0.37398519498284127 -0.013521534239871321 0 0.41902797576623441 -0.02106954963848361 0 0.40054637836392898 -0.032157653870851968 0 0.39589230276912107 -0.01585434489548937 0 0.40054637836392898 -0.032157653870851968 0 0.38481570219319849 -0.03018928347087018 0 0.39589230276912107 -0.01585434489548937 0 0.39059509510669838 0.0047885620045181121 0 0.40638347020182503 -0.0029766101573772659 0 0.39589230276912107 -0.01585434489548937 0 0.36069381017681429 0.0028134832091187712 0 0.39059509510669838 0.0047885620045181121 0 0.37398519498284127 -0.013521534239871321 0 0.39059509510669838 0.0047885620045181121 0 0.39589230276912107 -0.01585434489548937 0 0.37398519498284127 -0.013521534239871321 0 0.36069381017681429 0.0028134832091187712 0 0.37398519498284127 -0.013521534239871321 0 0.35671886912635847 -0.02102920069391 0 0.37398519498284127 -0.013521534239871321 0 0.35671886912635847 -0.02102920069391 0 0.36787149427896543 -0.037979456430482589 0 0.35671886912635847 -0.02102920069391 0 0.33283653416799169 -0.017821751227859089 0 0.34855671774418218 -0.038621475772129779 0 0.36069381017681429 0.0028134832091187712 0 0.35671886912635847 -0.02102920069391 0 0.33283653416799169 -0.017821751227859089 0 0.36069381017681429 0.0028134832091187712 0 0.32861011746669322 0.0074312957404249896 0 0.33283653416799169 -0.017821751227859089 0 0.33283653416799169 -0.017821751227859089 0 0.32440312535008442 -0.041205013471873837 0 0.31100116081235968 -0.01214826072866222 0 0.32861011746669322 0.0074312957404249896 0 0.33283653416799169 -0.017821751227859089 0 0.31100116081235968 -0.01214826072866222 0 0.32440312535008442 -0.041205013471873837 0 0.34177979883428289 -0.055306043441072789 0 0.3308165042599055 -0.072559618556578179 0 0.32440312535008442 -0.041205013471873837 0 0.3308165042599055 -0.072559618556578179 0 0.30702968851777668 -0.058779912839894977 0 0.33283653416799169 -0.017821751227859089 0 0.32440312535008442 -0.041205013471873837 0 0.34855671774418218 -0.038621475772129779 0 0.32440312535008442 -0.041205013471873837 0 0.34177979883428289 -0.055306043441072789 0 0.34855671774418218 -0.038621475772129779 0 0.34177979883428289 -0.055306043441072789 0 0.34855671774418218 -0.038621475772129779 0 0.36175837198522071 -0.05963458788968265 0 0.35671886912635847 -0.02102920069391 0 0.34855671774418218 -0.038621475772129779 0 0.36787149427896543 -0.037979456430482589 0 0.34855671774418218 -0.038621475772129779 0 0.36787149427896543 -0.037979456430482589 0 0.36175837198522071 -0.05963458788968265 0 0.3882838995285815 -0.050785656159168982 0 0.36787149427896543 -0.037979456430482589 0 0.36175837198522071 -0.05963458788968265 0 0.38291407153140861 -0.071214340421547562 0 0.36175837198522071 -0.05963458788968265 0 0.37100022525951332 -0.082658173099585744 0 0.36175837198522071 -0.05963458788968265 0 0.37100022525951332 -0.082658173099585744 0 0.35143592813976521 -0.077144770239954696 0 0.36175837198522071 -0.05963458788968265 0 0.37100022525951332 -0.082658173099585744 0 0.37100022525951332 -0.082658173099585744 0 0.35143592813976521 -0.077144770239954696 0 0.36040677744753741 -0.095384375377665143 0 0.35143592813976521 -0.077144770239954696 0 0.36040677744753741 -0.095384375377665143 0 0.33408304688703833 -0.10546404839219931 0 0.34177979883428289 -0.055306043441072789 0 0.36175837198522071 -0.05963458788968265 0 0.35143592813976521 -0.077144770239954696 0 0.38024207853380593 -0.1056817583094888 0 0.37099728622496458 -0.12225556663045151 0 0.36634066226720191 -0.1092364045016901 0 0.37099728622496458 -0.12225556663045151 0 0.36634066226720191 -0.1092364045016901 0 0.35428952732920382 -0.11647388585011691 0 0.38024207853380593 -0.1056817583094888 0 0.36040677744753741 -0.095384375377665143 0 0.36634066226720191 -0.1092364045016901 0 0.38024207853380593 -0.1056817583094888 0 0.37100022525951332 -0.082658173099585744 0 0.36040677744753741 -0.095384375377665143 0 0.36040677744753741 -0.095384375377665143 0 0.36634066226720191 -0.1092364045016901 0 0.35428952732920382 -0.11647388585011691 0 0.36040677744753741 -0.095384375377665143 0 0.33408304688703833 -0.10546404839219931 0 0.36040677744753741 -0.095384375377665143 0 0.35428952732920382 -0.11647388585011691 0 0.33408304688703833 -0.10546404839219931 0 0.33408304688703833 -0.10546404839219931 0 0.32391426527797751 -0.13037181077934931 0 0.34095815140411567 -0.1275326144672447 0 0.35428952732920382 -0.11647388585011691 0 0.33408304688703833 -0.10546404839219931 0 0.34095815140411567 -0.1275326144672447 0 0.33408304688703833 -0.10546404839219931 0 0.31066277477338911 -0.087605679369635203 0 0.30775931632653919 -0.1155437214067335 0 0.33408304688703833 -0.10546404839219931 0 0.30775931632653919 -0.1155437214067335 0 0.32391426527797751 -0.13037181077934931 0 0.33408304688703833 -0.10546404839219931 0 0.30775931632653919 -0.1155437214067335 0 0.35143592813976521 -0.077144770239954696 0 0.33408304688703833 -0.10546404839219931 0 0.3308165042599055 -0.072559618556578179 0 0.33408304688703833 -0.10546404839219931 0 0.3308165042599055 -0.072559618556578179 0 0.31066277477338911 -0.087605679369635203 0 0.34177979883428289 -0.055306043441072789 0 0.35143592813976521 -0.077144770239954696 0 0.3308165042599055 -0.072559618556578179 0 0.3308165042599055 -0.072559618556578179 0 0.31066277477338911 -0.087605679369635203 0 0.3308165042599055 -0.072559618556578179 0 0.31066277477338911 -0.087605679369635203 0 0.30702968851777668 -0.058779912839894977 0 0.31066277477338911 -0.087605679369635203 0 0.29181101012096861 -0.074560431363513507 0 0.30702968851777668 -0.058779912839894977 0 0.31066277477338911 -0.087605679369635203 0 0.29181101012096861 -0.074560431363513507 0 0.29050904528687249 -0.1026517401826923 0 0.29181101012096861 -0.074560431363513507 0 0.29050904528687249 -0.1026517401826923 0 0.26986178864015348 -0.081178527950720378 0 0.31066277477338911 -0.087605679369635203 0 0.30775931632653919 -0.1155437214067335 0 0.29050904528687249 -0.1026517401826923 0 0.31066277477338911 -0.087605679369635203 0 0.29050904528687249 -0.1026517401826923 0 0.30775931632653919 -0.1155437214067335 0 0.29050904528687249 -0.1026517401826923 0 0.28143558576604011 -0.1256233944212681 0 0.30775931632653919 -0.1155437214067335 0 0.28143558576604011 -0.1256233944212681 0 0.29050904528687249 -0.1026517401826923 0 0.2703553158003571 -0.11769780099575081 0 0.28143558576604011 -0.1256233944212681 0 0.29050904528687249 -0.1026517401826923 0 0.2703553158003571 -0.11769780099575081 0 0.2703553158003571 -0.11769780099575081 0 0.28143558576604011 -0.1256233944212681 0 0.29050904528687249 -0.1026517401826923 0 0.2703553158003571 -0.11769780099575081 0 0.27062118379084121 -0.10052626393551641 0 0.29050904528687249 -0.1026517401826923 0 0.27062118379084121 -0.10052626393551641 0 0.26986178864015348 -0.081178527950720378 0 0.27062118379084121 -0.10052626393551641 0 0.26986178864015348 -0.081178527950720378 0 0.24892278871250639 -0.10236735360540899 0 0.2703553158003571 -0.11769780099575081 0 0.27062118379084121 -0.10052626393551641 0 0.24892278871250639 -0.10236735360540899 0 0.2703553158003571 -0.11769780099575081 0 0.24892278871250639 -0.10236735360540899 0 0.2703553158003571 -0.11769780099575081 0 0.25594327163715053 -0.12845732285323649 0 0.24892278871250639 -0.10236735360540899 0 0.2703553158003571 -0.11769780099575081 0 0.25594327163715053 -0.12845732285323649 0 0.29181101012096861 -0.074560431363513507 0 0.26986178864015348 -0.081178527950720378 0 0.28098056281073402 -0.051508577239923137 0 0.26986178864015348 -0.081178527950720378 0 0.25649292338891672 -0.055358796168968757 0 0.28098056281073402 -0.051508577239923137 0 0.26986178864015348 -0.081178527950720378 0 0.24199764414204969 -0.073938094161394158 0 0.24892278871250639 -0.10236735360540899 0 0.26986178864015348 -0.081178527950720378 0 0.25649292338891672 -0.055358796168968757 0 0.24199764414204969 -0.073938094161394158 0 0.28098056281073402 -0.051508577239923137 0 0.26197072170321373 -0.031941377343104267 0 0.28023604288935122 -0.026427073714653838 0 0.25649292338891672 -0.055358796168968757 0 0.28098056281073402 -0.051508577239923137 0 0.26197072170321373 -0.031941377343104267 0 0.25649292338891672 -0.055358796168968757 0 0.26197072170321373 -0.031941377343104267 0 0.24625643286624649 -0.040573384452919622 0 0.26197072170321373 -0.031941377343104267 0 0.24625643286624649 -0.040573384452919622 0 0.24798237889572039 -0.02666413183602092 0 0.26197072170321373 -0.031941377343104267 0 0.25903132009979979 -0.0037638123808381501 0 0.24798237889572039 -0.02666413183602092 0 0.25903132009979979 -0.0037638123808381501 0 0.24798237889572039 -0.02666413183602092 0 0.2441826621619228 -0.013173084775089709 0 0.25903132009979979 -0.0037638123808381501 0 0.28023604288935122 -0.026427073714653838 0 0.28501624045607971 -0.0079560365547501743 0 0.25903132009979979 -0.0037638123808381501 0 0.28501624045607971 -0.0079560365547501743 0 0.26197072170321373 -0.031941377343104267 0 0.25903132009979979 -0.0037638123808381501 0 0.28023604288935122 -0.026427073714653838 0 0.28023604288935122 -0.026427073714653838 0 0.28501624045607971 -0.0079560365547501743 0 0.29811113680606433 -0.033004145758293017 0 0.30164876235935412 0.00658563157575889 0 0.28501624045607971 -0.0079560365547501743 0 0.31100116081235968 -0.01214826072866222 0 0.28501624045607971 -0.0079560365547501743 0 0.31100116081235968 -0.01214826072866222 0 0.32440312535008442 -0.041205013471873837 0 0.31100116081235968 -0.01214826072866222 0 0.29811113680606433 -0.033004145758293017 0 0.28501624045607971 -0.0079560365547501743 0 0.31100116081235968 -0.01214826072866222 0 0.29811113680606433 -0.033004145758293017 0 0.32440312535008442 -0.041205013471873837 0 0.29811113680606433 -0.033004145758293017 0 0.30702968851777668 -0.058779912839894977 0 0.29181101012096861 -0.074560431363513507 0 0.28098056281073402 -0.051508577239923137 0 0.30702968851777668 -0.058779912839894977 0 0.28098056281073402 -0.051508577239923137 0 0.29811113680606433 -0.033004145758293017 0 0.30702968851777668 -0.058779912839894977 0 0.28098056281073402 -0.051508577239923137 0 0.28023604288935122 -0.026427073714653838 0 0.29811113680606433 -0.033004145758293017 0 0.29679121238267459 -0.21607235371759659 0 0.29012492642496768 -0.20029247630068611 0 0.30181468294898212 -0.20282394062125961 0 0.29679121238267459 -0.21607235371759659 0 0.29012492642496768 -0.20029247630068611 0 0.28094357826986899 -0.21401559970787989 0 0.29012492642496768 -0.20029247630068611 0 0.30089251261271732 -0.19393871198380619 0 0.29056976109663291 -0.18245086281905051 0 0.29012492642496768 -0.20029247630068611 0 0.27248673508071553 -0.19543981889225359 0 0.29056976109663291 -0.18245086281905051 0 0.29012492642496768 -0.20029247630068611 0 0.30181468294898212 -0.20282394062125961 0 0.30089251261271732 -0.19393871198380619 0 0.30089251261271732 -0.19393871198380619 0 0.30906899485796718 -0.18483347812761561 0 0.31288419773503628 -0.1992928020504193 0 0.30181468294898212 -0.20282394062125961 0 0.30089251261271732 -0.19393871198380619 0 0.31288419773503628 -0.1992928020504193 0 0.30181468294898212 -0.20282394062125961 0 0.30821921823304499 -0.2061873594885488 0 0.31288419773503628 -0.1992928020504193 0 0.30821921823304499 -0.2061873594885488 0 0.30474923735157339 -0.21134799633167531 0 0.31342875489658822 -0.21128469895084079 0 0.30821921823304499 -0.2061873594885488 0 0.31342875489658822 -0.21128469895084079 0 0.31288419773503628 -0.1992928020504193 0 0.30181468294898212 -0.20282394062125961 0 0.30821921823304499 -0.2061873594885488 0 0.30474923735157339 -0.21134799633167531 0 0.29679121238267459 -0.21607235371759659 0 0.30181468294898212 -0.20282394062125961 0 0.30474923735157339 -0.21134799633167531 0 0.29679121238267459 -0.21607235371759659 0 0.30580493298993139 -0.21599962505331341 0 0.30474923735157339 -0.21134799633167531 0 0.30580493298993139 -0.21599962505331341 0 0.30825052732888952 -0.22529345121314109 0 0.31342875489658822 -0.21128469895084079 0 0.30825052732888952 -0.22529345121314109 0 0.31342875489658822 -0.21128469895084079 0 0.31422718028219471 -0.21743379576128261 0 0.30580493298993139 -0.21599962505331341 0 0.30474923735157339 -0.21134799633167531 0 0.31342875489658822 -0.21128469895084079 0 0.30825052732888952 -0.22529345121314109 0 0.30098197878264932 -0.23958480108444249 0 0.31683464221847363 -0.23751524127236709 0 0.30825052732888952 -0.22529345121314109 0 0.30098197878264932 -0.23958480108444249 0 0.29521195289000379 -0.22831117907980139 0 0.29679121238267459 -0.21607235371759659 0 0.30580493298993139 -0.21599962505331341 0 0.30825052732888952 -0.22529345121314109 0 0.29679121238267459 -0.21607235371759659 0 0.30825052732888952 -0.22529345121314109 0 0.29521195289000379 -0.22831117907980139 0 0.30098197878264932 -0.23958480108444249 0 0.31683464221847363 -0.23751524127236709 0 0.3071396819291547 -0.25228425082721267 0 0.30098197878264932 -0.23958480108444249 0 0.3071396819291547 -0.25228425082721267 0 0.29193901446399922 -0.25428811427957793 0 0.28910626483149787 -0.23944055246150089 0 0.27418157375802388 -0.24592191057831839 0 0.29193901446399922 -0.25428811427957793 0 0.28910626483149787 -0.23944055246150089 0 0.28321680426281359 -0.2290967572853643 0 0.27418157375802388 -0.24592191057831839 0 0.30098197878264932 -0.23958480108444249 0 0.28910626483149787 -0.23944055246150089 0 0.29193901446399922 -0.25428811427957793 0 0.30098197878264932 -0.23958480108444249 0 0.28910626483149787 -0.23944055246150089 0 0.29521195289000379 -0.22831117907980139 0 0.29679121238267459 -0.21607235371759659 0 0.28321680426281359 -0.2290967572853643 0 0.28094357826986899 -0.21401559970787989 0 0.29679121238267459 -0.21607235371759659 0 0.29521195289000379 -0.22831117907980139 0 0.28321680426281359 -0.2290967572853643 0 0.28910626483149787 -0.23944055246150089 0 0.29521195289000379 -0.22831117907980139 0 0.28321680426281359 -0.2290967572853643 0 0.28321680426281359 -0.2290967572853643 0 0.26579222273076059 -0.22994839570185441 0 0.28094357826986899 -0.21401559970787989 0 0.28321680426281359 -0.2290967572853643 0 0.26579222273076059 -0.22994839570185441 0 0.27418157375802388 -0.24592191057831839 0 0.26579222273076059 -0.22994839570185441 0 0.27418157375802388 -0.24592191057831839 0 0.25426840721566712 -0.2459123968092822 0 0.26579222273076059 -0.22994839570185441 0 0.26565291827668791 -0.21190636193522119 0 0.24275608729512671 -0.22582940700878121 0 0.26579222273076059 -0.22994839570185441 0 0.25426840721566712 -0.2459123968092822 0 0.24275608729512671 -0.22582940700878121 0 0.26565291827668791 -0.21190636193522119 0 0.25193788096247788 -0.19154251810748951 0 0.2478976634772197 -0.20875617606494301 0 0.26565291827668791 -0.21190636193522119 0 0.2478976634772197 -0.20875617606494301 0 0.24275608729512671 -0.22582940700878121 0 0.26565291827668791 -0.21190636193522119 0 0.28094357826986899 -0.21401559970787989 0 0.27248673508071553 -0.19543981889225359 0 0.29012492642496768 -0.20029247630068611 0 0.28094357826986899 -0.21401559970787989 0 0.27248673508071553 -0.19543981889225359 0 0.26579222273076059 -0.22994839570185441 0 0.26565291827668791 -0.21190636193522119 0 0.28094357826986899 -0.21401559970787989 0 0.27248673508071553 -0.19543981889225359 0 0.25193788096247788 -0.19154251810748951 0 0.2726319945503709 -0.17733861900670039 0 0.26565291827668791 -0.21190636193522119 0 0.27248673508071553 -0.19543981889225359 0 0.25193788096247788 -0.19154251810748951 0 0.25193788096247788 -0.19154251810748951 0 0.25527152784601792 -0.1682613431292396 0 0.2726319945503709 -0.17733861900670039 0 0.25193788096247788 -0.19154251810748951 0 0.2726319945503709 -0.17733861900670039 0 0.25527152784601792 -0.1682613431292396 0 0.27225820650567251 -0.15960697844626659 0 0.25659558976825392 -0.14976256611678929 0 0.25527152784601792 -0.1682613431292396 0 0.25659558976825392 -0.14976256611678929 0 0.24022563151206561 -0.15455033935567111 0 0.25527152784601792 -0.1682613431292396 0 0.27225820650567251 -0.15960697844626659 0 0.2726319945503709 -0.17733861900670039 0 0.27225820650567251 -0.15960697844626659 0 0.2726319945503709 -0.17733861900670039 0 0.29332610813826382 -0.1631347199059115 0 0.27248673508071553 -0.19543981889225359 0 0.2726319945503709 -0.17733861900670039 0 0.29056976109663291 -0.18245086281905051 0 0.2703553158003571 -0.11769780099575081 0 0.26555228725099528 -0.131705300443514 0 0.25594327163715053 -0.12845732285323649 0 0.25594327163715053 -0.12845732285323649 0 0.25837473044528281 -0.13833212265197359 0 0.24547462922896371 -0.1381582001215246 0 0.26555228725099528 -0.131705300443514 0 0.25594327163715053 -0.12845732285323649 0 0.25837473044528281 -0.13833212265197359 0 0.26555228725099528 -0.131705300443514 0 0.25837473044528281 -0.13833212265197359 0 0.26830787434105069 -0.14357722372480369 0 0.25837473044528281 -0.13833212265197359 0 0.25659558976825392 -0.14976256611678929 0 0.26830787434105069 -0.14357722372480369 0 0.25837473044528281 -0.13833212265197359 0 0.25659558976825392 -0.14976256611678929 0 0.24547462922896371 -0.1381582001215246 0 0.27225820650567251 -0.15960697844626659 0 0.26830787434105069 -0.14357722372480369 0 0.28132313458611491 -0.14780493681941981 0 0.27225820650567251 -0.15960697844626659 0 0.25659558976825392 -0.14976256611678929 0 0.26830787434105069 -0.14357722372480369 0 0.26830787434105069 -0.14357722372480369 0 0.27802456702701772 -0.136564230442937 0 0.28132313458611491 -0.14780493681941981 0 0.2703553158003571 -0.11769780099575081 0 0.26555228725099528 -0.131705300443514 0 0.28143558576604011 -0.1256233944212681 0 0.26555228725099528 -0.131705300443514 0 0.28143558576604011 -0.1256233944212681 0 0.26555228725099528 -0.131705300443514 0 0.27802456702701772 -0.136564230442937 0 0.28143558576604011 -0.1256233944212681 0 0.26555228725099528 -0.131705300443514 0 0.26830787434105069 -0.14357722372480369 0 0.27802456702701772 -0.136564230442937 0 0.30775931632653919 -0.1155437214067335 0 0.28143558576604011 -0.1256233944212681 0 0.29772790374609831 -0.1372771076131955 0 0.27802456702701772 -0.136564230442937 0 0.28143558576604011 -0.1256233944212681 0 0.29772790374609831 -0.1372771076131955 0 0.28143558576604011 -0.1256233944212681 0 0.29772790374609831 -0.1372771076131955 0 0.27802456702701772 -0.136564230442937 0 0.28132313458611491 -0.14780493681941981 0 0.29772790374609831 -0.1372771076131955 0 0.28132313458611491 -0.14780493681941981 0 0.29772790374609831 -0.1372771076131955 0 0.29332610813826382 -0.1631347199059115 0 0.29332610813826382 -0.1631347199059115 0 0.31402022172615668 -0.14893082080512249 0 0.29772790374609831 -0.1372771076131955 0 0.29332610813826382 -0.1631347199059115 0 0.31402022172615668 -0.14893082080512249 0 0.29772790374609831 -0.1372771076131955 0 0.31402022172615668 -0.14893082080512249 0 0.29772790374609831 -0.1372771076131955 0 0.31070694493037321 -0.13678256227983879 0 0.31402022172615668 -0.14893082080512249 0 0.30775931632653919 -0.1155437214067335 0 0.29772790374609831 -0.1372771076131955 0 0.31070694493037321 -0.13678256227983879 0 0.29056976109663291 -0.18245086281905051 0 0.29332610813826382 -0.1631347199059115 0 0.30218720705209973 -0.17447146176419789 0 0.2726319945503709 -0.17733861900670039 0 0.29056976109663291 -0.18245086281905051 0 0.29332610813826382 -0.1631347199059115 0 0.27225820650567251 -0.15960697844626659 0 0.28132313458611491 -0.14780493681941981 0 0.29332610813826382 -0.1631347199059115 0 0.2726319945503709 -0.17733861900670039 0 0.29332610813826382 -0.1631347199059115 0 0.29332610813826382 -0.1631347199059115 0 0.30218720705209973 -0.17447146176419789 0 0.31578396411553522 -0.1674667862042141 0 0.29332610813826382 -0.1631347199059115 0 0.31578396411553522 -0.1674667862042141 0 0.31402022172615668 -0.14893082080512249 0 0.29056976109663291 -0.18245086281905051 0 0.30218720705209973 -0.17447146176419789 0 0.30906899485796718 -0.18483347812761561 0 0.30089251261271732 -0.19393871198380619 0 0.29056976109663291 -0.18245086281905051 0 0.30906899485796718 -0.18483347812761561 0 0.30218720705209973 -0.17447146176419789 0 0.30906899485796718 -0.18483347812761561 0 0.31578396411553522 -0.1674667862042141 0 0.30906899485796718 -0.18483347812761561 0 0.32582338818566747 -0.17925801073624631 0 0.32543581785473391 -0.19572075914881321 0 0.30906899485796718 -0.18483347812761561 0 0.32582338818566747 -0.17925801073624631 0 0.31578396411553522 -0.1674667862042141 0 0.32582338818566747 -0.17925801073624631 0 0.31578396411553522 -0.1674667862042141 0 0.3338957611471714 -0.16314757229688959 0 0.31578396411553522 -0.1674667862042141 0 0.3338957611471714 -0.16314757229688959 0 0.31402022172615668 -0.14893082080512249 0 0.3338957611471714 -0.16314757229688959 0 0.34493240295292982 -0.18512145790369891 0 0.35180249365589239 -0.16033519872390789 0 0.32582338818566747 -0.17925801073624631 0 0.34493240295292982 -0.18512145790369891 0 0.32543581785473391 -0.19572075914881321 0 0.32582338818566747 -0.17925801073624631 0 0.3338957611471714 -0.16314757229688959 0 0.34493240295292982 -0.18512145790369891 0 0.32391426527797751 -0.13037181077934931 0 0.319698845172604 -0.14503316197947941 0 0.33760362814433859 -0.14429973418062919 0 0.30775931632653919 -0.1155437214067335 0 0.31070694493037321 -0.13678256227983879 0 0.32391426527797751 -0.13037181077934931 0 0.31070694493037321 -0.13678256227983879 0 0.32391426527797751 -0.13037181077934931 0 0.319698845172604 -0.14503316197947941 0 0.3338957611471714 -0.16314757229688959 0 0.319698845172604 -0.14503316197947941 0 0.31402022172615668 -0.14893082080512249 0 0.3338957611471714 -0.16314757229688959 0 0.31402022172615668 -0.14893082080512249 0 0.31070694493037321 -0.13678256227983879 0 0.319698845172604 -0.14503316197947941 0 0.31402022172615668 -0.14893082080512249 0 0.319698845172604 -0.14503316197947941 0 0.31402022172615668 -0.14893082080512249 0 0.3338957611471714 -0.16314757229688959 0 0.319698845172604 -0.14503316197947941 0 0.33760362814433859 -0.14429973418062919 0 0.3338957611471714 -0.16314757229688959 0 0.33760362814433859 -0.14429973418062919 0 0.35180249365589239 -0.16033519872390789 0 0.32391426527797751 -0.13037181077934931 0 0.33760362814433859 -0.14429973418062919 0 0.34095815140411567 -0.1275326144672447 0 0.35428952732920382 -0.11647388585011691 0 0.34095815140411567 -0.1275326144672447 0 0.35662383922166419 -0.13806293885600679 0 0.33760362814433859 -0.14429973418062919 0 0.34095815140411567 -0.1275326144672447 0 0.35662383922166419 -0.13806293885600679 0 0.33760362814433859 -0.14429973418062919 0 0.35662383922166419 -0.13806293885600679 0 0.35180249365589239 -0.16033519872390789 0 0.35662383922166419 -0.13806293885600679 0 0.36878040513732008 -0.15398610146668301 0 0.35180249365589239 -0.16033519872390789 0 0.35662383922166419 -0.13806293885600679 0 0.36878040513732008 -0.15398610146668301 0 0.37497531068956719 -0.13876644067161059 0 0.37099728622496458 -0.12225556663045151 0 0.35428952732920382 -0.11647388585011691 0 0.35662383922166419 -0.13806293885600679 0 0.37099728622496458 -0.12225556663045151 0 0.35662383922166419 -0.13806293885600679 0 0.37497531068956719 -0.13876644067161059 0 0.34493240295292982 -0.18512145790369891 0 0.35180249365589239 -0.16033519872390789 0 0.36623544971413668 -0.172390698684913 0 0.34493240295292982 -0.18512145790369891 0 0.36623544971413668 -0.172390698684913 0 0.36450822422712398 -0.18987193310813871 0 0.36878040513732008 -0.15398610146668301 0 0.35180249365589239 -0.16033519872390789 0 0.36623544971413668 -0.172390698684913 0 0.36878040513732008 -0.15398610146668301 0 0.36623544971413668 -0.172390698684913 0 0.37964043733081071 -0.16490548491220561 0 0.36623544971413668 -0.172390698684913 0 0.36450822422712398 -0.18987193310813871 0 0.38204254894052753 -0.18088541280695641 0 0.36450822422712398 -0.18987193310813871 0 0.35853593796965039 -0.20660589266855461 0 0.38063745276686672 -0.20119880521915021 0 0.35853593796965039 -0.20660589266855461 0 0.38063745276686672 -0.20119880521915021 0 0.35853593796965039 -0.20660589266855461 0 0.36798534395969368 -0.22420790617412339 0 0.38063745276686672 -0.20119880521915021 0 0.35853593796965039 -0.20660589266855461 0 0.33643442317243422 -0.21201298011795899 0 0.35853593796965039 -0.20660589266855461 0 0.33643442317243422 -0.21201298011795899 0 0.34976739656985067 -0.22704922719808471 0 0.34493240295292982 -0.18512145790369891 0 0.35853593796965039 -0.20660589266855461 0 0.33643442317243422 -0.21201298011795899 0 0.34493240295292982 -0.18512145790369891 0 0.36450822422712398 -0.18987193310813871 0 0.35853593796965039 -0.20660589266855461 0 0.34493240295292982 -0.18512145790369891 0 0.33643442317243422 -0.21201298011795899 0 0.32543581785473391 -0.19572075914881321 0 0.33643442317243422 -0.21201298011795899 0 0.32050322040680213 -0.2071462615670791 0 0.31422718028219471 -0.21743379576128261 0 0.33643442317243422 -0.21201298011795899 0 0.32050322040680213 -0.2071462615670791 0 0.32543581785473391 -0.19572075914881321 0 0.33643442317243422 -0.21201298011795899 0 0.31422718028219471 -0.21743379576128261 0 0.32050322040680213 -0.2071462615670791 0 0.31342875489658822 -0.21128469895084079 0 0.31422718028219471 -0.21743379576128261 0 0.31342875489658822 -0.21128469895084079 0 0.31422718028219471 -0.21743379576128261 0 0.32050322040680213 -0.2071462615670791 0 0.31342875489658822 -0.21128469895084079 0 0.31288419773503628 -0.1992928020504193 0 0.32050322040680213 -0.2071462615670791 0 0.31288419773503628 -0.1992928020504193 0 0.32543581785473391 -0.19572075914881321 0 0.30906899485796718 -0.18483347812761561 0 0.31288419773503628 -0.1992928020504193 0 0.32543581785473391 -0.19572075914881321 0 0.31683464221847363 -0.23751524127236709 0 0.33224153153626879 -0.23061753452686401 0 0.33133314781695278 -0.2513626950048049 0 0.31422718028219471 -0.21743379576128261 0 0.31683464221847363 -0.23751524127236709 0 0.33643442317243422 -0.21201298011795899 0 0.31422718028219471 -0.21743379576128261 0 0.33224153153626879 -0.23061753452686401 0 0.31422718028219471 -0.21743379576128261 0 0.31683464221847363 -0.23751524127236709 0 0.33224153153626879 -0.23061753452686401 0 0.30825052732888952 -0.22529345121314109 0 0.31422718028219471 -0.21743379576128261 0 0.31683464221847363 -0.23751524127236709 0 0.33643442317243422 -0.21201298011795899 0 0.33224153153626879 -0.23061753452686401 0 0.34976739656985067 -0.22704922719808471 0 0.33224153153626879 -0.23061753452686401 0 0.34444302314835662 -0.24143813660373481 0 0.34976739656985067 -0.22704922719808471 0 0.33224153153626879 -0.23061753452686401 0 0.34444302314835662 -0.24143813660373481 0 0.33133314781695278 -0.2513626950048049 0 0.35830621853803202 -0.245171480586828 0 0.34444302314835662 -0.24143813660373481 0 0.34976739656985067 -0.22704922719808471 0 0.35830621853803202 -0.245171480586828 0 0.34444302314835662 -0.24143813660373481 0 0.34512757076924527 -0.26137176527814171 0 0.35830621853803202 -0.245171480586828 0 0.34976739656985067 -0.22704922719808471 0 0.36798534395969368 -0.22420790617412339 0 0.35853593796965039 -0.20660589266855461 0 0.34976739656985067 -0.22704922719808471 0 0.36798534395969368 -0.22420790617412339 0 0.35830621853803202 -0.245171480586828 0 0.36798534395969368 -0.22420790617412339 0 0.37346489791831511 -0.24277719552863861 0 0.35830621853803202 -0.245171480586828 0 0.37346489791831511 -0.24277719552863861 0 0.36525956855744057 -0.26127400147808438 0 0.37346489791831511 -0.24277719552863861 0 0.38844795433462082 -0.23895614932620859 0 0.3865211341124476 -0.22329271085310651 0 0.37346489791831511 -0.24277719552863861 0 0.38844795433462082 -0.23895614932620859 0 0.3855615428608043 -0.25883493775618199 0 0.38844795433462082 -0.23895614932620859 0 0.40250408976742202 -0.24396802432281181 0 0.3855615428608043 -0.25883493775618199 0 0.38844795433462082 -0.23895614932620859 0 0.40250408976742202 -0.24396802432281181 0 0.40092995072971938 -0.22815824668751161 0 0.38844795433462082 -0.23895614932620859 0 0.40092995072971938 -0.22815824668751161 0 0.3865211341124476 -0.22329271085310651 0 0.40250408976742202 -0.24396802432281181 0 0.40092995072971938 -0.22815824668751161 0 0.41527113191631948 -0.22774351928331699 0 0.40092995072971938 -0.22815824668751161 0 0.39961624375065752 -0.2183881803304307 0 0.40939389898206779 -0.21546825941623871 0 0.40092995072971938 -0.22815824668751161 0 0.3865211341124476 -0.22329271085310651 0 0.39961624375065752 -0.2183881803304307 0 0.36798534395969368 -0.22420790617412339 0 0.37346489791831511 -0.24277719552863861 0 0.3865211341124476 -0.22329271085310651 0 0.3865211341124476 -0.22329271085310651 0 0.38063745276686672 -0.20119880521915021 0 0.39457277923833411 -0.20951733224908001 0 0.36798534395969368 -0.22420790617412339 0 0.3865211341124476 -0.22329271085310651 0 0.38063745276686672 -0.20119880521915021 0 0.36450822422712398 -0.18987193310813871 0 0.38063745276686672 -0.20119880521915021 0 0.38204254894052753 -0.18088541280695641 0 0.38063745276686672 -0.20119880521915021 0 0.39330849096349002 -0.19131871413391099 0 0.38204254894052753 -0.18088541280695641 0 0.38063745276686672 -0.20119880521915021 0 0.40273896756408289 -0.1957917177697456 0 0.38063745276686672 -0.20119880521915021 0 0.40273896756408289 -0.1957917177697456 0 0.39457277923833411 -0.20951733224908001 0 0.40273896756408289 -0.1957917177697456 0 0.41519018987201911 -0.19274555335573831 0 0.39854064375234088 -0.18314131881356749 0 0.38063745276686672 -0.20119880521915021 0 0.39330849096349002 -0.19131871413391099 0 0.40273896756408289 -0.1957917177697456 0 0.39330849096349002 -0.19131871413391099 0 0.40273896756408289 -0.1957917177697456 0 0.39854064375234088 -0.18314131881356749 0 0.3865211341124476 -0.22329271085310651 0 0.39457277923833411 -0.20951733224908001 0 0.39961624375065752 -0.2183881803304307 0 0.39457277923833411 -0.20951733224908001 0 0.40472275357969623 -0.2081714528970065 0 0.40207641888768891 -0.21288630622318899 0 0.40273896756408289 -0.1957917177697456 0 0.39457277923833411 -0.20951733224908001 0 0.40472275357969623 -0.2081714528970065 0 0.40472275357969623 -0.2081714528970065 0 0.40207641888768891 -0.21288630622318899 0 0.40939389898206779 -0.21546825941623871 0 0.39457277923833411 -0.20951733224908001 0 0.39961624375065752 -0.2183881803304307 0 0.40207641888768891 -0.21288630622318899 0 0.39961624375065752 -0.2183881803304307 0 0.40207641888768891 -0.21288630622318899 0 0.40939389898206779 -0.21546825941623871 0 0.40939389898206779 -0.21546825941623871 0 0.41403772824285889 -0.2113802548808551 0 0.41527113191631948 -0.22774351928331699 0 0.40472275357969623 -0.2081714528970065 0 0.40939389898206779 -0.21546825941623871 0 0.41403772824285889 -0.2113802548808551 0 0.40939389898206779 -0.21546825941623871 0 0.41403772824285889 -0.2113802548808551 0 0.40273896756408289 -0.1957917177697456 0 0.41403772824285889 -0.2113802548808551 0 0.40273896756408289 -0.1957917177697456 0 0.40472275357969623 -0.2081714528970065 0 0.41403772824285889 -0.2113802548808551 0 0.41403772824285889 -0.2113802548808551 0 0.42847368555808119 -0.19867215222181389 0 0.41403772824285889 -0.2113802548808551 0 0.41519018987201911 -0.19274555335573831 0 0.42847368555808119 -0.19867215222181389 0 0.40273896756408289 -0.1957917177697456 0 0.41403772824285889 -0.2113802548808551 0 0.41519018987201911 -0.19274555335573831 0 0.40273896756408289 -0.1957917177697456 0 0.41519018987201911 -0.19274555335573831 0 0.41519018987201911 -0.19274555335573831 0 0.44290964287330248 -0.18596404956277141 0 0.41519018987201911 -0.19274555335573831 0 0.42847368555808119 -0.19867215222181389 0 0.44290964287330248 -0.18596404956277141 0 0.42847368555808119 -0.19867215222181389 0 0.44181071897128188 -0.20565815953211111 0 0.4413490302762258 -0.1962362656015211 0 0.42847368555808119 -0.19867215222181389 0 0.44290964287330248 -0.18596404956277141 0 0.41403772824285889 -0.2113802548808551 0 0.42847368555808119 -0.19867215222181389 0 0.43225366817431671 -0.21585532457307119 0 0.42847368555808119 -0.19867215222181389 0 0.43225366817431671 -0.21585532457307119 0 0.44181071897128188 -0.20565815953211111 0 0.41403772824285889 -0.2113802548808551 0 0.43225366817431671 -0.21585532457307119 0 0.42842624390957201 -0.23123162768368691 0 0.43225366817431671 -0.21585532457307119 0 0.42842624390957201 -0.23123162768368691 0 0.43881071613830419 -0.22785015840126649 0 0.42842624390957201 -0.23123162768368691 0 0.44256085105703102 -0.2389435068013718 0 0.43881071613830419 -0.22785015840126649 0 0.42842624390957201 -0.23123162768368691 0 0.4207786978271047 -0.24920565126511501 0 0.44281475957628352 -0.25108300048651983 0 0.42842624390957201 -0.23123162768368691 0 0.44281475957628352 -0.25108300048651983 0 0.42842624390957201 -0.23123162768368691 0 0.4207786978271047 -0.24920565126511501 0 0.41527113191631948 -0.22774351928331699 0 0.40250408976742202 -0.24396802432281181 0 0.4207786978271047 -0.24920565126511501 0 0.41527113191631948 -0.22774351928331699 0 0.41403772824285889 -0.2113802548808551 0 0.42842624390957201 -0.23123162768368691 0 0.41403772824285889 -0.2113802548808551 0 0.42842624390957201 -0.23123162768368691 0 0.41527113191631948 -0.22774351928331699 0 0.40092995072971938 -0.22815824668751161 0 0.40939389898206779 -0.21546825941623871 0 0.41527113191631948 -0.22774351928331699 0 0.41307096782756181 -0.1230659312744903 0 0.40610901487621709 -0.13539857066612879 0 0.38948393180809859 -0.12870534351939189 0 0.38948393180809859 -0.12870534351939189 0 0.39872578508239043 -0.1517289287292953 0 0.40610901487621709 -0.13539857066612879 0 0.38948393180809859 -0.12870534351939189 0 0.39872578508239043 -0.1517289287292953 0 0.37497531068956719 -0.13876644067161059 0 0.38948393180809859 -0.12870534351939189 0 0.3882658147397961 -0.1512825293988897 0 0.37099728622496458 -0.12225556663045151 0 0.37497531068956719 -0.13876644067161059 0 0.38948393180809859 -0.12870534351939189 0 0.36878040513732008 -0.15398610146668301 0 0.37497531068956719 -0.13876644067161059 0 0.3882658147397961 -0.1512825293988897 0 0.38948393180809859 -0.12870534351939189 0 0.3882658147397961 -0.1512825293988897 0 0.39872578508239043 -0.1517289287292953 0 0.40610901487621709 -0.13539857066612879 0 0.39872578508239043 -0.1517289287292953 0 0.40790341248136891 -0.14604406830419189 0 0.3882658147397961 -0.1512825293988897 0 0.39872578508239043 -0.1517289287292953 0 0.39872578508239043 -0.1517289287292953 0 0.40695798747720502 -0.1722372410425167 0 0.39872578508239043 -0.1517289287292953 0 0.39287796812227332 -0.16598268220358561 0 0.40695798747720502 -0.1722372410425167 0 0.3882658147397961 -0.1512825293988897 0 0.39872578508239043 -0.1517289287292953 0 0.39287796812227332 -0.16598268220358561 0 0.39287796812227332 -0.16598268220358561 0 0.37964043733081071 -0.16490548491220561 0 0.38204254894052753 -0.18088541280695641 0 0.3882658147397961 -0.1512825293988897 0 0.39287796812227332 -0.16598268220358561 0 0.37964043733081071 -0.16490548491220561 0 0.36878040513732008 -0.15398610146668301 0 0.3882658147397961 -0.1512825293988897 0 0.37964043733081071 -0.16490548491220561 0 0.36623544971413668 -0.172390698684913 0 0.37964043733081071 -0.16490548491220561 0 0.38204254894052753 -0.18088541280695641 0 0.39330849096349002 -0.19131871413391099 0 0.38204254894052753 -0.18088541280695641 0 0.39854064375234088 -0.18314131881356749 0 0.39287796812227332 -0.16598268220358561 0 0.38204254894052753 -0.18088541280695641 0 0.39854064375234088 -0.18314131881356749 0 0.39287796812227332 -0.16598268220358561 0 0.39854064375234088 -0.18314131881356749 0 0.40695798747720502 -0.1722372410425167 0 0.41519018987201911 -0.19274555335573831 0 0.40695798747720502 -0.1722372410425167 0 0.42832679504069682 -0.17173553440712319 0 0.41519018987201911 -0.19274555335573831 0 0.40695798747720502 -0.1722372410425167 0 0.41519018987201911 -0.19274555335573831 0 0.39854064375234088 -0.18314131881356749 0 0.40695798747720502 -0.1722372410425167 0 0.41519018987201911 -0.19274555335573831 0 0.42832679504069682 -0.17173553440712319 0 0.44290964287330248 -0.18596404956277141 0 0.42832679504069682 -0.17173553440712319 0 0.42132028857072162 -0.1526931925749615 0 0.44391479205905288 -0.15365745642062581 0 0.39872578508239043 -0.1517289287292953 0 0.40695798747720502 -0.1722372410425167 0 0.42132028857072162 -0.1526931925749615 0 0.40695798747720502 -0.1722372410425167 0 0.42832679504069682 -0.17173553440712319 0 0.42132028857072162 -0.1526931925749615 0 0.39872578508239043 -0.1517289287292953 0 0.40790341248136891 -0.14604406830419189 0 0.42132028857072162 -0.1526931925749615 0 0.39872578508239043 -0.1517289287292953 0 0.42132028857072162 -0.1526931925749615 0 0.40790341248136891 -0.14604406830419189 0 0.41843745928572978 -0.14840634276980619 0 0.41904683942964588 -0.13548260408354629 0 0.40790341248136891 -0.14604406830419189 0 0.41843745928572978 -0.14840634276980619 0 0.42132028857072162 -0.1526931925749615 0 0.41843745928572978 -0.14840634276980619 0 0.42132028857072162 -0.1526931925749615 0 0.43293557931313398 -0.1457230765600302 0 0.42132028857072162 -0.1526931925749615 0 0.43293557931313398 -0.1457230765600302 0 0.44391479205905288 -0.15365745642062581 0 0.42132028857072162 -0.1526931925749615 0 0.44391479205905288 -0.15365745642062581 0 0.41843745928572978 -0.14840634276980619 0 0.43293557931313398 -0.1457230765600302 0 0.43157346026458487 -0.13224560914252401 0 0.41843745928572978 -0.14840634276980619 0 0.43157346026458487 -0.13224560914252401 0 0.41904683942964588 -0.13548260408354629 0 0.41843745928572978 -0.14840634276980619 0 0.43157346026458487 -0.13224560914252401 0 0.41307096782756181 -0.1230659312744903 0 0.43157346026458487 -0.13224560914252401 0 0.41904683942964588 -0.13548260408354629 0 0.40610901487621709 -0.13539857066612879 0 0.40790341248136891 -0.14604406830419189 0 0.41904683942964588 -0.13548260408354629 0 0.41307096782756181 -0.1230659312744903 0 0.40610901487621709 -0.13539857066612879 0 0.41904683942964588 -0.13548260408354629 0 0.46227781782837368 -0.11994759145566759 0 0.45560937839541121 -0.13535329789076639 0 0.47292984870291688 -0.13762791448635439 0 0.43293557931313398 -0.1457230765600302 0 0.43157346026458487 -0.13224560914252401 0 0.45560937839541121 -0.13535329789076639 0 0.44470946124343952 -0.11608487551524151 0 0.43157346026458487 -0.13224560914252401 0 0.45560937839541121 -0.13535329789076639 0 0.44470946124343952 -0.11608487551524151 0 0.45560937839541121 -0.13535329789076639 0 0.43293557931313398 -0.1457230765600302 0 0.45560937839541121 -0.13535329789076639 0 0.44391479205905288 -0.15365745642062581 0 0.45560937839541121 -0.13535329789076639 0 0.46650929554738407 -0.15462172026629059 0 0.47292984870291688 -0.13762791448635439 0 0.45560937839541121 -0.13535329789076639 0 0.44391479205905288 -0.15365745642062581 0 0.46650929554738407 -0.15462172026629059 0 0.45560937839541121 -0.13535329789076639 0 0.46650929554738407 -0.15462172026629059 0 0.44391479205905288 -0.15365745642062581 0 0.46650929554738407 -0.15462172026629059 0 0.46650929554738407 -0.15462172026629059 0 0.46817921340377849 -0.15757373193214511 0 0.44391479205905288 -0.15365745642062581 0 0.46650929554738407 -0.15462172026629059 0 0.46043401147861851 -0.170537190754008 0 0.46650929554738407 -0.15462172026629059 0 0.46817921340377849 -0.15757373193214511 0 0.46043401147861851 -0.170537190754008 0 0.44391479205905288 -0.15365745642062581 0 0.46043401147861851 -0.170537190754008 0 0.4442655070951162 -0.16983730123749979 0 0.42832679504069682 -0.17173553440712319 0 0.44391479205905288 -0.15365745642062581 0 0.4442655070951162 -0.16983730123749979 0 0.46043401147861851 -0.170537190754008 0 0.4442655070951162 -0.16983730123749979 0 0.44290964287330248 -0.18596404956277141 0 0.46043401147861851 -0.170537190754008 0 0.44290964287330248 -0.18596404956277141 0 0.42832679504069682 -0.17173553440712319 0 0.4442655070951162 -0.16983730123749979 0 0.44290964287330248 -0.18596404956277141 0 0.44290964287330248 -0.18596404956277141 0 0.45699797844539403 -0.18251736895495849 0 0.46043401147861851 -0.170537190754008 0 0.44290964287330248 -0.18596404956277141 0 0.45699797844539403 -0.18251736895495849 0 0.46043401147861851 -0.170537190754008 0 0.45699797844539403 -0.18251736895495849 0 0.47033361980855481 -0.18102917413567721 0 0.46043401147861851 -0.170537190754008 0 0.47033361980855481 -0.18102917413567721 0 0.47369772779924152 -0.16864347332350879 0 0.45699797844539403 -0.18251736895495849 0 0.47033361980855481 -0.18102917413567721 0 0.46312889434470161 -0.19104465740393431 0 0.47033361980855481 -0.18102917413567721 0 0.48267372748220472 -0.18552300441691519 0 0.47378532293730519 -0.1956160946089652 0 0.47033361980855481 -0.18102917413567721 0 0.47906384426467319 -0.1732452045223648 0 0.47369772779924152 -0.16864347332350879 0 0.47906384426467319 -0.1732452045223648 0 0.48267372748220472 -0.18552300441691519 0 0.48839840340652307 -0.1703927852209107 0 0.47033361980855481 -0.18102917413567721 0 0.47906384426467319 -0.1732452045223648 0 0.48267372748220472 -0.18552300441691519 0 0.48839840340652307 -0.1703927852209107 0 0.5 -0.16230869092067871 0 0.5 -0.18891048553592221 0 0.48267372748220472 -0.18552300441691519 0 0.48839840340652307 -0.1703927852209107 0 0.5 -0.18891048553592221 0 0.48839840340652307 -0.1703927852209107 0 0.5 -0.16230869092067871 0 0.48412658494399691 -0.1553735719382035 0 0.48839840340652307 -0.1703927852209107 0 0.48067337761514439 -0.16393710206116621 0 0.48412658494399691 -0.1553735719382035 0 0.46043401147861851 -0.170537190754008 0 0.47795838008393399 -0.15511033194524379 0 0.48067337761514439 -0.16393710206116621 0 0.47369772779924152 -0.16864347332350879 0 0.47795838008393399 -0.15511033194524379 0 0.46817921340377849 -0.15757373193214511 0 0.46043401147861851 -0.170537190754008 0 0.47795838008393399 -0.15511033194524379 0 0.46043401147861851 -0.170537190754008 0 0.47369772779924152 -0.16864347332350879 0 0.47795838008393399 -0.15511033194524379 0 0.48067337761514439 -0.16393710206116621 0 0.47795838008393399 -0.15511033194524379 0 0.48412658494399691 -0.1553735719382035 0 0.47906384426467319 -0.1732452045223648 0 0.48839840340652307 -0.1703927852209107 0 0.48067337761514439 -0.16393710206116621 0 0.47906384426467319 -0.1732452045223648 0 0.48067337761514439 -0.16393710206116621 0 0.47369772779924152 -0.16864347332350879 0 0.47795838008393399 -0.15511033194524379 0 0.499999999999999 -0.13570689630543539 0 0.47292984870291688 -0.13762791448635439 0 0.46650929554738407 -0.15462172026629059 0 0.47795838008393399 -0.15511033194524379 0 0.47292984870291688 -0.13762791448635439 0 0.46650929554738407 -0.15462172026629059 0 0.47795838008393399 -0.15511033194524379 0 0.46650929554738407 -0.15462172026629059 0 0.46817921340377849 -0.15757373193214511 0 0.47795838008393399 -0.15511033194524379 0 0.47795838008393399 -0.15511033194524379 0 0.48412658494399691 -0.1553735719382035 0 0.5 -0.16230869092067871 0 0.48412658494399691 -0.1553735719382035 0 0.499999999999999 -0.13570689630543539 0 0.47795838008393399 -0.15511033194524379 0 0.499999999999999 -0.13570689630543539 0 0.47795838008393399 -0.15511033194524379 0 0.48412658494399691 -0.1553735719382035 0 0.499999999999999 -0.13570689630543539 0 0.47976870791954329 -0.1154980611269258 0 0.499999999999999 -0.13570689630543539 0 0.47292984870291688 -0.13762791448635439 0 0.45390109528402461 -0.234317466241207 0 0.47695054764201122 -0.2249148731961868 0 0.45390109528402461 -0.234317466241207 0 0.45675493968224018 -0.230001682626994 0 0.47695054764201122 -0.2249148731961868 0 0.45675493968224018 -0.230001682626994 0 0.46283271058389208 -0.2211791542779247 0 0.47695054764201122 -0.2249148731961868 0 0.45390109528402461 -0.234317466241207 0 0.45675493968224018 -0.230001682626994 0 0.45390109528402461 -0.234317466241207 0 0.45675493968224018 -0.230001682626994 0 0.44931177697853658 -0.22763537761784811 0 0.45675493968224018 -0.230001682626994 0 0.45575373324289448 -0.2242645119318448 0 0.44931177697853658 -0.22763537761784811 0 0.45575373324289448 -0.2242645119318448 0 0.46283271058389208 -0.2211791542779247 0 0.45411550572690901 -0.21824183320461241 0 0.45675493968224018 -0.230001682626994 0 0.45575373324289448 -0.2242645119318448 0 0.46283271058389208 -0.2211791542779247 0 0.45390109528402461 -0.234317466241207 0 0.46498458598827058 -0.2490003517495438 0 0.47695054764201122 -0.2249148731961868 0 0.45390109528402461 -0.234317466241207 0 0.46498458598827058 -0.2490003517495438 0 0.44281475957628352 -0.25108300048651983 0 0.45390109528402461 -0.234317466241207 0 0.44256085105703102 -0.2389435068013718 0 0.42842624390957201 -0.23123162768368691 0 0.44256085105703102 -0.2389435068013718 0 0.44281475957628352 -0.25108300048651983 0 0.45390109528402461 -0.234317466241207 0 0.44256085105703102 -0.2389435068013718 0 0.44281475957628352 -0.25108300048651983 0 0.45390109528402461 -0.234317466241207 0 0.44281475957628352 -0.25108300048651983 0 0.44256085105703102 -0.2389435068013718 0 0.43881071613830419 -0.22785015840126649 0 0.44931177697853658 -0.22763537761784811 0 0.45390109528402461 -0.234317466241207 0 0.44256085105703102 -0.2389435068013718 0 0.44931177697853658 -0.22763537761784811 0 0.45575373324289448 -0.2242645119318448 0 0.44931177697853658 -0.22763537761784811 0 0.45411550572690901 -0.21824183320461241 0 0.44931177697853658 -0.22763537761784811 0 0.44208446245047017 -0.21895923666299349 0 0.45411550572690901 -0.21824183320461241 0 0.43881071613830419 -0.22785015840126649 0 0.44931177697853658 -0.22763537761784811 0 0.44208446245047017 -0.21895923666299349 0 0.43225366817431671 -0.21585532457307119 0 0.43881071613830419 -0.22785015840126649 0 0.44208446245047017 -0.21895923666299349 0 0.44208446245047017 -0.21895923666299349 0 0.44181071897128188 -0.20565815953211111 0 0.44773768402469588 -0.2121215767582314 0 0.43225366817431671 -0.21585532457307119 0 0.44208446245047017 -0.21895923666299349 0 0.44181071897128188 -0.20565815953211111 0 0.44181071897128188 -0.20565815953211111 0 0.45303304739230338 -0.20657719464398061 0 0.44773768402469588 -0.2121215767582314 0 0.45303304739230338 -0.20657719464398061 0 0.44773768402469588 -0.2121215767582314 0 0.45411550572690901 -0.21824183320461241 0 0.44208446245047017 -0.21895923666299349 0 0.44773768402469588 -0.2121215767582314 0 0.45411550572690901 -0.21824183320461241 0 0.42847368555808119 -0.19867215222181389 0 0.44290964287330248 -0.18596404956277141 0 0.4413490302762258 -0.1962362656015211 0 0.44181071897128188 -0.20565815953211111 0 0.4413490302762258 -0.1962362656015211 0 0.45220207370223758 -0.19465070108938809 0 0.44181071897128188 -0.20565815953211111 0 0.45303304739230338 -0.20657719464398061 0 0.45220207370223758 -0.19465070108938809 0 0.44290964287330248 -0.18596404956277141 0 0.45699797844539403 -0.18251736895495849 0 0.45220207370223758 -0.19465070108938809 0 0.44290964287330248 -0.18596404956277141 0 0.4413490302762258 -0.1962362656015211 0 0.45220207370223758 -0.19465070108938809 0 0.45699797844539403 -0.18251736895495849 0 0.45220207370223758 -0.19465070108938809 0 0.46312889434470161 -0.19104465740393431 0 0.45220207370223758 -0.19465070108938809 0 0.46232547683001612 -0.2014099482306827 0 0.46312889434470161 -0.19104465740393431 0 0.45303304739230338 -0.20657719464398061 0 0.45220207370223758 -0.19465070108938809 0 0.46232547683001612 -0.2014099482306827 0 0.46232547683001612 -0.2014099482306827 0 0.46312889434470161 -0.19104465740393431 0 0.47378532293730519 -0.1956160946089652 0 0.45303304739230338 -0.20657719464398061 0 0.45411550572690901 -0.21824183320461241 0 0.46049375785407121 -0.2115716339860976 0 0.46283271058389208 -0.2211791542779247 0 0.45411550572690901 -0.21824183320461241 0 0.46049375785407121 -0.2115716339860976 0 0.45303304739230338 -0.20657719464398061 0 0.46232547683001612 -0.2014099482306827 0 0.46049375785407121 -0.2115716339860976 0 0.46232547683001612 -0.2014099482306827 0 0.46049375785407121 -0.2115716339860976 0 0.47016204873723538 -0.2104500395732874 0 0.46283271058389208 -0.2211791542779247 0 0.46049375785407121 -0.2115716339860976 0 0.47016204873723538 -0.2104500395732874 0 0.47016204873723538 -0.2104500395732874 0 0.4844611744761716 -0.2039442824776512 0 0.47695054764201122 -0.2249148731961868 0 0.47016204873723538 -0.2104500395732874 0 0.47378532293730519 -0.1956160946089652 0 0.4844611744761716 -0.2039442824776512 0 0.48267372748220472 -0.18552300441691519 0 0.47378532293730519 -0.1956160946089652 0 0.4844611744761716 -0.2039442824776512 0 0.47033361980855481 -0.18102917413567721 0 0.46312889434470161 -0.19104465740393431 0 0.47378532293730519 -0.1956160946089652 0 0.46232547683001612 -0.2014099482306827 0 0.47016204873723538 -0.2104500395732874 0 0.47378532293730519 -0.1956160946089652 0 0.5 -0.18891048553592221 0 0.49999999999999739 -0.21551228015116569 0 0.4844611744761716 -0.2039442824776512 0 0.48267372748220472 -0.18552300441691519 0 0.5 -0.18891048553592221 0 0.4844611744761716 -0.2039442824776512 0 0.49999999999999739 -0.21551228015116569 0 0.4844611744761716 -0.2039442824776512 0 0.47695054764201122 -0.2249148731961868 0 0.49999999999999739 -0.21551228015116569 0 0.47695054764201122 -0.2249148731961868 0 0.5 -0.24121750860976879 0 0.49999999999999739 -0.21551228015116569 0 0.47695054764201122 -0.2249148731961868 0 0.46283271058389208 -0.2211791542779247 0 0.47016204873723538 -0.2104500395732874 0 0.47695054764201122 -0.2249148731961868 0 0.46498458598827058 -0.2490003517495438 0 0.47695054764201122 -0.2249148731961868 0 0.48364993323023031 -0.24892574928415789 0 0.47695054764201122 -0.2249148731961868 0 0.48364993323023031 -0.24892574928415789 0 0.5 -0.24121750860976879 0 0.48364993323023031 -0.24892574928415789 0 0.5 -0.24121750860976879 0 0.49999999999999961 -0.26692273706837188 0 0.48364993323023031 -0.24892574928415789 0 0.49999999999999961 -0.26692273706837188 0 0.47631453252086953 -0.26257327579691803 0 0.49999999999999961 -0.26692273706837188 0 0.48637556726479009 -0.28638065227399639 0 0.49825050937941229 -0.28376534666467912 0 0.49999999999999961 -0.26692273706837188 0 0.47721066188292499 -0.27597644535040861 0 0.48637556726479009 -0.28638065227399639 0 0.49999999999999961 -0.26692273706837188 0 0.48637556726479009 -0.28638065227399639 0 0.49999999999999961 -0.26692273706837188 0 0.47721066188292499 -0.27597644535040861 0 0.47631453252086953 -0.26257327579691803 0 0.47721066188292499 -0.27597644535040861 0 0.47631453252086953 -0.26257327579691803 0 0.45505819177317242 -0.26797487054152919 0 0.46498458598827058 -0.2490003517495438 0 0.48364993323023031 -0.24892574928415789 0 0.47631453252086953 -0.26257327579691803 0 0.46498458598827058 -0.2490003517495438 0 0.47631453252086953 -0.26257327579691803 0 0.45505819177317242 -0.26797487054152919 0 0.46498458598827058 -0.2490003517495438 0 0.45505819177317242 -0.26797487054152919 0 0.44281475957628352 -0.25108300048651983 0 0.45505819177317242 -0.26797487054152919 0 0.44924135216174221 -0.2826352763359376 0 0.4673016239700597 -0.28486674059653971 0 0.45505819177317242 -0.26797487054152919 0 0.4673016239700597 -0.28486674059653971 0 0.47721066188292499 -0.27597644535040861 0 0.45505819177317242 -0.26797487054152919 0 0.4673016239700597 -0.28486674059653971 0 0.45505819177317242 -0.26797487054152919 0 0.44924135216174221 -0.2826352763359376 0 0.42952838598120752 -0.27117558629453881 0 0.45505819177317242 -0.26797487054152919 0 0.44281475957628352 -0.25108300048651983 0 0.42952838598120752 -0.27117558629453881 0 0.45505819177317242 -0.26797487054152919 0 0.44281475957628352 -0.25108300048651983 0 0.44786295676563898 -0.31227556421227842 0 0.43864146578718471 -0.29326934567736562 0 0.42661142637512323 -0.30643921652742467 0 0.44786295676563898 -0.31227556421227842 0 0.43864146578718471 -0.29326934567736562 0 0.45567709329708689 -0.29588983856971462 0 0.43864146578718471 -0.29326934567736562 0 0.44924135216174221 -0.2826352763359376 0 0.45567709329708689 -0.29588983856971462 0 0.43864146578718471 -0.29326934567736562 0 0.44924135216174221 -0.2826352763359376 0 0.42952838598120752 -0.27117558629453881 0 0.4673016239700597 -0.28486674059653971 0 0.45567709329708689 -0.29588983856971462 0 0.47275113452958079 -0.30583856747962102 0 0.44924135216174221 -0.2826352763359376 0 0.4673016239700597 -0.28486674059653971 0 0.45567709329708689 -0.29588983856971462 0 0.44786295676563898 -0.31227556421227842 0 0.45567709329708689 -0.29588983856971462 0 0.47275113452958079 -0.30583856747962102 0 0.47275113452958079 -0.30583856747962102 0 0.48637556726479009 -0.28638065227399639 0 0.48728931314384921 -0.29848135464746978 0 0.47275113452958079 -0.30583856747962102 0 0.48401557969151471 -0.30942644010712611 0 0.47658865998997602 -0.32215501455014722 0 0.47275113452958079 -0.30583856747962102 0 0.48401557969151471 -0.30942644010712611 0 0.48728931314384921 -0.29848135464746978 0 0.47275113452958079 -0.30583856747962102 0 0.48637556726479009 -0.28638065227399639 0 0.47721066188292499 -0.27597644535040861 0 0.4673016239700597 -0.28486674059653971 0 0.48637556726479009 -0.28638065227399639 0 0.4673016239700597 -0.28486674059653971 0 0.47275113452958079 -0.30583856747962102 0 0.48637556726479009 -0.28638065227399639 0 0.49825050937941229 -0.28376534666467912 0 0.48728931314384921 -0.29848135464746978 0 0.49505377485394803 -0.30699576671192658 0 0.5 -0.29646662818191238 0 0.49825050937941229 -0.28376534666467912 0 0.49505377485394803 -0.30699576671192658 0 0.49999999999999961 -0.26692273706837188 0 0.5 -0.29646662818191238 0 0.49825050937941229 -0.28376534666467912 0 0.49825050937941229 -0.28376534666467912 0 0.49505377485394803 -0.30699576671192658 0 0.48637556726479009 -0.28638065227399639 0 0.49825050937941229 -0.28376534666467912 0 0.48728931314384921 -0.29848135464746978 0 0.5 -0.29646662818191238 0 0.49505377485394803 -0.30699576671192658 0 0.5 -0.32601051929545299 0 0.48401557969151471 -0.30942644010712611 0 0.49505377485394803 -0.30699576671192658 0 0.48714014805291339 -0.31829570606117541 0 0.48401557969151471 -0.30942644010712611 0 0.48728931314384921 -0.29848135464746978 0 0.49505377485394803 -0.30699576671192658 0 0.49505377485394803 -0.30699576671192658 0 0.48714014805291339 -0.31829570606117541 0 0.49185704032848382 -0.33022618675917409 0 0.49505377485394803 -0.30699576671192658 0 0.5 -0.32601051929545299 0 0.49185704032848382 -0.33022618675917409 0 0.49505377485394803 -0.30699576671192658 0 0.49185704032848382 -0.33022618675917409 0 0.48714014805291339 -0.31829570606117541 0 0.49185704032848382 -0.33022618675917409 0 0.48422601557722911 -0.32559437969999339 0 0.49185704032848382 -0.33022618675917409 0 0.48279960449637971 -0.34079839271176221 0 0.48866030580301939 -0.35345660680642149 0 0.49185704032848382 -0.33022618675917409 0 0.48866030580301939 -0.35345660680642149 0 0.5 -0.32601051929545299 0 0.49185704032848382 -0.33022618675917409 0 0.5 -0.35555441040899349 0 0.49185704032848382 -0.33022618675917409 0 0.48131821393754343 -0.3317006114294771 0 0.48279960449637971 -0.34079839271176221 0 0.49185704032848382 -0.33022618675917409 0 0.48131821393754343 -0.3317006114294771 0 0.48422601557722911 -0.32559437969999339 0 0.48279960449637971 -0.34079839271176221 0 0.47567822336190668 -0.33970451410363639 0 0.47648423905094489 -0.34890404446010148 0 0.48131821393754343 -0.3317006114294771 0 0.48279960449637971 -0.34079839271176221 0 0.47567822336190668 -0.33970451410363639 0 0.47567822336190668 -0.33970451410363639 0 0.46847085521101572 -0.33332563296710449 0 0.46785187243800891 -0.34346955469840529 0 0.48131821393754343 -0.3317006114294771 0 0.47567822336190668 -0.33970451410363639 0 0.46847085521101572 -0.33332563296710449 0 0.48131821393754343 -0.3317006114294771 0 0.47658865998997602 -0.32215501455014722 0 0.46847085521101572 -0.33332563296710449 0 0.47275113452958079 -0.30583856747962102 0 0.47658865998997602 -0.32215501455014722 0 0.45912670179437159 -0.32529648268524569 0 0.48401557969151471 -0.30942644010712611 0 0.48714014805291339 -0.31829570606117541 0 0.47658865998997602 -0.32215501455014722 0 0.48714014805291339 -0.31829570606117541 0 0.48422601557722911 -0.32559437969999339 0 0.47658865998997602 -0.32215501455014722 0 0.48131821393754343 -0.3317006114294771 0 0.48422601557722911 -0.32559437969999339 0 0.47658865998997602 -0.32215501455014722 0 0.48866030580301939 -0.35345660680642149 0 0.48092656312459481 -0.36675093345324927 0 0.48546357127755468 -0.37668702685366878 0 0.48866030580301939 -0.35345660680642149 0 0.48546357127755468 -0.37668702685366878 0 0.48899028965031738 -0.36652450575360612 0 0.5 -0.35555441040899349 0 0.5 -0.38509830152253383 0 0.48899028965031738 -0.36652450575360612 0 0.48866030580301939 -0.35345660680642149 0 0.48546357127755468 -0.37668702685366878 0 0.48899028965031738 -0.36652450575360612 0 0.48546357127755468 -0.37668702685366878 0 0.49185704032848382 -0.33022618675917409 0 0.48866030580301939 -0.35345660680642149 0 0.5 -0.35555441040899349 0 0.48899028965031738 -0.36652450575360612 0 0.48866030580301939 -0.35345660680642149 0 0.5 -0.35555441040899349 0 0.48279960449637971 -0.34079839271176221 0 0.48866030580301939 -0.35345660680642149 0 0.47648423905094489 -0.34890404446010148 0 0.47567822336190668 -0.33970451410363639 0 0.47648423905094489 -0.34890404446010148 0 0.46785187243800891 -0.34346955469840529 0 0.47648423905094489 -0.34890404446010148 0 0.46708914947745911 -0.35360781791110729 0 0.46785187243800891 -0.34346955469840529 0 0.47648423905094489 -0.34890404446010148 0 0.47553315802333218 -0.36199768198595411 0 0.46708914947745911 -0.35360781791110729 0 0.48866030580301939 -0.35345660680642149 0 0.47648423905094489 -0.34890404446010148 0 0.47553315802333218 -0.36199768198595411 0 0.48866030580301939 -0.35345660680642149 0 0.48092656312459481 -0.36675093345324927 0 0.47553315802333218 -0.36199768198595411 0 0.47553315802333218 -0.36199768198595411 0 0.47404921739447298 -0.37486241816695298 0 0.4632279375112745 -0.37079835946691808 0 0.48092656312459481 -0.36675093345324927 0 0.47404921739447298 -0.37486241816695298 0 0.48546357127755468 -0.37668702685366878 0 0.48092656312459481 -0.36675093345324927 0 0.47553315802333218 -0.36199768198595411 0 0.47404921739447298 -0.37486241816695298 0 0.4632279375112745 -0.37079835946691808 0 0.4582106972313516 -0.35882040748743949 0 0.46708914947745911 -0.35360781791110729 0 0.4632279375112745 -0.37079835946691808 0 0.44617010199408491 -0.36683289313541451 0 0.45270710973308581 -0.38397974351096997 0 0.47553315802333218 -0.36199768198595411 0 0.4632279375112745 -0.37079835946691808 0 0.46708914947745911 -0.35360781791110729 0 0.4632279375112745 -0.37079835946691808 0 0.44617010199408491 -0.36683289313541451 0 0.4632279375112745 -0.37079835946691808 0 0.4582106972313516 -0.35882040748743949 0 0.44617010199408491 -0.36683289313541451 0 0.4582106972313516 -0.35882040748743949 0 0.45635559994258779 -0.34404255943631828 0 0.44617010199408491 -0.36683289313541451 0 0.4582106972313516 -0.35882040748743949 0 0.46708914947745911 -0.35360781791110729 0 0.45635559994258779 -0.34404255943631828 0 0.46708914947745911 -0.35360781791110729 0 0.45635559994258779 -0.34404255943631828 0 0.46785187243800891 -0.34346955469840529 0 0.44550226905916251 -0.34475439789087031 0 0.44617010199408491 -0.36683289313541451 0 0.43469541147703078 -0.35327723793700377 0 0.45635559994258779 -0.34404255943631828 0 0.44550226905916251 -0.34475439789087031 0 0.44617010199408491 -0.36683289313541451 0 0.45635559994258779 -0.34404255943631828 0 0.44617010199408491 -0.36683289313541451 0 0.47275113452958079 -0.30583856747962102 0 0.45912670179437159 -0.32529648268524569 0 0.47658865998997602 -0.32215501455014722 0 0.45912670179437159 -0.32529648268524569 0 0.46847085521101572 -0.33332563296710449 0 0.44786295676563898 -0.31227556421227842 0 0.47275113452958079 -0.30583856747962102 0 0.45912670179437159 -0.32529648268524569 0 0.45635559994258779 -0.34404255943631828 0 0.45912670179437159 -0.32529648268524569 0 0.46847085521101572 -0.33332563296710449 0 0.45635559994258779 -0.34404255943631828 0 0.44550226905916251 -0.34475439789087031 0 0.45912670179437159 -0.32529648268524569 0 0.45635559994258779 -0.34404255943631828 0 0.46847085521101572 -0.33332563296710449 0 0.46785187243800891 -0.34346955469840529 0 0.44550226905916251 -0.34475439789087031 0 0.45912670179437159 -0.32529648268524569 0 0.44550226905916251 -0.34475439789087031 0 0.4436730221562083 -0.32897468748030217 0 0.42479079380947499 -0.34023359768673977 0 0.44550226905916251 -0.34475439789087031 0 0.45912670179437159 -0.32529648268524569 0 0.4436730221562083 -0.32897468748030217 0 0.44786295676563898 -0.31227556421227842 0 0.45912670179437159 -0.32529648268524569 0 0.4436730221562083 -0.32897468748030217 0 0.44786295676563898 -0.31227556421227842 0 0.4436730221562083 -0.32897468748030217 0 0.43157025982989611 -0.3215886808500209 0 0.44786295676563898 -0.31227556421227842 0 0.43157025982989611 -0.3215886808500209 0 0.42661142637512323 -0.30643921652742467 0 0.43157025982989611 -0.3215886808500209 0 0.41679818711702482 -0.32374805455458111 0 0.42661142637512323 -0.30643921652742467 0 0.4436730221562083 -0.32897468748030217 0 0.43157025982989611 -0.3215886808500209 0 0.42479079380947499 -0.34023359768673977 0 0.43157025982989611 -0.3215886808500209 0 0.42479079380947499 -0.34023359768673977 0 0.41679818711702482 -0.32374805455458111 0 0.42479079380947499 -0.34023359768673977 0 0.41679818711702482 -0.32374805455458111 0 0.40057328825529293 -0.33353804222947792 0 0.42479079380947499 -0.34023359768673977 0 0.39846686009671722 -0.35574323293456678 0 0.40057328825529293 -0.33353804222947792 0 0.41679818711702482 -0.32374805455458111 0 0.40057328825529293 -0.33353804222947792 0 0.40295563879105639 -0.31136075791057771 0 0.41679818711702482 -0.32374805455458111 0 0.40295563879105639 -0.31136075791057771 0 0.42661142637512323 -0.30643921652742467 0 0.44617010199408491 -0.36683289313541451 0 0.42231848104540098 -0.36128806303499073 0 0.43469541147703078 -0.35327723793700377 0 0.44617010199408491 -0.36683289313541451 0 0.42231848104540098 -0.36128806303499073 0 0.44617010199408491 -0.36683289313541451 0 0.42231848104540098 -0.36128806303499073 0 0.4259786813496132 -0.37697857796733691 0 0.44550226905916251 -0.34475439789087031 0 0.42479079380947499 -0.34023359768673977 0 0.43469541147703078 -0.35327723793700377 0 0.42479079380947499 -0.34023359768673977 0 0.42231848104540098 -0.36128806303499073 0 0.43469541147703078 -0.35327723793700377 0 0.42479079380947499 -0.34023359768673977 0 0.42231848104540098 -0.36128806303499073 0 0.39846686009671722 -0.35574323293456678 0 0.42231848104540098 -0.36128806303499073 0 0.39846686009671722 -0.35574323293456678 0 0.42231848104540098 -0.36128806303499073 0 0.41044275639336097 -0.37463701984559689 0 0.39846686009671722 -0.35574323293456678 0 0.42231848104540098 -0.36128806303499073 0 0.41044275639336097 -0.37463701984559689 0 0.4259786813496132 -0.37697857796733691 0 0.41044275639336097 -0.37463701984559689 0 0.39846686009671722 -0.35574323293456678 0 0.39414713270676432 -0.37613661070006649 0 0.39846686009671722 -0.35574323293456678 0 0.40057328825529293 -0.33353804222947792 0 0.37461523914803352 -0.35019840283414311 0 0.39846686009671722 -0.35574323293456678 0 0.37915673142438461 -0.36923929362648877 0 0.37461523914803352 -0.35019840283414311 0 0.39846686009671722 -0.35574323293456678 0 0.37461523914803352 -0.35019840283414311 0 0.39846686009671722 -0.35574323293456678 0 0.37915673142438461 -0.36923929362648877 0 0.39414713270676432 -0.37613661070006649 0 0.40057328825529293 -0.33353804222947792 0 0.38139974697713191 -0.32036365703231012 0 0.40295563879105639 -0.31136075791057771 0 0.40057328825529293 -0.33353804222947792 0 0.38139974697713191 -0.32036365703231012 0 0.37461523914803352 -0.35019840283414311 0 0.38139974697713191 -0.32036365703231012 0 0.38527395987857621 -0.30103805908344561 0 0.40295563879105639 -0.31136075791057771 0 0.38139974697713191 -0.32036365703231012 0 0.38527395987857621 -0.30103805908344561 0 0.36556372294148459 -0.30264526497339572 0 0.38527395987857621 -0.30103805908344561 0 0.40295563879105639 -0.31136075791057771 0 0.39955175359555978 -0.29078466164494038 0 0.40295563879105639 -0.31136075791057771 0 0.39955175359555978 -0.29078466164494038 0 0.4162420123861319 -0.29126817210255829 0 0.38527395987857621 -0.30103805908344561 0 0.39955175359555978 -0.29078466164494038 0 0.38715958111021032 -0.28022416960830437 0 0.38527395987857621 -0.30103805908344561 0 0.38715958111021032 -0.28022416960830437 0 0.37393234289104532 -0.2873164156573686 0 0.38715958111021032 -0.28022416960830437 0 0.3855615428608043 -0.25883493775618199 0 0.37379345492321331 -0.27348406638549388 0 0.38715958111021032 -0.28022416960830437 0 0.37379345492321331 -0.27348406638549388 0 0.37393234289104532 -0.2873164156573686 0 0.40250408976742202 -0.24396802432281181 0 0.3855615428608043 -0.25883493775618199 0 0.40612757581182418 -0.27003214951981608 0 0.38715958111021032 -0.28022416960830437 0 0.3855615428608043 -0.25883493775618199 0 0.40612757581182418 -0.27003214951981608 0 0.39955175359555978 -0.29078466164494038 0 0.38715958111021032 -0.28022416960830437 0 0.40612757581182418 -0.27003214951981608 0 0.40612757581182418 -0.27003214951981608 0 0.42952838598120752 -0.27117558629453881 0 0.4162420123861319 -0.29126817210255829 0 0.40250408976742202 -0.24396802432281181 0 0.4207786978271047 -0.24920565126511501 0 0.40612757581182418 -0.27003214951981608 0 0.4207786978271047 -0.24920565126511501 0 0.40612757581182418 -0.27003214951981608 0 0.42952838598120752 -0.27117558629453881 0 0.44281475957628352 -0.25108300048651983 0 0.42952838598120752 -0.27117558629453881 0 0.4207786978271047 -0.24920565126511501 0 0.44281475957628352 -0.25108300048651983 0 0.42952838598120752 -0.27117558629453881 0 0.42952838598120752 -0.27117558629453881 0 0.4162420123861319 -0.29126817210255829 0 0.43864146578718471 -0.29326934567736562 0 0.42952838598120752 -0.27117558629453881 0 0.4162420123861319 -0.29126817210255829 0 0.43864146578718471 -0.29326934567736562 0 0.42661142637512323 -0.30643921652742467 0 0.4162420123861319 -0.29126817210255829 0 0.40295563879105639 -0.31136075791057771 0 0.4162420123861319 -0.29126817210255829 0 0.40295563879105639 -0.31136075791057771 0 0.42661142637512323 -0.30643921652742467 0 0.4162420123861319 -0.29126817210255829 0 0.39955175359555978 -0.29078466164494038 0 0.40612757581182418 -0.27003214951981608 0 0.4162420123861319 -0.29126817210255829 0 0.45206205595859378 -0.48393641576881241 0 0.43113019969245242 -0.47868368726067329 0 0.4331741278315796 -0.5 0 0.45206205595859378 -0.48393641576881241 0 0.45826202767595942 -0.49999999999999989 0 0.4331741278315796 -0.5 0 0.45206205595859378 -0.48393641576881241 0 0.44586208424122831 -0.46787283153762471 0 0.43113019969245242 -0.47868368726067329 0 0.45206205595859378 -0.48393641576881241 0 0.44586208424122831 -0.46787283153762471 0 0.45206205595859378 -0.48393641576881241 0 0.46598099889070421 -0.4737431184185924 0 0.44586208424122831 -0.46787283153762471 0 0.45206205595859378 -0.48393641576881241 0 0.46598099889070421 -0.4737431184185924 0 0.46370184855263019 -0.48883437799201629 0 0.46598099889070421 -0.4737431184185924 0 0.44586208424122831 -0.46787283153762471 0 0.46598099889070421 -0.4737431184185924 0 0.46370184855263019 -0.48883437799201629 0 0.47485487017799438 -0.48582645087642828 0 0.45206205595859378 -0.48393641576881241 0 0.46370184855263019 -0.48883437799201629 0 0.45826202767595942 -0.49999999999999989 0 0.45206205595859378 -0.48393641576881241 0 0.45826202767595942 -0.49999999999999989 0 0.46370184855263019 -0.48883437799201629 0 0.45826202767595942 -0.49999999999999989 0 0.47273984883480169 -0.49999999999999989 0 0.46370184855263019 -0.48883437799201629 0 0.47273984883480169 -0.49999999999999989 0 0.47485487017799438 -0.48582645087642828 0 0.47273984883480169 -0.49999999999999989 0 0.47485487017799438 -0.48582645087642828 0 0.48636992441740129 -0.48686498743157741 0 0.47273984883480169 -0.49999999999999989 0 0.48636992441740129 -0.48686498743157741 0 0.5 -0.5 0 0.48636992441740129 -0.48686498743157741 0 0.50000000000000056 -0.47372997486315471 0 0.47273984883480169 -0.49999999999999989 0 0.5 -0.5 0 0.48636992441740129 -0.48686498743157741 0 0.48636992441740129 -0.48686498743157741 0 0.50000000000000056 -0.47372997486315471 0 0.48636992441740129 -0.48686498743157741 0 0.50000000000000056 -0.47372997486315471 0 0.48609991354018017 -0.47961340529956031 0 0.50000000000000056 -0.47372997486315471 0 0.48609991354018017 -0.47961340529956031 0 0.48908841972808931 -0.46519996462269281 0 0.48609991354018017 -0.47961340529956031 0 0.47842097275787288 -0.4674628300496888 0 0.48908841972808931 -0.46519996462269281 0 0.46598099889070421 -0.4737431184185924 0 0.47485487017799438 -0.48582645087642828 0 0.48609991354018017 -0.47961340529956031 0 0.46598099889070421 -0.4737431184185924 0 0.48609991354018017 -0.47961340529956031 0 0.46598099889070421 -0.4737431184185924 0 0.48609991354018017 -0.47961340529956031 0 0.47842097275787288 -0.4674628300496888 0 0.47485487017799438 -0.48582645087642828 0 0.48636992441740129 -0.48686498743157741 0 0.48609991354018017 -0.47961340529956031 0 0.5 -0.44418608374961438 0 0.47137953212685568 -0.44639822016663622 0 0.46750979840084511 -0.42842225955452379 0 0.46598099889070421 -0.4737431184185924 0 0.47119424785838981 -0.45986472727474698 0 0.47842097275787288 -0.4674628300496888 0 0.47119424785838981 -0.45986472727474698 0 0.48165682355402573 -0.45742959183386622 0 0.47137953212685568 -0.44639822016663622 0 0.48165682355402573 -0.45742959183386622 0 0.47842097275787288 -0.4674628300496888 0 0.48908841972808931 -0.46519996462269281 0 0.47119424785838981 -0.45986472727474698 0 0.48165682355402573 -0.45742959183386622 0 0.47842097275787288 -0.4674628300496888 0 0.50000000000000056 -0.47372997486315471 0 0.48908841972808931 -0.46519996462269281 0 0.5 -0.44418608374961438 0 0.48165682355402573 -0.45742959183386622 0 0.48908841972808931 -0.46519996462269281 0 0.5 -0.44418608374961438 0 0.48165682355402573 -0.45742959183386622 0 0.5 -0.44418608374961438 0 0.47137953212685568 -0.44639822016663622 0 0.47137953212685568 -0.44639822016663622 0 0.45853291196249052 -0.45428987590495129 0 0.46750979840084511 -0.42842225955452379 0 0.45853291196249052 -0.45428987590495129 0 0.46750979840084511 -0.42842225955452379 0 0.45853291196249052 -0.45428987590495129 0 0.45064803536435188 -0.44410956377208621 0 0.46750979840084511 -0.42842225955452379 0 0.46598099889070421 -0.4737431184185924 0 0.45853291196249052 -0.45428987590495129 0 0.44586208424122831 -0.46787283153762471 0 0.47119424785838981 -0.45986472727474698 0 0.47137953212685568 -0.44639822016663622 0 0.45853291196249052 -0.45428987590495129 0 0.46598099889070421 -0.4737431184185924 0 0.47119424785838981 -0.45986472727474698 0 0.45853291196249052 -0.45428987590495129 0 0.45853291196249052 -0.45428987590495129 0 0.44586208424122831 -0.46787283153762471 0 0.43986994027653858 -0.45234771082899478 0 0.44586208424122831 -0.46787283153762471 0 0.43986994027653858 -0.45234771082899478 0 0.42748573472934559 -0.46251098944329982 0 0.44586208424122831 -0.46787283153762471 0 0.43986994027653858 -0.45234771082899478 0 0.45853291196249052 -0.45428987590495129 0 0.43986994027653858 -0.45234771082899478 0 0.45064803536435188 -0.44410956377208621 0 0.43986994027653858 -0.45234771082899478 0 0.44263523599127358 -0.44598103236153341 0 0.45064803536435188 -0.44410956377208621 0 0.43986994027653858 -0.45234771082899478 0 0.44263523599127358 -0.44598103236153341 0 0.43387779631184897 -0.43682259012036478 0 0.44263523599127358 -0.44598103236153341 0 0.44046381010232599 -0.43938812976049468 0 0.43387779631184897 -0.43682259012036478 0 0.44046381010232599 -0.43938812976049468 0 0.44648930536323578 -0.43931796138727752 0 0.44529389056466678 -0.43432395783471212 0 0.44263523599127358 -0.44598103236153341 0 0.44046381010232599 -0.43938812976049468 0 0.44648930536323578 -0.43931796138727752 0 0.44263523599127358 -0.44598103236153341 0 0.45064803536435188 -0.44410956377208621 0 0.44648930536323578 -0.43931796138727752 0 0.45064803536435188 -0.44410956377208621 0 0.44648930536323578 -0.43931796138727752 0 0.45256545112800572 -0.43039959964075608 0 0.45256545112800572 -0.43039959964075608 0 0.44529389056466678 -0.43432395783471212 0 0.43963427936833238 -0.4294918917675653 0 0.44648930536323578 -0.43931796138727752 0 0.45256545112800572 -0.43039959964075608 0 0.44529389056466678 -0.43432395783471212 0 0.44046381010232599 -0.43938812976049468 0 0.44529389056466678 -0.43432395783471212 0 0.43846506067960089 -0.43573086388391608 0 0.44046381010232599 -0.43938812976049468 0 0.43846506067960089 -0.43573086388391608 0 0.43372126260171212 -0.43442130780973548 0 0.44529389056466678 -0.43432395783471212 0 0.43846506067960089 -0.43573086388391608 0 0.43963427936833238 -0.4294918917675653 0 0.45256545112800572 -0.43039959964075608 0 0.43963427936833238 -0.4294918917675653 0 0.43923984589874387 -0.41659189677504982 0 0.45256545112800572 -0.43039959964075608 0 0.43923984589874387 -0.41659189677504982 0 0.45604372132556992 -0.40559321978445451 0 0.46750979840084511 -0.42842225955452379 0 0.47648668483919959 -0.40255464320409617 0 0.45604372132556992 -0.40559321978445451 0 0.45256545112800572 -0.43039959964075608 0 0.46750979840084511 -0.42842225955452379 0 0.45604372132556992 -0.40559321978445451 0 0.45064803536435188 -0.44410956377208621 0 0.45256545112800572 -0.43039959964075608 0 0.46750979840084511 -0.42842225955452379 0 0.5 -0.44418608374961438 0 0.46750979840084511 -0.42842225955452379 0 0.5 -0.41464219263607399 0 0.46750979840084511 -0.42842225955452379 0 0.5 -0.41464219263607399 0 0.47648668483919959 -0.40255464320409617 0 0.46750979840084511 -0.42842225955452379 0 0.47648668483919959 -0.40255464320409617 0 0.47648668483919959 -0.40255464320409617 0 0.48830967695563737 -0.39391582355042809 0 0.48450567406329031 -0.37944728430060087 0 0.47648668483919959 -0.40255464320409617 0 0.48450567406329031 -0.37944728430060087 0 0.5 -0.41464219263607399 0 0.47648668483919959 -0.40255464320409617 0 0.48830967695563737 -0.39391582355042809 0 0.5 -0.41464219263607399 0 0.48830967695563737 -0.39391582355042809 0 0.5 -0.38509830152253383 0 0.48899028965031738 -0.36652450575360612 0 0.5 -0.38509830152253383 0 0.48546357127755468 -0.37668702685366878 0 0.48830967695563737 -0.39391582355042809 0 0.5 -0.38509830152253383 0 0.48450567406329031 -0.37944728430060087 0 0.5 -0.38509830152253383 0 0.48450567406329031 -0.37944728430060087 0 0.48546357127755468 -0.37668702685366878 0 0.48450567406329031 -0.37944728430060087 0 0.48546357127755468 -0.37668702685366878 0 0.48450567406329031 -0.37944728430060087 0 0.48546357127755468 -0.37668702685366878 0 0.47012206795774569 -0.38591136034530399 0 0.47648668483919959 -0.40255464320409617 0 0.48450567406329031 -0.37944728430060087 0 0.47012206795774569 -0.38591136034530399 0 0.47404921739447298 -0.37486241816695298 0 0.4632279375112745 -0.37079835946691808 0 0.47012206795774569 -0.38591136034530399 0 0.47404921739447298 -0.37486241816695298 0 0.48546357127755468 -0.37668702685366878 0 0.47012206795774569 -0.38591136034530399 0 0.4632279375112745 -0.37079835946691808 0 0.47012206795774569 -0.38591136034530399 0 0.45270710973308581 -0.38397974351096997 0 0.47648668483919959 -0.40255464320409617 0 0.47012206795774569 -0.38591136034530399 0 0.45604372132556992 -0.40559321978445451 0 0.47012206795774569 -0.38591136034530399 0 0.45604372132556992 -0.40559321978445451 0 0.45270710973308581 -0.38397974351096997 0 0.43923984589874387 -0.41659189677504982 0 0.45604372132556992 -0.40559321978445451 0 0.43517597854362938 -0.39143254878619838 0 0.45604372132556992 -0.40559321978445451 0 0.45270710973308581 -0.38397974351096997 0 0.43517597854362938 -0.39143254878619838 0 0.44617010199408491 -0.36683289313541451 0 0.43517597854362938 -0.39143254878619838 0 0.44617010199408491 -0.36683289313541451 0 0.45270710973308581 -0.38397974351096997 0 0.43517597854362938 -0.39143254878619838 0 0.4259786813496132 -0.37697857796733691 0 0.43517597854362938 -0.39143254878619838 0 0.41578608877158968 -0.39070236503448391 0 0.44617010199408491 -0.36683289313541451 0 0.4259786813496132 -0.37697857796733691 0 0.43517597854362938 -0.39143254878619838 0 0.43517597854362938 -0.39143254878619838 0 0.41765990171157408 -0.40407362446142109 0 0.42418185509317391 -0.41603220443698241 0 0.43517597854362938 -0.39143254878619838 0 0.42418185509317391 -0.41603220443698241 0 0.43517597854362938 -0.39143254878619838 0 0.41578608877158968 -0.39070236503448391 0 0.41765990171157408 -0.40407362446142109 0 0.41578608877158968 -0.39070236503448391 0 0.41765990171157408 -0.40407362446142109 0 0.40618132828340719 -0.40104972870247529 0 0.41578608877158968 -0.39070236503448391 0 0.4002627160998723 -0.38884043111390559 0 0.40618132828340719 -0.40104972870247529 0 0.41044275639336097 -0.37463701984559689 0 0.4259786813496132 -0.37697857796733691 0 0.41578608877158968 -0.39070236503448391 0 0.41044275639336097 -0.37463701984559689 0 0.41578608877158968 -0.39070236503448391 0 0.4002627160998723 -0.38884043111390559 0 0.41044275639336097 -0.37463701984559689 0 0.4002627160998723 -0.38884043111390559 0 0.39414713270676432 -0.37613661070006649 0 0.4002627160998723 -0.38884043111390559 0 0.39414713270676432 -0.37613661070006649 0 0.38513831396566589 -0.38388444369404567 0 0.37915673142438461 -0.36923929362648877 0 0.38513831396566589 -0.38388444369404567 0 0.36571996330592438 -0.38432891380114342 0 0.38513831396566589 -0.38388444369404567 0 0.38838706307118692 -0.40102637847067429 0 0.36571996330592438 -0.38432891380114342 0 0.37915673142438461 -0.36923929362648877 0 0.39414713270676432 -0.37613661070006649 0 0.38513831396566589 -0.38388444369404567 0 0.38838706307118692 -0.40102637847067429 0 0.37417776664354352 -0.4074605010631277 0 0.36571996330592438 -0.38432891380114342 0 0.38838706307118692 -0.40102637847067429 0 0.36571996330592438 -0.38432891380114342 0 0.38838706307118692 -0.40102637847067429 0 0.39394872223132499 -0.40705143433133079 0 0.38425665501897938 -0.41041858967272887 0 0.4002627160998723 -0.38884043111390559 0 0.38513831396566589 -0.38388444369404567 0 0.38838706307118692 -0.40102637847067429 0 0.4002627160998723 -0.38884043111390559 0 0.38838706307118692 -0.40102637847067429 0 0.40618132828340719 -0.40104972870247529 0 0.38838706307118692 -0.40102637847067429 0 0.41105416283644919 -0.41772384314020522 0 0.39394872223132499 -0.40705143433133079 0 0.40882068138290961 -0.42754734166481789 0 0.41105416283644919 -0.41772384314020522 0 0.39394872223132499 -0.40705143433133079 0 0.38392010016410683 -0.42067337551990203 0 0.40882068138290961 -0.42754734166481789 0 0.38838706307118692 -0.40102637847067429 0 0.39394872223132499 -0.40705143433133079 0 0.41105416283644919 -0.41772384314020522 0 0.38838706307118692 -0.40102637847067429 0 0.40618132828340719 -0.40104972870247529 0 0.41105416283644919 -0.41772384314020522 0 0.39394872223132499 -0.40705143433133079 0 0.38392010016410683 -0.42067337551990203 0 0.39394872223132499 -0.40705143433133079 0 0.38425665501897938 -0.41041858967272887 0 0.38392010016410683 -0.42067337551990203 0 0.38425665501897938 -0.41041858967272887 0 0.38392010016410683 -0.42067337551990203 0 0.37417776664354352 -0.4074605010631277 0 0.38838706307118692 -0.40102637847067429 0 0.38425665501897938 -0.41041858967272887 0 0.37417776664354352 -0.4074605010631277 0 0.38392010016410683 -0.42067337551990203 0 0.38606760152399988 -0.43833186393664542 0 0.37094681969752241 -0.43829506495582432 0 0.38392010016410683 -0.42067337551990203 0 0.37094681969752241 -0.43829506495582432 0 0.38392010016410683 -0.42067337551990203 0 0.39904541076474909 -0.43418662808338382 0 0.38606760152399988 -0.43833186393664542 0 0.38392010016410683 -0.42067337551990203 0 0.40882068138290961 -0.42754734166481789 0 0.38392010016410683 -0.42067337551990203 0 0.39904541076474909 -0.43418662808338382 0 0.40882068138290961 -0.42754734166481789 0 0.39904541076474909 -0.43418662808338382 0 0.4093154517102402 -0.4371924635738979 0 0.40882068138290961 -0.42754734166481789 0 0.4093154517102402 -0.4371924635738979 0 0.41721302559235979 -0.43695811147164709 0 0.40882068138290961 -0.42754734166481789 0 0.40882068138290961 -0.42754734166481789 0 0.41105416283644919 -0.41772384314020522 0 0.43372126260171212 -0.43442130780973548 0 0.40882068138290961 -0.42754734166481789 0 0.43372126260171212 -0.43442130780973548 0 0.41721302559235979 -0.43695811147164709 0 0.40882068138290961 -0.42754734166481789 0 0.42681986011972839 -0.43607693650733448 0 0.41765990171157408 -0.40407362446142109 0 0.40618132828340719 -0.40104972870247529 0 0.41105416283644919 -0.41772384314020522 0 0.41105416283644919 -0.41772384314020522 0 0.42418185509317391 -0.41603220443698241 0 0.42956628115968232 -0.42285222878590761 0 0.41765990171157408 -0.40407362446142109 0 0.41105416283644919 -0.41772384314020522 0 0.42418185509317391 -0.41603220443698241 0 0.43923984589874387 -0.41659189677504982 0 0.43517597854362938 -0.39143254878619838 0 0.42418185509317391 -0.41603220443698241 0 0.43923984589874387 -0.41659189677504982 0 0.42418185509317391 -0.41603220443698241 0 0.42956628115968232 -0.42285222878590761 0 0.43963427936833238 -0.4294918917675653 0 0.43923984589874387 -0.41659189677504982 0 0.42956628115968232 -0.42285222878590761 0 0.43963427936833238 -0.4294918917675653 0 0.43372126260171212 -0.43442130780973548 0 0.42956628115968232 -0.42285222878590761 0 0.41105416283644919 -0.41772384314020522 0 0.43372126260171212 -0.43442130780973548 0 0.41105416283644919 -0.41772384314020522 0 0.43372126260171212 -0.43442130780973548 0 0.42956628115968232 -0.42285222878590761 0 0.40882068138290961 -0.42754734166481789 0 0.43372126260171212 -0.43442130780973548 0 0.42681986011972839 -0.43607693650733448 0 0.43846506067960089 -0.43573086388391608 0 0.43963427936833238 -0.4294918917675653 0 0.43372126260171212 -0.43442130780973548 0 0.44046381010232599 -0.43938812976049468 0 0.43372126260171212 -0.43442130780973548 0 0.43846506067960089 -0.43573086388391608 0 0.43372126260171212 -0.43442130780973548 0 0.44046381010232599 -0.43938812976049468 0 0.43372126260171212 -0.43442130780973548 0 0.43387779631184897 -0.43682259012036478 0 0.43372126260171212 -0.43442130780973548 0 0.43143045340427721 -0.43665812365247297 0 0.42681986011972839 -0.43607693650733448 0 0.43372126260171212 -0.43442130780973548 0 0.43387779631184897 -0.43682259012036478 0 0.43143045340427721 -0.43665812365247297 0 0.43387779631184897 -0.43682259012036478 0 0.43143045340427721 -0.43665812365247297 0 0.43081090146871059 -0.4384310875564702 0 0.43143045340427721 -0.43665812365247297 0 0.42681986011972839 -0.43607693650733448 0 0.43081090146871059 -0.4384310875564702 0 0.41721302559235979 -0.43695811147164709 0 0.42681986011972839 -0.43607693650733448 0 0.42299121729305361 -0.44199643772293912 0 0.42424580782735333 -0.45013494892629158 0 0.42299121729305361 -0.44199643772293912 0 0.43032830705481412 -0.44275778376012898 0 0.42681986011972839 -0.43607693650733448 0 0.42299121729305361 -0.44199643772293912 0 0.43032830705481412 -0.44275778376012898 0 0.42681986011972839 -0.43607693650733448 0 0.43032830705481412 -0.44275778376012898 0 0.43081090146871059 -0.4384310875564702 0 0.43986994027653858 -0.45234771082899478 0 0.43387779631184897 -0.43682259012036478 0 0.43032830705481412 -0.44275778376012898 0 0.43986994027653858 -0.45234771082899478 0 0.43387779631184897 -0.43682259012036478 0 0.43387779631184897 -0.43682259012036478 0 0.43032830705481412 -0.44275778376012898 0 0.43081090146871059 -0.4384310875564702 0 0.43986994027653858 -0.45234771082899478 0 0.42424580782735333 -0.45013494892629158 0 0.43032830705481412 -0.44275778376012898 0 0.43986994027653858 -0.45234771082899478 0 0.42424580782735333 -0.45013494892629158 0 0.42748573472934559 -0.46251098944329982 0 0.44586208424122831 -0.46787283153762471 0 0.42748573472934559 -0.46251098944329982 0 0.42424580782735333 -0.45013494892629158 0 0.42748573472934559 -0.46251098944329982 0 0.40910938521746298 -0.45714914734897522 0 0.42748573472934559 -0.46251098944329982 0 0.40910938521746298 -0.45714914734897522 0 0.42748573472934559 -0.46251098944329982 0 0.40910938521746298 -0.45714914734897522 0 0.41253997720953473 -0.47084337357271761 0 0.40910938521746298 -0.45714914734897522 0 0.41525724050208779 -0.44409015701846077 0 0.4062409003090946 -0.44318007963117961 0 0.42424580782735333 -0.45013494892629158 0 0.42299121729305361 -0.44199643772293912 0 0.41525724050208779 -0.44409015701846077 0 0.42424580782735333 -0.45013494892629158 0 0.40910938521746298 -0.45714914734897522 0 0.41525724050208779 -0.44409015701846077 0 0.41721302559235979 -0.43695811147164709 0 0.42299121729305361 -0.44199643772293912 0 0.41525724050208779 -0.44409015701846077 0 0.4093154517102402 -0.4371924635738979 0 0.41525724050208779 -0.44409015701846077 0 0.4062409003090946 -0.44318007963117961 0 0.4093154517102402 -0.4371924635738979 0 0.41721302559235979 -0.43695811147164709 0 0.41525724050208779 -0.44409015701846077 0 0.39904541076474909 -0.43418662808338382 0 0.4062409003090946 -0.44318007963117961 0 0.39644048012116528 -0.4465468058584624 0 0.39904541076474909 -0.43418662808338382 0 0.4093154517102402 -0.4371924635738979 0 0.4062409003090946 -0.44318007963117961 0 0.40910938521746298 -0.45714914734897522 0 0.4062409003090946 -0.44318007963117961 0 0.39644048012116528 -0.4465468058584624 0 0.39904541076474909 -0.43418662808338382 0 0.39644048012116528 -0.4465468058584624 0 0.38606760152399988 -0.43833186393664542 0 0.39644048012116528 -0.4465468058584624 0 0.38606760152399988 -0.43833186393664542 0 0.37998519687245552 -0.45195744526565401 0 0.38606760152399988 -0.43833186393664542 0 0.37998519687245552 -0.45195744526565401 0 0.37094681969752241 -0.43829506495582432 0 0.37998519687245552 -0.45195744526565401 0 0.38331208030999059 -0.46605072534988212 0 0.39635455089356419 -0.46120159371235991 0 0.37998519687245552 -0.45195744526565401 0 0.38331208030999059 -0.46605072534988212 0 0.36865310868603463 -0.46673298468006702 0 0.39644048012116528 -0.4465468058584624 0 0.37998519687245552 -0.45195744526565401 0 0.39635455089356419 -0.46120159371235991 0 0.38331208030999059 -0.46605072534988212 0 0.39635455089356419 -0.46120159371235991 0 0.39701605807181672 -0.47559595963638041 0 0.40910938521746298 -0.45714914734897522 0 0.39635455089356419 -0.46120159371235991 0 0.41253997720953473 -0.47084337357271761 0 0.40910938521746298 -0.45714914734897522 0 0.39644048012116528 -0.4465468058584624 0 0.39635455089356419 -0.46120159371235991 0 0.39435095054877511 -0.4837179577071683 0 0.39701605807181672 -0.47559595963638041 0 0.41324308246182911 -0.48649300439046061 0 0.39635455089356419 -0.46120159371235991 0 0.39701605807181672 -0.47559595963638041 0 0.41253997720953473 -0.47084337357271761 0 0.39435095054877511 -0.4837179577071683 0 0.39701605807181672 -0.47559595963638041 0 0.38156790628131981 -0.47953636460660187 0 0.38331208030999059 -0.46605072534988212 0 0.39701605807181672 -0.47559595963638041 0 0.38156790628131981 -0.47953636460660187 0 0.38331208030999059 -0.46605072534988212 0 0.38156790628131981 -0.47953636460660187 0 0.36865310868603463 -0.46673298468006702 0 0.38299832814281992 -0.5 0 0.38557675538013458 -0.49324650219523042 0 0.35791042829844 -0.50000000000000011 0 0.38156790628131981 -0.47953636460660187 0 0.38557675538013458 -0.49324650219523042 0 0.37279071898110722 -0.48857780959636898 0 0.39435095054877511 -0.4837179577071683 0 0.38156790628131981 -0.47953636460660187 0 0.38557675538013458 -0.49324650219523042 0 0.38557675538013458 -0.49324650219523042 0 0.41324308246182911 -0.48649300439046061 0 0.38557675538013458 -0.49324650219523042 0 0.41324308246182911 -0.48649300439046061 0 0.40808622798719968 -0.5 0 0.39435095054877511 -0.4837179577071683 0 0.38557675538013458 -0.49324650219523042 0 0.41324308246182911 -0.48649300439046061 0 0.38299832814281992 -0.5 0 0.38557675538013458 -0.49324650219523042 0 0.40808622798719968 -0.5 0 0.41324308246182911 -0.48649300439046061 0 0.40808622798719968 -0.5 0 0.4331741278315796 -0.5 0 0.41324308246182911 -0.48649300439046061 0 0.41253997720953473 -0.47084337357271761 0 0.43113019969245242 -0.47868368726067329 0 0.39701605807181672 -0.47559595963638041 0 0.41324308246182911 -0.48649300439046061 0 0.41253997720953473 -0.47084337357271761 0 0.44586208424122831 -0.46787283153762471 0 0.42748573472934559 -0.46251098944329982 0 0.43113019969245242 -0.47868368726067329 0 0.42748573472934559 -0.46251098944329982 0 0.41253997720953473 -0.47084337357271761 0 0.43113019969245242 -0.47868368726067329 0 0.41324308246182911 -0.48649300439046061 0 0.43113019969245242 -0.47868368726067329 0 0.4331741278315796 -0.5 0 0.3251305746738572 -0.47966621389621428 0 0.32947695875196797 -0.5 0 0.30104348920549617 -0.5 0 0.3251305746738572 -0.47966621389621428 0 0.31540157500642901 -0.46128958533327757 0 0.30427331294903259 -0.47596710867782321 0 0.3251305746738572 -0.47966621389621428 0 0.34500025876434942 -0.47353844382766541 0 0.33775830216035629 -0.45713042046235608 0 0.3251305746738572 -0.47966621389621428 0 0.32947695875196797 -0.5 0 0.34500025876434942 -0.47353844382766541 0 0.35791042829844 -0.50000000000000011 0 0.36610778596453419 -0.48152837158364381 0 0.34500025876434942 -0.47353844382766541 0 0.32947695875196797 -0.5 0 0.35791042829844 -0.50000000000000011 0 0.34500025876434942 -0.47353844382766541 0 0.38557675538013458 -0.49324650219523042 0 0.35791042829844 -0.50000000000000011 0 0.37279071898110722 -0.48857780959636898 0 0.35791042829844 -0.50000000000000011 0 0.37279071898110722 -0.48857780959636898 0 0.36610778596453419 -0.48152837158364381 0 0.38557675538013458 -0.49324650219523042 0 0.35791042829844 -0.50000000000000011 0 0.36610778596453419 -0.48152837158364381 0 0.34500025876434942 -0.47353844382766541 0 0.36865310868603463 -0.46673298468006702 0 0.38156790628131981 -0.47953636460660187 0 0.36610778596453419 -0.48152837158364381 0 0.36865310868603463 -0.46673298468006702 0 0.38156790628131981 -0.47953636460660187 0 0.37279071898110722 -0.48857780959636898 0 0.36610778596453419 -0.48152837158364381 0 0.34500025876434942 -0.47353844382766541 0 0.35797353923093589 -0.45591675439174478 0 0.33775830216035629 -0.45713042046235608 0 0.34500025876434942 -0.47353844382766541 0 0.35797353923093589 -0.45591675439174478 0 0.36865310868603463 -0.46673298468006702 0 0.34500025876434942 -0.47353844382766541 0 0.35797353923093589 -0.45591675439174478 0 0.37998519687245552 -0.45195744526565401 0 0.35797353923093589 -0.45591675439174478 0 0.36865310868603463 -0.46673298468006702 0 0.35797353923093589 -0.45591675439174478 0 0.37094681969752241 -0.43829506495582432 0 0.35242821035783589 -0.43824784244077802 0 0.37998519687245552 -0.45195744526565401 0 0.35797353923093589 -0.45591675439174478 0 0.37094681969752241 -0.43829506495582432 0 0.35797353923093589 -0.45591675439174478 0 0.37094681969752241 -0.43829506495582432 0 0.35797353923093589 -0.45591675439174478 0 0.35242821035783589 -0.43824784244077802 0 0.33775830216035629 -0.45713042046235608 0 0.35242821035783589 -0.43824784244077802 0 0.33775830216035629 -0.45713042046235608 0 0.33061565492873107 -0.43412368288445619 0 0.3251305746738572 -0.47966621389621428 0 0.33775830216035629 -0.45713042046235608 0 0.31540157500642901 -0.46128958533327757 0 0.31540157500642901 -0.46128958533327757 0 0.33061565492873107 -0.43412368288445619 0 0.30172361013069549 -0.44129059453551939 0 0.33775830216035629 -0.45713042046235608 0 0.31540157500642901 -0.46128958533327757 0 0.33061565492873107 -0.43412368288445619 0 0.31308921576600451 -0.42131801671695951 0 0.33061565492873107 -0.43412368288445619 0 0.30172361013069549 -0.44129059453551939 0 0.31308921576600451 -0.42131801671695951 0 0.33220756379225602 -0.4063977961201935 0 0.307782133997548 -0.40077653134231339 0 0.31308921576600451 -0.42131801671695951 0 0.33220756379225602 -0.4063977961201935 0 0.33061565492873107 -0.43412368288445619 0 0.33220756379225602 -0.4063977961201935 0 0.33061565492873107 -0.43412368288445619 0 0.35806383197818148 -0.41353558582004729 0 0.35242821035783589 -0.43824784244077802 0 0.33061565492873107 -0.43412368288445619 0 0.35806383197818148 -0.41353558582004729 0 0.38392010016410683 -0.42067337551990203 0 0.37094681969752241 -0.43829506495582432 0 0.35806383197818148 -0.41353558582004729 0 0.37094681969752241 -0.43829506495582432 0 0.35242821035783589 -0.43824784244077802 0 0.35806383197818148 -0.41353558582004729 0 0.38392010016410683 -0.42067337551990203 0 0.35806383197818148 -0.41353558582004729 0 0.38392010016410683 -0.42067337551990203 0 0.37417776664354352 -0.4074605010631277 0 0.35806383197818148 -0.41353558582004729 0 0.33220756379225602 -0.4063977961201935 0 0.35806383197818148 -0.41353558582004729 0 0.35806383197818148 -0.41353558582004729 0 0.36571996330592438 -0.38432891380114342 0 0.34301784298780991 -0.38227970359104252 0 0.33220756379225602 -0.4063977961201935 0 0.35806383197818148 -0.41353558582004729 0 0.34301784298780991 -0.38227970359104252 0 0.37417776664354352 -0.4074605010631277 0 0.35806383197818148 -0.41353558582004729 0 0.36571996330592438 -0.38432891380114342 0 0.36571996330592438 -0.38432891380114342 0 0.34301784298780991 -0.38227970359104252 0 0.35685287932320242 -0.36514415779496712 0 0.34301784298780991 -0.38227970359104252 0 0.32048452862600801 -0.38174261095585499 0 0.3334123746266795 -0.36160797151589552 0 0.33220756379225602 -0.4063977961201935 0 0.34301784298780991 -0.38227970359104252 0 0.32048452862600801 -0.38174261095585499 0 0.33220756379225602 -0.4063977961201935 0 0.32048452862600801 -0.38174261095585499 0 0.307782133997548 -0.40077653134231339 0 0.32048452862600801 -0.38174261095585499 0 0.29955484033250052 -0.37986698358726528 0 0.307782133997548 -0.40077653134231339 0 0.29955484033250052 -0.37986698358726528 0 0.307782133997548 -0.40077653134231339 0 0.2902668563995649 -0.39337300356040428 0 0.307782133997548 -0.40077653134231339 0 0.2902668563995649 -0.39337300356040428 0 0.28804564525496201 -0.42129160373776109 0 0.2902668563995649 -0.39337300356040428 0 0.27436768037922848 -0.40129261294000279 0 0.28804564525496201 -0.42129160373776109 0 0.2902668563995649 -0.39337300356040428 0 0.28441204342729492 -0.37951290002075622 0 0.27421817383868718 -0.38851184174709952 0 0.29955484033250052 -0.37986698358726528 0 0.2902668563995649 -0.39337300356040428 0 0.28441204342729492 -0.37951290002075622 0 0.27421817383868718 -0.38851184174709952 0 0.26354602054739418 -0.38147795174098281 0 0.27436768037922848 -0.40129261294000279 0 0.26068971550349629 -0.38129362214224372 0 0.26354602054739418 -0.38147795174098281 0 0.27436768037922848 -0.40129261294000279 0 0.28441204342729492 -0.37951290002075622 0 0.27417856447287542 -0.37683659920186252 0 0.27421817383868718 -0.38851184174709952 0 0.27421817383868718 -0.38851184174709952 0 0.2699583525357484 -0.38072909559020468 0 0.26354602054739418 -0.38147795174098281 0 0.27417856447287542 -0.37683659920186252 0 0.27421817383868718 -0.38851184174709952 0 0.2699583525357484 -0.38072909559020468 0 0.27417856447287542 -0.37683659920186252 0 0.2699583525357484 -0.38072909559020468 0 0.267890651284037 -0.37608998967087398 0 0.2699583525357484 -0.38072909559020468 0 0.267890651284037 -0.37608998967087398 0 0.26354602054739418 -0.38147795174098281 0 0.26068971550349629 -0.38129362214224372 0 0.25154216267486018 -0.36791869198970129 0 0.23967747996441849 -0.37993761258231662 0 0.26068971550349629 -0.38129362214224372 0 0.26354602054739418 -0.38147795174098281 0 0.26212555676883292 -0.37280900350069079 0 0.267890651284037 -0.37608998967087398 0 0.26354602054739418 -0.38147795174098281 0 0.26212555676883292 -0.37280900350069079 0 0.26068971550349629 -0.38129362214224372 0 0.23967747996441849 -0.37993761258231662 0 0.26068971550349629 -0.38129362214224372 0 0.25507083837221578 -0.39844085986248179 0 0.24852166450171129 -0.38927163467278281 0 0.26068971550349629 -0.38129362214224372 0 0.26354602054739418 -0.38147795174098281 0 0.25507083837221578 -0.39844085986248179 0 0.27436768037922848 -0.40129261294000279 0 0.25329804205335782 -0.41414002317867232 0 0.26068971550349629 -0.38129362214224372 0 0.25507083837221578 -0.39844085986248179 0 0.27436768037922848 -0.40129261294000279 0 0.26068971550349629 -0.38129362214224372 0 0.27436768037922848 -0.40129261294000279 0 0.2902668563995649 -0.39337300356040428 0 0.27421817383868718 -0.38851184174709952 0 0.27436768037922848 -0.40129261294000279 0 0.27436768037922848 -0.40129261294000279 0 0.26931006158500442 -0.42433234564926359 0 0.28804564525496201 -0.42129160373776109 0 0.27436768037922848 -0.40129261294000279 0 0.28804564525496201 -0.42129160373776109 0 0.27436768037922848 -0.40129261294000279 0 0.25329804205335782 -0.41414002317867232 0 0.26931006158500442 -0.42433234564926359 0 0.25507083837221578 -0.39844085986248179 0 0.25329804205335782 -0.41414002317867232 0 0.24615931824032369 -0.40622165069277599 0 0.25329804205335782 -0.41414002317867232 0 0.25109865018948269 -0.42968142985213459 0 0.26931006158500442 -0.42433234564926359 0 0.25109865018948269 -0.42968142985213459 0 0.26931006158500442 -0.42433234564926359 0 0.26598323435191151 -0.43830547583931501 0 0.26931006158500442 -0.42433234564926359 0 0.28091231846973652 -0.43702552385651688 0 0.26598323435191151 -0.43830547583931501 0 0.26931006158500442 -0.42433234564926359 0 0.28091231846973652 -0.43702552385651688 0 0.28804564525496201 -0.42129160373776109 0 0.28804564525496201 -0.42129160373776109 0 0.30172361013069549 -0.44129059453551939 0 0.28091231846973652 -0.43702552385651688 0 0.28804564525496201 -0.42129160373776109 0 0.30172361013069549 -0.44129059453551939 0 0.31308921576600451 -0.42131801671695951 0 0.307782133997548 -0.40077653134231339 0 0.28804564525496201 -0.42129160373776109 0 0.31308921576600451 -0.42131801671695951 0 0.28804564525496201 -0.42129160373776109 0 0.30172361013069549 -0.44129059453551939 0 0.31540157500642901 -0.46128958533327757 0 0.30172361013069549 -0.44129059453551939 0 0.31540157500642901 -0.46128958533327757 0 0.2910979540708013 -0.45839267896414909 0 0.30427331294903259 -0.47596710867782321 0 0.31540157500642901 -0.46128958533327757 0 0.30172361013069549 -0.44129059453551939 0 0.2910979540708013 -0.45839267896414909 0 0.28091231846973652 -0.43702552385651688 0 0.30172361013069549 -0.44129059453551939 0 0.2910979540708013 -0.45839267896414909 0 0.28091231846973652 -0.43702552385651688 0 0.2910979540708013 -0.45839267896414909 0 0.27283703096429418 -0.45107185609799599 0 0.28091231846973652 -0.43702552385651688 0 0.27283703096429418 -0.45107185609799599 0 0.26598323435191151 -0.43830547583931501 0 0.25109865018948269 -0.42968142985213459 0 0.26598323435191151 -0.43830547583931501 0 0.25575811055103959 -0.44941622374066348 0 0.27283703096429418 -0.45107185609799599 0 0.26598323435191151 -0.43830547583931501 0 0.25575811055103959 -0.44941622374066348 0 0.25575811055103959 -0.44941622374066348 0 0.27245920609497293 -0.46865884533305119 0 0.25437752661206708 -0.47534847515338458 0 0.2910979540708013 -0.45839267896414909 0 0.27283703096429418 -0.45107185609799599 0 0.27245920609497293 -0.46865884533305119 0 0.27283703096429418 -0.45107185609799599 0 0.25575811055103959 -0.44941622374066348 0 0.27245920609497293 -0.46865884533305119 0 0.27245920609497293 -0.46865884533305119 0 0.27261001965902432 -0.5 0 0.28869297178857978 -0.48048706519547479 0 0.27245920609497293 -0.46865884533305119 0 0.25437752661206708 -0.47534847515338458 0 0.27261001965902432 -0.5 0 0.25437752661206708 -0.47534847515338458 0 0.27261001965902432 -0.5 0 0.24417655011255249 -0.500000000000004 0 0.27261001965902432 -0.5 0 0.28869297178857978 -0.48048706519547479 0 0.30104348920549617 -0.5 0 0.2910979540708013 -0.45839267896414909 0 0.27245920609497293 -0.46865884533305119 0 0.28869297178857978 -0.48048706519547479 0 0.2910979540708013 -0.45839267896414909 0 0.28869297178857978 -0.48048706519547479 0 0.30427331294903259 -0.47596710867782321 0 0.3251305746738572 -0.47966621389621428 0 0.30427331294903259 -0.47596710867782321 0 0.30104348920549617 -0.5 0 0.28869297178857978 -0.48048706519547479 0 0.30427331294903259 -0.47596710867782321 0 0.30104348920549617 -0.5 0 0.33167373536527439 -0.28581400405751212 0 0.32364641686224438 -0.28997632591541989 0 0.32977420587724732 -0.27286470442735511 0 0.32513151456304551 -0.29205596789694438 0 0.34884890983569172 -0.29826761337697622 0 0.34075844268118388 -0.28804663216098902 0 0.32513151456304551 -0.29205596789694438 0 0.34884890983569172 -0.29826761337697622 0 0.33167373536527439 -0.28581400405751212 0 0.34075844268118388 -0.28804663216098902 0 0.32513151456304551 -0.29205596789694438 0 0.33167373536527439 -0.28581400405751212 0 0.34075844268118388 -0.28804663216098902 0 0.34065262353032078 -0.27830227292733523 0 0.33522963962333291 -0.30188403449750378 0 0.32406097302422032 -0.31047611860068342 0 0.33814559000581101 -0.3223954967563043 0 0.33522963962333291 -0.30188403449750378 0 0.34884890983569172 -0.29826761337697622 0 0.33814559000581101 -0.3223954967563043 0 0.33522963962333291 -0.30188403449750378 0 0.32513151456304551 -0.29205596789694438 0 0.34884890983569172 -0.29826761337697622 0 0.34884890983569172 -0.29826761337697622 0 0.33814559000581101 -0.3223954967563043 0 0.33522963962333291 -0.30188403449750378 0 0.32702893275099909 -0.30061803410277099 0 0.32406097302422032 -0.31047611860068342 0 0.33522963962333291 -0.30188403449750378 0 0.32702893275099909 -0.30061803410277099 0 0.32513151456304551 -0.29205596789694438 0 0.32138896298624808 -0.30107964263862302 0 0.32702893275099909 -0.30061803410277099 0 0.32513151456304551 -0.29205596789694438 0 0.32138896298624808 -0.30107964263862302 0 0.32702893275099909 -0.30061803410277099 0 0.32406097302422032 -0.31047611860068342 0 0.32406097302422032 -0.31047611860068342 0 0.3063133492506302 -0.31552288603399131 0 0.31163641777155998 -0.30051284462868738 0 0.32138896298624808 -0.30107964263862302 0 0.32513151456304551 -0.29205596789694438 0 0.31163641777155998 -0.30051284462868738 0 0.32138896298624808 -0.30107964263862302 0 0.32406097302422032 -0.31047611860068342 0 0.31163641777155998 -0.30051284462868738 0 0.32364641686224438 -0.28997632591541989 0 0.31275082758332379 -0.27646343645800192 0 0.30141411929039941 -0.28584432241691182 0 0.32513151456304551 -0.29205596789694438 0 0.32364641686224438 -0.28997632591541989 0 0.30141411929039941 -0.28584432241691182 0 0.32513151456304551 -0.29205596789694438 0 0.30141411929039941 -0.28584432241691182 0 0.32513151456304551 -0.29205596789694438 0 0.30141411929039941 -0.28584432241691182 0 0.31163641777155998 -0.30051284462868738 0 0.33167373536527439 -0.28581400405751212 0 0.32513151456304551 -0.29205596789694438 0 0.32364641686224438 -0.28997632591541989 0 0.32364641686224438 -0.28997632591541989 0 0.32024052954035898 -0.26374578359389361 0 0.32977420587724732 -0.27286470442735511 0 0.32364641686224438 -0.28997632591541989 0 0.31275082758332379 -0.27646343645800192 0 0.32024052954035898 -0.26374578359389361 0 0.32364641686224438 -0.28997632591541989 0 0.32024052954035898 -0.26374578359389361 0 0.31275082758332379 -0.27646343645800192 0 0.32024052954035898 -0.26374578359389361 0 0.30458959334519348 -0.26687506057912219 0 0.31683464221847363 -0.23751524127236709 0 0.32024052954035898 -0.26374578359389361 0 0.33133314781695278 -0.2513626950048049 0 0.31683464221847363 -0.23751524127236709 0 0.32024052954035898 -0.26374578359389361 0 0.31683464221847363 -0.23751524127236709 0 0.32024052954035898 -0.26374578359389361 0 0.3071396819291547 -0.25228425082721267 0 0.32024052954035898 -0.26374578359389361 0 0.33133314781695278 -0.2513626950048049 0 0.32977420587724732 -0.27286470442735511 0 0.33133314781695278 -0.2513626950048049 0 0.32977420587724732 -0.27286470442735511 0 0.34512757076924527 -0.26137176527814171 0 0.34444302314835662 -0.24143813660373481 0 0.33133314781695278 -0.2513626950048049 0 0.34512757076924527 -0.26137176527814171 0 0.32977420587724732 -0.27286470442735511 0 0.34065262353032078 -0.27830227292733523 0 0.34512757076924527 -0.26137176527814171 0 0.33167373536527439 -0.28581400405751212 0 0.32977420587724732 -0.27286470442735511 0 0.34065262353032078 -0.27830227292733523 0 0.35705423919656609 -0.27977080742753019 0 0.34512757076924527 -0.26137176527814171 0 0.36525956855744057 -0.26127400147808438 0 0.34065262353032078 -0.27830227292733523 0 0.35705423919656609 -0.27977080742753019 0 0.34512757076924527 -0.26137176527814171 0 0.35830621853803202 -0.245171480586828 0 0.34512757076924527 -0.26137176527814171 0 0.36525956855744057 -0.26127400147808438 0 0.3855615428608043 -0.25883493775618199 0 0.36525956855744057 -0.26127400147808438 0 0.37379345492321331 -0.27348406638549388 0 0.37346489791831511 -0.24277719552863861 0 0.36525956855744057 -0.26127400147808438 0 0.37346489791831511 -0.24277719552863861 0 0.3855615428608043 -0.25883493775618199 0 0.36525956855744057 -0.26127400147808438 0 0.35705423919656609 -0.27977080742753019 0 0.36525956855744057 -0.26127400147808438 0 0.37379345492321331 -0.27348406638549388 0 0.35705423919656609 -0.27977080742753019 0 0.37379345492321331 -0.27348406638549388 0 0.37393234289104532 -0.2873164156573686 0 0.35705423919656609 -0.27977080742753019 0 0.36525956855744057 -0.26127400147808438 0 0.35705423919656609 -0.27977080742753019 0 0.37393234289104532 -0.2873164156573686 0 0.36556372294148459 -0.30264526497339572 0 0.35705423919656609 -0.27977080742753019 0 0.34884890983569172 -0.29826761337697622 0 0.36556372294148459 -0.30264526497339572 0 0.35705423919656609 -0.27977080742753019 0 0.34884890983569172 -0.29826761337697622 0 0.34075844268118388 -0.28804663216098902 0 0.34065262353032078 -0.27830227292733523 0 0.35705423919656609 -0.27977080742753019 0 0.34075844268118388 -0.28804663216098902 0 0.35705423919656609 -0.27977080742753019 0 0.34884890983569172 -0.29826761337697622 0 0.34884890983569172 -0.29826761337697622 0 0.36556372294148459 -0.30264526497339572 0 0.34884890983569172 -0.29826761337697622 0 0.36556372294148459 -0.30264526497339572 0 0.35919998482696908 -0.32271748596524741 0 0.38527395987857621 -0.30103805908344561 0 0.37393234289104532 -0.2873164156573686 0 0.36556372294148459 -0.30264526497339572 0 0.38139974697713191 -0.32036365703231012 0 0.36556372294148459 -0.30264526497339572 0 0.35919998482696908 -0.32271748596524741 0 0.38139974697713191 -0.32036365703231012 0 0.35919998482696908 -0.32271748596524741 0 0.37461523914803352 -0.35019840283414311 0 0.34717716122618553 -0.34336007064313923 0 0.35919998482696908 -0.32271748596524741 0 0.37461523914803352 -0.35019840283414311 0 0.34717716122618553 -0.34336007064313923 0 0.35919998482696908 -0.32271748596524741 0 0.33814559000581101 -0.3223954967563043 0 0.34884890983569172 -0.29826761337697622 0 0.35919998482696908 -0.32271748596524741 0 0.33814559000581101 -0.3223954967563043 0 0.37915673142438461 -0.36923929362648877 0 0.36571996330592438 -0.38432891380114342 0 0.35685287932320242 -0.36514415779496712 0 0.37915673142438461 -0.36923929362648877 0 0.37461523914803352 -0.35019840283414311 0 0.35685287932320242 -0.36514415779496712 0 0.34717716122618553 -0.34336007064313923 0 0.37461523914803352 -0.35019840283414311 0 0.35685287932320242 -0.36514415779496712 0 0.34717716122618553 -0.34336007064313923 0 0.35685287932320242 -0.36514415779496712 0 0.3334123746266795 -0.36160797151589552 0 0.34301784298780991 -0.38227970359104252 0 0.35685287932320242 -0.36514415779496712 0 0.3334123746266795 -0.36160797151589552 0 0.34717716122618553 -0.34336007064313923 0 0.3334123746266795 -0.36160797151589552 0 0.31962334780686102 -0.33913128002442738 0 0.3334123746266795 -0.36160797151589552 0 0.31962334780686102 -0.33913128002442738 0 0.30938596669513357 -0.3607078944636416 0 0.32048452862600801 -0.38174261095585499 0 0.3334123746266795 -0.36160797151589552 0 0.30938596669513357 -0.3607078944636416 0 0.34717716122618553 -0.34336007064313923 0 0.33814559000581101 -0.3223954967563043 0 0.31962334780686102 -0.33913128002442738 0 0.33814559000581101 -0.3223954967563043 0 0.31962334780686102 -0.33913128002442738 0 0.31872610622139641 -0.3233503722924802 0 0.31962334780686102 -0.33913128002442738 0 0.31872610622139641 -0.3233503722924802 0 0.30548727101945972 -0.32922608004699477 0 0.32406097302422032 -0.31047611860068342 0 0.31872610622139641 -0.3233503722924802 0 0.3063133492506302 -0.31552288603399131 0 0.32406097302422032 -0.31047611860068342 0 0.33814559000581101 -0.3223954967563043 0 0.31872610622139641 -0.3233503722924802 0 0.3063133492506302 -0.31552288603399131 0 0.2907820152647812 -0.32442543029747362 0 0.29504469059687582 -0.30525209170330841 0 0.3063133492506302 -0.31552288603399131 0 0.30548727101945972 -0.32922608004699477 0 0.2907820152647812 -0.32442543029747362 0 0.31872610622139641 -0.3233503722924802 0 0.3063133492506302 -0.31552288603399131 0 0.30548727101945972 -0.32922608004699477 0 0.31962334780686102 -0.33913128002442738 0 0.30548727101945972 -0.32922608004699477 0 0.29256543046483813 -0.3436243077723467 0 0.30548727101945972 -0.32922608004699477 0 0.29256543046483813 -0.3436243077723467 0 0.2907820152647812 -0.32442543029747362 0 0.29256543046483813 -0.3436243077723467 0 0.2907820152647812 -0.32442543029747362 0 0.27778478668171741 -0.33354411228296738 0 0.29256543046483813 -0.3436243077723467 0 0.27859896315423038 -0.34460989679818099 0 0.27778478668171741 -0.33354411228296738 0 0.2907820152647812 -0.32442543029747362 0 0.27668893225449731 -0.3128795908135143 0 0.27778478668171741 -0.33354411228296738 0 0.2907820152647812 -0.32442543029747362 0 0.27668893225449731 -0.3128795908135143 0 0.29504469059687582 -0.30525209170330841 0 0.32048452862600801 -0.38174261095585499 0 0.29955484033250052 -0.37986698358726528 0 0.30938596669513357 -0.3607078944636416 0 0.29955484033250052 -0.37986698358726528 0 0.30938596669513357 -0.3607078944636416 0 0.2900971862104792 -0.36440984171820162 0 0.31962334780686102 -0.33913128002442738 0 0.29256543046483813 -0.3436243077723467 0 0.30938596669513357 -0.3607078944636416 0 0.29256543046483813 -0.3436243077723467 0 0.30938596669513357 -0.3607078944636416 0 0.2900971862104792 -0.36440984171820162 0 0.29256543046483813 -0.3436243077723467 0 0.2900971862104792 -0.36440984171820162 0 0.27713805783484008 -0.35549937139294369 0 0.29256543046483813 -0.3436243077723467 0 0.27713805783484008 -0.35549937139294369 0 0.27859896315423038 -0.34460989679818099 0 0.2900971862104792 -0.36440984171820162 0 0.27901798820252338 -0.36856014613817339 0 0.27713805783484008 -0.35549937139294369 0 0.28441204342729492 -0.37951290002075622 0 0.2900971862104792 -0.36440984171820162 0 0.27901798820252338 -0.36856014613817339 0 0.29955484033250052 -0.37986698358726528 0 0.28441204342729492 -0.37951290002075622 0 0.2900971862104792 -0.36440984171820162 0 0.267890651284037 -0.37608998967087398 0 0.26926408906712712 -0.36654201835710298 0 0.26212555676883292 -0.37280900350069079 0 0.27417856447287542 -0.37683659920186252 0 0.267890651284037 -0.37608998967087398 0 0.26926408906712712 -0.36654201835710298 0 0.27417856447287542 -0.37683659920186252 0 0.27901798820252338 -0.36856014613817339 0 0.26926408906712712 -0.36654201835710298 0 0.28441204342729492 -0.37951290002075622 0 0.27417856447287542 -0.37683659920186252 0 0.27901798820252338 -0.36856014613817339 0 0.27901798820252338 -0.36856014613817339 0 0.26926408906712712 -0.36654201835710298 0 0.27713805783484008 -0.35549937139294369 0 0.26926408906712712 -0.36654201835710298 0 0.26603479972755578 -0.35729675266409838 0 0.27713805783484008 -0.35549937139294369 0 0.26603479972755578 -0.35729675266409838 0 0.27713805783484008 -0.35549937139294369 0 0.26690757763552603 -0.34577179574446609 0 0.27713805783484008 -0.35549937139294369 0 0.27859896315423038 -0.34460989679818099 0 0.26690757763552603 -0.34577179574446609 0 0.26690757763552603 -0.34577179574446609 0 0.25597397528833499 -0.35500126216604477 0 0.24962840962055979 -0.34239242483316268 0 0.26603479972755578 -0.35729675266409838 0 0.25597397528833499 -0.35500126216604477 0 0.26089029881195092 -0.3636693156599346 0 0.26603479972755578 -0.35729675266409838 0 0.26690757763552603 -0.34577179574446609 0 0.25597397528833499 -0.35500126216604477 0 0.26926408906712712 -0.36654201835710298 0 0.26603479972755578 -0.35729675266409838 0 0.26089029881195092 -0.3636693156599346 0 0.25597397528833499 -0.35500126216604477 0 0.26089029881195092 -0.3636693156599346 0 0.25154216267486018 -0.36791869198970129 0 0.26068971550349629 -0.38129362214224372 0 0.25154216267486018 -0.36791869198970129 0 0.26089029881195092 -0.3636693156599346 0 0.25154216267486018 -0.36791869198970129 0 0.26212555676883292 -0.37280900350069079 0 0.26068971550349629 -0.38129362214224372 0 0.25154216267486018 -0.36791869198970129 0 0.26212555676883292 -0.37280900350069079 0 0.26926408906712712 -0.36654201835710298 0 0.26089029881195092 -0.3636693156599346 0 0.26212555676883292 -0.37280900350069079 0 0.27668893225449731 -0.3128795908135143 0 0.27778478668171741 -0.33354411228296738 0 0.2619459242116341 -0.32956647884364082 0 0.26690757763552603 -0.34577179574446609 0 0.27778478668171741 -0.33354411228296738 0 0.2619459242116341 -0.32956647884364082 0 0.27859896315423038 -0.34460989679818099 0 0.26690757763552603 -0.34577179574446609 0 0.27778478668171741 -0.33354411228296738 0 0.26690757763552603 -0.34577179574446609 0 0.2619459242116341 -0.32956647884364082 0 0.24962840962055979 -0.34239242483316268 0 0.2619459242116341 -0.32956647884364082 0 0.24261051455237159 -0.33011512875577881 0 0.24962840962055979 -0.34239242483316268 0 0.2619459242116341 -0.32956647884364082 0 0.25812943190960308 -0.31164005203568612 0 0.24261051455237159 -0.33011512875577881 0 0.27668893225449731 -0.3128795908135143 0 0.2619459242116341 -0.32956647884364082 0 0.25812943190960308 -0.31164005203568612 0 0.25812943190960308 -0.31164005203568612 0 0.25391221482442639 -0.29403798672764853 0 0.26928495736510438 -0.2957567029767626 0 0.25391221482442639 -0.29403798672764853 0 0.26487202342807198 -0.28365439076246579 0 0.25328268969157458 -0.27765586332644021 0 0.25391221482442639 -0.29403798672764853 0 0.26487202342807198 -0.28365439076246579 0 0.26928495736510438 -0.2957567029767626 0 0.26487202342807198 -0.28365439076246579 0 0.26928495736510438 -0.2957567029767626 0 0.27769672401775319 -0.27963267693687921 0 0.26928495736510438 -0.2957567029767626 0 0.28399149165454812 -0.29479504194611922 0 0.27769672401775319 -0.27963267693687921 0 0.27668893225449731 -0.3128795908135143 0 0.26928495736510438 -0.2957567029767626 0 0.28399149165454812 -0.29479504194611922 0 0.27668893225449731 -0.3128795908135143 0 0.25812943190960308 -0.31164005203568612 0 0.26928495736510438 -0.2957567029767626 0 0.27668893225449731 -0.3128795908135143 0 0.29504469059687582 -0.30525209170330841 0 0.28399149165454812 -0.29479504194611922 0 0.29504469059687582 -0.30525209170330841 0 0.28399149165454812 -0.29479504194611922 0 0.30141411929039941 -0.28584432241691182 0 0.30141411929039941 -0.28584432241691182 0 0.27769672401775319 -0.27963267693687921 0 0.28399149165454812 -0.29479504194611922 0 0.30141411929039941 -0.28584432241691182 0 0.27769672401775319 -0.27963267693687921 0 0.29504469059687582 -0.30525209170330841 0 0.30141411929039941 -0.28584432241691182 0 0.31163641777155998 -0.30051284462868738 0 0.3063133492506302 -0.31552288603399131 0 0.29504469059687582 -0.30525209170330841 0 0.31163641777155998 -0.30051284462868738 0 0.32024052954035898 -0.26374578359389361 0 0.3071396819291547 -0.25228425082721267 0 0.30458959334519348 -0.26687506057912219 0 0.3071396819291547 -0.25228425082721267 0 0.30458959334519348 -0.26687506057912219 0 0.29193901446399922 -0.25428811427957793 0 0.31275082758332379 -0.27646343645800192 0 0.30141411929039941 -0.28584432241691182 0 0.30458959334519348 -0.26687506057912219 0 0.30141411929039941 -0.28584432241691182 0 0.30458959334519348 -0.26687506057912219 0 0.29138302415568768 -0.27003504791515148 0 0.29138302415568768 -0.27003504791515148 0 0.28019621270633432 -0.26317462726394197 0 0.27769672401775319 -0.27963267693687921 0 0.30141411929039941 -0.28584432241691182 0 0.29138302415568768 -0.27003504791515148 0 0.27769672401775319 -0.27963267693687921 0 0.30458959334519348 -0.26687506057912219 0 0.29138302415568768 -0.27003504791515148 0 0.29193901446399922 -0.25428811427957793 0 0.27418157375802388 -0.24592191057831839 0 0.29193901446399922 -0.25428811427957793 0 0.28019621270633432 -0.26317462726394197 0 0.29138302415568768 -0.27003504791515148 0 0.29193901446399922 -0.25428811427957793 0 0.28019621270633432 -0.26317462726394197 0 0.27418157375802388 -0.24592191057831839 0 0.28019621270633432 -0.26317462726394197 0 0.26578072713620748 -0.26599538660978339 0 0.26487202342807198 -0.28365439076246579 0 0.27769672401775319 -0.27963267693687921 0 0.26578072713620748 -0.26599538660978339 0 0.28019621270633432 -0.26317462726394197 0 0.27769672401775319 -0.27963267693687921 0 0.26578072713620748 -0.26599538660978339 0 0.26487202342807198 -0.28365439076246579 0 0.26578072713620748 -0.26599538660978339 0 0.25328268969157458 -0.27765586332644021 0 0.26578072713620748 -0.26599538660978339 0 0.25328268969157458 -0.27765586332644021 0 0.25262973221182611 -0.26380602230986661 0 0.25426840721566712 -0.2459123968092822 0 0.26578072713620748 -0.26599538660978339 0 0.25262973221182611 -0.26380602230986661 0 0.27418157375802388 -0.24592191057831839 0 0.25426840721566712 -0.2459123968092822 0 0.26578072713620748 -0.26599538660978339 0 0.25426840721566712 -0.2459123968092822 0 0.26578072713620748 -0.26599538660978339 0 0.25426840721566712 -0.2459123968092822 0 0.25262973221182611 -0.26380602230986661 0 0.23718710480385519 -0.26566044249396042 0 0.25426840721566712 -0.2459123968092822 0 0.23718710480385519 -0.26566044249396042 0 0.23226122407644861 -0.24305153520974551 0 0.25328268969157458 -0.27765586332644021 0 0.23718710480385519 -0.26566044249396042 0 0.23798153875267919 -0.28467652632681972 0 0.25328268969157458 -0.27765586332644021 0 0.25262973221182611 -0.26380602230986661 0 0.23718710480385519 -0.26566044249396042 0 0.23718710480385519 -0.26566044249396042 0 0.22573802950331351 -0.27524957644797499 0 0.21620916497840981 -0.25674229967158602 0 0.23718710480385519 -0.26566044249396042 0 0.22573802950331351 -0.27524957644797499 0 0.23798153875267919 -0.28467652632681972 0 0.23718710480385519 -0.26566044249396042 0 0.21620916497840981 -0.25674229967158602 0 0.23226122407644861 -0.24305153520974551 0 0.23718710480385519 -0.26566044249396042 0 0.21620916497840981 -0.25674229967158602 0 0.21620916497840981 -0.25674229967158602 0 0.19523122515296429 -0.24782415684921169 0 0.21620916497840981 -0.25674229967158602 0 0.1980423372320545 -0.27274469053688699 0 0.21170502268922009 -0.2816550376525202 0 0.22573802950331351 -0.27524957644797499 0 0.21620916497840981 -0.25674229967158602 0 0.21170502268922009 -0.2816550376525202 0 0.1980423372320545 -0.27274469053688699 0 0.19235366898969111 -0.27943561559020341 0 0.1970540867501577 -0.28745759884163358 0 0.1980423372320545 -0.27274469053688699 0 0.1970540867501577 -0.28745759884163358 0 0.21170502268922009 -0.2816550376525202 0 0.1980423372320545 -0.27274469053688699 0 0.19235366898969111 -0.27943561559020341 0 0.18804861234318909 -0.27513391279859661 0 0.19235366898969111 -0.27943561559020341 0 0.18804861234318909 -0.27513391279859661 0 0.18626963963336299 -0.28240626018369641 0 0.1980423372320545 -0.27274469053688699 0 0.1942561761636124 -0.26003759500221979 0 0.18654667627158769 -0.26790607930165927 0 0.1980423372320545 -0.27274469053688699 0 0.18804861234318909 -0.27513391279859661 0 0.18654667627158769 -0.26790607930165927 0 0.21620916497840981 -0.25674229967158602 0 0.1980423372320545 -0.27274469053688699 0 0.1942561761636124 -0.26003759500221979 0 0.1942561761636124 -0.26003759500221979 0 0.18247301427525081 -0.26186757557596069 0 0.18630447585758511 -0.25511371673564259 0 0.1942561761636124 -0.26003759500221979 0 0.18247301427525081 -0.26186757557596069 0 0.18654667627158769 -0.26790607930165927 0 0.21620916497840981 -0.25674229967158602 0 0.1942561761636124 -0.26003759500221979 0 0.19523122515296429 -0.24782415684921169 0 0.1942561761636124 -0.26003759500221979 0 0.18630447585758511 -0.25511371673564259 0 0.19523122515296429 -0.24782415684921169 0 0.20503908971788651 -0.29863273086660103 0 0.1976031826304096 -0.31576347224580392 0 0.18650781832708979 -0.29568286729005938 0 0.18956283746184521 -0.30746833537798313 0 0.1976031826304096 -0.31576347224580392 0 0.18650781832708979 -0.29568286729005938 0 0.1976031826304096 -0.31576347224580392 0 0.18650781832708979 -0.29568286729005938 0 0.1970540867501577 -0.28745759884163358 0 0.20503908971788651 -0.29863273086660103 0 0.18650781832708979 -0.29568286729005938 0 0.19235366898969111 -0.27943561559020341 0 0.1970540867501577 -0.28745759884163358 0 0.18626963963336299 -0.28240626018369641 0 0.1970540867501577 -0.28745759884163358 0 0.18626963963336299 -0.28240626018369641 0 0.18650781832708979 -0.29568286729005938 0 0.21170502268922009 -0.2816550376525202 0 0.20503908971788651 -0.29863273086660103 0 0.22302751478093549 -0.29516181477263409 0 0.1970540867501577 -0.28745759884163358 0 0.21170502268922009 -0.2816550376525202 0 0.20503908971788651 -0.29863273086660103 0 0.20503908971788651 -0.29863273086660103 0 0.21658479330750621 -0.31355803744819288 0 0.1976031826304096 -0.31576347224580392 0 0.20503908971788651 -0.29863273086660103 0 0.22302751478093549 -0.29516181477263409 0 0.21658479330750621 -0.31355803744819288 0 0.22302751478093549 -0.29516181477263409 0 0.23781387967508169 -0.30984004068080262 0 0.21658479330750621 -0.31355803744819288 0 0.22573802950331351 -0.27524957644797499 0 0.21170502268922009 -0.2816550376525202 0 0.22302751478093549 -0.29516181477263409 0 0.22302751478093549 -0.29516181477263409 0 0.23798153875267919 -0.28467652632681972 0 0.23781387967508169 -0.30984004068080262 0 0.22573802950331351 -0.27524957644797499 0 0.22302751478093549 -0.29516181477263409 0 0.23798153875267919 -0.28467652632681972 0 0.25391221482442639 -0.29403798672764853 0 0.25328268969157458 -0.27765586332644021 0 0.23798153875267919 -0.28467652632681972 0 0.25391221482442639 -0.29403798672764853 0 0.23798153875267919 -0.28467652632681972 0 0.23781387967508169 -0.30984004068080262 0 0.25812943190960308 -0.31164005203568612 0 0.25391221482442639 -0.29403798672764853 0 0.23781387967508169 -0.30984004068080262 0 0.25812943190960308 -0.31164005203568612 0 0.23781387967508169 -0.30984004068080262 0 0.24261051455237159 -0.33011512875577881 0 0.23781387967508169 -0.30984004068080262 0 0.24261051455237159 -0.33011512875577881 0 0.2273265461069944 -0.32610608892176751 0 0.24261051455237159 -0.33011512875577881 0 0.24239460984622549 -0.35454376183715819 0 0.24261051455237159 -0.33011512875577881 0 0.24962840962055979 -0.34239242483316268 0 0.24239460984622549 -0.35454376183715819 0 0.24261051455237159 -0.33011512875577881 0 0.22903345640405651 -0.34181463911164051 0 0.24239460984622549 -0.35454376183715819 0 0.22903345640405651 -0.34181463911164051 0 0.2273265461069944 -0.32610608892176751 0 0.20869854693372941 -0.33584407720154841 0 0.24261051455237159 -0.33011512875577881 0 0.22903345640405651 -0.34181463911164051 0 0.2273265461069944 -0.32610608892176751 0 0.23781387967508169 -0.30984004068080262 0 0.2273265461069944 -0.32610608892176751 0 0.21658479330750621 -0.31355803744819288 0 0.23487566079996591 -0.36495811459922362 0 0.24239460984622549 -0.35454376183715819 0 0.23967747996441849 -0.37993761258231662 0 0.24239460984622549 -0.35454376183715819 0 0.23967747996441849 -0.37993761258231662 0 0.25154216267486018 -0.36791869198970129 0 0.24239460984622549 -0.35454376183715819 0 0.23967747996441849 -0.37993761258231662 0 0.23487566079996591 -0.36495811459922362 0 0.2294217189248772 -0.36851269241606449 0 0.23967747996441849 -0.37993761258231662 0 0.25154216267486018 -0.36791869198970129 0 0.24239460984622549 -0.35454376183715819 0 0.23487566079996591 -0.36495811459922362 0 0.24239460984622549 -0.35454376183715819 0 0.22925944705217111 -0.35635578272946572 0 0.25597397528833499 -0.35500126216604477 0 0.25154216267486018 -0.36791869198970129 0 0.24239460984622549 -0.35454376183715819 0 0.25597397528833499 -0.35500126216604477 0 0.24962840962055979 -0.34239242483316268 0 0.24239460984622549 -0.35454376183715819 0 0.22903345640405651 -0.34181463911164051 0 0.24239460984622549 -0.35454376183715819 0 0.22925944705217111 -0.35635578272946572 0 0.22903345640405651 -0.34181463911164051 0 0.22925944705217111 -0.35635578272946572 0 0.2141258745954383 -0.35119123162493981 0 0.22925944705217111 -0.35635578272946572 0 0.2169484594180483 -0.36536583756277918 0 0.2141258745954383 -0.35119123162493981 0 0.23487566079996591 -0.36495811459922362 0 0.22925944705217111 -0.35635578272946572 0 0.2294217189248772 -0.36851269241606449 0 0.22925944705217111 -0.35635578272946572 0 0.2294217189248772 -0.36851269241606449 0 0.2169484594180483 -0.36536583756277918 0 0.2294217189248772 -0.36851269241606449 0 0.2169484594180483 -0.36536583756277918 0 0.2216617040074674 -0.37877497739380239 0 0.2169484594180483 -0.36536583756277918 0 0.2216617040074674 -0.37877497739380239 0 0.20364592805051621 -0.37761234220528878 0 0.2169484594180483 -0.36536583756277918 0 0.2035760838778202 -0.35974799900711357 0 0.20364592805051621 -0.37761234220528878 0 0.2141258745954383 -0.35119123162493981 0 0.19780703938221511 -0.34541935107656679 0 0.20869854693372941 -0.33584407720154841 0 0.2035760838778202 -0.35974799900711357 0 0.2141258745954383 -0.35119123162493981 0 0.19780703938221511 -0.34541935107656679 0 0.2169484594180483 -0.36536583756277918 0 0.2035760838778202 -0.35974799900711357 0 0.2141258745954383 -0.35119123162493981 0 0.2035760838778202 -0.35974799900711357 0 0.19780703938221511 -0.34541935107656679 0 0.18433132922984261 -0.35641875217451952 0 0.19780703938221511 -0.34541935107656679 0 0.18324451144425349 -0.33885596538451718 0 0.18433132922984261 -0.35641875217451952 0 0.2035760838778202 -0.35974799900711357 0 0.18433132922984261 -0.35641875217451952 0 0.20364592805051621 -0.37761234220528878 0 0.18433132922984261 -0.35641875217451952 0 0.20364592805051621 -0.37761234220528878 0 0.17458817413446681 -0.37573712088355798 0 0.18433132922984261 -0.35641875217451952 0 0.20364592805051621 -0.37761234220528878 0 0.21658479330750621 -0.31355803744819288 0 0.20869854693372941 -0.33584407720154841 0 0.1976031826304096 -0.31576347224580392 0 0.20869854693372941 -0.33584407720154841 0 0.1976031826304096 -0.31576347224580392 0 0.2273265461069944 -0.32610608892176751 0 0.21658479330750621 -0.31355803744819288 0 0.20869854693372941 -0.33584407720154841 0 0.22903345640405651 -0.34181463911164051 0 0.2141258745954383 -0.35119123162493981 0 0.20869854693372941 -0.33584407720154841 0 0.19780703938221511 -0.34541935107656679 0 0.20869854693372941 -0.33584407720154841 0 0.1928658902122066 -0.33045808106676278 0 0.19780703938221511 -0.34541935107656679 0 0.1928658902122066 -0.33045808106676278 0 0.18324451144425349 -0.33885596538451718 0 0.20869854693372941 -0.33584407720154841 0 0.1928658902122066 -0.33045808106676278 0 0.1976031826304096 -0.31576347224580392 0 0.1928658902122066 -0.33045808106676278 0 0.1976031826304096 -0.31576347224580392 0 0.1868733203108438 -0.31844077863179299 0 0.18956283746184521 -0.30746833537798313 0 0.1976031826304096 -0.31576347224580392 0 0.1868733203108438 -0.31844077863179299 0 0.1868733203108438 -0.31844077863179299 0 0.17696981235940851 -0.3150593079382098 0 0.1783716951194638 -0.32619341440934768 0 0.18956283746184521 -0.30746833537798313 0 0.1868733203108438 -0.31844077863179299 0 0.17696981235940851 -0.3150593079382098 0 0.17696981235940851 -0.3150593079382098 0 0.1783716951194638 -0.32619341440934768 0 0.1666963560901405 -0.32111299483327849 0 0.1928658902122066 -0.33045808106676278 0 0.1868733203108438 -0.31844077863179299 0 0.1783716951194638 -0.32619341440934768 0 0.1928658902122066 -0.33045808106676278 0 0.1783716951194638 -0.32619341440934768 0 0.18324451144425349 -0.33885596538451718 0 0.1783716951194638 -0.32619341440934768 0 0.18324451144425349 -0.33885596538451718 0 0.1650167304091695 -0.33522516214374981 0 0.18324451144425349 -0.33885596538451718 0 0.1650167304091695 -0.33522516214374981 0 0.18433132922984261 -0.35641875217451952 0 0.1650167304091695 -0.33522516214374981 0 0.1666963560901405 -0.32111299483327849 0 0.15139614563168161 -0.31983266178171921 0 0.17696981235940851 -0.3150593079382098 0 0.1666963560901405 -0.32111299483327849 0 0.16334485281474889 -0.3020810164386466 0 0.1666963560901405 -0.32111299483327849 0 0.15139614563168161 -0.31983266178171921 0 0.16334485281474889 -0.3020810164386466 0 0.1783716951194638 -0.32619341440934768 0 0.1650167304091695 -0.33522516214374981 0 0.1666963560901405 -0.32111299483327849 0 0.18433132922984261 -0.35641875217451952 0 0.160521912136806 -0.35719051209792069 0 0.17458817413446681 -0.37573712088355798 0 0.1650167304091695 -0.33522516214374981 0 0.18433132922984261 -0.35641875217451952 0 0.1650167304091695 -0.33522516214374981 0 0.160521912136806 -0.35719051209792069 0 0.14744948965027821 -0.33897536015662533 0 0.1650167304091695 -0.33522516214374981 0 0.18433132922984261 -0.35641875217451952 0 0.160521912136806 -0.35719051209792069 0 0.160521912136806 -0.35719051209792069 0 0.14553042021841739 -0.3738618995618268 0 0.17458817413446681 -0.37573712088355798 0 0.14553042021841739 -0.3738618995618268 0 0.17458817413446681 -0.37573712088355798 0 0.160521912136806 -0.35719051209792069 0 0.14553042021841739 -0.3738618995618268 0 0.14694931445043771 -0.35313272196815881 0 0.14553042021841739 -0.3738618995618268 0 0.14694931445043771 -0.35313272196815881 0 0.13428752994249271 -0.35948569621393978 0 0.160521912136806 -0.35719051209792069 0 0.14694931445043771 -0.35313272196815881 0 0.14744948965027821 -0.33897536015662533 0 0.13428752994249271 -0.35948569621393978 0 0.1230446396665692 -0.34510949286605208 0 0.1178500451102117 -0.34641514860256922 0 0.14694931445043771 -0.35313272196815881 0 0.13428752994249271 -0.35948569621393978 0 0.1230446396665692 -0.34510949286605208 0 0.14694931445043771 -0.35313272196815881 0 0.14744948965027821 -0.33897536015662533 0 0.1230446396665692 -0.34510949286605208 0 0.13428752994249271 -0.35948569621393978 0 0.1230446396665692 -0.34510949286605208 0 0.14553042021841739 -0.3738618995618268 0 0.12710754052052031 -0.37267299222518452 0 0.13428752994249271 -0.35948569621393978 0 0.14553042021841739 -0.3738618995618268 0 0.12710754052052031 -0.37267299222518452 0 0.12710754052052031 -0.37267299222518452 0 0.13428752994249271 -0.35948569621393978 0 0.1178500451102117 -0.34641514860256922 0 0.14553042021841739 -0.3738618995618268 0 0.13428752994249271 -0.35948569621393978 0 0.15139614563168161 -0.31983266178171921 0 0.14017156222428809 -0.32795250617902288 0 0.1329891605942819 -0.31656523342568532 0 0.1650167304091695 -0.33522516214374981 0 0.15139614563168161 -0.31983266178171921 0 0.14744948965027821 -0.33897536015662533 0 0.15139614563168161 -0.31983266178171921 0 0.14744948965027821 -0.33897536015662533 0 0.14017156222428809 -0.32795250617902288 0 0.14744948965027821 -0.33897536015662533 0 0.1230446396665692 -0.34510949286605208 0 0.14744948965027821 -0.33897536015662533 0 0.12885145302091081 -0.33643676935206213 0 0.14017156222428809 -0.32795250617902288 0 0.14744948965027821 -0.33897536015662533 0 0.12885145302091081 -0.33643676935206213 0 0.1230446396665692 -0.34510949286605208 0 0.12885145302091081 -0.33643676935206213 0 0.1329891605942819 -0.31656523342568532 0 0.12021122405055 -0.32036927049127839 0 0.12885145302091081 -0.33643676935206213 0 0.1329891605942819 -0.31656523342568532 0 0.12885145302091081 -0.33643676935206213 0 0.14017156222428809 -0.32795250617902288 0 0.1329891605942819 -0.31656523342568532 0 0.1329891605942819 -0.31656523342568532 0 0.13712686816765299 -0.29669369749930852 0 0.121524430085223 -0.30709459248306242 0 0.1329891605942819 -0.31656523342568532 0 0.13712686816765299 -0.29669369749930852 0 0.15139614563168161 -0.31983266178171921 0 0.1329891605942819 -0.31656523342568532 0 0.13712686816765299 -0.29669369749930852 0 0.13712686816765299 -0.29669369749930852 0 0.16334485281474889 -0.3020810164386466 0 0.15139614563168161 -0.31983266178171921 0 0.13712686816765299 -0.29669369749930852 0 0.16334485281474889 -0.3020810164386466 0 0.1510071283081876 -0.28669787872344082 0 0.13712686816765299 -0.29669369749930852 0 0.1418980964757485 -0.27377964834140223 0 0.1510071283081876 -0.28669787872344082 0 0.13712686816765299 -0.29669369749930852 0 0.16334485281474889 -0.3020810164386466 0 0.13712686816765299 -0.29669369749930852 0 0.12763225049615701 -0.28214270524416157 0 0.1418980964757485 -0.27377964834140223 0 0.13712686816765299 -0.29669369749930852 0 0.113367861788432 -0.29181165386516039 0 0.13712686816765299 -0.29669369749930852 0 0.1418980964757485 -0.27377964834140223 0 0.13712686816765299 -0.29669369749930852 0 0.12763225049615701 -0.28214270524416157 0 0.113367861788432 -0.29181165386516039 0 0.12763225049615701 -0.28214270524416157 0 0.12995562390746959 -0.26798112394261803 0 0.1418980964757485 -0.27377964834140223 0 0.12751539410179349 -0.25446691770257829 0 0.14666932478384401 -0.25086559918349599 0 0.1358572539454265 -0.24612954744254131 0 0.12995562390746959 -0.26798112394261803 0 0.14666932478384401 -0.25086559918349599 0 0.1418980964757485 -0.27377964834140223 0 0.12995562390746959 -0.26798112394261803 0 0.12751539410179349 -0.25446691770257829 0 0.14666932478384401 -0.25086559918349599 0 0.14666932478384401 -0.25086559918349599 0 0.15562975138504459 -0.26097034462479279 0 0.1418980964757485 -0.27377964834140223 0 0.14666932478384401 -0.25086559918349599 0 0.1418980964757485 -0.27377964834140223 0 0.14666932478384401 -0.25086559918349599 0 0.15562975138504459 -0.26097034462479279 0 0.16211631190258621 -0.25040302499508932 0 0.1510071283081876 -0.28669787872344082 0 0.1418980964757485 -0.27377964834140223 0 0.15849460378924529 -0.27209665765636959 0 0.15562975138504459 -0.26097034462479279 0 0.1418980964757485 -0.27377964834140223 0 0.15849460378924529 -0.27209665765636959 0 0.16697819739392661 -0.26868719085867238 0 0.16492875577753299 -0.2551600269954814 0 0.1754124540237699 -0.27560226233431478 0 0.16492875577753299 -0.2551600269954814 0 0.1754124540237699 -0.27560226233431478 0 0.1752702125701 -0.27265169361590058 0 0.15849460378924529 -0.27209665765636959 0 0.1662365325093359 -0.27734018635494301 0 0.16408020225560749 -0.28642688847272951 0 0.15849460378924529 -0.27209665765636959 0 0.16697819739392661 -0.26868719085867238 0 0.1662365325093359 -0.27734018635494301 0 0.15849460378924529 -0.27209665765636959 0 0.16697819739392661 -0.26868719085867238 0 0.16104867373394591 -0.2639865390765237 0 0.15562975138504459 -0.26097034462479279 0 0.15849460378924529 -0.27209665765636959 0 0.16104867373394591 -0.2639865390765237 0 0.16697819739392661 -0.26868719085867238 0 0.16984193363162511 -0.27559622709185239 0 0.1754124540237699 -0.27560226233431478 0 0.16697819739392661 -0.26868719085867238 0 0.16984193363162511 -0.27559622709185239 0 0.1662365325093359 -0.27734018635494301 0 0.16984193363162511 -0.27559622709185239 0 0.17074055059946799 -0.28075526881947971 0 0.1662365325093359 -0.27734018635494301 0 0.16492875577753299 -0.2551600269954814 0 0.1754124540237699 -0.27560226233431478 0 0.16492875577753299 -0.2551600269954814 0 0.1752702125701 -0.27265169361590058 0 0.16492875577753299 -0.2551600269954814 0 0.1728458479928634 -0.26291894971137247 0 0.1752702125701 -0.27265169361590058 0 0.15562975138504459 -0.26097034462479279 0 0.16211631190258621 -0.25040302499508932 0 0.16492875577753299 -0.2551600269954814 0 0.16211631190258621 -0.25040302499508932 0 0.16492875577753299 -0.2551600269954814 0 0.15562975138504459 -0.26097034462479279 0 0.16104867373394591 -0.2639865390765237 0 0.16492875577753299 -0.2551600269954814 0 0.16211631190258621 -0.25040302499508932 0 0.17476379115762111 -0.26043012231266938 0 0.1728458479928634 -0.26291894971137247 0 0.16697819739392661 -0.26868719085867238 0 0.16104867373394591 -0.2639865390765237 0 0.16492875577753299 -0.2551600269954814 0 0.16211631190258621 -0.25040302499508932 0 0.17277447317806049 -0.25424202547125668 0 0.17476379115762111 -0.26043012231266938 0 0.16211631190258621 -0.25040302499508932 0 0.17277447317806049 -0.25424202547125668 0 0.17220772105096799 -0.24810707534093029 0 0.16211631190258621 -0.25040302499508932 0 0.16492875577753299 -0.2551600269954814 0 0.1728458479928634 -0.26291894971137247 0 0.17277447317806049 -0.25424202547125668 0 0.17920051365284481 -0.25610613539321347 0 0.1796868137957067 -0.248877236870538 0 0.17277447317806049 -0.25424202547125668 0 0.17220772105096799 -0.24810707534093029 0 0.1796868137957067 -0.248877236870538 0 0.17277447317806049 -0.25424202547125668 0 0.17920051365284481 -0.25610613539321347 0 0.17476379115762111 -0.26043012231266938 0 0.17920051365284481 -0.25610613539321347 0 0.17476379115762111 -0.26043012231266938 0 0.18247301427525081 -0.26186757557596069 0 0.17476379115762111 -0.26043012231266938 0 0.1728458479928634 -0.26291894971137247 0 0.17923307634114621 -0.26819095792183062 0 0.17476379115762111 -0.26043012231266938 0 0.18247301427525081 -0.26186757557596069 0 0.17923307634114621 -0.26819095792183062 0 0.18630447585758511 -0.25511371673564259 0 0.19523122515296429 -0.24782415684921169 0 0.1796868137957067 -0.248877236870538 0 0.17920051365284481 -0.25610613539321347 0 0.18247301427525081 -0.26186757557596069 0 0.18630447585758511 -0.25511371673564259 0 0.17920051365284481 -0.25610613539321347 0 0.18630447585758511 -0.25511371673564259 0 0.1796868137957067 -0.248877236870538 0 0.1754124540237699 -0.27560226233431478 0 0.17797273805909289 -0.27302450693200581 0 0.1818545408105042 -0.27409794563213707 0 0.1754124540237699 -0.27560226233431478 0 0.1752702125701 -0.27265169361590058 0 0.17797273805909289 -0.27302450693200581 0 0.16984193363162511 -0.27559622709185239 0 0.17074055059946799 -0.28075526881947971 0 0.1754124540237699 -0.27560226233431478 0 0.1728458479928634 -0.26291894971137247 0 0.1752702125701 -0.27265169361590058 0 0.17923307634114621 -0.26819095792183062 0 0.1752702125701 -0.27265169361590058 0 0.17923307634114621 -0.26819095792183062 0 0.17797273805909289 -0.27302450693200581 0 0.17923307634114621 -0.26819095792183062 0 0.17797273805909289 -0.27302450693200581 0 0.1818545408105042 -0.27409794563213707 0 0.17923307634114621 -0.26819095792183062 0 0.18654667627158769 -0.26790607930165927 0 0.1818545408105042 -0.27409794563213707 0 0.18247301427525081 -0.26186757557596069 0 0.17923307634114621 -0.26819095792183062 0 0.18654667627158769 -0.26790607930165927 0 0.18804861234318909 -0.27513391279859661 0 0.18654667627158769 -0.26790607930165927 0 0.1818545408105042 -0.27409794563213707 0 0.18804861234318909 -0.27513391279859661 0 0.1818545408105042 -0.27409794563213707 0 0.18626963963336299 -0.28240626018369641 0 0.1754124540237699 -0.27560226233431478 0 0.1818545408105042 -0.27409794563213707 0 0.18626963963336299 -0.28240626018369641 0 0.1754124540237699 -0.27560226233431478 0 0.18650781832708979 -0.29568286729005938 0 0.1754124540237699 -0.27560226233431478 0 0.18626963963336299 -0.28240626018369641 0 0.18650781832708979 -0.29568286729005938 0 0.1754124540237699 -0.27560226233431478 0 0.17540420007891391 -0.28817767587735532 0 0.18650781832708979 -0.29568286729005938 0 0.17540420007891391 -0.28817767587735532 0 0.18650781832708979 -0.29568286729005938 0 0.16334485281474889 -0.3020810164386466 0 0.17074055059946799 -0.28075526881947971 0 0.1754124540237699 -0.27560226233431478 0 0.17540420007891391 -0.28817767587735532 0 0.18956283746184521 -0.30746833537798313 0 0.18650781832708979 -0.29568286729005938 0 0.16334485281474889 -0.3020810164386466 0 0.18956283746184521 -0.30746833537798313 0 0.17696981235940851 -0.3150593079382098 0 0.16334485281474889 -0.3020810164386466 0 0.18956283746184521 -0.30746833537798313 0 0.16334485281474889 -0.3020810164386466 0 0.1510071283081876 -0.28669787872344082 0 0.16334485281474889 -0.3020810164386466 0 0.16408020225560749 -0.28642688847272951 0 0.17540420007891391 -0.28817767587735532 0 0.16334485281474889 -0.3020810164386466 0 0.16408020225560749 -0.28642688847272951 0 0.1510071283081876 -0.28669787872344082 0 0.15849460378924529 -0.27209665765636959 0 0.16408020225560749 -0.28642688847272951 0 0.17074055059946799 -0.28075526881947971 0 0.1662365325093359 -0.27734018635494301 0 0.16408020225560749 -0.28642688847272951 0 0.17074055059946799 -0.28075526881947971 0 0.17540420007891391 -0.28817767587735532 0 0.16408020225560749 -0.28642688847272951 0 0.19277872938576221 -0.498571325078771 0 0.2145375516610156 -0.5 0 0.18489855320947879 -0.5 0 0.19748999606507339 -0.48694143790414179 0 0.19277872938576221 -0.498571325078771 0 0.2145375516610156 -0.5 0 0.19748999606507339 -0.48694143790414179 0 0.19277872938576221 -0.498571325078771 0 0.18290863779558611 -0.48457073203619361 0 0.18984543462458581 -0.47375199087872932 0 0.2073796268584174 -0.47781314152701498 0 0.2001529052628071 -0.46101144590943771 0 0.19748999606507339 -0.48694143790414179 0 0.18984543462458581 -0.47375199087872932 0 0.2073796268584174 -0.47781314152701498 0 0.19748999606507339 -0.48694143790414179 0 0.18984543462458581 -0.47375199087872932 0 0.18290863779558611 -0.48457073203619361 0 0.2073796268584174 -0.47781314152701498 0 0.22988379173112741 -0.48172395212879732 0 0.2155910333497042 -0.46344790425758908 0 0.19748999606507339 -0.48694143790414179 0 0.2073796268584174 -0.47781314152701498 0 0.2145375516610156 -0.5 0 0.2073796268584174 -0.47781314152701498 0 0.2145375516610156 -0.5 0 0.22988379173112741 -0.48172395212879732 0 0.2145375516610156 -0.5 0 0.24417655011255249 -0.500000000000004 0 0.22988379173112741 -0.48172395212879732 0 0.25437752661206708 -0.47534847515338458 0 0.24417655011255249 -0.500000000000004 0 0.22988379173112741 -0.48172395212879732 0 0.24417655011255249 -0.500000000000004 0 0.22988379173112741 -0.48172395212879732 0 0.25437752661206708 -0.47534847515338458 0 0.22988379173112741 -0.48172395212879732 0 0.23957867261377161 -0.45674809564711383 0 0.22988379173112741 -0.48172395212879732 0 0.2155910333497042 -0.46344790425758908 0 0.22988379173112741 -0.48172395212879732 0 0.23957867261377161 -0.45674809564711383 0 0.2155910333497042 -0.46344790425758908 0 0.23957867261377161 -0.45674809564711383 0 0.21463590251925929 -0.4469980392241204 0 0.2155910333497042 -0.46344790425758908 0 0.25575811055103959 -0.44941622374066348 0 0.25437752661206708 -0.47534847515338458 0 0.23957867261377161 -0.45674809564711383 0 0.25437752661206708 -0.47534847515338458 0 0.23957867261377161 -0.45674809564711383 0 0.25109865018948269 -0.42968142985213459 0 0.25575811055103959 -0.44941622374066348 0 0.2416189477814904 -0.4402919311333891 0 0.23957867261377161 -0.45674809564711383 0 0.2416189477814904 -0.4402919311333891 0 0.224779818615476 -0.43814771614084302 0 0.25575811055103959 -0.44941622374066348 0 0.23957867261377161 -0.45674809564711383 0 0.2416189477814904 -0.4402919311333891 0 0.23957867261377161 -0.45674809564711383 0 0.224779818615476 -0.43814771614084302 0 0.23957867261377161 -0.45674809564711383 0 0.224779818615476 -0.43814771614084302 0 0.21463590251925929 -0.4469980392241204 0 0.224779818615476 -0.43814771614084302 0 0.21463590251925929 -0.4469980392241204 0 0.21010503017909199 -0.43545331515983482 0 0.21463590251925929 -0.4469980392241204 0 0.2155910333497042 -0.46344790425758908 0 0.2012982749682809 -0.44517185638638079 0 0.21463590251925929 -0.4469980392241204 0 0.2012982749682809 -0.44517185638638079 0 0.21010503017909199 -0.43545331515983482 0 0.2155910333497042 -0.46344790425758908 0 0.2012982749682809 -0.44517185638638079 0 0.2073796268584174 -0.47781314152701498 0 0.2155910333497042 -0.46344790425758908 0 0.2001529052628071 -0.46101144590943771 0 0.2155910333497042 -0.46344790425758908 0 0.2001529052628071 -0.46101144590943771 0 0.2012982749682809 -0.44517185638638079 0 0.18984543462458581 -0.47375199087872932 0 0.2001529052628071 -0.46101144590943771 0 0.18647947784853169 -0.45344114136759528 0 0.2001529052628071 -0.46101144590943771 0 0.2012982749682809 -0.44517185638638079 0 0.18647947784853169 -0.45344114136759528 0 0.2012982749682809 -0.44517185638638079 0 0.1870055165868578 -0.42689580851517239 0 0.18647947784853169 -0.45344114136759528 0 0.2012982749682809 -0.44517185638638079 0 0.1870055165868578 -0.42689580851517239 0 0.2012982749682809 -0.44517185638638079 0 0.20188653215058061 -0.42744936863553162 0 0.1870055165868578 -0.42689580851517239 0 0.20104287440149171 -0.41017852648169773 0 0.18728921509524091 -0.41075218618134202 0 0.1870055165868578 -0.42689580851517239 0 0.20104287440149171 -0.41017852648169773 0 0.20998096461718049 -0.41954733663457222 0 0.19518211061888491 -0.40094695712830142 0 0.20188653215058061 -0.42744936863553162 0 0.20104287440149171 -0.41017852648169773 0 0.1870055165868578 -0.42689580851517239 0 0.20998096461718049 -0.41954733663457222 0 0.19518211061888491 -0.40094695712830142 0 0.20104287440149171 -0.41017852648169773 0 0.1870055165868578 -0.42689580851517239 0 0.20104287440149171 -0.41017852648169773 0 0.19518211061888491 -0.40094695712830142 0 0.18728921509524091 -0.41075218618134202 0 0.20998096461718049 -0.41954733663457222 0 0.20909956654698861 -0.40506126567703671 0 0.19518211061888491 -0.40094695712830142 0 0.20188653215058061 -0.42744936863553162 0 0.20104287440149171 -0.41017852648169773 0 0.20998096461718049 -0.41954733663457222 0 0.20998096461718049 -0.41954733663457222 0 0.217656121716609 -0.41181049576468842 0 0.20909956654698861 -0.40506126567703671 0 0.20998096461718049 -0.41954733663457222 0 0.217656121716609 -0.41181049576468842 0 0.22538323205119101 -0.42237260289043099 0 0.20188653215058061 -0.42744936863553162 0 0.20998096461718049 -0.41954733663457222 0 0.21010503017909199 -0.43545331515983482 0 0.224779818615476 -0.43814771614084302 0 0.20998096461718049 -0.41954733663457222 0 0.21010503017909199 -0.43545331515983482 0 0.224779818615476 -0.43814771614084302 0 0.20998096461718049 -0.41954733663457222 0 0.2012982749682809 -0.44517185638638079 0 0.20188653215058061 -0.42744936863553162 0 0.21010503017909199 -0.43545331515983482 0 0.224779818615476 -0.43814771614084302 0 0.20998096461718049 -0.41954733663457222 0 0.22538323205119101 -0.42237260289043099 0 0.224779818615476 -0.43814771614084302 0 0.22538323205119101 -0.42237260289043099 0 0.2368794869376824 -0.42746619028619082 0 0.2416189477814904 -0.4402919311333891 0 0.224779818615476 -0.43814771614084302 0 0.2368794869376824 -0.42746619028619082 0 0.25109865018948269 -0.42968142985213459 0 0.2368794869376824 -0.42746619028619082 0 0.237619768369007 -0.41489127562586092 0 0.25109865018948269 -0.42968142985213459 0 0.237619768369007 -0.41489127562586092 0 0.25109865018948269 -0.42968142985213459 0 0.2416189477814904 -0.4402919311333891 0 0.2368794869376824 -0.42746619028619082 0 0.25329804205335782 -0.41414002317867232 0 0.237619768369007 -0.41489127562586092 0 0.24615931824032369 -0.40622165069277599 0 0.25329804205335782 -0.41414002317867232 0 0.25109865018948269 -0.42968142985213459 0 0.237619768369007 -0.41489127562586092 0 0.2368794869376824 -0.42746619028619082 0 0.237619768369007 -0.41489127562586092 0 0.217656121716609 -0.41181049576468842 0 0.22538323205119101 -0.42237260289043099 0 0.237619768369007 -0.41489127562586092 0 0.217656121716609 -0.41181049576468842 0 0.237619768369007 -0.41489127562586092 0 0.2206328482097614 -0.39625180891557499 0 0.22538323205119101 -0.42237260289043099 0 0.2368794869376824 -0.42746619028619082 0 0.237619768369007 -0.41489127562586092 0 0.237619768369007 -0.41489127562586092 0 0.2206328482097614 -0.39625180891557499 0 0.23864862416671459 -0.39741444410408888 0 0.2206328482097614 -0.39625180891557499 0 0.23864862416671459 -0.39741444410408888 0 0.23015516408709041 -0.38809471074894569 0 0.237619768369007 -0.41489127562586092 0 0.2206328482097614 -0.39625180891557499 0 0.25507083837221578 -0.39844085986248179 0 0.24615931824032369 -0.40622165069277599 0 0.23864862416671459 -0.39741444410408888 0 0.237619768369007 -0.41489127562586092 0 0.23864862416671459 -0.39741444410408888 0 0.25507083837221578 -0.39844085986248179 0 0.23864862416671459 -0.39741444410408888 0 0.24852166450171129 -0.38927163467278281 0 0.237619768369007 -0.41489127562586092 0 0.24615931824032369 -0.40622165069277599 0 0.23864862416671459 -0.39741444410408888 0 0.23864862416671459 -0.39741444410408888 0 0.23967747996441849 -0.37993761258231662 0 0.23015516408709041 -0.38809471074894569 0 0.23864862416671459 -0.39741444410408888 0 0.24852166450171129 -0.38927163467278281 0 0.23967747996441849 -0.37993761258231662 0 0.26068971550349629 -0.38129362214224372 0 0.24852166450171129 -0.38927163467278281 0 0.23967747996441849 -0.37993761258231662 0 0.23864862416671459 -0.39741444410408888 0 0.23967747996441849 -0.37993761258231662 0 0.23967747996441849 -0.37993761258231662 0 0.2216617040074674 -0.37877497739380239 0 0.2294217189248772 -0.36851269241606449 0 0.23967747996441849 -0.37993761258231662 0 0.2216617040074674 -0.37877497739380239 0 0.2206328482097614 -0.39625180891557499 0 0.23015516408709041 -0.38809471074894569 0 0.2216617040074674 -0.37877497739380239 0 0.23967747996441849 -0.37993761258231662 0 0.23015516408709041 -0.38809471074894569 0 0.2216617040074674 -0.37877497739380239 0 0.2216617040074674 -0.37877497739380239 0 0.20364592805051621 -0.37761234220528878 0 0.2206328482097614 -0.39625180891557499 0 0.20364592805051621 -0.37761234220528878 0 0.20391372219669501 -0.39363380343704202 0 0.2206328482097614 -0.39625180891557499 0 0.20364592805051621 -0.37761234220528878 0 0.2206328482097614 -0.39625180891557499 0 0.2216617040074674 -0.37877497739380239 0 0.20364592805051621 -0.37761234220528878 0 0.2206328482097614 -0.39625180891557499 0 0.20909956654698861 -0.40506126567703671 0 0.20391372219669501 -0.39363380343704202 0 0.217656121716609 -0.41181049576468842 0 0.2206328482097614 -0.39625180891557499 0 0.20909956654698861 -0.40506126567703671 0 0.20391372219669501 -0.39363380343704202 0 0.19518211061888491 -0.40094695712830142 0 0.1910081575573242 -0.38829664325900742 0 0.20909956654698861 -0.40506126567703671 0 0.20391372219669501 -0.39363380343704202 0 0.19518211061888491 -0.40094695712830142 0 0.19518211061888491 -0.40094695712830142 0 0.18010059903519871 -0.39608176925486799 0 0.18728921509524091 -0.41075218618134202 0 0.19518211061888491 -0.40094695712830142 0 0.1910081575573242 -0.38829664325900742 0 0.18010059903519871 -0.39608176925486799 0 0.20364592805051621 -0.37761234220528878 0 0.1910081575573242 -0.38829664325900742 0 0.17458817413446681 -0.37573712088355798 0 0.20364592805051621 -0.37761234220528878 0 0.17458817413446681 -0.37573712088355798 0 0.20364592805051621 -0.37761234220528878 0 0.20391372219669501 -0.39363380343704202 0 0.1910081575573242 -0.38829664325900742 0 0.1910081575573242 -0.38829664325900742 0 0.17458817413446681 -0.37573712088355798 0 0.18010059903519871 -0.39608176925486799 0 0.18010059903519871 -0.39608176925486799 0 0.17318048446404441 -0.40921783886405722 0 0.18728921509524091 -0.41075218618134202 0 0.15935545234123119 -0.39153986921294193 0 0.15662830138971601 -0.40965425311765802 0 0.17318048446404441 -0.40921783886405722 0 0.18010059903519871 -0.39608176925486799 0 0.15935545234123119 -0.39153986921294193 0 0.17318048446404441 -0.40921783886405722 0 0.15935545234123119 -0.39153986921294193 0 0.17318048446404441 -0.40921783886405722 0 0.14553042021841739 -0.3738618995618268 0 0.17458817413446681 -0.37573712088355798 0 0.15935545234123119 -0.39153986921294193 0 0.17458817413446681 -0.37573712088355798 0 0.18010059903519871 -0.39608176925486799 0 0.15935545234123119 -0.39153986921294193 0 0.14553042021841739 -0.3738618995618268 0 0.15935545234123119 -0.39153986921294193 0 0.14553042021841739 -0.3738618995618268 0 0.15935545234123119 -0.39153986921294193 0 0.14572956067388179 -0.38821495932531508 0 0.14572956067388179 -0.38821495932531508 0 0.14140058653380999 -0.38001430157816563 0 0.13506900775959549 -0.39525479783293072 0 0.14553042021841739 -0.3738618995618268 0 0.14572956067388179 -0.38821495932531508 0 0.14140058653380999 -0.38001430157816563 0 0.14553042021841739 -0.3738618995618268 0 0.12710754052052031 -0.37267299222518452 0 0.14140058653380999 -0.38001430157816563 0 0.12710754052052031 -0.37267299222518452 0 0.13506900775959549 -0.39525479783293072 0 0.12710754052052031 -0.37267299222518452 0 0.13506900775959549 -0.39525479783293072 0 0.1153995889993225 -0.39001803037232768 0 0.12710754052052031 -0.37267299222518452 0 0.14140058653380999 -0.38001430157816563 0 0.13506900775959549 -0.39525479783293072 0 0.14140058653380999 -0.38001430157816563 0 0.13506900775959549 -0.39525479783293072 0 0.13506900775959549 -0.39525479783293072 0 0.14100112059504569 -0.41208056811757232 0 0.13506900775959549 -0.39525479783293072 0 0.12582898512461979 -0.41749609583838398 0 0.1222318774675482 -0.4029616907994491 0 0.13506900775959549 -0.39525479783293072 0 0.14729233651635429 -0.40040392844071099 0 0.14100112059504569 -0.41208056811757232 0 0.15935545234123119 -0.39153986921294193 0 0.14729233651635429 -0.40040392844071099 0 0.15662830138971601 -0.40965425311765802 0 0.14572956067388179 -0.38821495932531508 0 0.13506900775959549 -0.39525479783293072 0 0.14729233651635429 -0.40040392844071099 0 0.15935545234123119 -0.39153986921294193 0 0.14572956067388179 -0.38821495932531508 0 0.14729233651635429 -0.40040392844071099 0 0.14100112059504569 -0.41208056811757232 0 0.14754039942924491 -0.42261712403360308 0 0.15662830138971601 -0.40965425311765802 0 0.14729233651635429 -0.40040392844071099 0 0.14100112059504569 -0.41208056811757232 0 0.15662830138971601 -0.40965425311765802 0 0.14100112059504569 -0.41208056811757232 0 0.12582898512461979 -0.41749609583838398 0 0.14754039942924491 -0.42261712403360308 0 0.13506900775959549 -0.39525479783293072 0 0.14100112059504569 -0.41208056811757232 0 0.12582898512461979 -0.41749609583838398 0 0.13506900775959549 -0.39525479783293072 0 0.12582898512461979 -0.41749609583838398 0 0.12582898512461979 -0.41749609583838398 0 0.14754039942924491 -0.42261712403360308 0 0.12582898512461979 -0.41749609583838398 0 0.1349464221190384 -0.43177671789809291 0 0.14754039942924491 -0.42261712403360308 0 0.12582898512461979 -0.41749609583838398 0 0.1349464221190384 -0.43177671789809291 0 0.11583561223900769 -0.44155075384183751 0 0.14754039942924491 -0.42261712403360308 0 0.16532112341255831 -0.42540995011467031 0 0.1542800756782603 -0.43770602935784408 0 0.1349464221190384 -0.43177671789809291 0 0.14754039942924491 -0.42261712403360308 0 0.1542800756782603 -0.43770602935784408 0 0.16532112341255831 -0.42540995011467031 0 0.17166346600165749 -0.4451668670713147 0 0.1542800756782603 -0.43770602935784408 0 0.14754039942924491 -0.42261712403360308 0 0.16532112341255831 -0.42540995011467031 0 0.15662830138971601 -0.40965425311765802 0 0.16532112341255831 -0.42540995011467031 0 0.15662830138971601 -0.40965425311765802 0 0.17318048446404441 -0.40921783886405722 0 0.17318048446404441 -0.40921783886405722 0 0.1870055165868578 -0.42689580851517239 0 0.16532112341255831 -0.42540995011467031 0 0.17318048446404441 -0.40921783886405722 0 0.1870055165868578 -0.42689580851517239 0 0.17318048446404441 -0.40921783886405722 0 0.18728921509524091 -0.41075218618134202 0 0.1870055165868578 -0.42689580851517239 0 0.16532112341255831 -0.42540995011467031 0 0.1870055165868578 -0.42689580851517239 0 0.17166346600165749 -0.4451668670713147 0 0.1870055165868578 -0.42689580851517239 0 0.17166346600165749 -0.4451668670713147 0 0.1870055165868578 -0.42689580851517239 0 0.18647947784853169 -0.45344114136759528 0 0.17166346600165749 -0.4451668670713147 0 0.18647947784853169 -0.45344114136759528 0 0.1756829131325543 -0.46841813526874509 0 0.17166346600165749 -0.4451668670713147 0 0.18984543462458581 -0.47375199087872932 0 0.18647947784853169 -0.45344114136759528 0 0.1756829131325543 -0.46841813526874509 0 0.1756829131325543 -0.46841813526874509 0 0.156321415416456 -0.46343792562745612 0 0.17166346600165749 -0.4451668670713147 0 0.156321415416456 -0.46343792562745612 0 0.17166346600165749 -0.4451668670713147 0 0.156321415416456 -0.46343792562745612 0 0.17166346600165749 -0.4451668670713147 0 0.1542800756782603 -0.43770602935784408 0 0.156321415416456 -0.46343792562745612 0 0.1542800756782603 -0.43770602935784408 0 0.1384230282894694 -0.44702562596574669 0 0.1349464221190384 -0.43177671789809291 0 0.1542800756782603 -0.43770602935784408 0 0.1384230282894694 -0.44702562596574669 0 0.1384230282894694 -0.44702562596574669 0 0.12235337024632829 -0.45892354457580198 0 0.11583561223900769 -0.44155075384183751 0 0.1349464221190384 -0.43177671789809291 0 0.1384230282894694 -0.44702562596574669 0 0.11583561223900769 -0.44155075384183751 0 0.1384230282894694 -0.44702562596574669 0 0.1353315484422799 -0.46486679518212298 0 0.12235337024632829 -0.45892354457580198 0 0.1353315484422799 -0.46486679518212298 0 0.1204269562023414 -0.47501852140478668 0 0.12235337024632829 -0.45892354457580198 0 0.156321415416456 -0.46343792562745612 0 0.1384230282894694 -0.44702562596574669 0 0.1353315484422799 -0.46486679518212298 0 0.156321415416456 -0.46343792562745612 0 0.1353315484422799 -0.46486679518212298 0 0.1409793648312534 -0.48170898418359648 0 0.156321415416456 -0.46343792562745612 0 0.1409793648312534 -0.48170898418359648 0 0.16687904710850851 -0.49014015463118188 0 0.156321415416456 -0.46343792562745612 0 0.1409793648312534 -0.48170898418359648 0 0.1409793648312534 -0.48170898418359648 0 0.1204269562023414 -0.47501852140478668 0 0.1353315484422799 -0.46486679518212298 0 0.1409793648312534 -0.48170898418359648 0 0.1204269562023414 -0.47501852140478668 0 0.1409793648312534 -0.48170898418359648 0 0.12562055630640509 -0.500000000000004 0 0.15525955475794201 -0.5 0 0.1409793648312534 -0.48170898418359648 0 0.12562055630640509 -0.500000000000004 0 0.1409793648312534 -0.48170898418359648 0 0.12562055630640509 -0.500000000000004 0 0.1204269562023414 -0.47501852140478668 0 0.1409793648312534 -0.48170898418359648 0 0.16687904710850851 -0.49014015463118188 0 0.1409793648312534 -0.48170898418359648 0 0.15525955475794201 -0.5 0 0.16687904710850851 -0.49014015463118188 0 0.15525955475794201 -0.5 0 0.16687904710850851 -0.49014015463118188 0 0.18489855320947879 -0.5 0 0.1756829131325543 -0.46841813526874509 0 0.156321415416456 -0.46343792562745612 0 0.16687904710850851 -0.49014015463118188 0 0.18984543462458581 -0.47375199087872932 0 0.1756829131325543 -0.46841813526874509 0 0.18290863779558611 -0.48457073203619361 0 0.1756829131325543 -0.46841813526874509 0 0.16687904710850851 -0.49014015463118188 0 0.18290863779558611 -0.48457073203619361 0 0.19277872938576221 -0.498571325078771 0 0.16687904710850851 -0.49014015463118188 0 0.19277872938576221 -0.498571325078771 0 0.16687904710850851 -0.49014015463118188 0 0.18489855320947879 -0.5 0 0.19277872938576221 -0.498571325078771 0 0.16687904710850851 -0.49014015463118188 0 0.18290863779558611 -0.48457073203619361 0 0.067871729126375291 -0.5 0 0.076101474719962425 -0.48039898722134861 0 0.053229699265328251 -0.48895731152123589 0 0.076101474719962425 -0.48039898722134861 0 0.068376600704373319 -0.4583639682817291 0 0.053786343093229362 -0.47063276842410329 0 0.076101474719962425 -0.48039898722134861 0 0.1034610405565962 -0.48207739097191749 0 0.089439194696421517 -0.46261700089154678 0 0.067871729126375291 -0.5 0 0.076101474719962425 -0.48039898722134861 0 0.096746142716390149 -0.5 0 0.076101474719962425 -0.48039898722134861 0 0.096746142716390149 -0.5 0 0.1034610405565962 -0.48207739097191749 0 0.12562055630640509 -0.500000000000004 0 0.096746142716390149 -0.5 0 0.1034610405565962 -0.48207739097191749 0 0.12562055630640509 -0.500000000000004 0 0.1204269562023414 -0.47501852140478668 0 0.1034610405565962 -0.48207739097191749 0 0.1204269562023414 -0.47501852140478668 0 0.1034610405565962 -0.48207739097191749 0 0.1058422393533955 -0.46560541184529097 0 0.1034610405565962 -0.48207739097191749 0 0.1058422393533955 -0.46560541184529097 0 0.089439194696421517 -0.46261700089154678 0 0.1058422393533955 -0.46560541184529097 0 0.098002037222978899 -0.44824506941286629 0 0.089439194696421517 -0.46261700089154678 0 0.1058422393533955 -0.46560541184529097 0 0.11583561223900769 -0.44155075384183751 0 0.1058422393533955 -0.46560541184529097 0 0.12235337024632829 -0.45892354457580198 0 0.11583561223900769 -0.44155075384183751 0 0.1204269562023414 -0.47501852140478668 0 0.1058422393533955 -0.46560541184529097 0 0.12235337024632829 -0.45892354457580198 0 0.1058422393533955 -0.46560541184529097 0 0.11583561223900769 -0.44155075384183751 0 0.098002037222978899 -0.44824506941286629 0 0.11583561223900769 -0.44155075384183751 0 0.098002037222978899 -0.44824506941286629 0 0.096505822665753027 -0.43173107982626441 0 0.098002037222978899 -0.44824506941286629 0 0.079845017416336261 -0.44384016537463222 0 0.089439194696421517 -0.46261700089154678 0 0.098002037222978899 -0.44824506941286629 0 0.079845017416336261 -0.44384016537463222 0 0.096505822665753027 -0.43173107982626441 0 0.079845017416336261 -0.44384016537463222 0 0.089439194696421517 -0.46261700089154678 0 0.068376600704373319 -0.4583639682817291 0 0.076101474719962425 -0.48039898722134861 0 0.089439194696421517 -0.46261700089154678 0 0.068376600704373319 -0.4583639682817291 0 0.079845017416336261 -0.44384016537463222 0 0.068376600704373319 -0.4583639682817291 0 0.061403948367329778 -0.43934198199861851 0 0.077583690587445936 -0.4249678401672905 0 0.056736883739360207 -0.42074132020675359 0 0.061403948367329778 -0.43934198199861851 0 0.079845017416336261 -0.44384016537463222 0 0.077583690587445936 -0.4249678401672905 0 0.061403948367329778 -0.43934198199861851 0 0.077583690587445936 -0.4249678401672905 0 0.072882223661018819 -0.405007648310442 0 0.056736883739360207 -0.42074132020675359 0 0.077583690587445936 -0.4249678401672905 0 0.099355604392819374 -0.41125187207441249 0 0.072882223661018819 -0.405007648310442 0 0.099355604392819374 -0.41125187207441249 0 0.072882223661018819 -0.405007648310442 0 0.077583690587445936 -0.4249678401672905 0 0.096505822665753027 -0.43173107982626441 0 0.099355604392819374 -0.41125187207441249 0 0.079845017416336261 -0.44384016537463222 0 0.077583690587445936 -0.4249678401672905 0 0.096505822665753027 -0.43173107982626441 0 0.11583561223900769 -0.44155075384183751 0 0.096505822665753027 -0.43173107982626441 0 0.1099463987208186 -0.42553036238980618 0 0.096505822665753027 -0.43173107982626441 0 0.1099463987208186 -0.42553036238980618 0 0.099355604392819374 -0.41125187207441249 0 0.12582898512461979 -0.41749609583838398 0 0.11583561223900769 -0.44155075384183751 0 0.1099463987208186 -0.42553036238980618 0 0.12582898512461979 -0.41749609583838398 0 0.11583561223900769 -0.44155075384183751 0 0.12582898512461979 -0.41749609583838398 0 0.099355604392819374 -0.41125187207441249 0 0.12582898512461979 -0.41749609583838398 0 0.1099463987208186 -0.42553036238980618 0 0.099355604392819374 -0.41125187207441249 0 0.12582898512461979 -0.41749609583838398 0 0.099355604392819374 -0.41125187207441249 0 0.1222318774675482 -0.4029616907994491 0 0.099355604392819374 -0.41125187207441249 0 0.1153995889993225 -0.39001803037232768 0 0.093564266402493185 -0.38766094587939032 0 0.099355604392819374 -0.41125187207441249 0 0.1222318774675482 -0.4029616907994491 0 0.1153995889993225 -0.39001803037232768 0 0.13506900775959549 -0.39525479783293072 0 0.1222318774675482 -0.4029616907994491 0 0.1153995889993225 -0.39001803037232768 0 0.12710754052052031 -0.37267299222518452 0 0.1153995889993225 -0.39001803037232768 0 0.10927496736554559 -0.3715221798981847 0 0.093564266402493185 -0.38766094587939032 0 0.10927496736554559 -0.3715221798981847 0 0.091442394210570779 -0.37037136757118477 0 0.1153995889993225 -0.39001803037232768 0 0.093564266402493185 -0.38766094587939032 0 0.10927496736554559 -0.3715221798981847 0 0.093564266402493185 -0.38766094587939032 0 0.072882223661018819 -0.405007648310442 0 0.0730308197856821 -0.37779457704979008 0 0.093564266402493185 -0.38766094587939032 0 0.0730308197856821 -0.37779457704979008 0 0.091442394210570779 -0.37037136757118477 0 0.099355604392819374 -0.41125187207441249 0 0.093564266402493185 -0.38766094587939032 0 0.072882223661018819 -0.405007648310442 0 0.072882223661018819 -0.405007648310442 0 0.0730308197856821 -0.37779457704979008 0 0.055754800689735567 -0.38530468980239768 0 0.0730308197856821 -0.37779457704979008 0 0.055754800689735567 -0.38530468980239768 0 0.048954603566077531 -0.36373194349326282 0 0.055754800689735567 -0.38530468980239768 0 0.037497513506681353 -0.38122585561202182 0 0.048954603566077531 -0.36373194349326282 0 0.072882223661018819 -0.405007648310442 0 0.055754800689735567 -0.38530468980239768 0 0.046408842929218118 -0.39876342454647162 0 0.072882223661018819 -0.405007648310442 0 0.046408842929218118 -0.39876342454647162 0 0.046408842929218118 -0.39876342454647162 0 0.037497513506681353 -0.38122585561202182 0 0.019935462197417379 -0.39251920078250102 0 0.046408842929218118 -0.39876342454647162 0 0.024902241396147939 -0.39565825226680179 0 0.033067840590879263 -0.40856388425111412 0 0.046408842929218118 -0.39876342454647162 0 0.019935462197417379 -0.39251920078250102 0 0.055754800689735567 -0.38530468980239768 0 0.046408842929218118 -0.39876342454647162 0 0.037497513506681353 -0.38122585561202182 0 0.037497513506681353 -0.38122585561202182 0 0.025450761580893731 -0.38114371915668638 0 0.031486878155185652 -0.36953864533387121 0 0.013768178436105869 -0.39215373898515732 0 0.019488995525883009 -0.4005091774779499 0 0.017620182113011099 -0.37273775871890391 0 0.025450761580893731 -0.38114371915668638 0 0.019935462197417379 -0.39251920078250102 0 0.017620182113011099 -0.37273775871890391 0 0.019488995525883009 -0.4005091774779499 0 0.019935462197417379 -0.39251920078250102 0 0.017620182113011099 -0.37273775871890391 0 0.019488995525883009 -0.4005091774779499 0 0.017620182113011099 -0.37273775871890391 0 0.037497513506681353 -0.38122585561202182 0 0.025450761580893731 -0.38114371915668638 0 0.019935462197417379 -0.39251920078250102 0 0.0099439872221319045 -0.3855245292183363 0 0.0071550585163699526 -0.37801693493988903 0 0.017620182113011099 -0.37273775871890391 0 0.0099439872221319045 -0.3855245292183363 0 0.013768178436105869 -0.39215373898515732 0 0.017620182113011099 -0.37273775871890391 0 0.0099439872221319045 -0.3855245292183363 0 0.0079851464207226653 -0.39252448191007161 0 0.013768178436105869 -0.39215373898515732 0 0.0099439872221319045 -0.3855245292183363 0 0.0013487490258714261 -0.38650423789021171 0 0.0071550585163699526 -0.37801693493988903 0 0.0099439872221319045 -0.3855245292183363 0 0.0013487490258714261 -0.38650423789021171 0 0.0079851464207226653 -0.39252448191007161 0 -0.0014039796043168211 -0.37364578346791372 0 0.0013487490258714261 -0.38650423789021171 0 0.0071550585163699526 -0.37801693493988903 0 0.0039294966912411921 -0.40197193021994881 0 0.0064844545427029283 -0.40012506716422241 0 0.0019736884904650079 -0.3981865762396033 0 0.0039294966912411921 -0.40197193021994881 0 0.0064844545427029283 -0.40012506716422241 0 0.0067651000662067532 -0.40317638555597779 0 0.0064844545427029283 -0.40012506716422241 0 0.0066695003601561151 -0.39662595086941033 0 0.0094688537863004442 -0.39951686563384708 0 0.0064844545427029283 -0.40012506716422241 0 0.0067651000662067532 -0.40317638555597779 0 0.0088992860291476125 -0.40184858146015318 0 0.0067651000662067532 -0.40317638555597779 0 0.0072878425785553817 -0.40591667581209839 0 0.0043403655896966011 -0.40474887177289498 0 0.0072878425785553817 -0.40591667581209839 0 0.0043403655896966011 -0.40474887177289498 0 0.005376446939638263 -0.40744471375549318 0 0.0039294966912411921 -0.40197193021994881 0 0.0067651000662067532 -0.40317638555597779 0 0.0043403655896966011 -0.40474887177289498 0 -2.758941976419821e-05 -0.40313328238234081 0 0.0043403655896966011 -0.40474887177289498 0 0.0027108966823022229 -0.40685024291151162 0 -2.758941976419821e-05 -0.40313328238234081 0 0.0039294966912411921 -0.40197193021994881 0 0.0043403655896966011 -0.40474887177289498 0 -2.758941976419821e-05 -0.40313328238234081 0 -0.0024868563055657242 -0.40813951744291538 0 0.0027108966823022229 -0.40685024291151162 0 -2.758941976419821e-05 -0.40313328238234081 0 0.0039294966912411921 -0.40197193021994881 0 0.0019736884904650079 -0.3981865762396033 0 0.0019736884904650079 -0.3981865762396033 0 0.0029285813651069221 -0.3934051664073186 0 0.0066695003601561151 -0.39662595086941033 0 -0.0018975386778837141 -0.39412815718898742 0 0.0019736884904650079 -0.3981865762396033 0 0.0029285813651069221 -0.3934051664073186 0 -0.0018975386778837141 -0.39412815718898742 0 0.0013487490258714261 -0.38650423789021171 0 0.0029285813651069221 -0.3934051664073186 0 0.0013487490258714261 -0.38650423789021171 0 0.0029285813651069221 -0.3934051664073186 0 0.0079851464207226653 -0.39252448191007161 0 0.0029285813651069221 -0.3934051664073186 0 0.0066695003601561151 -0.39662595086941033 0 0.0079851464207226653 -0.39252448191007161 0 0.0064844545427029283 -0.40012506716422241 0 0.0019736884904650079 -0.3981865762396033 0 0.0066695003601561151 -0.39662595086941033 0 0.0066695003601561151 -0.39662595086941033 0 0.011263753380878091 -0.39654316473310519 0 0.0079851464207226653 -0.39252448191007161 0 0.0066695003601561151 -0.39662595086941033 0 0.011263753380878091 -0.39654316473310519 0 0.0094688537863004442 -0.39951686563384708 0 0.011263753380878091 -0.39654316473310519 0 0.0079851464207226653 -0.39252448191007161 0 0.013768178436105869 -0.39215373898515732 0 0.013768178436105869 -0.39215373898515732 0 0.013941895789803311 -0.39817498884724539 0 0.016133288600311019 -0.39906207199048888 0 0.011263753380878091 -0.39654316473310519 0 0.013768178436105869 -0.39215373898515732 0 0.013941895789803311 -0.39817498884724539 0 0.011263753380878091 -0.39654316473310519 0 0.013941895789803311 -0.39817498884724539 0 0.012464835434400291 -0.39986821266036843 0 0.013941895789803311 -0.39817498884724539 0 0.01470254237878018 -0.4005186640687744 0 0.016133288600311019 -0.39906207199048888 0 0.014947758878552779 -0.40313544963421039 0 0.019488995525883009 -0.4005091774779499 0 0.0057729334542649963 -0.41232140907129811 0 0.01256745940191036 -0.40365453278219549 0 0.014947758878552779 -0.40313544963421039 0 0.0071317082472714807 -0.40765560080425001 0 0.013941895789803311 -0.39817498884724539 0 0.01470254237878018 -0.4005186640687744 0 0.012464835434400291 -0.39986821266036843 0 0.01470254237878018 -0.4005186640687744 0 0.014947758878552779 -0.40313544963421039 0 0.01651501091676091 -0.40072620831290201 0 0.01470254237878018 -0.4005186640687744 0 0.013178970259133361 -0.4017995198000035 0 0.014947758878552779 -0.40313544963421039 0 0.01470254237878018 -0.4005186640687744 0 0.013178970259133361 -0.4017995198000035 0 0.012464835434400291 -0.39986821266036843 0 0.013178970259133361 -0.4017995198000035 0 0.012464835434400291 -0.39986821266036843 0 0.01103129297051763 -0.40209021691582347 0 0.011263753380878091 -0.39654316473310519 0 0.012464835434400291 -0.39986821266036843 0 0.0094688537863004442 -0.39951686563384708 0 0.012464835434400291 -0.39986821266036843 0 0.01103129297051763 -0.40209021691582347 0 0.0094688537863004442 -0.39951686563384708 0 0.01103129297051763 -0.40209021691582347 0 0.0088992860291476125 -0.40184858146015318 0 0.0094688537863004442 -0.39951686563384708 0 0.0064844545427029283 -0.40012506716422241 0 0.0088992860291476125 -0.40184858146015318 0 0.0094688537863004442 -0.39951686563384708 0 0.0094157144962229069 -0.40434184867809192 0 0.01256745940191036 -0.40365453278219549 0 0.0071317082472714807 -0.40765560080425001 0 0.0067651000662067532 -0.40317638555597779 0 0.0072878425785553817 -0.40591667581209839 0 0.0094157144962229069 -0.40434184867809192 0 0.0072878425785553817 -0.40591667581209839 0 0.0094157144962229069 -0.40434184867809192 0 0.0071317082472714807 -0.40765560080425001 0 0.0067651000662067532 -0.40317638555597779 0 0.0088992860291476125 -0.40184858146015318 0 0.0094157144962229069 -0.40434184867809192 0 0.0094157144962229069 -0.40434184867809192 0 0.01089420319473073 -0.4037785327072026 0 0.01256745940191036 -0.40365453278219549 0 0.01103129297051763 -0.40209021691582347 0 0.0094157144962229069 -0.40434184867809192 0 0.01089420319473073 -0.4037785327072026 0 0.01103129297051763 -0.40209021691582347 0 0.0088992860291476125 -0.40184858146015318 0 0.0094157144962229069 -0.40434184867809192 0 0.01103129297051763 -0.40209021691582347 0 0.01089420319473073 -0.4037785327072026 0 0.01256745940191036 -0.40365453278219549 0 0.013178970259133361 -0.4017995198000035 0 0.01103129297051763 -0.40209021691582347 0 0.01256745940191036 -0.40365453278219549 0 0.013178970259133361 -0.4017995198000035 0 0.01256745940191036 -0.40365453278219549 0 0.014947758878552779 -0.40313544963421039 0 0.01503930981217433 -0.40544165390268982 0 0.01683141298682396 -0.40592081355826842 0 0.01483534842191923 -0.40728682059870491 0 0.01503930981217433 -0.40544165390268982 0 0.01683141298682396 -0.40592081355826842 0 0.018414967070336109 -0.40452845304658919 0 0.018414967070336109 -0.40452845304658919 0 0.019488995525883009 -0.4005091774779499 0 0.019836916916188319 -0.40306106641056522 0 0.046408842929218118 -0.39876342454647162 0 0.019935462197417379 -0.39251920078250102 0 0.024902241396147939 -0.39565825226680179 0 0.01683141298682396 -0.40592081355826842 0 0.018414967070336109 -0.40452845304658919 0 0.020843461893973521 -0.40575107936957328 0 0.01503930981217433 -0.40544165390268982 0 0.018414967070336109 -0.40452845304658919 0 0.019488995525883009 -0.4005091774779499 0 0.01503930981217433 -0.40544165390268982 0 0.019488995525883009 -0.4005091774779499 0 0.01483534842191923 -0.40728682059870491 0 0.014947758878552779 -0.40313544963421039 0 0.01651501091676091 -0.40072620831290201 0 0.019488995525883009 -0.4005091774779499 0 0.01651501091676091 -0.40072620831290201 0 0.016133288600311019 -0.39906207199048888 0 0.019488995525883009 -0.4005091774779499 0 0.01470254237878018 -0.4005186640687744 0 0.01651501091676091 -0.40072620831290201 0 0.016133288600311019 -0.39906207199048888 0 0.019488995525883009 -0.4005091774779499 0 0.021577028905608881 -0.4017464994428106 0 0.019836916916188319 -0.40306106641056522 0 0.019488995525883009 -0.4005091774779499 0 0.021577028905608881 -0.4017464994428106 0 0.024902241396147939 -0.39565825226680179 0 0.021577028905608881 -0.4017464994428106 0 0.020843461893973521 -0.40575107936957328 0 0.019836916916188319 -0.40306106641056522 0 0.021577028905608881 -0.4017464994428106 0 0.020843461893973521 -0.40575107936957328 0 0.024838064311014721 -0.40404663645653982 0 0.018414967070336109 -0.40452845304658919 0 0.020843461893973521 -0.40575107936957328 0 0.019836916916188319 -0.40306106641056522 0 0.019488995525883009 -0.4005091774779499 0 0.019935462197417379 -0.39251920078250102 0 0.024902241396147939 -0.39565825226680179 0 0.013768178436105869 -0.39215373898515732 0 0.016133288600311019 -0.39906207199048888 0 0.019488995525883009 -0.4005091774779499 0 0.019488995525883009 -0.4005091774779499 0 0.024902241396147939 -0.39565825226680179 0 0.021577028905608881 -0.4017464994428106 0 0.024902241396147939 -0.39565825226680179 0 0.024838064311014721 -0.40404663645653982 0 0.024902241396147939 -0.39565825226680179 0 0.024838064311014721 -0.40404663645653982 0 0.033067840590879263 -0.40856388425111412 0 0.02413063342505568 -0.40946894995942729 0 0.022966840978949271 -0.41693778852665908 0 0.033067840590879263 -0.40856388425111412 0 0.024838064311014721 -0.40404663645653982 0 0.02413063342505568 -0.40946894995942729 0 0.033067840590879263 -0.40856388425111412 0 0.022966840978949271 -0.41693778852665908 0 0.020886577223282 -0.42401707267158861 0 0.02983010610216031 -0.42306665616845429 0 0.022966840978949271 -0.41693778852665908 0 0.02983010610216031 -0.42306665616845429 0 0.033067840590879263 -0.40856388425111412 0 0.022966840978949271 -0.41693778852665908 0 0.015878420659203741 -0.41454283534752873 0 0.014750506668152599 -0.41918092690025732 0 0.022966840978949271 -0.41693778852665908 0 0.014750506668152599 -0.41918092690025732 0 0.020886577223282 -0.42401707267158861 0 0.022966840978949271 -0.41693778852665908 0 0.015878420659203741 -0.41454283534752873 0 0.019224190134258062 -0.41110690757714652 0 0.020843461893973521 -0.40575107936957328 0 0.024838064311014721 -0.40404663645653982 0 0.02413063342505568 -0.40946894995942729 0 0.020843461893973521 -0.40575107936957328 0 0.02413063342505568 -0.40946894995942729 0 0.019224190134258062 -0.41110690757714652 0 0.02413063342505568 -0.40946894995942729 0 0.022966840978949271 -0.41693778852665908 0 0.019224190134258062 -0.41110690757714652 0 0.015878420659203741 -0.41454283534752873 0 0.019224190134258062 -0.41110690757714652 0 0.01461428453584443 -0.41089822287980998 0 0.020843461893973521 -0.40575107936957328 0 0.019224190134258062 -0.41110690757714652 0 0.016646636022782761 -0.4083157616379457 0 0.019224190134258062 -0.41110690757714652 0 0.016646636022782761 -0.4083157616379457 0 0.01461428453584443 -0.41089822287980998 0 0.01683141298682396 -0.40592081355826842 0 0.020843461893973521 -0.40575107936957328 0 0.016646636022782761 -0.4083157616379457 0 0.01683141298682396 -0.40592081355826842 0 0.016646636022782761 -0.4083157616379457 0 0.01483534842191923 -0.40728682059870491 0 0.014947758878552779 -0.40313544963421039 0 0.0071317082472714807 -0.40765560080425001 0 0.0057729334542649963 -0.41232140907129811 0 0.019488995525883009 -0.4005091774779499 0 0.0057729334542649963 -0.41232140907129811 0 0.01483534842191923 -0.40728682059870491 0 0.011387965378061689 -0.4107027266010988 0 0.0057729334542649963 -0.41232140907129811 0 0.019488995525883009 -0.4005091774779499 0 0.01483534842191923 -0.40728682059870491 0 0.0057729334542649963 -0.41232140907129811 0 0.014259118368286861 -0.40904124152395799 0 0.012596054854544861 -0.40905378035723772 0 0.01461428453584443 -0.41089822287980998 0 0.01483534842191923 -0.40728682059870491 0 0.014259118368286861 -0.40904124152395799 0 0.012596054854544861 -0.40905378035723772 0 0.016646636022782761 -0.4083157616379457 0 0.014259118368286861 -0.40904124152395799 0 0.01461428453584443 -0.41089822287980998 0 0.016646636022782761 -0.4083157616379457 0 0.01483534842191923 -0.40728682059870491 0 0.014259118368286861 -0.40904124152395799 0 0.01483534842191923 -0.40728682059870491 0 0.012596054854544861 -0.40905378035723772 0 0.011387965378061689 -0.4107027266010988 0 0.0086515399848635481 -0.41316228456174442 0 0.011387965378061689 -0.4107027266010988 0 0.0057729334542649963 -0.41232140907129811 0 0.0086515399848635481 -0.41316228456174442 0 0.011387965378061689 -0.4107027266010988 0 0.01060429590152371 -0.41230094199499079 0 0.011387965378061689 -0.4107027266010988 0 0.01060429590152371 -0.41230094199499079 0 0.012422112953454349 -0.41253395181629421 0 0.01060429590152371 -0.41230094199499079 0 0.012422112953454349 -0.41253395181629421 0 0.01009130628443158 -0.41434109624994531 0 0.0086515399848635481 -0.41316228456174442 0 0.01060429590152371 -0.41230094199499079 0 0.01009130628443158 -0.41434109624994531 0 0.012596054854544861 -0.40905378035723772 0 0.011387965378061689 -0.4107027266010988 0 0.012422112953454349 -0.41253395181629421 0 0.012596054854544861 -0.40905378035723772 0 0.012422112953454349 -0.41253395181629421 0 0.01461428453584443 -0.41089822287980998 0 0.015878420659203741 -0.41454283534752873 0 0.012422112953454349 -0.41253395181629421 0 0.01461428453584443 -0.41089822287980998 0 0.015878420659203741 -0.41454283534752873 0 0.012570693945090229 -0.41560236980415233 0 0.014750506668152599 -0.41918092690025732 0 0.012570693945090229 -0.41560236980415233 0 0.014750506668152599 -0.41918092690025732 0 0.0097111231602088795 -0.41741303870673607 0 0.015878420659203741 -0.41454283534752873 0 0.012422112953454349 -0.41253395181629421 0 0.012570693945090229 -0.41560236980415233 0 0.014750506668152599 -0.41918092690025732 0 0.01013826501495812 -0.42205107082993187 0 0.014878005151201379 -0.42434589089495728 0 0.0097111231602088795 -0.41741303870673607 0 0.007554277922423195 -0.41963567767467158 0 0.01013826501495812 -0.42205107082993187 0 0.014750506668152599 -0.41918092690025732 0 0.0097111231602088795 -0.41741303870673607 0 0.01013826501495812 -0.42205107082993187 0 0.012422112953454349 -0.41253395181629421 0 0.012570693945090229 -0.41560236980415233 0 0.01009130628443158 -0.41434109624994531 0 0.012570693945090229 -0.41560236980415233 0 0.01009130628443158 -0.41434109624994531 0 0.0097111231602088795 -0.41741303870673607 0 0.0097111231602088795 -0.41741303870673607 0 0.0071935607992662581 -0.41670472413541759 0 0.007554277922423195 -0.41963567767467158 0 0.0097111231602088795 -0.41741303870673607 0 0.0080102031015191477 -0.41495352480725028 0 0.0071935607992662581 -0.41670472413541759 0 0.0086515399848635481 -0.41316228456174442 0 0.01009130628443158 -0.41434109624994531 0 0.0080102031015191477 -0.41495352480725028 0 0.01009130628443158 -0.41434109624994531 0 0.0097111231602088795 -0.41741303870673607 0 0.0080102031015191477 -0.41495352480725028 0 0.0071935607992662581 -0.41670472413541759 0 0.0043560448489821761 -0.41530886981194293 0 0.0057729334542649963 -0.41232140907129811 0 0.0080102031015191477 -0.41495352480725028 0 0.0071935607992662581 -0.41670472413541759 0 0.0057729334542649963 -0.41232140907129811 0 0.0027513706383128049 -0.41638721971332499 0 0.0054440372153388714 -0.42709573710807491 0 0.0027513706383128049 -0.41638721971332499 0 0.0012147972439649889 -0.41688507675980752 0 0.0054440372153388714 -0.42709573710807491 0 0.0071935607992662581 -0.41670472413541759 0 0.0055455786592494751 -0.41755664831794159 0 0.007554277922423195 -0.41963567767467158 0 0.0071935607992662581 -0.41670472413541759 0 0.0055455786592494751 -0.41755664831794159 0 0.0043560448489821761 -0.41530886981194293 0 0.0055455786592494751 -0.41755664831794159 0 0.0043560448489821761 -0.41530886981194293 0 0.0027513706383128049 -0.41638721971332499 0 0.0055455786592494751 -0.41755664831794159 0 0.0027513706383128049 -0.41638721971332499 0 0.0051383225254112213 -0.42233220890075029 0 0.007554277922423195 -0.41963567767467158 0 0.0051383225254112213 -0.42233220890075029 0 0.01013826501495812 -0.42205107082993187 0 0.0055455786592494751 -0.41755664831794159 0 0.007554277922423195 -0.41963567767467158 0 0.0051383225254112213 -0.42233220890075029 0 0.0043560448489821761 -0.41530886981194293 0 0.0012147972439649889 -0.41688507675980752 0 0.0057729334542649963 -0.41232140907129811 0 0.0012147972439649889 -0.41688507675980752 0 0.0057729334542649963 -0.41232140907129811 0 0.0043560448489821761 -0.41530886981194293 0 0.0027513706383128049 -0.41638721971332499 0 0.0012147972439649889 -0.41688507675980752 0 0.0012147972439649889 -0.41688507675980752 0 0.0071317082472714807 -0.40765560080425001 0 0.0040233003631830163 -0.41139460556514812 0 0.0012147972439649889 -0.41688507675980752 0 0.0071317082472714807 -0.40765560080425001 0 0.0057729334542649963 -0.41232140907129811 0 0.0012147972439649889 -0.41688507675980752 0 0.0011409487811856549 -0.41167806058724271 0 0.0040233003631830163 -0.41139460556514812 0 0.0011409487811856549 -0.41167806058724271 0 0.0034540111042696028 -0.4092024304297302 0 0.0040233003631830163 -0.41139460556514812 0 0.0011409487811856549 -0.41167806058724271 0 0.0011201716358953449 -0.40903760656029531 0 0.0034540111042696028 -0.4092024304297302 0 -0.0024868563055657242 -0.40813951744291538 0 0.0011201716358953449 -0.40903760656029531 0 0.0027108966823022229 -0.40685024291151162 0 0.0027108966823022229 -0.40685024291151162 0 0.0034540111042696028 -0.4092024304297302 0 0.005376446939638263 -0.40744471375549318 0 0.0011201716358953449 -0.40903760656029531 0 0.0027108966823022229 -0.40685024291151162 0 0.0034540111042696028 -0.4092024304297302 0 0.0034540111042696028 -0.4092024304297302 0 0.005493815407614149 -0.40904288484832502 0 0.005376446939638263 -0.40744471375549318 0 0.005493815407614149 -0.40904288484832502 0 0.0071317082472714807 -0.40765560080425001 0 0.0040233003631830163 -0.41139460556514812 0 0.0034540111042696028 -0.4092024304297302 0 0.005493815407614149 -0.40904288484832502 0 0.0040233003631830163 -0.41139460556514812 0 0.0043403655896966011 -0.40474887177289498 0 0.0027108966823022229 -0.40685024291151162 0 0.005376446939638263 -0.40744471375549318 0 0.0072878425785553817 -0.40591667581209839 0 0.005376446939638263 -0.40744471375549318 0 0.0071317082472714807 -0.40765560080425001 0 0.005493815407614149 -0.40904288484832502 0 0.005376446939638263 -0.40744471375549318 0 0.0071317082472714807 -0.40765560080425001 0 0.0086515399848635481 -0.41316228456174442 0 0.0080102031015191477 -0.41495352480725028 0 0.0057729334542649963 -0.41232140907129811 0 0.0027513706383128049 -0.41638721971332499 0 0.0051383225254112213 -0.42233220890075029 0 0.0054440372153388714 -0.42709573710807491 0 0.0051383225254112213 -0.42233220890075029 0 0.0054440372153388714 -0.42709573710807491 0 0.0051383225254112213 -0.42233220890075029 0 0.0054440372153388714 -0.42709573710807491 0 0.01013826501495812 -0.42205107082993187 0 0.0054440372153388714 -0.42709573710807491 0 0.01236157713001222 -0.42694963504370798 0 0.01319227788091005 -0.43170229370911301 0 0.0054440372153388714 -0.42709573710807491 0 0.01013826501495812 -0.42205107082993187 0 0.01236157713001222 -0.42694963504370798 0 0.01013826501495812 -0.42205107082993187 0 0.014878005151201379 -0.42434589089495728 0 0.01236157713001222 -0.42694963504370798 0 0.014878005151201379 -0.42434589089495728 0 0.01236157713001222 -0.42694963504370798 0 0.01815530038765269 -0.42955318267646292 0 0.01236157713001222 -0.42694963504370798 0 0.01319227788091005 -0.43170229370911301 0 0.01815530038765269 -0.42955318267646292 0 0.0054440372153388714 -0.42709573710807491 0 0.01319227788091005 -0.43170229370911301 0 0.013469488585147399 -0.43799117543737581 0 0.01319227788091005 -0.43170229370911301 0 0.01894847810712216 -0.43628504537426788 0 0.013469488585147399 -0.43799117543737581 0 0.01894847810712216 -0.43628504537426788 0 0.024738704051575779 -0.43101799086274079 0 0.025896757272675631 -0.44023120498634061 0 0.01319227788091005 -0.43170229370911301 0 0.01894847810712216 -0.43628504537426788 0 0.01815530038765269 -0.42955318267646292 0 0.01894847810712216 -0.43628504537426788 0 0.01815530038765269 -0.42955318267646292 0 0.024738704051575779 -0.43101799086274079 0 0.014750506668152599 -0.41918092690025732 0 0.014878005151201379 -0.42434589089495728 0 0.020886577223282 -0.42401707267158861 0 0.014878005151201379 -0.42434589089495728 0 0.01815530038765269 -0.42955318267646292 0 0.020886577223282 -0.42401707267158861 0 0.01815530038765269 -0.42955318267646292 0 0.020886577223282 -0.42401707267158861 0 0.024738704051575779 -0.43101799086274079 0 0.02983010610216031 -0.42306665616845429 0 0.024738704051575779 -0.43101799086274079 0 0.034419847512535157 -0.43315474824228872 0 0.020886577223282 -0.42401707267158861 0 0.02983010610216031 -0.42306665616845429 0 0.024738704051575779 -0.43101799086274079 0 0.024738704051575779 -0.43101799086274079 0 0.034419847512535157 -0.43315474824228872 0 0.025896757272675631 -0.44023120498634061 0 0.034419847512535157 -0.43315474824228872 0 0.041203593784353607 -0.4192887528224527 0 0.047294755758321892 -0.43559780873973247 0 0.02983010610216031 -0.42306665616845429 0 0.034419847512535157 -0.43315474824228872 0 0.041203593784353607 -0.4192887528224527 0 0.02983010610216031 -0.42306665616845429 0 0.033067840590879263 -0.40856388425111412 0 0.041203593784353607 -0.4192887528224527 0 0.046408842929218118 -0.39876342454647162 0 0.033067840590879263 -0.40856388425111412 0 0.041203593784353607 -0.4192887528224527 0 0.072882223661018819 -0.405007648310442 0 0.046408842929218118 -0.39876342454647162 0 0.056736883739360207 -0.42074132020675359 0 0.046408842929218118 -0.39876342454647162 0 0.041203593784353607 -0.4192887528224527 0 0.056736883739360207 -0.42074132020675359 0 0.041203593784353607 -0.4192887528224527 0 0.056736883739360207 -0.42074132020675359 0 0.047294755758321892 -0.43559780873973247 0 0.056736883739360207 -0.42074132020675359 0 0.047294755758321892 -0.43559780873973247 0 0.061403948367329778 -0.43934198199861851 0 0.047294755758321892 -0.43559780873973247 0 0.061403948367329778 -0.43934198199861851 0 0.049205151333869851 -0.45362326011484477 0 0.068376600704373319 -0.4583639682817291 0 0.061403948367329778 -0.43934198199861851 0 0.049205151333869851 -0.45362326011484477 0 0.049205151333869851 -0.45362326011484477 0 0.039777722009696072 -0.46412696709046458 0 0.053786343093229362 -0.47063276842410329 0 0.068376600704373319 -0.4583639682817291 0 0.049205151333869851 -0.45362326011484477 0 0.053786343093229362 -0.47063276842410329 0 0.049205151333869851 -0.45362326011484477 0 0.039777722009696072 -0.46412696709046458 0 0.035429740506198827 -0.44859333673236318 0 0.039777722009696072 -0.46412696709046458 0 0.0288380545134585 -0.45896832703553359 0 0.02984214270111463 -0.4711910620638633 0 0.039777722009696072 -0.46412696709046458 0 0.035429740506198827 -0.44859333673236318 0 0.0288380545134585 -0.45896832703553359 0 0.047294755758321892 -0.43559780873973247 0 0.049205151333869851 -0.45362326011484477 0 0.035429740506198827 -0.44859333673236318 0 0.034419847512535157 -0.43315474824228872 0 0.035429740506198827 -0.44859333673236318 0 0.025896757272675631 -0.44023120498634061 0 0.034419847512535157 -0.43315474824228872 0 0.047294755758321892 -0.43559780873973247 0 0.035429740506198827 -0.44859333673236318 0 0.035429740506198827 -0.44859333673236318 0 0.025896757272675631 -0.44023120498634061 0 0.02362937772156069 -0.44885476151498488 0 0.035429740506198827 -0.44859333673236318 0 0.02362937772156069 -0.44885476151498488 0 0.0288380545134585 -0.45896832703553359 0 0.02362937772156069 -0.44885476151498488 0 0.017946204630595691 -0.4501979278695678 0 0.019706520135673481 -0.45748495245168369 0 0.017946204630595691 -0.4501979278695678 0 0.01139669132903288 -0.45076896151145529 0 0.019706520135673481 -0.45748495245168369 0 0.02362937772156069 -0.44885476151498488 0 0.017946204630595691 -0.4501979278695678 0 0.018365958393333041 -0.44410383948396742 0 0.017946204630595691 -0.4501979278695678 0 0.018365958393333041 -0.44410383948396742 0 0.01139669132903288 -0.45076896151145529 0 0.01894847810712216 -0.43628504537426788 0 0.025896757272675631 -0.44023120498634061 0 0.018365958393333041 -0.44410383948396742 0 0.025896757272675631 -0.44023120498634061 0 0.02362937772156069 -0.44885476151498488 0 0.018365958393333041 -0.44410383948396742 0 0.01894847810712216 -0.43628504537426788 0 0.018365958393333041 -0.44410383948396742 0 0.013469488585147399 -0.43799117543737581 0 0.0054440372153388714 -0.42709573710807491 0 0.013469488585147399 -0.43799117543737581 0 0.01139669132903288 -0.45076896151145529 0 0.0054440372153388714 -0.42709573710807491 0 0.0006483720101457867 -0.44550099603318333 0 0.0070036587923409631 -0.45139715807204972 0 0.0054440372153388714 -0.42709573710807491 0 0.01139669132903288 -0.45076896151145529 0 0.0070036587923409631 -0.45139715807204972 0 -0.005461929117362499 -0.44060974986902612 0 0.0054440372153388714 -0.42709573710807491 0 0.0006483720101457867 -0.44550099603318333 0 0.0054440372153388714 -0.42709573710807491 0 0.0070036587923409631 -0.45139715807204972 0 0.018365958393333041 -0.44410383948396742 0 0.013469488585147399 -0.43799117543737581 0 0.01139669132903288 -0.45076896151145529 0 0.0054440372153388714 -0.42709573710807491 0 0.01139669132903288 -0.45076896151145529 0 0.0006483720101457867 -0.44550099603318333 0 0.0070036587923409631 -0.45139715807204972 0 0.0011535592839311229 -0.45677819829376182 0 0.0070036587923409631 -0.45139715807204972 0 0.0085632803693431007 -0.47569857903602453 0 -0.00145676501375587 -0.46428589202665221 0 0.0011535592839311229 -0.45677819829376182 0 0.0085632803693431007 -0.47569857903602453 0 0.01139669132903288 -0.45076896151145529 0 0.01734934544272685 -0.47444218591483578 0 0.0070036587923409631 -0.45139715807204972 0 0.011042611343706399 -0.46315320646196828 0 0.0085632803693431007 -0.47569857903602453 0 0.0070036587923409631 -0.45139715807204972 0 0.0011535592839311229 -0.45677819829376182 0 0.0085632803693431007 -0.47569857903602453 0 0.01139669132903288 -0.45076896151145529 0 0.011042611343706399 -0.46315320646196828 0 0.01734934544272685 -0.47444218591483578 0 0.01139669132903288 -0.45076896151145529 0 0.0070036587923409631 -0.45139715807204972 0 0.011042611343706399 -0.46315320646196828 0 0.02334437414194564 -0.46638156710801848 0 0.019706520135673481 -0.45748495245168369 0 0.01734934544272685 -0.47444218591483578 0 0.01139669132903288 -0.45076896151145529 0 0.019706520135673481 -0.45748495245168369 0 0.01734934544272685 -0.47444218591483578 0 0.02362937772156069 -0.44885476151498488 0 0.019706520135673481 -0.45748495245168369 0 0.0288380545134585 -0.45896832703553359 0 0.02334437414194564 -0.46638156710801848 0 0.019706520135673481 -0.45748495245168369 0 0.0288380545134585 -0.45896832703553359 0 0.02334437414194564 -0.46638156710801848 0 0.0288380545134585 -0.45896832703553359 0 0.02984214270111463 -0.4711910620638633 0 0.02334437414194564 -0.46638156710801848 0 0.02984214270111463 -0.4711910620638633 0 0.01734934544272685 -0.47444218591483578 0 0.02984214270111463 -0.4711910620638633 0 0.02899219348626204 -0.48307510647497048 0 0.01734934544272685 -0.47444218591483578 0 0.011042611343706399 -0.46315320646196828 0 0.01734934544272685 -0.47444218591483578 0 0.0085632803693431007 -0.47569857903602453 0 0.01734934544272685 -0.47444218591483578 0 0.0085632803693431007 -0.47569857903602453 0 0.014734199732300271 -0.48750329784661361 0 -0.00249023751344285 -0.48914131198240179 0 0.0085632803693431007 -0.47569857903602453 0 0.010122901946345211 -0.49999999999999922 0 0.0085632803693431007 -0.47569857903602453 0 0.014734199732300271 -0.48750329784661361 0 0.010122901946345211 -0.49999999999999922 0 0.0085632803693431007 -0.47569857903602453 0 0.010122901946345211 -0.49999999999999922 0 0.014734199732300271 -0.48750329784661361 0 0.010122901946345211 -0.49999999999999922 0 0.02330199955642083 -0.49811541031821632 0 0.02899219348626204 -0.48307510647497048 0 0.01734934544272685 -0.47444218591483578 0 0.02330199955642083 -0.49811541031821632 0 0.01734934544272685 -0.47444218591483578 0 0.014734199732300271 -0.48750329784661361 0 0.02330199955642083 -0.49811541031821632 0 0.01734934544272685 -0.47444218591483578 0 0.02330199955642083 -0.49811541031821632 0 0.010122901946345211 -0.49999999999999922 0 0.02330199955642083 -0.49811541031821632 0 0.038997315536360211 -0.5 0 0.02899219348626204 -0.48307510647497048 0 0.02330199955642083 -0.49811541031821632 0 0.036758927130633702 -0.48941632150061859 0 0.036758927130633702 -0.48941632150061859 0 0.040169928542808223 -0.47900876917884089 0 0.053229699265328251 -0.48895731152123589 0 0.02330199955642083 -0.49811541031821632 0 0.038997315536360211 -0.5 0 0.036758927130633702 -0.48941632150061859 0 0.038997315536360211 -0.5 0 0.036758927130633702 -0.48941632150061859 0 0.053229699265328251 -0.48895731152123589 0 0.02984214270111463 -0.4711910620638633 0 0.02899219348626204 -0.48307510647497048 0 0.040169928542808223 -0.47900876917884089 0 0.02899219348626204 -0.48307510647497048 0 0.036758927130633702 -0.48941632150061859 0 0.040169928542808223 -0.47900876917884089 0 0.039777722009696072 -0.46412696709046458 0 0.02984214270111463 -0.4711910620638633 0 0.040169928542808223 -0.47900876917884089 0 0.039777722009696072 -0.46412696709046458 0 0.040169928542808223 -0.47900876917884089 0 0.053786343093229362 -0.47063276842410329 0 0.076101474719962425 -0.48039898722134861 0 0.053786343093229362 -0.47063276842410329 0 0.053229699265328251 -0.48895731152123589 0 0.040169928542808223 -0.47900876917884089 0 0.053786343093229362 -0.47063276842410329 0 0.053229699265328251 -0.48895731152123589 0 0.067871729126375291 -0.5 0 0.038997315536360211 -0.5 0 0.053229699265328251 -0.48895731152123589 0 0.085831963617294338 -0.29752591027529007 0 0.073698713406547184 -0.27302881349818819 0 0.085831963617294338 -0.29752591027529007 0 0.073698713406547184 -0.27302881349818819 0 0.086501180775217318 -0.28094022202539848 0 0.085831963617294338 -0.29752591027529007 0 0.086501180775217318 -0.28094022202539848 0 0.097139151847925362 -0.28767103127249238 0 0.085831963617294338 -0.29752591027529007 0 0.096184806643701173 -0.31842835546770831 0 0.085831963617294338 -0.29752591027529007 0 0.099289815351439409 -0.31473436899075619 0 0.085831963617294338 -0.29752591027529007 0 0.082010509085080313 -0.31138992112582881 0 0.096184806643701173 -0.31842835546770831 0 0.082010509085080313 -0.31138992112582881 0 0.066091149474548277 -0.29848281268979182 0 0.071968001744946011 -0.32064007162448732 0 0.085831963617294338 -0.29752591027529007 0 0.082010509085080313 -0.31138992112582881 0 0.066091149474548277 -0.29848281268979182 0 0.085831963617294338 -0.29752591027529007 0 0.06919730999741959 -0.27625529771998802 0 0.073698713406547184 -0.27302881349818819 0 0.085831963617294338 -0.29752591027529007 0 0.06919730999741959 -0.27625529771998802 0 0.085831963617294338 -0.29752591027529007 0 0.066091149474548277 -0.29848281268979182 0 0.06919730999741959 -0.27625529771998802 0 0.066091149474548277 -0.29848281268979182 0 0.06919730999741959 -0.27625529771998802 0 0.052630618212858797 -0.2739112667294693 0 0.06919730999741959 -0.27625529771998802 0 0.073698713406547184 -0.27302881349818819 0 0.052562656377544661 -0.25498468516468592 0 0.073698713406547184 -0.27302881349818819 0 0.052562656377544661 -0.25498468516468592 0 0.061565463195800842 -0.24853171672108609 0 0.073698713406547184 -0.27302881349818819 0 0.061565463195800842 -0.24853171672108609 0 0.073698713406547184 -0.27302881349818819 0 0.075450178712451937 -0.25703342488835429 0 0.061565463195800842 -0.24853171672108609 0 0.075450178712451937 -0.25703342488835429 0 0.061565463195800842 -0.24853171672108609 0 0.073698713406547184 -0.27302881349818819 0 0.075450178712451937 -0.25703342488835429 0 0.089334894229101958 -0.26553513305562432 0 0.075450178712451937 -0.25703342488835429 0 0.083848787816820758 -0.25531129280844561 0 0.076188616216174884 -0.2425517254842561 0 0.075450178712451937 -0.25703342488835429 0 0.089334894229101958 -0.26553513305562432 0 0.075450178712451937 -0.25703342488835429 0 0.083848787816820758 -0.25531129280844561 0 0.0883459996393825 -0.26273024487094881 0 0.075450178712451937 -0.25703342488835429 0 0.0883459996393825 -0.26273024487094881 0 0.089334894229101958 -0.26553513305562432 0 0.083848787816820758 -0.25531129280844561 0 0.0883459996393825 -0.26273024487094881 0 0.091750531057899321 -0.25704075542546079 0 0.0883459996393825 -0.26273024487094881 0 0.089334894229101958 -0.26553513305562432 0 0.0883459996393825 -0.26273024487094881 0 0.089334894229101958 -0.26553513305562432 0 0.094444256601566717 -0.26274203030458371 0 0.0883459996393825 -0.26273024487094881 0 0.091750531057899321 -0.25704075542546079 0 0.094444256601566717 -0.26274203030458371 0 0.083848787816820758 -0.25531129280844561 0 0.091750531057899321 -0.25704075542546079 0 0.090467706555690558 -0.24898899697984281 0 0.089334894229101958 -0.26553513305562432 0 0.097139151847925362 -0.28767103127249238 0 0.073698713406547184 -0.27302881349818819 0 0.089334894229101958 -0.26553513305562432 0 0.086501180775217318 -0.28094022202539848 0 0.089334894229101958 -0.26553513305562432 0 0.086501180775217318 -0.28094022202539848 0 0.097139151847925362 -0.28767103127249238 0 0.089334894229101958 -0.26553513305562432 0 0.095450063209984018 -0.26927949368055959 0 0.089334894229101958 -0.26553513305562432 0 0.095450063209984018 -0.26927949368055959 0 0.094444256601566717 -0.26274203030458371 0 0.089334894229101958 -0.26553513305562432 0 0.095450063209984018 -0.26927949368055959 0 0.097139151847925362 -0.28767103127249238 0 0.095450063209984018 -0.26927949368055959 0 0.1050979595775059 -0.27504907498811437 0 0.097139151847925362 -0.28767103127249238 0 0.095450063209984018 -0.26927949368055959 0 0.1050979595775059 -0.27504907498811437 0 0.1007913972582123 -0.26554285365028651 0 0.095450063209984018 -0.26927949368055959 0 0.094444256601566717 -0.26274203030458371 0 0.1007913972582123 -0.26554285365028651 0 0.1050979595775059 -0.27504907498811437 0 0.1007913972582123 -0.26554285365028651 0 0.10731880222596871 -0.26521245711469099 0 0.091750531057899321 -0.25704075542546079 0 0.1016459046760361 -0.25543121216348358 0 0.090467706555690558 -0.24898899697984281 0 0.094444256601566717 -0.26274203030458371 0 0.1007913972582123 -0.26554285365028651 0 0.1016459046760361 -0.25543121216348358 0 0.091750531057899321 -0.25704075542546079 0 0.094444256601566717 -0.26274203030458371 0 0.1016459046760361 -0.25543121216348358 0 0.1007913972582123 -0.26554285365028651 0 0.10731880222596871 -0.26521245711469099 0 0.1016459046760361 -0.25543121216348358 0 0.10731880222596871 -0.26521245711469099 0 0.1016459046760361 -0.25543121216348358 0 0.1137524505016409 -0.25703574225143322 0 0.12995562390746959 -0.26798112394261803 0 0.12751539410179349 -0.25446691770257829 0 0.1169373177889302 -0.27058290065313412 0 0.12751539410179349 -0.25446691770257829 0 0.1137524505016409 -0.25703574225143322 0 0.1169373177889302 -0.27058290065313412 0 0.1016459046760361 -0.25543121216348358 0 0.1137524505016409 -0.25703574225143322 0 0.1131260109275346 -0.24407299791964349 0 0.10731880222596871 -0.26521245711469099 0 0.1137524505016409 -0.25703574225143322 0 0.1169373177889302 -0.27058290065313412 0 0.12751539410179349 -0.25446691770257829 0 0.1137524505016409 -0.25703574225143322 0 0.1131260109275346 -0.24407299791964349 0 0.1050979595775059 -0.27504907498811437 0 0.1169373177889302 -0.27058290065313412 0 0.113367861788432 -0.29181165386516039 0 0.1050979595775059 -0.27504907498811437 0 0.10731880222596871 -0.26521245711469099 0 0.1169373177889302 -0.27058290065313412 0 0.12763225049615701 -0.28214270524416157 0 0.12995562390746959 -0.26798112394261803 0 0.1169373177889302 -0.27058290065313412 0 0.12763225049615701 -0.28214270524416157 0 0.1169373177889302 -0.27058290065313412 0 0.113367861788432 -0.29181165386516039 0 0.113367861788432 -0.29181165386516039 0 0.097139151847925362 -0.28767103127249238 0 0.1049434094667502 -0.30980692948936001 0 0.1050979595775059 -0.27504907498811437 0 0.113367861788432 -0.29181165386516039 0 0.097139151847925362 -0.28767103127249238 0 0.085831963617294338 -0.29752591027529007 0 0.1049434094667502 -0.30980692948936001 0 0.099289815351439409 -0.31473436899075619 0 0.085831963617294338 -0.29752591027529007 0 0.099289815351439409 -0.31473436899075619 0 0.096184806643701173 -0.31842835546770831 0 0.085831963617294338 -0.29752591027529007 0 0.097139151847925362 -0.28767103127249238 0 0.1049434094667502 -0.30980692948936001 0 0.097139151847925362 -0.28767103127249238 0 0.1049434094667502 -0.30980692948936001 0 0.113367861788432 -0.29181165386516039 0 0.1049434094667502 -0.30980692948936001 0 0.121524430085223 -0.30709459248306242 0 0.13712686816765299 -0.29669369749930852 0 0.113367861788432 -0.29181165386516039 0 0.121524430085223 -0.30709459248306242 0 0.1049434094667502 -0.30980692948936001 0 0.121524430085223 -0.30709459248306242 0 0.12021122405055 -0.32036927049127839 0 0.1049434094667502 -0.30980692948936001 0 0.12021122405055 -0.32036927049127839 0 0.11274766708558021 -0.33194282770622557 0 0.1329891605942819 -0.31656523342568532 0 0.121524430085223 -0.30709459248306242 0 0.12021122405055 -0.32036927049127839 0 0.12885145302091081 -0.33643676935206213 0 0.12021122405055 -0.32036927049127839 0 0.11274766708558021 -0.33194282770622557 0 0.12885145302091081 -0.33643676935206213 0 0.11274766708558021 -0.33194282770622557 0 0.1230446396665692 -0.34510949286605208 0 0.11274766708558021 -0.33194282770622557 0 0.1230446396665692 -0.34510949286605208 0 0.11274766708558021 -0.33194282770622557 0 0.1230446396665692 -0.34510949286605208 0 0.1178500451102117 -0.34641514860256922 0 0.11274766708558021 -0.33194282770622557 0 0.1178500451102117 -0.34641514860256922 0 0.11274766708558021 -0.33194282770622557 0 0.10653764967010811 -0.33933080066012639 0 0.1178500451102117 -0.34641514860256922 0 0.10653764967010811 -0.33933080066012639 0 0.096626718368736389 -0.33300620966257699 0 0.096184806643701173 -0.31842835546770831 0 0.11274766708558021 -0.33194282770622557 0 0.10653764967010811 -0.33933080066012639 0 0.096184806643701173 -0.31842835546770831 0 0.10653764967010811 -0.33933080066012639 0 0.098782606388001806 -0.34351828640408372 0 0.1178500451102117 -0.34641514860256922 0 0.10653764967010811 -0.33933080066012639 0 0.096184806643701173 -0.31842835546770831 0 0.098782606388001806 -0.34351828640408372 0 0.096626718368736389 -0.33300620966257699 0 0.089180328176287793 -0.33496832394016512 0 0.10653764967010811 -0.33933080066012639 0 0.098782606388001806 -0.34351828640408372 0 0.096626718368736389 -0.33300620966257699 0 0.096626718368736389 -0.33300620966257699 0 0.096184806643701173 -0.31842835546770831 0 0.092216799457965196 -0.328082799289797 0 0.1049434094667502 -0.30980692948936001 0 0.11274766708558021 -0.33194282770622557 0 0.11274766708558021 -0.33194282770622557 0 0.099289815351439409 -0.31473436899075619 0 0.1049434094667502 -0.30980692948936001 0 0.11274766708558021 -0.33194282770622557 0 0.099289815351439409 -0.31473436899075619 0 0.11274766708558021 -0.33194282770622557 0 0.099289815351439409 -0.31473436899075619 0 0.096184806643701173 -0.31842835546770831 0 0.12710754052052031 -0.37267299222518452 0 0.1178500451102117 -0.34641514860256922 0 0.12710754052052031 -0.37267299222518452 0 0.1082879458419205 -0.35860584131424372 0 0.10927496736554559 -0.3715221798981847 0 0.12710754052052031 -0.37267299222518452 0 0.10927496736554559 -0.3715221798981847 0 0.12710754052052031 -0.37267299222518452 0 0.1178500451102117 -0.34641514860256922 0 0.1082879458419205 -0.35860584131424372 0 0.1230446396665692 -0.34510949286605208 0 0.1178500451102117 -0.34641514860256922 0 0.1178500451102117 -0.34641514860256922 0 0.094884897928834561 -0.35218741356613709 0 0.1178500451102117 -0.34641514860256922 0 0.1082879458419205 -0.35860584131424372 0 0.094884897928834561 -0.35218741356613709 0 0.098782606388001806 -0.34351828640408372 0 0.1178500451102117 -0.34641514860256922 0 0.094884897928834561 -0.35218741356613709 0 0.1082879458419205 -0.35860584131424372 0 0.10927496736554559 -0.3715221798981847 0 0.091442394210570779 -0.37037136757118477 0 0.1082879458419205 -0.35860584131424372 0 0.094884897928834561 -0.35218741356613709 0 0.091442394210570779 -0.37037136757118477 0 0.10927496736554559 -0.3715221798981847 0 0.091442394210570779 -0.37037136757118477 0 0.0730308197856821 -0.37779457704979008 0 0.091442394210570779 -0.37037136757118477 0 0.071919750747456074 -0.35795967852970001 0 0.094884897928834561 -0.35218741356613709 0 0.091442394210570779 -0.37037136757118477 0 0.071919750747456074 -0.35795967852970001 0 0.094884897928834561 -0.35218741356613709 0 0.071919750747456074 -0.35795967852970001 0 0.094884897928834561 -0.35218741356613709 0 0.071919750747456074 -0.35795967852970001 0 0.083670695929549566 -0.34322477549131658 0 0.098782606388001806 -0.34351828640408372 0 0.094884897928834561 -0.35218741356613709 0 0.083670695929549566 -0.34322477549131658 0 0.071919750747456074 -0.35795967852970001 0 0.083670695929549566 -0.34322477549131658 0 0.068733602914204939 -0.33792306487989582 0 0.071919750747456074 -0.35795967852970001 0 0.068733602914204939 -0.33792306487989582 0 0.053168979403251902 -0.3462205074625565 0 0.0730308197856821 -0.37779457704979008 0 0.071919750747456074 -0.35795967852970001 0 0.048954603566077531 -0.36373194349326282 0 0.085321961211971914 -0.32364804093942873 0 0.079351109400964112 -0.33208329757558858 0 0.071968001744946011 -0.32064007162448732 0 0.082010509085080313 -0.31138992112582881 0 0.085321961211971914 -0.32364804093942873 0 0.071968001744946011 -0.32064007162448732 0 0.082010509085080313 -0.31138992112582881 0 0.096184806643701173 -0.31842835546770831 0 0.085321961211971914 -0.32364804093942873 0 0.096184806643701173 -0.31842835546770831 0 0.085321961211971914 -0.32364804093942873 0 0.092216799457965196 -0.328082799289797 0 0.085321961211971914 -0.32364804093942873 0 0.092216799457965196 -0.328082799289797 0 0.089180328176287793 -0.33496832394016512 0 0.096626718368736389 -0.33300620966257699 0 0.092216799457965196 -0.328082799289797 0 0.089180328176287793 -0.33496832394016512 0 0.098782606388001806 -0.34351828640408372 0 0.089180328176287793 -0.33496832394016512 0 0.083670695929549566 -0.34322477549131658 0 0.089180328176287793 -0.33496832394016512 0 0.083670695929549566 -0.34322477549131658 0 0.079351109400964112 -0.33208329757558858 0 0.085321961211971914 -0.32364804093942873 0 0.089180328176287793 -0.33496832394016512 0 0.079351109400964112 -0.33208329757558858 0 0.079351109400964112 -0.33208329757558858 0 0.068733602914204939 -0.33792306487989582 0 0.071968001744946011 -0.32064007162448732 0 0.083670695929549566 -0.34322477549131658 0 0.079351109400964112 -0.33208329757558858 0 0.068733602914204939 -0.33792306487989582 0 0.066091149474548277 -0.29848281268979182 0 0.071968001744946011 -0.32064007162448732 0 0.052253013882942338 -0.32109768396034949 0 0.068733602914204939 -0.33792306487989582 0 0.071968001744946011 -0.32064007162448732 0 0.052253013882942338 -0.32109768396034949 0 0.052253013882942338 -0.32109768396034949 0 0.039370792369488587 -0.33646938706675039 0 0.053168979403251902 -0.3462205074625565 0 0.068733602914204939 -0.33792306487989582 0 0.052253013882942338 -0.32109768396034949 0 0.053168979403251902 -0.3462205074625565 0 0.052253013882942338 -0.32109768396034949 0 0.039370792369488587 -0.33646938706675039 0 0.032077774757557791 -0.32230072790760411 0 0.052253013882942338 -0.32109768396034949 0 0.032077774757557791 -0.32230072790760411 0 0.031845578504483413 -0.30098376337729571 0 0.071919750747456074 -0.35795967852970001 0 0.048954603566077531 -0.36373194349326282 0 0.071919750747456074 -0.35795967852970001 0 0.048954603566077531 -0.36373194349326282 0 0.053168979403251902 -0.3462205074625565 0 0.048954603566077531 -0.36373194349326282 0 0.053168979403251902 -0.3462205074625565 0 0.029252331130220969 -0.35279441656200677 0 0.039370792369488587 -0.33646938706675039 0 0.053168979403251902 -0.3462205074625565 0 0.029252331130220969 -0.35279441656200677 0 0.037497513506681353 -0.38122585561202182 0 0.048954603566077531 -0.36373194349326282 0 0.031486878155185652 -0.36953864533387121 0 0.048954603566077531 -0.36373194349326282 0 0.031486878155185652 -0.36953864533387121 0 0.029252331130220969 -0.35279441656200677 0 0.031486878155185652 -0.36953864533387121 0 0.017620182113011099 -0.37273775871890391 0 0.029252331130220969 -0.35279441656200677 0 0.025450761580893731 -0.38114371915668638 0 0.031486878155185652 -0.36953864533387121 0 0.017620182113011099 -0.37273775871890391 0 0.029252331130220969 -0.35279441656200677 0 0.015751368700141391 -0.34496633995985782 0 0.021567443208747591 -0.33499466888140889 0 0.017620182113011099 -0.37273775871890391 0 0.015751368700141391 -0.34496633995985782 0 0.017620182113011099 -0.37273775871890391 0 0.029252331130220969 -0.35279441656200677 0 0.015751368700141391 -0.34496633995985782 0 0.029252331130220969 -0.35279441656200677 0 0.021567443208747591 -0.33499466888140889 0 -0.0035963054026456201 -0.34864433904209152 0 0.0078163408018850529 -0.35972334279097917 0 0.005167847606762371 -0.34240758357285828 0 0.017620182113011099 -0.37273775871890391 0 0.015751368700141391 -0.34496633995985782 0 0.0078163408018850529 -0.35972334279097917 0 0.015751368700141391 -0.34496633995985782 0 0.0078163408018850529 -0.35972334279097917 0 0.005167847606762371 -0.34240758357285828 0 -0.0014039796043168211 -0.37364578346791372 0 0.0071550585163699526 -0.37801693493988903 0 0.0078163408018850529 -0.35972334279097917 0 0.0071550585163699526 -0.37801693493988903 0 0.017620182113011099 -0.37273775871890391 0 0.0078163408018850529 -0.35972334279097917 0 0.032077774757557791 -0.32230072790760411 0 0.013882555287272939 -0.31719492120081161 0 0.031845578504483413 -0.30098376337729571 0 0.021567443208747591 -0.33499466888140889 0 0.013882555287272939 -0.31719492120081161 0 0.032077774757557791 -0.32230072790760411 0 0.021567443208747591 -0.33499466888140889 0 0.013882555287272939 -0.31719492120081161 0 0.015751368700141391 -0.34496633995985782 0 0.021567443208747591 -0.33499466888140889 0 0.013882555287272939 -0.31719492120081161 0 0.039370792369488587 -0.33646938706675039 0 0.032077774757557791 -0.32230072790760411 0 0.021567443208747591 -0.33499466888140889 0 0.039370792369488587 -0.33646938706675039 0 0.029252331130220969 -0.35279441656200677 0 0.021567443208747591 -0.33499466888140889 0 0.015751368700141391 -0.34496633995985782 0 0.0060489399974046664 -0.33151414206395202 0 0.013882555287272939 -0.31719492120081161 0 0.015751368700141391 -0.34496633995985782 0 0.013882555287272939 -0.31719492120081161 0 0.015751368700141391 -0.34496633995985782 0 0.005167847606762371 -0.34240758357285828 0 0.0060489399974046664 -0.33151414206395202 0 -0.0071367468923371237 -0.3327948053768694 0 0.0060489399974046664 -0.33151414206395202 0 0.0011305834457342929 -0.32137477924466668 0 -0.0071367468923371237 -0.3327948053768694 0 0.005167847606762371 -0.34240758357285828 0 0.0060489399974046664 -0.33151414206395202 0 0.0060489399974046664 -0.33151414206395202 0 0.0011305834457342929 -0.32137477924466668 0 0.013882555287272939 -0.31719492120081161 0 0.0011305834457342929 -0.32137477924466668 0 0.013882555287272939 -0.31719492120081161 0 0.0010719217416038671 -0.31131727721632169 0 0.013882555287272939 -0.31719492120081161 0 0.0076856683710688472 -0.30284168343849571 0 0.01266034920664736 -0.29903238199752719 0 0.013882555287272939 -0.31719492120081161 0 0.0010719217416038671 -0.31131727721632169 0 0.0076856683710688472 -0.30284168343849571 0 -0.0074429766199592268 -0.30562122098406258 0 0.0076856683710688472 -0.30284168343849571 0 0.0014887814548633219 -0.28848844567618032 0 0.013882555287272939 -0.31719492120081161 0 0.01266034920664736 -0.29903238199752719 0 -0.0074429766199592268 -0.30562122098406258 0 0.0010719217416038671 -0.31131727721632169 0 0.0076856683710688472 -0.30284168343849571 0 0.013882555287272939 -0.31719492120081161 0 0.0076856683710688472 -0.30284168343849571 0 0.01266034920664736 -0.29903238199752719 0 0.00828669778745794 -0.28579861533190309 0 0.011438143126023811 -0.28086984279424271 0 0.01266034920664736 -0.29903238199752719 0 0.011438143126023811 -0.28086984279424271 0 0.0014887814548633219 -0.28848844567618032 0 0.00828669778745794 -0.28579861533190309 0 0.0059505800065491844 -0.27992988515375178 0 -0.001596264330972937 -0.28134285850144208 0 0.0014887814548633219 -0.28848844567618032 0 0.0059505800065491844 -0.27992988515375178 0 0.0014887814548633219 -0.28848844567618032 0 0.0059505800065491844 -0.27992988515375178 0 0.0076856683710688472 -0.30284168343849571 0 0.01266034920664736 -0.29903238199752719 0 0.0014887814548633219 -0.28848844567618032 0 0.01266034920664736 -0.29903238199752719 0 0.0014887814548633219 -0.28848844567618032 0 0.00828669778745794 -0.28579861533190309 0 0.0076856683710688472 -0.30284168343849571 0 0.0014887814548633219 -0.28848844567618032 0 0.00828669778745794 -0.28579861533190309 0 0.009895635143207529 -0.28067252103781398 0 0.0059505800065491844 -0.27992988515375178 0 0.00828669778745794 -0.28579861533190309 0 0.011438143126023811 -0.28086984279424271 0 0.009895635143207529 -0.28067252103781398 0 0.029629320205335409 -0.28336512310240369 0 0.031845578504483413 -0.30098376337729571 0 0.011438143126023811 -0.28086984279424271 0 0.01266034920664736 -0.29903238199752719 0 0.031845578504483413 -0.30098376337729571 0 0.011438143126023811 -0.28086984279424271 0 0.031845578504483413 -0.30098376337729571 0 0.011438143126023811 -0.28086984279424271 0 0.013882555287272939 -0.31719492120081161 0 0.01266034920664736 -0.29903238199752719 0 0.031845578504483413 -0.30098376337729571 0 0.052253013882942338 -0.32109768396034949 0 0.031845578504483413 -0.30098376337729571 0 0.046419298414826601 -0.28944733007691092 0 0.066091149474548277 -0.29848281268979182 0 0.052253013882942338 -0.32109768396034949 0 0.046419298414826601 -0.28944733007691092 0 0.052253013882942338 -0.32109768396034949 0 0.031845578504483413 -0.30098376337729571 0 0.029629320205335409 -0.28336512310240369 0 0.031845578504483413 -0.30098376337729571 0 0.046419298414826601 -0.28944733007691092 0 0.066091149474548277 -0.29848281268979182 0 0.046419298414826601 -0.28944733007691092 0 0.052630618212858797 -0.2739112667294693 0 0.06919730999741959 -0.27625529771998802 0 0.052562656377544661 -0.25498468516468592 0 0.06919730999741959 -0.27625529771998802 0 0.052562656377544661 -0.25498468516468592 0 0.052630618212858797 -0.2739112667294693 0 0.052562656377544661 -0.25498468516468592 0 0.052630618212858797 -0.2739112667294693 0 0.036447111354229282 -0.27046596909360832 0 0.029629320205335409 -0.28336512310240369 0 0.046419298414826601 -0.28944733007691092 0 0.036447111354229282 -0.27046596909360832 0 0.046419298414826601 -0.28944733007691092 0 0.052630618212858797 -0.2739112667294693 0 0.036447111354229282 -0.27046596909360832 0 0.052562656377544661 -0.25498468516468592 0 0.036447111354229282 -0.27046596909360832 0 0.034737693557088833 -0.24966804446922239 0 0.036447111354229282 -0.27046596909360832 0 0.0198351547182068 -0.2532966851960739 0 0.034737693557088833 -0.24966804446922239 0 0.029629320205335409 -0.28336512310240369 0 0.021996469627114681 -0.2750587101699607 0 0.011438143126023811 -0.28086984279424271 0 0.036447111354229282 -0.27046596909360832 0 0.0198351547182068 -0.2532966851960739 0 0.021996469627114681 -0.2750587101699607 0 0.0198351547182068 -0.2532966851960739 0 0.021996469627114681 -0.2750587101699607 0 0.01075476685861565 -0.27071456010978301 0 0.029629320205335409 -0.28336512310240369 0 0.036447111354229282 -0.27046596909360832 0 0.021996469627114681 -0.2750587101699607 0 0.011438143126023811 -0.28086984279424271 0 0.01075476685861565 -0.27071456010978301 0 0.0074894855543637872 -0.27697797772971539 0 0.011438143126023811 -0.28086984279424271 0 0.01075476685861565 -0.27071456010978301 0 0.021996469627114681 -0.2750587101699607 0 0.011438143126023811 -0.28086984279424271 0 0.01075476685861565 -0.27071456010978301 0 0.009895635143207529 -0.28067252103781398 0 0.0059505800065491844 -0.27992988515375178 0 0.011438143126023811 -0.28086984279424271 0 0.0074894855543637872 -0.27697797772971539 0 0.011438143126023811 -0.28086984279424271 0 0.009895635143207529 -0.28067252103781398 0 0.0074894855543637872 -0.27697797772971539 0 0.01075476685861565 -0.27071456010978301 0 0.0074894855543637872 -0.27697797772971539 0 -0.00040159264908984631 -0.27474124425047852 0 -0.002752402839100936 -0.26688339573318748 0 0.0074894855543637872 -0.27697797772971539 0 -0.002752402839100936 -0.26688339573318748 0 0.01075476685861565 -0.27071456010978301 0 0.0074894855543637872 -0.27697797772971539 0 -0.002752402839100936 -0.26688339573318748 0 0.0074894855543637872 -0.27697797772971539 0 -0.00040159264908984631 -0.27474124425047852 0 0.0074894855543637872 -0.27697797772971539 0 0.0059505800065491844 -0.27992988515375178 0 0.009895635143207529 -0.28067252103781398 0 0.0074894855543637872 -0.27697797772971539 0 0.0059505800065491844 -0.27992988515375178 0 0.0074894855543637872 -0.27697797772971539 0 0.0059505800065491844 -0.27992988515375178 0 0.0198351547182068 -0.2532966851960739 0 0.01075476685861565 -0.27071456010978301 0 0.0088278604252677757 -0.24207985259888551 0 0.0198351547182068 -0.2532966851960739 0 0.01075476685861565 -0.27071456010978301 0 -0.0020452445366769159 -0.25613720859826339 0 0.01075476685861565 -0.27071456010978301 0 0.0088278604252677757 -0.24207985259888551 0 0.01075476685861565 -0.27071456010978301 0 0.0088278604252677757 -0.24207985259888551 0 -0.002752402839100936 -0.26688339573318748 0 -0.0020452445366769159 -0.25613720859826339 0 0.01075476685861565 -0.27071456010978301 0 0.0088278604252677757 -0.24207985259888551 0 0.0082727513934302971 -0.2338306794744188 0 0.0088278604252677757 -0.24207985259888551 0 0.012800727624227111 -0.23193108270114249 0 0.019649573764291911 -0.2317910535805652 0 0.0088278604252677757 -0.24207985259888551 0 0.0082727513934302971 -0.2338306794744188 0 0.012800727624227111 -0.23193108270114249 0 -0.005154301307355222 -0.23866109239983591 0 0.0088278604252677757 -0.24207985259888551 0 0.0082727513934302971 -0.2338306794744188 0 -0.0010408822478608711 -0.23002048580275269 0 0.0082727513934302971 -0.2338306794744188 0 0.0091347611165188136 -0.22815836102464809 0 -0.005154301307355222 -0.23866109239983591 0 -0.0010408822478608711 -0.23002048580275269 0 0.0082727513934302971 -0.2338306794744188 0 0.020903231394601721 -0.22422233816301701 0 0.0015436596348421231 -0.21818233608296381 0 -0.010112930406894269 -0.2195948390175114 0 0.0091347611165188136 -0.22815836102464809 0 0.0015436596348421231 -0.21818233608296381 0 0.01342843759453958 -0.22641536832405551 0 0.020903231394601721 -0.22422233816301701 0 0.0015436596348421231 -0.21818233608296381 0 0.020903231394601721 -0.22422233816301701 0 0.0015436596348421231 -0.21818233608296381 0 0.0067869268908444108 -0.21499043681971439 0 0.01342843759453958 -0.22641536832405551 0 0.0091347611165188136 -0.22815836102464809 0 0.0015436596348421231 -0.21818233608296381 0 0.020903231394601721 -0.22422233816301701 0 0.0067869268908444108 -0.21499043681971439 0 0.015259495363499071 -0.21726473711819419 0 0.020903231394601721 -0.22422233816301701 0 0.0067869268908444108 -0.21499043681971439 0 0.0082727513934302971 -0.2338306794744188 0 0.0091347611165188136 -0.22815836102464809 0 0.012800727624227111 -0.23193108270114249 0 0.01342843759453958 -0.22641536832405551 0 0.012800727624227111 -0.23193108270114249 0 0.01633685935485801 -0.22927282241615771 0 0.01342843759453958 -0.22641536832405551 0 0.0091347611165188136 -0.22815836102464809 0 0.012800727624227111 -0.23193108270114249 0 0.012800727624227111 -0.23193108270114249 0 0.01633685935485801 -0.22927282241615771 0 0.019649573764291911 -0.2317910535805652 0 0.01342843759453958 -0.22641536832405551 0 0.01633685935485801 -0.22927282241615771 0 0.019468698436373472 -0.22695378505886771 0 0.01633685935485801 -0.22927282241615771 0 0.019468698436373472 -0.22695378505886771 0 0.019649573764291911 -0.2317910535805652 0 0.019468698436373472 -0.22695378505886771 0 0.019649573764291911 -0.2317910535805652 0 0.024542398679282231 -0.22995459747846281 0 0.019468698436373472 -0.22695378505886771 0 0.022862463176526789 -0.22483359982649831 0 0.024542398679282231 -0.22995459747846281 0 0.020903231394601721 -0.22422233816301701 0 0.015259495363499071 -0.21726473711819419 0 0.023957289381430769 -0.21840720707103181 0 0.01342843759453958 -0.22641536832405551 0 0.019468698436373472 -0.22695378505886771 0 0.020903231394601721 -0.22422233816301701 0 0.019468698436373472 -0.22695378505886771 0 0.020903231394601721 -0.22422233816301701 0 0.019468698436373472 -0.22695378505886771 0 0.022862463176526789 -0.22483359982649831 0 0.020903231394601721 -0.22422233816301701 0 0.022862463176526789 -0.22483359982649831 0 0.020903231394601721 -0.22422233816301701 0 0.020903231394601721 -0.22422233816301701 0 0.023957289381430769 -0.21840720707103181 0 0.022862463176526789 -0.22483359982649831 0 0.020903231394601721 -0.22422233816301701 0 0.023957289381430769 -0.21840720707103181 0 0.03095837715610511 -0.2273594479125714 0 0.023957289381430769 -0.21840720707103181 0 0.022862463176526789 -0.22483359982649831 0 0.03095837715610511 -0.2273594479125714 0 0.022862463176526789 -0.22483359982649831 0 0.03095837715610511 -0.2273594479125714 0 0.023957289381430769 -0.21840720707103181 0 0.022862463176526789 -0.22483359982649831 0 0.031815715441425772 -0.23031573864402199 0 0.022862463176526789 -0.22483359982649831 0 0.03095837715610511 -0.2273594479125714 0 0.031815715441425772 -0.23031573864402199 0 0.022862463176526789 -0.22483359982649831 0 0.024542398679282231 -0.22995459747846281 0 0.031815715441425772 -0.23031573864402199 0 0.019649573764291911 -0.2317910535805652 0 0.024542398679282231 -0.22995459747846281 0 0.028915542577793829 -0.23587881028236271 0 0.028915542577793829 -0.23587881028236271 0 0.031815715441425772 -0.23031573864402199 0 0.024542398679282231 -0.22995459747846281 0 0.028915542577793829 -0.23587881028236271 0 0.031815715441425772 -0.23031573864402199 0 0.0198351547182068 -0.2532966851960739 0 0.028915542577793829 -0.23587881028236271 0 0.0198351547182068 -0.2532966851960739 0 0.028915542577793829 -0.23587881028236271 0 0.034737693557088833 -0.24966804446922239 0 0.0088278604252677757 -0.24207985259888551 0 0.028915542577793829 -0.23587881028236271 0 0.0198351547182068 -0.2532966851960739 0 0.0088278604252677757 -0.24207985259888551 0 0.028915542577793829 -0.23587881028236271 0 0.0088278604252677757 -0.24207985259888551 0 0.019649573764291911 -0.2317910535805652 0 0.028915542577793829 -0.23587881028236271 0 0.0066206202256469358 -0.196238932273196 0 0.02353191484324875 -0.2057825250255983 0 0.016477214127030831 -0.182380492705049 0 0.0066206202256469358 -0.196238932273196 0 0.023957289381430769 -0.21840720707103181 0 -0.0036755515635171002 -0.20753558635460601 0 0.0066206202256469358 -0.196238932273196 0 0.0067869268908444108 -0.21499043681971439 0 0.0066206202256469358 -0.196238932273196 0 0.0067869268908444108 -0.21499043681971439 0 0.015259495363499071 -0.21726473711819419 0 0.0066206202256469358 -0.196238932273196 0 0.015259495363499071 -0.21726473711819419 0 0.023957289381430769 -0.21840720707103181 0 -0.0036755515635171002 -0.20753558635460601 0 0.0015436596348421231 -0.21818233608296381 0 0.0067869268908444108 -0.21499043681971439 0 0.023957289381430769 -0.21840720707103181 0 0.035633493512114159 -0.19617493185898449 0 0.023957289381430769 -0.21840720707103181 0 0.02353191484324875 -0.2057825250255983 0 0.035633493512114159 -0.19617493185898449 0 0.0066206202256469358 -0.196238932273196 0 0.023957289381430769 -0.21840720707103181 0 0.02353191484324875 -0.2057825250255983 0 0.02353191484324875 -0.2057825250255983 0 0.016477214127030831 -0.182380492705049 0 0.0232018871799387 -0.2011542547476016 0 0.016477214127030831 -0.182380492705049 0 0.028100682071151389 -0.1809661454524007 0 0.0232018871799387 -0.2011542547476016 0 0.035633493512114159 -0.19617493185898449 0 0.028100682071151389 -0.1809661454524007 0 0.02353191484324875 -0.2057825250255983 0 0.0232018871799387 -0.2011542547476016 0 0.016477214127030831 -0.182380492705049 0 0.0232018871799387 -0.2011542547476016 0 0.028100682071151389 -0.1809661454524007 0 0.02353191484324875 -0.2057825250255983 0 0.0232018871799387 -0.2011542547476016 0 0.035633493512114159 -0.19617493185898449 0 0.035633493512114159 -0.19617493185898449 0 0.042444845497203218 -0.20992708778286609 0 0.052178924444714989 -0.19125531162862311 0 0.035633493512114159 -0.19617493185898449 0 0.028100682071151389 -0.1809661454524007 0 0.035633493512114159 -0.19617493185898449 0 0.042444845497203218 -0.20992708778286609 0 0.023957289381430769 -0.21840720707103181 0 0.035633493512114159 -0.19617493185898449 0 0.042444845497203218 -0.20992708778286609 0 0.03095837715610511 -0.2273594479125714 0 0.023957289381430769 -0.21840720707103181 0 0.042444845497203218 -0.20992708778286609 0 0.042444845497203218 -0.20992708778286609 0 0.060327695242514877 -0.20932396593504141 0 0.052178924444714989 -0.19125531162862311 0 0.042444845497203218 -0.20992708778286609 0 0.060327695242514877 -0.20932396593504141 0 0.05179966164493717 -0.2288145113934035 0 0.060327695242514877 -0.20932396593504141 0 0.052178924444714989 -0.19125531162862311 0 0.074821138646874868 -0.19663541488260369 0 0.042444845497203218 -0.20992708778286609 0 0.052178924444714989 -0.19125531162862311 0 0.028915542577793829 -0.23587881028236271 0 0.034737693557088833 -0.24966804446922239 0 0.035928002757670323 -0.23371407260938359 0 0.052562656377544661 -0.25498468516468592 0 0.035928002757670323 -0.23371407260938359 0 0.052562656377544661 -0.25498468516468592 0 0.034737693557088833 -0.24966804446922239 0 0.035928002757670323 -0.23371407260938359 0 0.028915542577793829 -0.23587881028236271 0 0.035928002757670323 -0.23371407260938359 0 0.036821444561749198 -0.2291886691249542 0 0.035928002757670323 -0.23371407260938359 0 0.05179966164493717 -0.2288145113934035 0 0.042444845497203218 -0.20992708778286609 0 0.033021364008370621 -0.2280030801702157 0 0.042444845497203218 -0.20992708778286609 0 0.036821444561749198 -0.2291886691249542 0 0.05179966164493717 -0.2288145113934035 0 0.028915542577793829 -0.23587881028236271 0 0.034606918688315863 -0.23202481186285279 0 0.031815715441425772 -0.23031573864402199 0 0.028915542577793829 -0.23587881028236271 0 0.034606918688315863 -0.23202481186285279 0 0.035928002757670323 -0.23371407260938359 0 0.034606918688315863 -0.23202481186285279 0 0.031815715441425772 -0.23031573864402199 0 0.036821444561749198 -0.2291886691249542 0 0.035928002757670323 -0.23371407260938359 0 0.05179966164493717 -0.2288145113934035 0 0.042444845497203218 -0.20992708778286609 0 0.033021364008370621 -0.2280030801702157 0 0.036821444561749198 -0.2291886691249542 0 0.03095837715610511 -0.2273594479125714 0 0.042444845497203218 -0.20992708778286609 0 0.033021364008370621 -0.2280030801702157 0 0.034606918688315863 -0.23202481186285279 0 0.031815715441425772 -0.23031573864402199 0 0.031815715441425772 -0.23031573864402199 0 0.033021364008370621 -0.2280030801702157 0 0.03095837715610511 -0.2273594479125714 0 0.031815715441425772 -0.23031573864402199 0 0.033021364008370621 -0.2280030801702157 0 0.03095837715610511 -0.2273594479125714 0 0.031815715441425772 -0.23031573864402199 0 0.031815715441425772 -0.23031573864402199 0 0.033021364008370621 -0.2280030801702157 0 0.036821444561749198 -0.2291886691249542 0 0.03095837715610511 -0.2273594479125714 0 0.033021364008370621 -0.2280030801702157 0 0.033021364008370621 -0.2280030801702157 0 0.036821444561749198 -0.2291886691249542 0 0.034606918688315863 -0.23202481186285279 0 0.036821444561749198 -0.2291886691249542 0 0.035928002757670323 -0.23371407260938359 0 0.034606918688315863 -0.23202481186285279 0 0.035928002757670323 -0.23371407260938359 0 0.042444845497203218 -0.20992708778286609 0 0.05179966164493717 -0.2288145113934035 0 0.05179966164493717 -0.2288145113934035 0 0.061565463195800842 -0.24853171672108609 0 0.035928002757670323 -0.23371407260938359 0 0.061565463195800842 -0.24853171672108609 0 0.052562656377544661 -0.25498468516468592 0 0.035928002757670323 -0.23371407260938359 0 0.061565463195800842 -0.24853171672108609 0 0.035928002757670323 -0.23371407260938359 0 0.05179966164493717 -0.2288145113934035 0 0.061565463195800842 -0.24853171672108609 0 0.05179966164493717 -0.2288145113934035 0 0.061565463195800842 -0.24853171672108609 0 0.076188616216174884 -0.2425517254842561 0 0.075450178712451937 -0.25703342488835429 0 0.061565463195800842 -0.24853171672108609 0 0.076188616216174884 -0.2425517254842561 0 0.076188616216174884 -0.2425517254842561 0 0.090106843472292142 -0.23833306198886389 0 0.090467706555690558 -0.24898899697984281 0 0.083848787816820758 -0.25531129280844561 0 0.076188616216174884 -0.2425517254842561 0 0.090467706555690558 -0.24898899697984281 0 0.090106843472292142 -0.23833306198886389 0 0.090467706555690558 -0.24898899697984281 0 0.10020582185326091 -0.243806091285623 0 0.076188616216174884 -0.2425517254842561 0 0.090106843472292142 -0.23833306198886389 0 0.080393905978842953 -0.21998750398771069 0 0.090106843472292142 -0.23833306198886389 0 0.080393905978842953 -0.21998750398771069 0 0.1026897074700349 -0.22953960614031441 0 0.060327695242514877 -0.20932396593504141 0 0.05179966164493717 -0.2288145113934035 0 0.080393905978842953 -0.21998750398771069 0 0.05179966164493717 -0.2288145113934035 0 0.080393905978842953 -0.21998750398771069 0 0.05179966164493717 -0.2288145113934035 0 0.076188616216174884 -0.2425517254842561 0 0.080393905978842953 -0.21998750398771069 0 0.060327695242514877 -0.20932396593504141 0 0.080393905978842953 -0.21998750398771069 0 0.074821138646874868 -0.19663541488260369 0 0.052178924444714989 -0.19125531162862311 0 0.074821138646874868 -0.19663541488260369 0 0.065962559198349438 -0.18527714704327411 0 0.074821138646874868 -0.19663541488260369 0 0.074937170309579804 -0.18063432618748879 0 0.065962559198349438 -0.18527714704327411 0 0.074821138646874868 -0.19663541488260369 0 0.091904644479811268 -0.2038979557323107 0 0.074821138646874868 -0.19663541488260369 0 0.091904644479811268 -0.2038979557323107 0 0.089706439672308041 -0.17966161640190079 0 0.080393905978842953 -0.21998750398771069 0 0.074821138646874868 -0.19663541488260369 0 0.091904644479811268 -0.2038979557323107 0 0.091904644479811268 -0.2038979557323107 0 0.10898815031274831 -0.21116049658201641 0 0.091904644479811268 -0.2038979557323107 0 0.10898815031274831 -0.21116049658201641 0 0.1111475265013675 -0.19717320159887919 0 0.080393905978842953 -0.21998750398771069 0 0.091904644479811268 -0.2038979557323107 0 0.10898815031274831 -0.21116049658201641 0 0.080393905978842953 -0.21998750398771069 0 0.10898815031274831 -0.21116049658201641 0 0.091904644479811268 -0.2038979557323107 0 0.1056771808312727 -0.183582891529356 0 0.089706439672308041 -0.17966161640190079 0 0.091904644479811268 -0.2038979557323107 0 0.1111475265013675 -0.19717320159887919 0 0.1056771808312727 -0.183582891529356 0 0.1111475265013675 -0.19717320159887919 0 0.12192185159560349 -0.18241762276600021 0 0.1261715947139273 -0.20585598882117509 0 0.1111475265013675 -0.19717320159887919 0 0.12192185159560349 -0.18241762276600021 0 0.1056771808312727 -0.183582891529356 0 0.10898815031274831 -0.21116049658201641 0 0.1261715947139273 -0.20585598882117509 0 0.10898815031274831 -0.21116049658201641 0 0.1289752807739093 -0.21965742647814879 0 0.10898815031274831 -0.21116049658201641 0 0.1289752807739093 -0.21965742647814879 0 0.1261715947139273 -0.20585598882117509 0 0.10898815031274831 -0.21116049658201641 0 0.1111475265013675 -0.19717320159887919 0 0.1261715947139273 -0.20585598882117509 0 0.11637202270110721 -0.22833594760610501 0 0.1289752807739093 -0.21965742647814879 0 0.12808096402130931 -0.2372492109104028 0 0.11637202270110721 -0.22833594760610501 0 0.1131260109275346 -0.24407299791964349 0 0.1026897074700349 -0.22953960614031441 0 0.10898815031274831 -0.21116049658201641 0 0.11637202270110721 -0.22833594760610501 0 0.1289752807739093 -0.21965742647814879 0 0.11637202270110721 -0.22833594760610501 0 0.1131260109275346 -0.24407299791964349 0 0.12808096402130931 -0.2372492109104028 0 0.12751539410179349 -0.25446691770257829 0 0.1131260109275346 -0.24407299791964349 0 0.12808096402130931 -0.2372492109104028 0 0.1131260109275346 -0.24407299791964349 0 0.10020582185326091 -0.243806091285623 0 0.1026897074700349 -0.22953960614031441 0 0.1016459046760361 -0.25543121216348358 0 0.1131260109275346 -0.24407299791964349 0 0.10020582185326091 -0.243806091285623 0 0.1016459046760361 -0.25543121216348358 0 0.090467706555690558 -0.24898899697984281 0 0.10020582185326091 -0.243806091285623 0 0.090106843472292142 -0.23833306198886389 0 0.10020582185326091 -0.243806091285623 0 0.1026897074700349 -0.22953960614031441 0 0.080393905978842953 -0.21998750398771069 0 0.10898815031274831 -0.21116049658201641 0 0.1026897074700349 -0.22953960614031441 0 0.10898815031274831 -0.21116049658201641 0 0.11637202270110721 -0.22833594760610501 0 0.1026897074700349 -0.22953960614031441 0 0.097384877310748158 -0.14463207514218071 0 0.10854923115459569 -0.15979900884270509 0 0.083208239311370835 -0.1589540861603034 0 0.097384877310748158 -0.14463207514218071 0 0.1169768926939191 -0.14177079467177681 0 0.10854923115459569 -0.15979900884270509 0 0.097384877310748158 -0.14463207514218071 0 0.1018578745819253 -0.13267571770958 0 0.1169768926939191 -0.14177079467177681 0 0.097384877310748158 -0.14463207514218071 0 0.1018578745819253 -0.13267571770958 0 0.08826062050010311 -0.1342985641787173 0 0.1018578745819253 -0.13267571770958 0 0.090108124979890875 -0.12120299922838799 0 0.1169357262770285 -0.12250987988905621 0 0.1018578745819253 -0.13267571770958 0 0.1169768926939191 -0.14177079467177681 0 0.1169357262770285 -0.12250987988905621 0 0.1169768926939191 -0.14177079467177681 0 0.10854923115459569 -0.15979900884270509 0 0.13338875107670611 -0.15372009693252409 0 0.10854923115459569 -0.15979900884270509 0 0.1275658305703217 -0.16791215655681199 0 0.13338875107670611 -0.15372009693252409 0 0.12192185159560349 -0.18241762276600021 0 0.10854923115459569 -0.15979900884270509 0 0.1275658305703217 -0.16791215655681199 0 0.12192185159560349 -0.18241762276600021 0 0.10854923115459569 -0.15979900884270509 0 0.12192185159560349 -0.18241762276600021 0 0.1056771808312727 -0.183582891529356 0 0.10854923115459569 -0.15979900884270509 0 0.1056771808312727 -0.183582891529356 0 0.10854923115459569 -0.15979900884270509 0 0.089706439672308041 -0.17966161640190079 0 0.10854923115459569 -0.15979900884270509 0 0.083208239311370835 -0.1589540861603034 0 0.089706439672308041 -0.17966161640190079 0 0.083208239311370835 -0.1589540861603034 0 0.089706439672308041 -0.17966161640190079 0 0.073899260121506091 -0.16827302315147241 0 0.089706439672308041 -0.17966161640190079 0 0.074937170309579804 -0.18063432618748879 0 0.073899260121506091 -0.16827302315147241 0 0.074821138646874868 -0.19663541488260369 0 0.089706439672308041 -0.17966161640190079 0 0.074937170309579804 -0.18063432618748879 0 0.074937170309579804 -0.18063432618748879 0 0.065962559198349438 -0.18527714704327411 0 0.061913003392228091 -0.17258353547438091 0 0.074937170309579804 -0.18063432618748879 0 0.073899260121506091 -0.16827302315147241 0 0.061913003392228091 -0.17258353547438091 0 0.073899260121506091 -0.16827302315147241 0 0.06026311746116117 -0.14927847716568091 0 0.061913003392228091 -0.17258353547438091 0 0.083208239311370835 -0.1589540861603034 0 0.073899260121506091 -0.16827302315147241 0 0.06026311746116117 -0.14927847716568091 0 0.084483228003579186 -0.1457034068670755 0 0.075939612764597389 -0.13604225200748951 0 0.06026311746116117 -0.14927847716568091 0 0.083208239311370835 -0.1589540861603034 0 0.084483228003579186 -0.1457034068670755 0 0.06026311746116117 -0.14927847716568091 0 0.097384877310748158 -0.14463207514218071 0 0.084483228003579186 -0.1457034068670755 0 0.08826062050010311 -0.1342985641787173 0 0.097384877310748158 -0.14463207514218071 0 0.083208239311370835 -0.1589540861603034 0 0.084483228003579186 -0.1457034068670755 0 0.1018578745819253 -0.13267571770958 0 0.08826062050010311 -0.1342985641787173 0 0.090108124979890875 -0.12120299922838799 0 0.084483228003579186 -0.1457034068670755 0 0.08826062050010311 -0.1342985641787173 0 0.075939612764597389 -0.13604225200748951 0 0.08826062050010311 -0.1342985641787173 0 0.076574372266861007 -0.1285603392768882 0 0.075939612764597389 -0.13604225200748951 0 0.08826062050010311 -0.1342985641787173 0 0.076574372266861007 -0.1285603392768882 0 0.090108124979890875 -0.12120299922838799 0 0.076574372266861007 -0.1285603392768882 0 0.075939612764597389 -0.13604225200748951 0 0.06456530947150009 -0.1315101529554569 0 0.075939612764597389 -0.13604225200748951 0 0.06456530947150009 -0.1315101529554569 0 0.06026311746116117 -0.14927847716568091 0 0.076574372266861007 -0.1285603392768882 0 0.06456530947150009 -0.1315101529554569 0 0.06328052368275329 -0.1198961185677187 0 0.038773728889719257 -0.13698213704399481 0 0.041226163681523202 -0.12687556538387959 0 0.061677016948232653 -0.1198180052874008 0 0.038773728889719257 -0.13698213704399481 0 0.061677016948232653 -0.1198180052874008 0 0.06456530947150009 -0.1315101529554569 0 0.038773728889719257 -0.13698213704399481 0 0.061677016948232653 -0.1198180052874008 0 0.06456530947150009 -0.1315101529554569 0 0.06026311746116117 -0.14927847716568091 0 0.038773728889719257 -0.13698213704399481 0 0.06026311746116117 -0.14927847716568091 0 0.038773728889719257 -0.13698213704399481 0 0.033437205480435078 -0.1589741412481977 0 0.038773728889719257 -0.13698213704399481 0 0.033437205480435078 -0.1589741412481977 0 0.024098121150263579 -0.14798029871424681 0 0.038773728889719257 -0.13698213704399481 0 0.033437205480435078 -0.1589741412481977 0 0.038773728889719257 -0.13698213704399481 0 0.024098121150263579 -0.14798029871424681 0 0.041226163681523202 -0.12687556538387959 0 0.02531069711455855 -0.1322835532460247 0 0.033280889282451841 -0.11843471538110351 0 0.041226163681523202 -0.12687556538387959 0 0.02531069711455855 -0.1322835532460247 0 0.038773728889719257 -0.13698213704399481 0 0.041226163681523202 -0.12687556538387959 0 0.02531069711455855 -0.1322835532460247 0 0.038773728889719257 -0.13698213704399481 0 0.041226163681523202 -0.12687556538387959 0 0.052178924444714989 -0.19125531162862311 0 0.061913003392228091 -0.17258353547438091 0 0.052178924444714989 -0.19125531162862311 0 0.065962559198349438 -0.18527714704327411 0 0.061913003392228091 -0.17258353547438091 0 0.052178924444714989 -0.19125531162862311 0 0.047948305486637817 -0.17272670451233291 0 0.061913003392228091 -0.17258353547438091 0 0.06026311746116117 -0.14927847716568091 0 0.047948305486637817 -0.17272670451233291 0 0.061913003392228091 -0.17258353547438091 0 0.06026311746116117 -0.14927847716568091 0 0.047948305486637817 -0.17272670451233291 0 0.033437205480435078 -0.1589741412481977 0 0.06026311746116117 -0.14927847716568091 0 0.047948305486637817 -0.17272670451233291 0 0.047948305486637817 -0.17272670451233291 0 0.033437205480435078 -0.1589741412481977 0 0.028100682071151389 -0.1809661454524007 0 0.035633493512114159 -0.19617493185898449 0 0.047948305486637817 -0.17272670451233291 0 0.028100682071151389 -0.1809661454524007 0 0.035633493512114159 -0.19617493185898449 0 0.052178924444714989 -0.19125531162862311 0 0.047948305486637817 -0.17272670451233291 0 0.035633493512114159 -0.19617493185898449 0 0.047948305486637817 -0.17272670451233291 0 0.016477214127030831 -0.182380492705049 0 0.02641638726702436 -0.1775655452751001 0 0.021970288287112481 -0.16517578766541871 0 0.033437205480435078 -0.1589741412481977 0 0.028100682071151389 -0.1809661454524007 0 0.02641638726702436 -0.1775655452751001 0 0.016477214127030831 -0.182380492705049 0 0.028100682071151389 -0.1809661454524007 0 0.02641638726702436 -0.1775655452751001 0 0.028100682071151389 -0.1809661454524007 0 0.02641638726702436 -0.1775655452751001 0 0.033437205480435078 -0.1589741412481977 0 0.028100682071151389 -0.1809661454524007 0 0.033437205480435078 -0.1589741412481977 0 0.021970288287112481 -0.16517578766541871 0 0.024098121150263579 -0.14798029871424681 0 0.021970288287112481 -0.16517578766541871 0 0.0094225134108093314 -0.15897846038450089 0 0.024098121150263579 -0.14798029871424681 0 0.033437205480435078 -0.1589741412481977 0 0.02641638726702436 -0.1775655452751001 0 0.021970288287112481 -0.16517578766541871 0 0.016477214127030831 -0.182380492705049 0 0.021970288287112481 -0.16517578766541871 0 0.0094225134108093314 -0.15897846038450089 0 -0.01071604893013901 -0.1740706574753618 0 0.0094225134108093314 -0.15897846038450089 0 0.0047822989528303987 -0.17495545555297651 0 0.016477214127030831 -0.182380492705049 0 0.0094225134108093314 -0.15897846038450089 0 -0.01071604893013901 -0.1740706574753618 0 0.0066206202256469358 -0.196238932273196 0 0.0047822989528303987 -0.17495545555297651 0 0.0066206202256469358 -0.196238932273196 0 0.016477214127030831 -0.182380492705049 0 0.0047822989528303987 -0.17495545555297651 0 0.016477214127030831 -0.182380492705049 0 0.0094225134108093314 -0.15897846038450089 0 0.0047822989528303987 -0.17495545555297651 0 0.020580284522120879 -0.14050301842915561 0 0.02531069711455855 -0.1322835532460247 0 0.024098121150263579 -0.14798029871424681 0 0.02531069711455855 -0.1322835532460247 0 0.0083331718871941518 -0.13159133972484319 0 0.016114488221707371 -0.11759847074965719 0 0.020580284522120879 -0.14050301842915561 0 0.02531069711455855 -0.1322835532460247 0 0.003357569288923484 -0.13885967376659639 0 0.038773728889719257 -0.13698213704399481 0 0.02531069711455855 -0.1322835532460247 0 0.024098121150263579 -0.14798029871424681 0 0.020580284522120879 -0.14050301842915561 0 0.02531069711455855 -0.1322835532460247 0 0.02531069711455855 -0.1322835532460247 0 0.033280889282451841 -0.11843471538110351 0 0.0094225134108093314 -0.15897846038450089 0 0.020580284522120879 -0.14050301842915561 0 0.024098121150263579 -0.14798029871424681 0 0.0094225134108093314 -0.15897846038450089 0 0.024098121150263579 -0.14798029871424681 0 0.0094225134108093314 -0.15897846038450089 0 0.020580284522120879 -0.14050301842915561 0 0.003357569288923484 -0.13885967376659639 0 -0.0067557621381473393 -0.15585704510460729 0 0.0094225134108093314 -0.15897846038450089 0 0.003357569288923484 -0.13885967376659639 0 0.0094225134108093314 -0.15897846038450089 0 0.003357569288923484 -0.13885967376659639 0 0.003357569288923484 -0.13885967376659639 0 1.6436437954615159e-05 -0.1277763830486926 0 0.02531069711455855 -0.1322835532460247 0 0.003357569288923484 -0.13885967376659639 0 0.02531069711455855 -0.1322835532460247 0 0.003357569288923484 -0.13885967376659639 0 0.0083331718871941518 -0.13159133972484319 0 -0.0034535250523390739 -0.11664523390105171 0 0.0083331718871941518 -0.13159133972484319 0 1.6436437954615159e-05 -0.1277763830486926 0 0.003357569288923484 -0.13885967376659639 0 0.0083331718871941518 -0.13159133972484319 0 1.6436437954615159e-05 -0.1277763830486926 0 -0.0034535250523390739 -0.11664523390105171 0 0.0083331718871941518 -0.13159133972484319 0 0.016114488221707371 -0.11759847074965719 0 -0.0034535250523390739 -0.11664523390105171 0 0.016114488221707371 -0.11759847074965719 0 0.0084887906650367943 -0.105421279146424 0 -0.0034535250523390739 -0.11664523390105171 0 0.0083331718871941518 -0.13159133972484319 0 -0.0034535250523390739 -0.11664523390105171 0 0.016114488221707371 -0.11759847074965719 0 0.016114488221707371 -0.11759847074965719 0 0.0084887906650367943 -0.105421279146424 0 0.02531069711455855 -0.1322835532460247 0 0.016114488221707371 -0.11759847074965719 0 0.033280889282451841 -0.11843471538110351 0 0.02531069711455855 -0.1322835532460247 0 0.016114488221707371 -0.11759847074965719 0 0.016114488221707371 -0.11759847074965719 0 0.033280889282451841 -0.11843471538110351 0 0.016114488221707371 -0.11759847074965719 0 0.023853855410155091 -0.10676909864109831 0 0.033280889282451841 -0.11843471538110351 0 0.016114488221707371 -0.11759847074965719 0 0.023853855410155091 -0.10676909864109831 0 0.0084887906650367943 -0.105421279146424 0 0.023853855410155091 -0.10676909864109831 0 0.01526857972894119 -0.09748202357235973 0 0.02400223869594912 -0.087215108492615545 0 0.023853855410155091 -0.10676909864109831 0 0.02400223869594912 -0.087215108492615545 0 0.035533148255089957 -0.093609108603372557 0 0.023853855410155091 -0.10676909864109831 0 0.0084887906650367943 -0.105421279146424 0 0.023853855410155091 -0.10676909864109831 0 0.01526857972894119 -0.09748202357235973 0 0.0084887906650367943 -0.105421279146424 0 0.01526857972894119 -0.09748202357235973 0 0.0084887906650367943 -0.105421279146424 0 0.0047294341446237516 -0.090522608009301245 0 -0.0067162491474014457 -0.080270803432624632 0 0.0084887906650367943 -0.105421279146424 0 0.0047294341446237516 -0.090522608009301245 0 0.0047294341446237516 -0.090522608009301245 0 0.01563822731495209 -0.069539592603538453 0 0.02400223869594912 -0.087215108492615545 0 0.01526857972894119 -0.09748202357235973 0 0.0047294341446237516 -0.090522608009301245 0 0.02400223869594912 -0.087215108492615545 0 -0.0067162491474014457 -0.080270803432624632 0 0.0084887906650367943 -0.105421279146424 0 -0.0067162491474014457 -0.080270803432624632 0 0.0047294341446237516 -0.090522608009301245 0 0.01563822731495209 -0.069539592603538453 0 -0.0067162491474014457 -0.080270803432624632 0 0.01563822731495209 -0.069539592603538453 0 -0.00053562042136896706 -0.057815125325439781 0 -0.0067162491474014457 -0.080270803432624632 0 0.01563822731495209 -0.069539592603538453 0 0.01563822731495209 -0.069539592603538453 0 0.037068258512523163 -0.077287561762491838 0 0.03799270377730566 -0.058808381774452259 0 0.01563822731495209 -0.069539592603538453 0 0.03799270377730566 -0.058808381774452259 0 0.01563822731495209 -0.069539592603538453 0 0.02400223869594912 -0.087215108492615545 0 0.037068258512523163 -0.077287561762491838 0 0.02400223869594912 -0.087215108492615545 0 0.035533148255089957 -0.093609108603372557 0 0.037068258512523163 -0.077287561762491838 0 0.035533148255089957 -0.093609108603372557 0 0.037068258512523163 -0.077287561762491838 0 0.05055982987760279 -0.088411192517510367 0 0.037068258512523163 -0.077287561762491838 0 0.055453505058631017 -0.068244181731438244 0 0.03799270377730566 -0.058808381774452259 0 0.037068258512523163 -0.077287561762491838 0 0.055453505058631017 -0.068244181731438244 0 0.05055982987760279 -0.088411192517510367 0 0.055453505058631017 -0.068244181731438244 0 0.061665730749425191 -0.069113813322893417 0 0.05055982987760279 -0.088411192517510367 0 0.061665730749425191 -0.069113813322893417 0 0.05055982987760279 -0.088411192517510367 0 0.064849460272225962 -0.08074785611291059 0 0.061665730749425191 -0.069113813322893417 0 0.05055982987760279 -0.088411192517510367 0 0.055453505058631017 -0.068244181731438244 0 0.05055982987760279 -0.088411192517510367 0 0.05055982987760279 -0.088411192517510367 0 0.06131433210728246 -0.099678719958360446 0 0.064455845314084423 -0.090483894501856343 0 0.05055982987760279 -0.088411192517510367 0 0.064455845314084423 -0.090483894501856343 0 0.064849460272225962 -0.08074785611291059 0 0.05055982987760279 -0.088411192517510367 0 0.06131433210728246 -0.099678719958360446 0 0.045641381441804962 -0.1086802947742346 0 0.06131433210728246 -0.099678719958360446 0 0.045641381441804962 -0.1086802947742346 0 0.073301234294881654 -0.1111066098932106 0 0.05055982987760279 -0.088411192517510367 0 0.045641381441804962 -0.1086802947742346 0 0.041226163681523202 -0.12687556538387959 0 0.061677016948232653 -0.1198180052874008 0 0.041226163681523202 -0.12687556538387959 0 0.061677016948232653 -0.1198180052874008 0 0.043157647318708338 -0.1189158521001439 0 0.061677016948232653 -0.1198180052874008 0 0.045641381441804962 -0.1086802947742346 0 0.073301234294881654 -0.1111066098932106 0 0.061677016948232653 -0.1198180052874008 0 0.043157647318708338 -0.1189158521001439 0 0.045641381441804962 -0.1086802947742346 0 0.045641381441804962 -0.1086802947742346 0 0.073301234294881654 -0.1111066098932106 0 0.061677016948232653 -0.1198180052874008 0 0.043157647318708338 -0.1189158521001439 0 0.061677016948232653 -0.1198180052874008 0 0.06328052368275329 -0.1198961185677187 0 0.043157647318708338 -0.1189158521001439 0 0.045641381441804962 -0.1086802947742346 0 0.043157647318708338 -0.1189158521001439 0 0.045641381441804962 -0.1086802947742346 0 0.039218920155273451 -0.1081169181357708 0 0.041226163681523202 -0.12687556538387959 0 0.043157647318708338 -0.1189158521001439 0 0.041226163681523202 -0.12687556538387959 0 0.043157647318708338 -0.1189158521001439 0 0.033280889282451841 -0.11843471538110351 0 0.043157647318708338 -0.1189158521001439 0 0.033280889282451841 -0.11843471538110351 0 0.043157647318708338 -0.1189158521001439 0 0.033280889282451841 -0.11843471538110351 0 0.039218920155273451 -0.1081169181357708 0 0.033280889282451841 -0.11843471538110351 0 0.039218920155273451 -0.1081169181357708 0 0.023853855410155091 -0.10676909864109831 0 0.033280889282451841 -0.11843471538110351 0 0.039218920155273451 -0.1081169181357708 0 0.05055982987760279 -0.088411192517510367 0 0.039218920155273451 -0.1081169181357708 0 0.05055982987760279 -0.088411192517510367 0 0.045641381441804962 -0.1086802947742346 0 0.039218920155273451 -0.1081169181357708 0 0.035533148255089957 -0.093609108603372557 0 0.05055982987760279 -0.088411192517510367 0 0.039218920155273451 -0.1081169181357708 0 0.023853855410155091 -0.10676909864109831 0 0.039218920155273451 -0.1081169181357708 0 0.023853855410155091 -0.10676909864109831 0 0.035533148255089957 -0.093609108603372557 0 0.039218920155273451 -0.1081169181357708 0 0.045641381441804962 -0.1086802947742346 0 0.039218920155273451 -0.1081169181357708 0 0.016327983901153219 -0.019758587953404769 0 0.040094737154391602 -0.0045297582184353714 0 0.034412494338961423 0.0025317902110671112 0 0.01542357215013011 -0.016928730356883699 0 0.034412494338961423 0.0025317902110671112 0 0.026564696886159089 -0.0096713215794141816 0 0.01542357215013011 -0.016928730356883699 0 0.034412494338961423 0.0025317902110671112 0 0.0203173381770556 -0.0040466698387773767 0 0.01542357215013011 -0.016928730356883699 0 0.016327983901153219 -0.019758587953404769 0 0.030999098372595121 -0.017223228871101622 0 0.040094737154391602 -0.0045297582184353714 0 0.026564696886159089 -0.0096713215794141816 0 0.016327983901153219 -0.019758587953404769 0 0.040094737154391602 -0.0045297582184353714 0 0.0203173381770556 -0.0040466698387773767 0 0.01423675391377177 -0.0083414501086773001 0 0.01542357215013011 -0.016928730356883699 0 0.026564696886159089 -0.0096713215794141816 0 0.01542357215013011 -0.016928730356883699 0 0.016327983901153219 -0.019758587953404769 0 0.0203173381770556 -0.0040466698387773767 0 0.01564471865094599 -0.0037106034465236829 0 0.01423675391377177 -0.0083414501086773001 0 0.023769565398601179 0.0022798778514989781 0 0.017159351834783579 0.00037219059176784799 0 0.0203173381770556 -0.0040466698387773767 0 0.017159351834783579 0.00037219059176784799 0 0.0203173381770556 -0.0040466698387773767 0 0.01564471865094599 -0.0037106034465236829 0 0.017159351834783579 0.00037219059176784799 0 0.01564471865094599 -0.0037106034465236829 0 0.01086543067817302 -0.002826484430407907 0 0.01564471865094599 -0.0037106034465236829 0 0.01086543067817302 -0.002826484430407907 0 0.01423675391377177 -0.0083414501086773001 0 0.01086543067817302 -0.002826484430407907 0 0.0095746622974227369 -0.0079469079852948817 0 0.01423675391377177 -0.0083414501086773001 0 0.01086543067817302 -0.002826484430407907 0 0.0055535935370124093 -0.0074432917472122256 0 0.0095746622974227369 -0.0079469079852948817 0 0.0073732065746625018 0.0028305149654728442 0 0.01086543067817302 -0.002826484430407907 0 0.0034447570176767239 -0.0014554546116130019 0 0.01086543067817302 -0.002826484430407907 0 0.0055535935370124093 -0.0074432917472122256 0 0.0034447570176767239 -0.0014554546116130019 0 -0.00178465517183297 -0.004928837209663783 0 0.0055535935370124093 -0.0074432917472122256 0 0.0034447570176767239 -0.0014554546116130019 0 -0.002223379054516019 -0.020114376720011141 0 -0.0011689609603414549 -0.0120940308943787 0 0.0076428710607337521 -0.01317640565488209 0 -0.0011689609603414549 -0.0120940308943787 0 0.0055535935370124093 -0.0074432917472122256 0 0.0076428710607337521 -0.01317640565488209 0 -0.0011689609603414549 -0.0120940308943787 0 -0.00178465517183297 -0.004928837209663783 0 0.0055535935370124093 -0.0074432917472122256 0 0.0055535935370124093 -0.0074432917472122256 0 0.0076428710607337521 -0.01317640565488209 0 0.0095746622974227369 -0.0079469079852948817 0 0.0076428710607337521 -0.01317640565488209 0 0.01423675391377177 -0.0083414501086773001 0 0.01542357215013011 -0.016928730356883699 0 0.0076428710607337521 -0.01317640565488209 0 0.0095746622974227369 -0.0079469079852948817 0 0.01423675391377177 -0.0083414501086773001 0 0.01542357215013011 -0.016928730356883699 0 0.016327983901153219 -0.019758587953404769 0 0.012657707764839611 -0.032362079455588798 0 -0.002223379054516019 -0.020114376720011141 0 0.0076428710607337521 -0.01317640565488209 0 0.01542357215013011 -0.016928730356883699 0 -0.002223379054516019 -0.020114376720011141 0 -0.0035653500387011899 -0.036389250924834513 0 0.01542357215013011 -0.016928730356883699 0 -0.0035653500387011899 -0.036389250924834513 0 0.01542357215013011 -0.016928730356883699 0 0.012657707764839611 -0.032362079455588798 0 -0.0035653500387011899 -0.036389250924834513 0 0.01542357215013011 -0.016928730356883699 0 0.0196029355922651 -0.027030363331550442 0 0.025824782275446559 -0.031862880624007883 0 0.012657707764839611 -0.032362079455588798 0 0.0196029355922651 -0.027030363331550442 0 0.016327983901153219 -0.019758587953404769 0 0.012657707764839611 -0.032362079455588798 0 0.0196029355922651 -0.027030363331550442 0 0.016327983901153219 -0.019758587953404769 0 0.024937570663072801 -0.024159943518596391 0 0.030999098372595121 -0.017223228871101622 0 0.024937570663072801 -0.024159943518596391 0 0.034532272173003982 -0.023941460614349149 0 0.016327983901153219 -0.019758587953404769 0 0.030999098372595121 -0.017223228871101622 0 0.024937570663072801 -0.024159943518596391 0 0.024937570663072801 -0.024159943518596391 0 0.025824782275446559 -0.031862880624007883 0 0.034532272173003982 -0.023941460614349149 0 0.0196029355922651 -0.027030363331550442 0 0.024937570663072801 -0.024159943518596391 0 0.025824782275446559 -0.031862880624007883 0 0.025824782275446559 -0.031862880624007883 0 0.019890628555601138 -0.043316703218958648 0 0.034030857850834408 -0.041707393396761529 0 0.025824782275446559 -0.031862880624007883 0 0.019890628555601138 -0.043316703218958648 0 0.012657707764839611 -0.032362079455588798 0 -0.0035653500387011899 -0.036389250924834513 0 -0.00053562042136896706 -0.057815125325439781 0 0.0079650594278798687 -0.045055129758594312 0 -0.0035653500387011899 -0.036389250924834513 0 0.012657707764839611 -0.032362079455588798 0 0.0079650594278798687 -0.045055129758594312 0 0.019890628555601138 -0.043316703218958648 0 0.012657707764839611 -0.032362079455588798 0 0.0079650594278798687 -0.045055129758594312 0 -0.00053562042136896706 -0.057815125325439781 0 0.01563822731495209 -0.069539592603538453 0 0.011377931279028759 -0.055392489868149777 0 0.019890628555601138 -0.043316703218958648 0 0.0079650594278798687 -0.045055129758594312 0 0.011377931279028759 -0.055392489868149777 0 -0.00053562042136896706 -0.057815125325439781 0 0.0079650594278798687 -0.045055129758594312 0 0.011377931279028759 -0.055392489868149777 0 0.01563822731495209 -0.069539592603538453 0 0.011377931279028759 -0.055392489868149777 0 0.03799270377730566 -0.058808381774452259 0 0.019890628555601138 -0.043316703218958648 0 0.03799270377730566 -0.058808381774452259 0 0.034030857850834408 -0.041707393396761529 0 0.019890628555601138 -0.043316703218958648 0 0.011377931279028759 -0.055392489868149777 0 0.03799270377730566 -0.058808381774452259 0 0.03799270377730566 -0.058808381774452259 0 0.045989861341666757 -0.042335007969060548 0 0.034030857850834408 -0.041707393396761529 0 0.055453505058631017 -0.068244181731438244 0 0.061665730749425191 -0.069113813322893417 0 0.060347180239659258 -0.048077170945366197 0 0.03799270377730566 -0.058808381774452259 0 0.060347180239659258 -0.048077170945366197 0 0.045989861341666757 -0.042335007969060548 0 0.055453505058631017 -0.068244181731438244 0 0.03799270377730566 -0.058808381774452259 0 0.060347180239659258 -0.048077170945366197 0 0.055453505058631017 -0.068244181731438244 0 0.060347180239659258 -0.048077170945366197 0 0.03799270377730566 -0.058808381774452259 0 0.060347180239659258 -0.048077170945366197 0 0.060347180239659258 -0.048077170945366197 0 0.051900490514719858 -0.03122274553653687 0 0.065307328148602031 -0.02763622366550611 0 0.060347180239659258 -0.048077170945366197 0 0.045989861341666757 -0.042335007969060548 0 0.051900490514719858 -0.03122274553653687 0 0.039288406842565057 -0.032077728956374653 0 0.045989861341666757 -0.042335007969060548 0 0.051900490514719858 -0.03122274553653687 0 0.039288406842565057 -0.032077728956374653 0 0.045989861341666757 -0.042335007969060548 0 0.034030857850834408 -0.041707393396761529 0 0.025824782275446559 -0.031862880624007883 0 0.039288406842565057 -0.032077728956374653 0 0.034030857850834408 -0.041707393396761529 0 0.025824782275446559 -0.031862880624007883 0 0.039288406842565057 -0.032077728956374653 0 0.034532272173003982 -0.023941460614349149 0 0.030999098372595121 -0.017223228871101622 0 0.034532272173003982 -0.023941460614349149 0 0.041530787177211398 -0.015371678871650149 0 0.034532272173003982 -0.023941460614349149 0 0.044245643198775123 -0.023792906602259859 0 0.041530787177211398 -0.015371678871650149 0 0.044245643198775123 -0.023792906602259859 0 0.053976259286375311 -0.0163509190323885 0 0.041530787177211398 -0.015371678871650149 0 0.039288406842565057 -0.032077728956374653 0 0.044245643198775123 -0.023792906602259859 0 0.051900490514719858 -0.03122274553653687 0 0.039288406842565057 -0.032077728956374653 0 0.034532272173003982 -0.023941460614349149 0 0.044245643198775123 -0.023792906602259859 0 0.044245643198775123 -0.023792906602259859 0 0.051900490514719858 -0.03122274553653687 0 0.053976259286375311 -0.0163509190323885 0 0.051900490514719858 -0.03122274553653687 0 0.053976259286375311 -0.0163509190323885 0 0.065307328148602031 -0.02763622366550611 0 0.053976259286375311 -0.0163509190323885 0 0.047734824076458737 -0.01018177045315535 0 0.041530787177211398 -0.015371678871650149 0 0.053976259286375311 -0.0163509190323885 0 0.047734824076458737 -0.01018177045315535 0 0.05533751268785668 -0.0044747256901473756 0 0.053976259286375311 -0.0163509190323885 0 0.05533751268785668 -0.0044747256901473756 0 0.070267476057544756 -0.0071952763856458907 0 0.047734824076458737 -0.01018177045315535 0 0.05533751268785668 -0.0044747256901473756 0 0.040094737154391602 -0.0045297582184353714 0 0.047734824076458737 -0.01018177045315535 0 0.040094737154391602 -0.0045297582184353714 0 0.041530787177211398 -0.015371678871650149 0 0.030999098372595121 -0.017223228871101622 0 0.040094737154391602 -0.0045297582184353714 0 0.041530787177211398 -0.015371678871650149 0 0.034412494338961423 0.0025317902110671112 0 0.026564696886159089 -0.0096713215794141816 0 0.040094737154391602 -0.0045297582184353714 0 0.085500327204952611 -0.018861156692618661 0 0.098193641229107204 -0.01560531272395425 0 0.0960124581584475 -0.002810374149942594 0 0.082863743322523623 -0.0033810385025317882 0 0.085500327204952611 -0.018861156692618661 0 0.0960124581584475 -0.002810374149942594 0 0.089292260289784139 0.002822130931789089 0 0.082863743322523623 -0.0033810385025317882 0 0.0960124581584475 -0.002810374149942594 0 0.082863743322523623 -0.0033810385025317882 0 0.070267476057544756 -0.0071952763856458907 0 0.085500327204952611 -0.018861156692618661 0 0.075151696961741316 0.0020970942345153289 0 0.082863743322523623 -0.0033810385025317882 0 0.070267476057544756 -0.0071952763856458907 0 0.063861490407629992 0.01069907151653403 0 0.05533751268785668 -0.0044747256901473756 0 0.070267476057544756 -0.0071952763856458907 0 0.070267476057544756 -0.0071952763856458907 0 0.065307328148602031 -0.02763622366550611 0 0.053976259286375311 -0.0163509190323885 0 0.070267476057544756 -0.0071952763856458907 0 0.065307328148602031 -0.02763622366550611 0 0.070267476057544756 -0.0071952763856458907 0 0.065307328148602031 -0.02763622366550611 0 0.085500327204952611 -0.018861156692618661 0 0.065307328148602031 -0.02763622366550611 0 0.085500327204952611 -0.018861156692618661 0 0.081393780744213662 -0.037973802717070439 0 0.085500327204952611 -0.018861156692618661 0 0.081393780744213662 -0.037973802717070439 0 0.1024403812487681 -0.027870434488774829 0 0.081393780744213662 -0.037973802717070439 0 0.095781268357555432 -0.051754809274037313 0 0.1024403812487681 -0.027870434488774829 0 0.081393780744213662 -0.037973802717070439 0 0.1024403812487681 -0.027870434488774829 0 0.060347180239659258 -0.048077170945366197 0 0.065307328148602031 -0.02763622366550611 0 0.060347180239659258 -0.048077170945366197 0 0.081393780744213662 -0.037973802717070439 0 0.060347180239659258 -0.048077170945366197 0 0.065307328148602031 -0.02763622366550611 0 0.081393780744213662 -0.037973802717070439 0 0.060347180239659258 -0.048077170945366197 0 0.081393780744213662 -0.037973802717070439 0 0.073422412927154485 -0.059455570772482723 0 0.061665730749425191 -0.069113813322893417 0 0.060347180239659258 -0.048077170945366197 0 0.073422412927154485 -0.059455570772482723 0 0.081393780744213662 -0.037973802717070439 0 0.073422412927154485 -0.059455570772482723 0 0.095781268357555432 -0.051754809274037313 0 0.073422412927154485 -0.059455570772482723 0 0.095781268357555432 -0.051754809274037313 0 0.086349539146914442 -0.067479948174443347 0 0.095781268357555432 -0.051754809274037313 0 0.1172113570783843 -0.046652929066938589 0 0.1101608005524943 -0.074186940242608135 0 0.1172113570783843 -0.046652929066938589 0 0.1101608005524943 -0.074186940242608135 0 0.1172113570783843 -0.046652929066938589 0 0.1233261031809063 -0.06261066996241349 0 0.13119633114686921 -0.046546249724189317 0 0.1172113570783843 -0.046652929066938589 0 0.1101608005524943 -0.074186940242608135 0 0.1233261031809063 -0.06261066996241349 0 0.1172113570783843 -0.046652929066938589 0 0.1242619136042748 -0.019118917891269131 0 0.13289942401690999 -0.034186865508774658 0 0.1172113570783843 -0.046652929066938589 0 0.1242619136042748 -0.019118917891269131 0 0.095781268357555432 -0.051754809274037313 0 0.1172113570783843 -0.046652929066938589 0 0.1024403812487681 -0.027870434488774829 0 0.085500327204952611 -0.018861156692618661 0 0.1024403812487681 -0.027870434488774829 0 0.098193641229107204 -0.01560531272395425 0 0.1024403812487681 -0.027870434488774829 0 0.1107953584437369 -0.012496496881391679 0 0.098193641229107204 -0.01560531272395425 0 0.1024403812487681 -0.027870434488774829 0 0.1242619136042748 -0.019118917891269131 0 0.1107953584437369 -0.012496496881391679 0 0.1024403812487681 -0.027870434488774829 0 0.1242619136042748 -0.019118917891269131 0 0.1172113570783843 -0.046652929066938589 0 0.1024403812487681 -0.027870434488774829 0 0.1242619136042748 -0.019118917891269131 0 0.1247652030347418 -0.017153459313331149 0 0.1242619136042748 -0.019118917891269131 0 0.1207413590083673 -0.01073413128055899 0 0.1247652030347418 -0.017153459313331149 0 0.1242619136042748 -0.019118917891269131 0 0.1112915048280291 0.003507675962933767 0 0.1242619136042748 -0.019118917891269131 0 0.1112915048280291 0.003507675962933767 0 0.1242619136042748 -0.019118917891269131 0 0.1107953584437369 -0.012496496881391679 0 0.1112915048280291 0.003507675962933767 0 0.1242619136042748 -0.019118917891269131 0 0.1207413590083673 -0.01073413128055899 0 0.1207413590083673 -0.01073413128055899 0 0.1223276663332285 -0.002819512479007595 0 0.12630369351798351 -0.01114530747401112 0 0.1207413590083673 -0.01073413128055899 0 0.12630369351798351 -0.01114530747401112 0 0.1247652030347418 -0.017153459313331149 0 0.1207413590083673 -0.01073413128055899 0 0.12630369351798351 -0.01114530747401112 0 0.1112915048280291 0.003507675962933767 0 0.1207413590083673 -0.01073413128055899 0 0.1223276663332285 -0.002819512479007595 0 0.10477642040962271 0.00081361849094114679 0 0.1107953584437369 -0.012496496881391679 0 0.10477642040962271 0.00081361849094114679 0 0.1107953584437369 -0.012496496881391679 0 0.1028921109691993 -0.0080198446786374136 0 0.1112915048280291 0.003507675962933767 0 0.10477642040962271 0.00081361849094114679 0 0.1107953584437369 -0.012496496881391679 0 0.1107953584437369 -0.012496496881391679 0 0.1028921109691993 -0.0080198446786374136 0 0.098193641229107204 -0.01560531272395425 0 0.1028921109691993 -0.0080198446786374136 0 0.098193641229107204 -0.01560531272395425 0 0.0960124581584475 -0.002810374149942594 0 0.10477642040962271 0.00081361849094114679 0 0.1028921109691993 -0.0080198446786374136 0 0.0960124581584475 -0.002810374149942594 0 0.10477642040962271 0.00081361849094114679 0 0.0960124581584475 -0.002810374149942594 0 0.080258410955389159 -0.094342259534617612 0 0.073301234294881654 -0.1111066098932106 0 0.095003264496456977 -0.094842722157375728 0 0.087201535273317587 -0.1123259406901464 0 0.073301234294881654 -0.1111066098932106 0 0.095003264496456977 -0.094842722157375728 0 0.073301234294881654 -0.1111066098932106 0 0.095003264496456977 -0.094842722157375728 0 0.087201535273317587 -0.1123259406901464 0 0.090108124979890875 -0.12120299922838799 0 0.06328052368275329 -0.1198961185677187 0 0.092397792836211079 -0.1127817550559657 0 0.087201535273317587 -0.1123259406901464 0 0.090108124979890875 -0.12120299922838799 0 0.092397792836211079 -0.1127817550559657 0 0.087201535273317587 -0.1123259406901464 0 0.087201535273317587 -0.1123259406901464 0 0.073301234294881654 -0.1111066098932106 0 0.076574372266861007 -0.1285603392768882 0 0.090108124979890875 -0.12120299922838799 0 0.06328052368275329 -0.1198961185677187 0 0.090108124979890875 -0.12120299922838799 0 0.06328052368275329 -0.1198961185677187 0 0.087201535273317587 -0.1123259406901464 0 0.06328052368275329 -0.1198961185677187 0 0.087201535273317587 -0.1123259406901464 0 0.073301234294881654 -0.1111066098932106 0 0.06328052368275329 -0.1198961185677187 0 0.06456530947150009 -0.1315101529554569 0 0.061677016948232653 -0.1198180052874008 0 0.06328052368275329 -0.1198961185677187 0 0.061677016948232653 -0.1198180052874008 0 0.073301234294881654 -0.1111066098932106 0 0.06328052368275329 -0.1198961185677187 0 0.061677016948232653 -0.1198180052874008 0 0.073301234294881654 -0.1111066098932106 0 0.080258410955389159 -0.094342259534617612 0 0.073301234294881654 -0.1111066098932106 0 0.071241072689031557 -0.096501483334772112 0 0.06131433210728246 -0.099678719958360446 0 0.073301234294881654 -0.1111066098932106 0 0.071241072689031557 -0.096501483334772112 0 0.06131433210728246 -0.099678719958360446 0 0.071241072689031557 -0.096501483334772112 0 0.064455845314084423 -0.090483894501856343 0 0.064455845314084423 -0.090483894501856343 0 0.064849460272225962 -0.08074785611291059 0 0.074314531624279437 -0.087080220585728188 0 0.071241072689031557 -0.096501483334772112 0 0.064455845314084423 -0.090483894501856343 0 0.074314531624279437 -0.087080220585728188 0 0.064849460272225962 -0.08074785611291059 0 0.074314531624279437 -0.087080220585728188 0 0.075364329374238162 -0.075243215069179484 0 0.080258410955389159 -0.094342259534617612 0 0.071241072689031557 -0.096501483334772112 0 0.074314531624279437 -0.087080220585728188 0 0.073422412927154485 -0.059455570772482723 0 0.068825483330760939 -0.071140113819366552 0 0.075364329374238162 -0.075243215069179484 0 0.061665730749425191 -0.069113813322893417 0 0.073422412927154485 -0.059455570772482723 0 0.068825483330760939 -0.071140113819366552 0 0.061665730749425191 -0.069113813322893417 0 0.064849460272225962 -0.08074785611291059 0 0.068825483330760939 -0.071140113819366552 0 0.064849460272225962 -0.08074785611291059 0 0.068825483330760939 -0.071140113819366552 0 0.075364329374238162 -0.075243215069179484 0 0.073422412927154485 -0.059455570772482723 0 0.075364329374238162 -0.075243215069179484 0 0.086349539146914442 -0.067479948174443347 0 0.075364329374238162 -0.075243215069179484 0 0.086349539146914442 -0.067479948174443347 0 0.087431951672296143 -0.082180261702000906 0 0.080258410955389159 -0.094342259534617612 0 0.074314531624279437 -0.087080220585728188 0 0.087431951672296143 -0.082180261702000906 0 0.074314531624279437 -0.087080220585728188 0 0.075364329374238162 -0.075243215069179484 0 0.087431951672296143 -0.082180261702000906 0 0.080258410955389159 -0.094342259534617612 0 0.087431951672296143 -0.082180261702000906 0 0.095003264496456977 -0.094842722157375728 0 0.087431951672296143 -0.082180261702000906 0 0.1101608005524943 -0.074186940242608135 0 0.095003264496456977 -0.094842722157375728 0 0.1101608005524943 -0.074186940242608135 0 0.1188689601814998 -0.089388219479133724 0 0.095003264496456977 -0.094842722157375728 0 0.086349539146914442 -0.067479948174443347 0 0.087431951672296143 -0.082180261702000906 0 0.1101608005524943 -0.074186940242608135 0 0.095781268357555432 -0.051754809274037313 0 0.086349539146914442 -0.067479948174443347 0 0.1101608005524943 -0.074186940242608135 0 0.1101608005524943 -0.074186940242608135 0 0.1233261031809063 -0.06261066996241349 0 0.13326979264129071 -0.076508966775363674 0 0.1101608005524943 -0.074186940242608135 0 0.1188689601814998 -0.089388219479133724 0 0.13326979264129071 -0.076508966775363674 0 0.1188689601814998 -0.089388219479133724 0 0.1123073793926254 -0.1043808040461531 0 0.13634898366966741 -0.100643662644229 0 0.1123073793926254 -0.1043808040461531 0 0.1169357262770285 -0.12250987988905621 0 0.13634898366966741 -0.100643662644229 0 0.1188689601814998 -0.089388219479133724 0 0.1123073793926254 -0.1043808040461531 0 0.095003264496456977 -0.094842722157375728 0 0.087201535273317587 -0.1123259406901464 0 0.1123073793926254 -0.1043808040461531 0 0.095003264496456977 -0.094842722157375728 0 0.087201535273317587 -0.1123259406901464 0 0.1123073793926254 -0.1043808040461531 0 0.090108124979890875 -0.12120299922838799 0 0.1169357262770285 -0.12250987988905621 0 0.090108124979890875 -0.12120299922838799 0 0.1036404827051375 -0.1153848915397669 0 0.1169357262770285 -0.12250987988905621 0 0.092397792836211079 -0.1127817550559657 0 0.1123073793926254 -0.1043808040461531 0 0.1036404827051375 -0.1153848915397669 0 0.092397792836211079 -0.1127817550559657 0 0.087201535273317587 -0.1123259406901464 0 0.1123073793926254 -0.1043808040461531 0 0.092397792836211079 -0.1127817550559657 0 0.090108124979890875 -0.12120299922838799 0 0.1036404827051375 -0.1153848915397669 0 0.1123073793926254 -0.1043808040461531 0 0.1036404827051375 -0.1153848915397669 0 0.1169357262770285 -0.12250987988905621 0 0.14376332757416629 -0.1238167605497244 0 0.13634898366966741 -0.100643662644229 0 0.17138972508797751 -0.1013323521842511 0 0.1169357262770285 -0.12250987988905621 0 0.14376332757416629 -0.1238167605497244 0 0.1169357262770285 -0.12250987988905621 0 0.14376332757416629 -0.1238167605497244 0 0.13634898366966741 -0.100643662644229 0 0.13634898366966741 -0.100643662644229 0 0.1564633297587612 -0.075293582655265673 0 0.17138972508797751 -0.1013323521842511 0 0.1188689601814998 -0.089388219479133724 0 0.13634898366966741 -0.100643662644229 0 0.13326979264129071 -0.076508966775363674 0 0.1233261031809063 -0.06261066996241349 0 0.13326979264129071 -0.076508966775363674 0 0.13794405807032731 -0.05375883347294573 0 0.13326979264129071 -0.076508966775363674 0 0.1564633297587612 -0.075293582655265673 0 0.13794405807032731 -0.05375883347294573 0 0.13634898366966741 -0.100643662644229 0 0.13326979264129071 -0.076508966775363674 0 0.1564633297587612 -0.075293582655265673 0 0.164368967813115 -0.084988561042887406 0 0.1760842167220561 -0.088284777495914346 0 0.17138972508797751 -0.1013323521842511 0 0.164368967813115 -0.084988561042887406 0 0.1564633297587612 -0.075293582655265673 0 0.17138972508797751 -0.1013323521842511 0 0.1564633297587612 -0.075293582655265673 0 0.17138972508797751 -0.1013323521842511 0 0.164368967813115 -0.084988561042887406 0 0.16096446227743061 -0.057078477787350437 0 0.164368967813115 -0.084988561042887406 0 0.1703246174799419 -0.070168692109133707 0 0.16096446227743061 -0.057078477787350437 0 0.1703246174799419 -0.070168692109133707 0 0.16096446227743061 -0.057078477787350437 0 0.1802722953687752 -0.062486785773009007 0 0.164368967813115 -0.084988561042887406 0 0.1564633297587612 -0.075293582655265673 0 0.16096446227743061 -0.057078477787350437 0 0.164368967813115 -0.084988561042887406 0 0.1703246174799419 -0.070168692109133707 0 0.1756927444604468 -0.076120943833287935 0 0.1756927444604468 -0.076120943833287935 0 0.1802722953687752 -0.062486785773009007 0 0.1875632755683237 -0.084242091766404834 0 0.1802722953687752 -0.062486785773009007 0 0.1875632755683237 -0.084242091766404834 0 0.1703246174799419 -0.070168692109133707 0 0.1756927444604468 -0.076120943833287935 0 0.1802722953687752 -0.062486785773009007 0 0.1760842167220561 -0.088284777495914346 0 0.19485425576787219 -0.1059973977598007 0 0.1875632755683237 -0.084242091766404834 0 0.164368967813115 -0.084988561042887406 0 0.1756927444604468 -0.076120943833287935 0 0.1760842167220561 -0.088284777495914346 0 0.1756927444604468 -0.076120943833287935 0 0.1760842167220561 -0.088284777495914346 0 0.1875632755683237 -0.084242091766404834 0 0.1760842167220561 -0.088284777495914346 0 0.17138972508797751 -0.1013323521842511 0 0.19485425576787219 -0.1059973977598007 0 0.17138972508797751 -0.1013323521842511 0 0.19485425576787219 -0.1059973977598007 0 0.18631612041719381 -0.1273711217132365 0 0.17138972508797751 -0.1013323521842511 0 0.1657787450227966 -0.130238944788615 0 0.18631612041719381 -0.1273711217132365 0 0.17138972508797751 -0.1013323521842511 0 0.18631612041719381 -0.1273711217132365 0 0.14376332757416629 -0.1238167605497244 0 0.17138972508797751 -0.1013323521842511 0 0.1657787450227966 -0.130238944788615 0 0.15562587807191011 -0.01331284777705229 0 0.1358161446551393 -0.0118484822726884 0 0.1376284963240767 -0.010978467361420909 0 0.15562587807191011 -0.01331284777705229 0 0.1358161446551393 -0.0118484822726884 0 0.14548302747107431 -0.021359791197350441 0 0.15562587807191011 -0.01331284777705229 0 0.14668888272404429 -0.0072849454050045578 0 0.1376284963240767 -0.010978467361420909 0 0.15562587807191011 -0.01331284777705229 0 0.1358161446551393 -0.0118484822726884 0 0.15403515242118701 -0.0002721037150884772 0 0.15562587807191011 -0.01331284777705229 0 0.15403515242118701 -0.0002721037150884772 0 0.15562587807191011 -0.01331284777705229 0 0.14668888272404429 -0.0072849454050045578 0 0.15403515242118701 -0.0002721037150884772 0 0.14668888272404429 -0.0072849454050045578 0 0.1465946890200821 -0.0004105235846931203 0 0.14668888272404429 -0.0072849454050045578 0 0.1404981720982906 -0.0072407394481459227 0 0.1376284963240767 -0.010978467361420909 0 0.14155279978957599 -0.0045238131239763776 0 0.14668888272404429 -0.0072849454050045578 0 0.1404981720982906 -0.0072407394481459227 0 0.14155279978957599 -0.0045238131239763776 0 0.14668888272404429 -0.0072849454050045578 0 0.1465946890200821 -0.0004105235846931203 0 0.13923765294229029 0.0022891475430473298 0 0.14155279978957599 -0.0045238131239763776 0 0.1465946890200821 -0.0004105235846931203 0 0.13097410797853409 0.0070937128756059439 0 0.1223276663332285 -0.002819512479007595 0 0.12630369351798351 -0.01114530747401112 0 0.13097410797853409 0.0070937128756059439 0 0.13252035001615531 -0.0026602361061354952 0 0.12630369351798351 -0.01114530747401112 0 0.13923765294229029 0.0022891475430473298 0 0.14155279978957599 -0.0045238131239763776 0 0.13612250955546559 -0.0061757319021818382 0 0.13923765294229029 0.0022891475430473298 0 0.13612250955546559 -0.0061757319021818382 0 0.13252035001615531 -0.0026602361061354952 0 0.13097410797853409 0.0070937128756059439 0 0.12630369351798351 -0.01114530747401112 0 0.14155279978957599 -0.0045238131239763776 0 0.1404981720982906 -0.0072407394481459227 0 0.13612250955546559 -0.0061757319021818382 0 0.13612250955546559 -0.0061757319021818382 0 0.13252035001615531 -0.0026602361061354952 0 0.1326906744361859 -0.0079574394387543629 0 0.13252035001615531 -0.0026602361061354952 0 0.12630369351798351 -0.01114530747401112 0 0.1326906744361859 -0.0079574394387543629 0 0.12630369351798351 -0.01114530747401112 0 0.1326906744361859 -0.0079574394387543629 0 0.1358161446551393 -0.0118484822726884 0 0.12630369351798351 -0.01114530747401112 0 0.1358161446551393 -0.0118484822726884 0 0.1247652030347418 -0.017153459313331149 0 0.12630369351798351 -0.01114530747401112 0 0.1358161446551393 -0.0118484822726884 0 0.1247652030347418 -0.017153459313331149 0 0.1358161446551393 -0.0118484822726884 0 0.1247652030347418 -0.017153459313331149 0 0.12630369351798351 -0.01114530747401112 0 0.13612250955546559 -0.0061757319021818382 0 0.1326906744361859 -0.0079574394387543629 0 0.1358161446551393 -0.0118484822726884 0 0.13612250955546559 -0.0061757319021818382 0 0.1358161446551393 -0.0118484822726884 0 0.1376284963240767 -0.010978467361420909 0 0.1404981720982906 -0.0072407394481459227 0 0.13612250955546559 -0.0061757319021818382 0 0.1376284963240767 -0.010978467361420909 0 0.1358161446551393 -0.0118484822726884 0 0.1376284963240767 -0.010978467361420909 0 0.1358161446551393 -0.0118484822726884 0 0.1330900058846467 -0.020332335322940012 0 0.14548302747107431 -0.021359791197350441 0 0.1247652030347418 -0.017153459313331149 0 0.1358161446551393 -0.0118484822726884 0 0.1330900058846467 -0.020332335322940012 0 0.1247652030347418 -0.017153459313331149 0 0.1242619136042748 -0.019118917891269131 0 0.1330900058846467 -0.020332335322940012 0 0.1242619136042748 -0.019118917891269131 0 0.13289942401690999 -0.034186865508774658 0 0.1242619136042748 -0.019118917891269131 0 0.1330900058846467 -0.020332335322940012 0 0.13289942401690999 -0.034186865508774658 0 0.1330900058846467 -0.020332335322940012 0 0.14303080750682581 -0.031225141693096339 0 0.14548302747107431 -0.021359791197350441 0 0.1330900058846467 -0.020332335322940012 0 0.14303080750682581 -0.031225141693096339 0 0.13289942401690999 -0.034186865508774658 0 0.15562587807191011 -0.01331284777705229 0 0.14548302747107431 -0.021359791197350441 0 0.15755995674174519 -0.02916839453181341 0 0.14303080750682581 -0.031225141693096339 0 0.14548302747107431 -0.021359791197350441 0 0.15755995674174519 -0.02916839453181341 0 0.14303080750682581 -0.031225141693096339 0 0.14153693442954321 -0.049254813126281362 0 0.15755995674174519 -0.02916839453181341 0 0.14153693442954321 -0.049254813126281362 0 0.16096446227743061 -0.057078477787350437 0 0.15755995674174519 -0.02916839453181341 0 0.14153693442954321 -0.049254813126281362 0 0.15755995674174519 -0.02916839453181341 0 0.14303080750682581 -0.031225141693096339 0 0.13289942401690999 -0.034186865508774658 0 0.14153693442954321 -0.049254813126281362 0 0.1172113570783843 -0.046652929066938589 0 0.13289942401690999 -0.034186865508774658 0 0.13119633114686921 -0.046546249724189317 0 0.13289942401690999 -0.034186865508774658 0 0.13119633114686921 -0.046546249724189317 0 0.14153693442954321 -0.049254813126281362 0 0.13289942401690999 -0.034186865508774658 0 0.14153693442954321 -0.049254813126281362 0 0.1233261031809063 -0.06261066996241349 0 0.13119633114686921 -0.046546249724189317 0 0.13794405807032731 -0.05375883347294573 0 0.13119633114686921 -0.046546249724189317 0 0.13794405807032731 -0.05375883347294573 0 0.14153693442954321 -0.049254813126281362 0 0.13794405807032731 -0.05375883347294573 0 0.14153693442954321 -0.049254813126281362 0 0.1564633297587612 -0.075293582655265673 0 0.13794405807032731 -0.05375883347294573 0 0.14153693442954321 -0.049254813126281362 0 0.1564633297587612 -0.075293582655265673 0 0.14153693442954321 -0.049254813126281362 0 0.1564633297587612 -0.075293582655265673 0 0.14153693442954321 -0.049254813126281362 0 0.16096446227743061 -0.057078477787350437 0 0.16096446227743061 -0.057078477787350437 0 0.1802722953687752 -0.062486785773009007 0 0.17298131516922671 -0.040731479779613118 0 0.1802722953687752 -0.062486785773009007 0 0.17298131516922671 -0.040731479779613118 0 0.1802722953687752 -0.062486785773009007 0 0.1776390337338617 -0.049454376022654623 0 0.17298131516922671 -0.040731479779613118 0 0.1802722953687752 -0.062486785773009007 0 0.1776390337338617 -0.049454376022654623 0 0.1913650994111061 -0.053463194362786293 0 0.1776390337338617 -0.049454376022654623 0 0.18476598918103551 -0.041275600463376853 0 0.1913650994111061 -0.053463194362786293 0 0.1776390337338617 -0.049454376022654623 0 0.17590718066608199 -0.032069213604831247 0 0.1776390337338617 -0.049454376022654623 0 0.18476598918103551 -0.041275600463376853 0 0.17590718066608199 -0.032069213604831247 0 0.1776390337338617 -0.049454376022654623 0 0.17298131516922671 -0.040731479779613118 0 0.17590718066608199 -0.032069213604831247 0 0.18476598918103551 -0.041275600463376853 0 0.1867680066273871 -0.032604250988956078 0 0.17590718066608199 -0.032069213604831247 0 0.16096446227743061 -0.057078477787350437 0 0.15755995674174519 -0.02916839453181341 0 0.16096446227743061 -0.057078477787350437 0 0.17298131516922671 -0.040731479779613118 0 0.15755995674174519 -0.02916839453181341 0 0.17298131516922671 -0.040731479779613118 0 0.17590718066608199 -0.032069213604831247 0 0.16569033496967761 -0.01897617378621724 0 0.17298131516922671 -0.040731479779613118 0 0.16569033496967761 -0.01897617378621724 0 0.15562587807191011 -0.01331284777705229 0 0.15755995674174519 -0.02916839453181341 0 0.15562587807191011 -0.01331284777705229 0 0.15755995674174519 -0.02916839453181341 0 0.16569033496967761 -0.01897617378621724 0 0.17298131516922671 -0.040731479779613118 0 0.15755995674174519 -0.02916839453181341 0 0.16569033496967761 -0.01897617378621724 0 0.15755995674174519 -0.02916839453181341 0 0.16569033496967761 -0.01897617378621724 0 0.16569033496967761 -0.01897617378621724 0 0.16939600437484861 -0.0143307563740295 0 0.16399980562064601 -0.013931861187300181 0 0.16569033496967761 -0.01897617378621724 0 0.16399980562064601 -0.013931861187300181 0 0.16569033496967761 -0.01897617378621724 0 0.16939600437484861 -0.0143307563740295 0 0.16569033496967761 -0.01897617378621724 0 0.17088421334151621 -0.016754678271591491 0 0.17139962057806871 -0.01972977251736106 0 0.16569033496967761 -0.01897617378621724 0 0.17088421334151621 -0.016754678271591491 0 0.16939600437484861 -0.0143307563740295 0 0.17590718066608199 -0.032069213604831247 0 0.16569033496967761 -0.01897617378621724 0 0.17139962057806871 -0.01972977251736106 0 0.17590718066608199 -0.032069213604831247 0 0.1741753275983034 -0.014684051187007781 0 0.17590718066608199 -0.032069213604831247 0 0.18619640705470411 -0.023913791024602261 0 0.1741753275983034 -0.014684051187007781 0 0.17590718066608199 -0.032069213604831247 0 0.17139962057806871 -0.01972977251736106 0 0.1741753275983034 -0.014684051187007781 0 0.18619640705470411 -0.023913791024602261 0 0.1741753275983034 -0.014684051187007781 0 0.19925628222991221 -0.016538073349059459 0 0.1867680066273871 -0.032604250988956078 0 0.17590718066608199 -0.032069213604831247 0 0.18619640705470411 -0.023913791024602261 0 0.17088421334151621 -0.016754678271591491 0 0.17139962057806871 -0.01972977251736106 0 0.1741753275983034 -0.014684051187007781 0 0.1741753275983034 -0.014684051187007781 0 0.17361346064926211 -0.0090437642896982889 0 0.16939600437484861 -0.0143307563740295 0 0.1741753275983034 -0.014684051187007781 0 0.17361346064926211 -0.0090437642896982889 0 0.1838095192005145 -0.0079981965756249409 0 0.1741753275983034 -0.014684051187007781 0 0.17361346064926211 -0.0090437642896982889 0 0.1741753275983034 -0.014684051187007781 0 0.1838095192005145 -0.0079981965756249409 0 0.19925628222991221 -0.016538073349059459 0 0.1741753275983034 -0.014684051187007781 0 0.19925628222991221 -0.016538073349059459 0 0.18396150608490339 0.003928518230093556 0 0.17361346064926211 -0.0090437642896982889 0 0.1838095192005145 -0.0079981965756249409 0 0.18396150608490339 0.003928518230093556 0 0.17361346064926211 -0.0090437642896982889 0 0.16840429246959401 0.0077393239224586834 0 0.17361346064926211 -0.0090437642896982889 0 0.16840429246959401 0.0077393239224586834 0 0.17361346064926211 -0.0090437642896982889 0 0.16622175267777631 -0.0057108265085095648 0 0.17361346064926211 -0.0090437642896982889 0 0.16622175267777631 -0.0057108265085095648 0 0.16939600437484861 -0.0143307563740295 0 0.16622175267777631 -0.0057108265085095648 0 0.16939600437484861 -0.0143307563740295 0 0.16399980562064601 -0.013931861187300181 0 0.17361346064926211 -0.0090437642896982889 0 0.16939600437484861 -0.0143307563740295 0 0.1741753275983034 -0.014684051187007781 0 0.16939600437484861 -0.0143307563740295 0 0.17088421334151621 -0.016754678271591491 0 0.1741753275983034 -0.014684051187007781 0 0.16939600437484861 -0.0143307563740295 0 0.16939600437484861 -0.0143307563740295 0 0.16399980562064601 -0.013931861187300181 0 0.15562587807191011 -0.01331284777705229 0 0.16569033496967761 -0.01897617378621724 0 0.16399980562064601 -0.013931861187300181 0 0.15562587807191011 -0.01331284777705229 0 0.16399980562064601 -0.013931861187300181 0 0.16399980562064601 -0.013931861187300181 0 0.16125104591101941 -0.0057299312754726939 0 0.15562587807191011 -0.01331284777705229 0 0.16399980562064601 -0.013931861187300181 0 0.16125104591101941 -0.0057299312754726939 0 0.16622175267777631 -0.0057108265085095648 0 0.16399980562064601 -0.013931861187300181 0 0.16125104591101941 -0.0057299312754726939 0 0.15403515242118701 -0.0002721037150884772 0 0.15562587807191011 -0.01331284777705229 0 0.16125104591101941 -0.0057299312754726939 0 0.16166098532517281 0.0011724919484129149 0 0.15403515242118701 -0.0002721037150884772 0 0.16125104591101941 -0.0057299312754726939 0 0.16166098532517281 0.0011724919484129149 0 0.16622175267777631 -0.0057108265085095648 0 0.16125104591101941 -0.0057299312754726939 0 0.19925628222991221 -0.016538073349059459 0 0.22433723686152091 -0.018392095511111331 0 0.22281975385651651 -0.0062645524211049344 0 0.2152167747240277 0.0033049180125912072 0 0.19925628222991221 -0.016538073349059459 0 0.22281975385651651 -0.0062645524211049344 0 0.2152167747240277 0.0033049180125912072 0 0.19779322192045601 0.001847593168912076 0 0.19925628222991221 -0.016538073349059459 0 0.19779322192045601 0.001847593168912076 0 0.1838095192005145 -0.0079981965756249409 0 0.19925628222991221 -0.016538073349059459 0 0.19779322192045601 0.001847593168912076 0 0.18396150608490339 0.003928518230093556 0 0.1838095192005145 -0.0079981965756249409 0 0.18619640705470411 -0.023913791024602261 0 0.19925628222991221 -0.016538073349059459 0 0.1964466151754041 -0.028126334663520949 0 0.1867680066273871 -0.032604250988956078 0 0.18619640705470411 -0.023913791024602261 0 0.1964466151754041 -0.028126334663520949 0 0.19925628222991221 -0.016538073349059459 0 0.1964466151754041 -0.028126334663520949 0 0.20856130634910161 -0.02750885117285528 0 0.1964466151754041 -0.028126334663520949 0 0.20856130634910161 -0.02750885117285528 0 0.2048694604934817 -0.037450661939192657 0 0.19925628222991221 -0.016538073349059459 0 0.22433723686152091 -0.018392095511111331 0 0.19925628222991221 -0.016538073349059459 0 0.20856130634910161 -0.02750885117285528 0 0.22433723686152091 -0.018392095511111331 0 0.20856130634910161 -0.02750885117285528 0 0.217896936985189 -0.037037090401391991 0 0.22433723686152091 -0.018392095511111331 0 0.217896936985189 -0.037037090401391991 0 0.2048694604934817 -0.037450661939192657 0 0.2058125904105417 -0.050238074948674737 0 0.20856130634910161 -0.02750885117285528 0 0.217896936985189 -0.037037090401391991 0 0.2048694604934817 -0.037450661939192657 0 0.1964466151754041 -0.028126334663520949 0 0.2048694604934817 -0.037450661939192657 0 0.19377740987377129 -0.039937619486862773 0 0.18476598918103551 -0.041275600463376853 0 0.1867680066273871 -0.032604250988956078 0 0.19377740987377129 -0.039937619486862773 0 0.1867680066273871 -0.032604250988956078 0 0.1964466151754041 -0.028126334663520949 0 0.19377740987377129 -0.039937619486862773 0 0.18476598918103551 -0.041275600463376853 0 0.19377740987377129 -0.039937619486862773 0 0.1913650994111061 -0.053463194362786293 0 0.2048694604934817 -0.037450661939192657 0 0.19377740987377129 -0.039937619486862773 0 0.2058125904105417 -0.050238074948674737 0 0.1802722953687752 -0.062486785773009007 0 0.1913650994111061 -0.053463194362786293 0 0.20135093961009881 -0.070228916548634515 0 0.1913650994111061 -0.053463194362786293 0 0.2058125904105417 -0.050238074948674737 0 0.20135093961009881 -0.070228916548634515 0 0.19377740987377129 -0.039937619486862773 0 0.1913650994111061 -0.053463194362786293 0 0.2058125904105417 -0.050238074948674737 0 0.2058125904105417 -0.050238074948674737 0 0.20135093961009881 -0.070228916548634515 0 0.2189087777416483 -0.063168347528759564 0 0.217896936985189 -0.037037090401391991 0 0.2058125904105417 -0.050238074948674737 0 0.2189087777416483 -0.063168347528759564 0 0.217896936985189 -0.037037090401391991 0 0.23493594042515101 -0.055420735624608287 0 0.2189087777416483 -0.063168347528759564 0 0.25649292338891672 -0.055358796168968757 0 0.23493594042515101 -0.055420735624608287 0 0.24625643286624649 -0.040573384452919622 0 0.25649292338891672 -0.055358796168968757 0 0.23493594042515101 -0.055420735624608287 0 0.24199764414204969 -0.073938094161394158 0 0.23493594042515101 -0.055420735624608287 0 0.2339911700843359 -0.02749616191576704 0 0.23493594042515101 -0.055420735624608287 0 0.24625643286624649 -0.040573384452919622 0 0.2339911700843359 -0.02749616191576704 0 0.24625643286624649 -0.040573384452919622 0 0.2339911700843359 -0.02749616191576704 0 0.24798237889572039 -0.02666413183602092 0 0.217896936985189 -0.037037090401391991 0 0.23493594042515101 -0.055420735624608287 0 0.2339911700843359 -0.02749616191576704 0 0.217896936985189 -0.037037090401391991 0 0.22433723686152091 -0.018392095511111331 0 0.2339911700843359 -0.02749616191576704 0 0.2339911700843359 -0.02749616191576704 0 0.24798237889572039 -0.02666413183602092 0 0.2441826621619228 -0.013173084775089709 0 0.23304639974351971 0.0004284117930741173 0 0.25903132009979979 -0.0037638123808381501 0 0.2441826621619228 -0.013173084775089709 0 0.23304639974351971 0.0004284117930741173 0 0.25903132009979979 -0.0037638123808381501 0 0.23304639974351971 0.0004284117930741173 0 0.2339911700843359 -0.02749616191576704 0 0.2441826621619228 -0.013173084775089709 0 0.23304639974351971 0.0004284117930741173 0 0.22433723686152091 -0.018392095511111331 0 0.22281975385651651 -0.0062645524211049344 0 0.23304639974351971 0.0004284117930741173 0 0.22433723686152091 -0.018392095511111331 0 0.2339911700843359 -0.02749616191576704 0 0.23304639974351971 0.0004284117930741173 0 0.2339911700843359 -0.02749616191576704 0 0.23304639974351971 0.0004284117930741173 0 0.2152167747240277 0.0033049180125912072 0 0.22281975385651651 -0.0062645524211049344 0 0.21113888824650659 -0.1077562014417708 0 0.2033079968818487 -0.09107254230120676 0 0.2216326252164422 -0.087138103989422941 0 0.21113888824650659 -0.1077562014417708 0 0.20639009653596929 -0.1233838310326722 0 0.22101379681140401 -0.12234064444753399 0 0.21113888824650659 -0.1077562014417708 0 0.20639009653596929 -0.1233838310326722 0 0.19485425576787219 -0.1059973977598007 0 0.20639009653596929 -0.1233838310326722 0 0.19485425576787219 -0.1059973977598007 0 0.18631612041719381 -0.1273711217132365 0 0.21113888824650659 -0.1077562014417708 0 0.19485425576787219 -0.1059973977598007 0 0.2033079968818487 -0.09107254230120676 0 0.19485425576787219 -0.1059973977598007 0 0.1875632755683237 -0.084242091766404834 0 0.2033079968818487 -0.09107254230120676 0 0.19485425576787219 -0.1059973977598007 0 0.1875632755683237 -0.084242091766404834 0 0.1875632755683237 -0.084242091766404834 0 0.20135093961009881 -0.070228916548634515 0 0.2033079968818487 -0.09107254230120676 0 0.1802722953687752 -0.062486785773009007 0 0.1875632755683237 -0.084242091766404834 0 0.20135093961009881 -0.070228916548634515 0 0.20135093961009881 -0.070228916548634515 0 0.2216326252164422 -0.087138103989422941 0 0.2189087777416483 -0.063168347528759564 0 0.20135093961009881 -0.070228916548634515 0 0.2033079968818487 -0.09107254230120676 0 0.2216326252164422 -0.087138103989422941 0 0.2216326252164422 -0.087138103989422941 0 0.2189087777416483 -0.063168347528759564 0 0.24199764414204969 -0.073938094161394158 0 0.23493594042515101 -0.055420735624608287 0 0.2189087777416483 -0.063168347528759564 0 0.24199764414204969 -0.073938094161394158 0 0.2216326252164422 -0.087138103989422941 0 0.24199764414204969 -0.073938094161394158 0 0.24892278871250639 -0.10236735360540899 0 0.21113888824650659 -0.1077562014417708 0 0.2216326252164422 -0.087138103989422941 0 0.22867015192111559 -0.11078473358842621 0 0.2216326252164422 -0.087138103989422941 0 0.24892278871250639 -0.10236735360540899 0 0.22867015192111559 -0.11078473358842621 0 0.21113888824650659 -0.1077562014417708 0 0.22101379681140401 -0.12234064444753399 0 0.22867015192111559 -0.11078473358842621 0 0.22101379681140401 -0.12234064444753399 0 0.22867015192111559 -0.11078473358842621 0 0.23035457283729621 -0.1218880913256821 0 0.22867015192111559 -0.11078473358842621 0 0.23035457283729621 -0.1218880913256821 0 0.24112941543189059 -0.1217279816788964 0 0.25594327163715053 -0.12845732285323649 0 0.24892278871250639 -0.10236735360540899 0 0.24112941543189059 -0.1217279816788964 0 0.24892278871250639 -0.10236735360540899 0 0.22867015192111559 -0.11078473358842621 0 0.24112941543189059 -0.1217279816788964 0 0.25594327163715053 -0.12845732285323649 0 0.24112941543189059 -0.1217279816788964 0 0.24547462922896371 -0.1381582001215246 0 0.24112941543189059 -0.1217279816788964 0 0.24547462922896371 -0.1381582001215246 0 0.23060492718477449 -0.13269900558787201 0 0.24547462922896371 -0.1381582001215246 0 0.23501804914545141 -0.14268417443355949 0 0.23060492718477449 -0.13269900558787201 0 0.24547462922896371 -0.1381582001215246 0 0.23501804914545141 -0.14268417443355949 0 0.24022563151206561 -0.15455033935567111 0 0.25659558976825392 -0.14976256611678929 0 0.24547462922896371 -0.1381582001215246 0 0.24022563151206561 -0.15455033935567111 0 0.24022563151206561 -0.15455033935567111 0 0.2252130548928899 -0.14799563062511151 0 0.2261401886642227 -0.16461507082945451 0 0.23501804914545141 -0.14268417443355949 0 0.2252130548928899 -0.14799563062511151 0 0.23060492718477449 -0.13269900558787201 0 0.23501804914545141 -0.14268417443355949 0 0.24022563151206561 -0.15455033935567111 0 0.2252130548928899 -0.14799563062511151 0 0.22101379681140401 -0.12234064444753399 0 0.23035457283729621 -0.1218880913256821 0 0.23060492718477449 -0.13269900558787201 0 0.23035457283729621 -0.1218880913256821 0 0.24112941543189059 -0.1217279816788964 0 0.23060492718477449 -0.13269900558787201 0 0.2252130548928899 -0.14799563062511151 0 0.23060492718477449 -0.13269900558787201 0 0.21839726930037129 -0.13757677388571321 0 0.22101379681140401 -0.12234064444753399 0 0.23060492718477449 -0.13269900558787201 0 0.21839726930037129 -0.13757677388571321 0 0.20639009653596929 -0.1233838310326722 0 0.22101379681140401 -0.12234064444753399 0 0.21839726930037129 -0.13757677388571321 0 0.20639009653596929 -0.1233838310326722 0 0.20552647845361841 -0.13668753646523979 0 0.21839726930037129 -0.13757677388571321 0 0.20552647845361841 -0.13668753646523979 0 0.21839726930037129 -0.13757677388571321 0 0.20932040587238049 -0.14708624731486061 0 0.20552647845361841 -0.13668753646523979 0 0.20932040587238049 -0.14708624731486061 0 0.20124251574641011 -0.1534098912422219 0 0.2252130548928899 -0.14799563062511151 0 0.20932040587238049 -0.14708624731486061 0 0.2152469890390904 -0.15678254940664621 0 0.2252130548928899 -0.14799563062511151 0 0.21839726930037129 -0.13757677388571321 0 0.20932040587238049 -0.14708624731486061 0 0.20932040587238049 -0.14708624731486061 0 0.20124251574641011 -0.1534098912422219 0 0.20932040587238049 -0.14708624731486061 0 0.20124251574641011 -0.1534098912422219 0 0.2152469890390904 -0.15678254940664621 0 0.20124251574641011 -0.1534098912422219 0 0.17882241371556079 -0.14556996239331799 0 0.18405041195629979 -0.1668684479984435 0 0.20124251574641011 -0.1534098912422219 0 0.18631612041719381 -0.1273711217132365 0 0.17882241371556079 -0.14556996239331799 0 0.20552647845361841 -0.13668753646523979 0 0.20124251574641011 -0.1534098912422219 0 0.18631612041719381 -0.1273711217132365 0 0.20639009653596929 -0.1233838310326722 0 0.20552647845361841 -0.13668753646523979 0 0.18631612041719381 -0.1273711217132365 0 0.20124251574641011 -0.1534098912422219 0 0.18631612041719381 -0.1273711217132365 0 0.19670910889049911 -0.17613778219896811 0 0.18405041195629979 -0.1668684479984435 0 0.18207470833199091 -0.18643495695322629 0 0.19670910889049911 -0.17613778219896811 0 0.2074107421384741 -0.1895860913422372 0 0.19419609710111799 -0.19330565315908471 0 0.19670910889049911 -0.17613778219896811 0 0.19419609710111799 -0.19330565315908471 0 0.18207470833199091 -0.18643495695322629 0 0.20124251574641011 -0.1534098912422219 0 0.19670910889049911 -0.17613778219896811 0 0.21124293295580221 -0.17085539989757459 0 0.20124251574641011 -0.1534098912422219 0 0.18405041195629979 -0.1668684479984435 0 0.20124251574641011 -0.1534098912422219 0 0.19670910889049911 -0.17613778219896811 0 0.18405041195629979 -0.1668684479984435 0 0.20124251574641011 -0.1534098912422219 0 0.2152469890390904 -0.15678254940664621 0 0.21124293295580221 -0.17085539989757459 0 0.20124251574641011 -0.1534098912422219 0 0.21124293295580221 -0.17085539989757459 0 0.2152469890390904 -0.15678254940664621 0 0.21124293295580221 -0.17085539989757459 0 0.2261401886642227 -0.16461507082945451 0 0.21124293295580221 -0.17085539989757459 0 0.22124335016519431 -0.18830090855292739 0 0.19670910889049911 -0.17613778219896811 0 0.21124293295580221 -0.17085539989757459 0 0.2074107421384741 -0.1895860913422372 0 0.21124293295580221 -0.17085539989757459 0 0.22124335016519431 -0.18830090855292739 0 0.2074107421384741 -0.1895860913422372 0 0.21124293295580221 -0.17085539989757459 0 0.2261401886642227 -0.16461507082945451 0 0.22124335016519431 -0.18830090855292739 0 0.23843904450347281 -0.1764677901506079 0 0.23571601075143281 -0.19051440850482629 0 0.22124335016519431 -0.18830090855292739 0 0.2261401886642227 -0.16461507082945451 0 0.23843904450347281 -0.1764677901506079 0 0.22124335016519431 -0.18830090855292739 0 0.2252130548928899 -0.14799563062511151 0 0.2152469890390904 -0.15678254940664621 0 0.2261401886642227 -0.16461507082945451 0 0.24022563151206561 -0.15455033935567111 0 0.2261401886642227 -0.16461507082945451 0 0.23843904450347281 -0.1764677901506079 0 0.25527152784601792 -0.1682613431292396 0 0.24022563151206561 -0.15455033935567111 0 0.23843904450347281 -0.1764677901506079 0 0.25193788096247788 -0.19154251810748951 0 0.25527152784601792 -0.1682613431292396 0 0.23843904450347281 -0.1764677901506079 0 0.25193788096247788 -0.19154251810748951 0 0.23843904450347281 -0.1764677901506079 0 0.23571601075143281 -0.19051440850482629 0 0.25193788096247788 -0.19154251810748951 0 0.23124376737458621 -0.20574641720828021 0 0.25193788096247788 -0.19154251810748951 0 0.23571601075143281 -0.19051440850482629 0 0.23124376737458621 -0.20574641720828021 0 0.25193788096247788 -0.19154251810748951 0 0.2478976634772197 -0.20875617606494301 0 0.23124376737458621 -0.20574641720828021 0 0.23124376737458621 -0.20574641720828021 0 0.24275608729512671 -0.22582940700878121 0 0.2478976634772197 -0.20875617606494301 0 0.23124376737458621 -0.20574641720828021 0 0.24275608729512671 -0.22582940700878121 0 0.23124376737458621 -0.20574641720828021 0 0.22056155000775279 -0.21307841222254911 0 0.22560319162099499 -0.2246838807449307 0 0.23124376737458621 -0.20574641720828021 0 0.22056155000775279 -0.21307841222254911 0 0.23124376737458621 -0.20574641720828021 0 0.22056155000775279 -0.21307841222254911 0 0.21709981394297709 -0.2013802923617744 0 0.23571601075143281 -0.19051440850482629 0 0.23124376737458621 -0.20574641720828021 0 0.22124335016519431 -0.18830090855292739 0 0.23124376737458621 -0.20574641720828021 0 0.22124335016519431 -0.18830090855292739 0 0.23124376737458621 -0.20574641720828021 0 0.22124335016519431 -0.18830090855292739 0 0.21709981394297709 -0.2013802923617744 0 0.25426840721566712 -0.2459123968092822 0 0.24275608729512671 -0.22582940700878121 0 0.25426840721566712 -0.2459123968092822 0 0.24275608729512671 -0.22582940700878121 0 0.23226122407644861 -0.24305153520974551 0 0.24275608729512671 -0.22582940700878121 0 0.22560319162099499 -0.2246838807449307 0 0.23226122407644861 -0.24305153520974551 0 0.23124376737458621 -0.20574641720828021 0 0.24275608729512671 -0.22582940700878121 0 0.22560319162099499 -0.2246838807449307 0 0.22056155000775279 -0.21307841222254911 0 0.22560319162099499 -0.2246838807449307 0 0.21026857112903941 -0.22367078434208409 0 0.22560319162099499 -0.2246838807449307 0 0.23226122407644861 -0.24305153520974551 0 0.2165279498430164 -0.23672672847814441 0 0.21620916497840981 -0.25674229967158602 0 0.23226122407644861 -0.24305153520974551 0 0.2165279498430164 -0.23672672847814441 0 0.21620916497840981 -0.25674229967158602 0 0.20332086336781729 -0.2367839368914488 0 0.19523122515296429 -0.24782415684921169 0 0.21620916497840981 -0.25674229967158602 0 0.2165279498430164 -0.23672672847814441 0 0.20332086336781729 -0.2367839368914488 0 0.2165279498430164 -0.23672672847814441 0 0.20332086336781729 -0.2367839368914488 0 0.21026857112903941 -0.22367078434208409 0 0.22560319162099499 -0.2246838807449307 0 0.2165279498430164 -0.23672672847814441 0 0.21026857112903941 -0.22367078434208409 0 0.20332086336781729 -0.2367839368914488 0 0.21026857112903941 -0.22367078434208409 0 0.19313960267094379 -0.221328299037618 0 0.20332086336781729 -0.2367839368914488 0 0.19313960267094379 -0.221328299037618 0 0.18854866643253029 -0.23441135297004889 0 0.20332086336781729 -0.2367839368914488 0 0.18854866643253029 -0.23441135297004889 0 0.19523122515296429 -0.24782415684921169 0 0.2074107421384741 -0.1895860913422372 0 0.21709981394297709 -0.2013802923617744 0 0.20423378555217081 -0.20664019710413289 0 0.22124335016519431 -0.18830090855292739 0 0.2074107421384741 -0.1895860913422372 0 0.21709981394297709 -0.2013802923617744 0 0.22056155000775279 -0.21307841222254911 0 0.21709981394297709 -0.2013802923617744 0 0.20423378555217081 -0.20664019710413289 0 0.22056155000775279 -0.21307841222254911 0 0.21026857112903941 -0.22367078434208409 0 0.20423378555217081 -0.20664019710413289 0 0.19313960267094379 -0.221328299037618 0 0.20423378555217081 -0.20664019710413289 0 0.18269697511381261 -0.2057890775682614 0 0.21026857112903941 -0.22367078434208409 0 0.19313960267094379 -0.221328299037618 0 0.20423378555217081 -0.20664019710413289 0 0.20423378555217081 -0.20664019710413289 0 0.19419609710111799 -0.19330565315908471 0 0.18269697511381261 -0.2057890775682614 0 0.2074107421384741 -0.1895860913422372 0 0.20423378555217081 -0.20664019710413289 0 0.19419609710111799 -0.19330565315908471 0 0.19419609710111799 -0.19330565315908471 0 0.18269697511381261 -0.2057890775682614 0 0.18207470833199091 -0.18643495695322629 0 0.18269697511381261 -0.2057890775682614 0 0.16793734876402591 -0.196181776039935 0 0.18207470833199091 -0.18643495695322629 0 0.16793734876402591 -0.196181776039935 0 0.18207470833199091 -0.18643495695322629 0 0.1668583081661896 -0.18032700475466509 0 0.19313960267094379 -0.221328299037618 0 0.18269697511381261 -0.2057890775682614 0 0.1801196548793208 -0.22335610627432559 0 0.18269697511381261 -0.2057890775682614 0 0.16195974485179851 -0.21634578776886221 0 0.1801196548793208 -0.22335610627432559 0 0.18269697511381261 -0.2057890775682614 0 0.16195974485179851 -0.21634578776886221 0 0.16793734876402591 -0.196181776039935 0 0.16195974485179851 -0.21634578776886221 0 0.16793734876402591 -0.196181776039935 0 0.14966620437607919 -0.19378556151088669 0 0.16793734876402591 -0.196181776039935 0 0.14966620437607919 -0.19378556151088669 0 0.1668583081661896 -0.18032700475466509 0 0.19523122515296429 -0.24782415684921169 0 0.1796868137957067 -0.248877236870538 0 0.17425328532751891 -0.23890601402683731 0 0.19523122515296429 -0.24782415684921169 0 0.17425328532751891 -0.23890601402683731 0 0.18854866643253029 -0.23441135297004889 0 0.19523122515296429 -0.24782415684921169 0 0.17425328532751891 -0.23890601402683731 0 0.17220772105096799 -0.24810707534093029 0 0.1796868137957067 -0.248877236870538 0 0.17425328532751891 -0.23890601402683731 0 0.1796868137957067 -0.248877236870538 0 0.17425328532751891 -0.23890601402683731 0 0.16195974485179851 -0.21634578776886221 0 0.17425328532751891 -0.23890601402683731 0 0.1801196548793208 -0.22335610627432559 0 0.18854866643253029 -0.23441135297004889 0 0.17425328532751891 -0.23890601402683731 0 0.1801196548793208 -0.22335610627432559 0 0.19313960267094379 -0.221328299037618 0 0.18854866643253029 -0.23441135297004889 0 0.1801196548793208 -0.22335610627432559 0 0.16195974485179851 -0.21634578776886221 0 0.17425328532751891 -0.23890601402683731 0 0.14896241123507131 -0.22815435637427861 0 0.16195974485179851 -0.21634578776886221 0 0.17425328532751891 -0.23890601402683731 0 0.17425328532751891 -0.23890601402683731 0 0.14896241123507131 -0.22815435637427861 0 0.16211631190258621 -0.25040302499508932 0 0.17425328532751891 -0.23890601402683731 0 0.14896241123507131 -0.22815435637427861 0 0.16211631190258621 -0.25040302499508932 0 0.17220772105096799 -0.24810707534093029 0 0.17425328532751891 -0.23890601402683731 0 0.14666932478384401 -0.25086559918349599 0 0.16211631190258621 -0.25040302499508932 0 0.14896241123507131 -0.22815435637427861 0 0.14666932478384401 -0.25086559918349599 0 0.14896241123507131 -0.22815435637427861 0 0.1358572539454265 -0.24612954744254131 0 0.16211631190258621 -0.25040302499508932 0 0.14896241123507131 -0.22815435637427861 0 0.14896241123507131 -0.22815435637427861 0 0.1289752807739093 -0.21965742647814879 0 0.14896241123507131 -0.22815435637427861 0 0.1289752807739093 -0.21965742647814879 0 0.12808096402130931 -0.2372492109104028 0 0.14896241123507131 -0.22815435637427861 0 0.1358572539454265 -0.24612954744254131 0 0.12808096402130931 -0.2372492109104028 0 0.12751539410179349 -0.25446691770257829 0 0.1358572539454265 -0.24612954744254131 0 0.12808096402130931 -0.2372492109104028 0 0.14966620437607919 -0.19378556151088669 0 0.13529447203661091 -0.20503623668929549 0 0.14896241123507131 -0.22815435637427861 0 0.13529447203661091 -0.20503623668929549 0 0.16195974485179851 -0.21634578776886221 0 0.14966620437607919 -0.19378556151088669 0 0.13529447203661091 -0.20503623668929549 0 0.16195974485179851 -0.21634578776886221 0 0.14896241123507131 -0.22815435637427861 0 0.13529447203661091 -0.20503623668929549 0 0.16195974485179851 -0.21634578776886221 0 0.14966620437607919 -0.19378556151088669 0 0.14896241123507131 -0.22815435637427861 0 0.13347578839473401 -0.20645996337886069 0 0.13529447203661091 -0.20503623668929549 0 0.14896241123507131 -0.22815435637427861 0 0.1289752807739093 -0.21965742647814879 0 0.13347578839473401 -0.20645996337886069 0 0.13347578839473401 -0.20645996337886069 0 0.13529447203661091 -0.20503623668929549 0 0.1289752807739093 -0.21965742647814879 0 0.13347578839473401 -0.20645996337886069 0 0.1261715947139273 -0.20585598882117509 0 0.13347578839473401 -0.20645996337886069 0 0.13529447203661091 -0.20503623668929549 0 0.1261715947139273 -0.20585598882117509 0 0.12192185159560349 -0.18241762276600021 0 0.13529447203661091 -0.20503623668929549 0 0.1261715947139273 -0.20585598882117509 0 0.12192185159560349 -0.18241762276600021 0 0.13529447203661091 -0.20503623668929549 0 0.13681587065076031 -0.1894963390377917 0 0.12192185159560349 -0.18241762276600021 0 0.13529447203661091 -0.20503623668929549 0 0.14966620437607919 -0.19378556151088669 0 0.13529447203661091 -0.20503623668929549 0 0.13681587065076031 -0.1894963390377917 0 0.12192185159560349 -0.18241762276600021 0 0.14038095459474731 -0.1767459351849843 0 0.1275658305703217 -0.16791215655681199 0 0.12192185159560349 -0.18241762276600021 0 0.13681587065076031 -0.1894963390377917 0 0.14038095459474731 -0.1767459351849843 0 0.14966620437607919 -0.19378556151088669 0 0.14038095459474731 -0.1767459351849843 0 0.15503009910977469 -0.16810789491891279 0 0.14966620437607919 -0.19378556151088669 0 0.14038095459474731 -0.1767459351849843 0 0.14966620437607919 -0.19378556151088669 0 0.13681587065076031 -0.1894963390377917 0 0.14038095459474731 -0.1767459351849843 0 0.14038095459474731 -0.1767459351849843 0 0.15503009910977469 -0.16810789491891279 0 0.13338875107670611 -0.15372009693252409 0 0.15503009910977469 -0.16810789491891279 0 0.13338875107670611 -0.15372009693252409 0 0.15886167993931899 -0.1491342691507915 0 0.14038095459474731 -0.1767459351849843 0 0.1275658305703217 -0.16791215655681199 0 0.13338875107670611 -0.15372009693252409 0 0.1169768926939191 -0.14177079467177681 0 0.14376332757416629 -0.1238167605497244 0 0.13338875107670611 -0.15372009693252409 0 0.1169768926939191 -0.14177079467177681 0 0.1169357262770285 -0.12250987988905621 0 0.14376332757416629 -0.1238167605497244 0 0.14376332757416629 -0.1238167605497244 0 0.15886167993931899 -0.1491342691507915 0 0.1657787450227966 -0.130238944788615 0 0.14376332757416629 -0.1238167605497244 0 0.13338875107670611 -0.15372009693252409 0 0.15886167993931899 -0.1491342691507915 0 0.15886167993931899 -0.1491342691507915 0 0.1657787450227966 -0.130238944788615 0 0.17882241371556079 -0.14556996239331799 0 0.1657787450227966 -0.130238944788615 0 0.18631612041719381 -0.1273711217132365 0 0.17882241371556079 -0.14556996239331799 0 0.15886167993931899 -0.1491342691507915 0 0.17882241371556079 -0.14556996239331799 0 0.18405041195629979 -0.1668684479984435 0 0.18405041195629979 -0.1668684479984435 0 0.18207470833199091 -0.18643495695322629 0 0.1668583081661896 -0.18032700475466509 0 0.18405041195629979 -0.1668684479984435 0 0.1668583081661896 -0.18032700475466509 0 0.14966620437607919 -0.19378556151088669 0 0.15503009910977469 -0.16810789491891279 0 0.1668583081661896 -0.18032700475466509 0 0.14966620437607919 -0.19378556151088669 0 0.1668583081661896 -0.18032700475466509 0 0.15503009910977469 -0.16810789491891279 0 0.15886167993931899 -0.1491342691507915 0 0.18405041195629979 -0.1668684479984435 0 0.15503009910977469 -0.16810789491891279 0 0.18405041195629979 -0.1668684479984435 0 0.1668583081661896 -0.18032700475466509 0 
</DataArray>
</Points>
<Cells>
<DataArray type="UInt32" Name="connectivity" format="ascii">
0 1 2 3 4 5 6 7 8 9 10 11 12 13 14 15 16 17 18 19 20 21 22 23 24 25 26 27 28 29 30 31 32 33 34 35 36 37 38 39 40 41 42 43 44 45 46 47 48 49 50 51 52 53 54 55 56 57 58 59 60 61 62 63 64 65 66 67 68 69 70 71 72 73 74 75 76 77 78 79 80 81 82 83 84 85 86 87 88 89 90 91 92 93 94 95 96 97 98 99 100 101 102 103 104 105 106 107 108 109 110 111 112 113 114 115 116 117 118 119 120 121 122 123 124 125 126 127 128 129 130 131 132 133 134 135 136 137 138 139 140 141 142 143 144 145 146 147 148 149 150 151 152 153 154 155 156 157 158 159 160 161 162 163 164 165 166 167 168 169 170 171 172 173 174 175 176 177 178 179 180 181 182 183 184 185 186 187 188 189 190 191 192 193 194 195 196 197 198 199 200 201 202 203 204 205 206 207 208 209 210 211 212 213 214 215 216 217 218 219 220 221 222 223 224 225 226 227 228 229 230 231 232 233 234 235 236 237 238 239 240 241 242 243 244 245 246 247 248 249 250 251 252 253 254 255 256 257 258 259 260 261 262 263 264 265 266 267 268 269 270 271 272 273 274 275 276 277 278 279 280 281 282 283 284 285 286 287 288 289 290 291 292 293 294 295 296 297 298 299 300 301 302 303 304 305 306 307 308 309 310 311 312 313 314 315 316 317 318 319 320 321 322 323 324 325 326 327 328 329 330 331 332 333 334 335 336 337 338 339 340 341 342 343 344 345 346 347 348 349 350 351 352 353 354 355 356 357 358 359 360 361 362 363 364 365 366 367 368 369 370 371 372 373 374 375 376 377 378 379 380 381 382 383 384 385 386 387 388 389 390 391 392 393 394 395 396 397 398 399 400 401 402 403 404 405 406 407 408 409 410 411 412 413 414 415 416 417 418 419 420 421 422 423 424 425 426 427 428 429 430 431 432 433 434 435 436 437 438 439 440 441 442 443 444 445 446 447 448 449 450 451 452 453 454 455 456 457 458 459 460 461 462 463 464 465 466 467 468 469 470 471 472 473 474 475 476 477 478 479 480 481 482 483 484 485 486 487 488 489 490 491 492 493 494 495 496 497 498 499 500 501 502 503 504 505 506 507 508 509 510 511 512 513 514 515 516 517 518 519 520 521 522 523 524 525 526 527 528 529 530 531 532 533 534 535 536 537 538 539 540 541 542 543 544 545 546 547 548 549 550 551 552 553 554 555 556 557 558 559 560 561 562 563 564 565 566 567 568 569 570 571 572 573 574 575 576 577 578 579 580 581 582 583 584 585 586 587 588 589 590 591 592 593 594 595 596 597 598 599 600 601 602 603 604 605 606 607 608 609 610 611 612 613 614 615 616 617 618 619 620 621 622 623 624 625 626 627 628 629 630 631 632 633 634 635 636 637 638 639 640 641 642 643 644 645 646 647 648 649 650 651 652 653 654 655 656 657 658 659 660 661 662 663 664 665 666 667 668 669 670 671 672 673 674 675 676 677 678 679 680 681 682 683 684 685 686 687 688 689 690 691 692 693 694 695 696 697 698 699 700 701 702 703 704 705 706 707 708 709 710 711 712 713 714 715 716 717 718 719 720 721 722 723 724 725 726 727 728 729 730 731 732 733 734 735 736 737 738 739 740 741 742 743 744 745 746 747 748 749 750 751 752 753 754 755 756 757 758 759 760 761 762 763 764 765 766 767 768 769 770 771 772 773 774 775 776 777 778 779 780 781 782 783 784 785 786 787 788 789 790 791 792 793 794 795 796 797 798 799 800 801 802 803 804 805 806 807 808 809 810 811 812 813 814 815 816 817 818 819 820 821 822 823 824 825 826 827 828 829 830 831 832 833 834 835 836 837 838 839 840 841 842 843 844 845 846 847 848 849 850 851 852 853 854 855 856 857 858 859 860 861 862 863 864 865 866 867 868 869 870 871 872 873 874 875 876 877 878 879 880 881 882 883 884 885 886 887 888 889 890 891 892 893 894 895 896 897 898 899 900 901 902 903 904 905 906 907 908 909 910 911 912 913 914 915 916 917 918 919 920 921 922 923 924 925 926 927 928 929 930 931 932 933 934 935 936 937 938 939 940 941 942 943 944 945 946 947 948 949 950 951 952 953 954 955 956 957 958 959 960 961 962 963 964 965 966 967 968 969 970 971 972 973 974 975 976 977 978 979 980 981 982 983 984 985 986 987 988 989 990 991 992 993 994 995 996 997 998 999 1000 1001 1002 1003 1004 1005 1006 1007 1008 1009 1010 1011 1012 1013 1014 1015 1016 1017 1018 1019 1020 1021 1022 1023 1024 1025 1026 1027 1028 1029 1030 1031 1032 1033 1034 1035 1036 1037 1038 1039 1040 1041 1042 1043 1044 1045 1046 1047 1048 1049 1050 1051 1052 1053 1054 1055 1056 1057 1058 1059 1060 1061 1062 1063 1064 1065 1066 1067 1068 1069 1070 1071 1072 1073 1074 1075 1076 1077 1078 1079 1080 1081 1082 1083 1084 1085 1086 1087 1088 1089 1090 1091 1092 1093 1094 1095 1096 1097 1098 1099 1100 1101 1102 1103 1104 1105 1106 1107 1108 1109 1110 1111 1112 1113 1114 1115 1116 1117 1118 1119 1120 1121 1122 1123 1124 1125 1126 1127 1128 1129 1130 1131 1132 1133 1134 1135 1136 1137 1138 1139 1140 1141 1142 1143 1144 1145 1146 1147 1148 1149 1150 1151 1152 1153 1154 1155 1156 1157 1158 1159 1160 1161 1162 1163 1164 1165 1166 1167 1168 1169 1170 1171 1172 1173 1174 1175 1176 1177 1178 1179 1180 1181 1182 1183 1184 1185 1186 1187 1188 1189 1190 1191 1192 1193 1194 1195 1196 1197 1198 1199 1200 1201 1202 1203 1204 1205 1206 1207 1208 1209 1210 1211 1212 1213 1214 1215 1216 1217 1218 1219 1220 1221 1222 1223 1224 1225 1226 1227 1228 1229 1230 1231 1232 1233 1234 1235 1236 1237 1238 1239 1240 1241 1242 1243 1244 1245 1246 1247 1248 1249 1250 1251 1252 1253 1254 1255 1256 1257 1258 1259 1260 1261 1262 1263 1264 1265 1266 1267 1268 1269 1270 1271 1272 1273 1274 1275 1276 1277 1278 1279 1280 1281 1282 1283 1284 1285 1286 1287 1288 1289 1290 1291 1292 1293 1294 1295 1296 1297 1298 1299 1300 1301 1302 1303 1304 1305 1306 1307 1308 1309 1310 1311 1312 1313 1314 1315 1316 1317 1318 1319 1320 1321 1322 1323 1324 1325 1326 1327 1328 1329 1330 1331 1332 1333 1334 1335 1336 1337 1338 1339 1340 1341 1342 1343 1344 1345 1346 1347 1348 1349 1350 1351 1352 1353 1354 1355 1356 1357 1358 1359 1360 1361 1362 1363 1364 1365 1366 1367 1368 1369 1370 1371 1372 1373 1374 1375 1376 1377 1378 1379 1380 1381 1382 1383 1384 1385 1386 1387 1388 1389 1390 1391 1392 1393 1394 1395 1396 1397 1398 1399 1400 1401 1402 1403 1404 1405 1406 1407 1408 1409 1410 1411 1412 1413 1414 1415 1416 1417 1418 1419 1420 1421 1422 1423 1424 1425 1426 1427 1428 1429 1430 1431 1432 1433 1434 1435 1436 1437 1438 1439 1440 1441 1442 1443 1444 1445 1446 1447 1448 1449 1450 1451 1452 1453 1454 1455 1456 1457 1458 1459 1460 1461 1462 1463 1464 1465 1466 1467 1468 1469 1470 1471 1472 1473 1474 1475 1476 1477 1478 1479 1480 1481 1482 1483 1484 1485 1486 1487 1488 1489 1490 1491 1492 1493 1494 1495 1496 1497 1498 1499 1500 1501 1502 1503 1504 1505 1506 1507 1508 1509 1510 1511 1512 1513 1514 1515 1516 1517 1518 1519 1520 1521 1522 1523 1524 1525 1526 1527 1528 1529 1530 1531 1532 1533 1534 1535 1536 1537 1538 1539 1540 1541 1542 1543 1544 1545 1546 1547 1548 1549 1550 1551 1552 1553 1554 1555 1556 1557 1558 1559 1560 1561 1562 1563 1564 1565 1566 1567 1568 1569 1570 1571 1572 1573 1574 1575 1576 1577 1578 1579 1580 1581 1582 1583 1584 1585 1586 1587 1588 1589 1590 1591 1592 1593 1594 1595 1596 1597 1598 1599 1600 1601 1602 1603 1604 1605 1606 1607 1608 1609 1610 1611 1612 1613 1614 1615 1616 1617 1618 1619 1620 1621 1622 1623 1624 1625 1626 1627 1628 1629 1630 1631 1632 1633 1634 1635 1636 1637 1638 1639 1640 1641 1642 1643 1644 1645 1646 1647 1648 1649 1650 1651 1652 1653 1654 1655 1656 1657 1658 1659 1660 1661 1662 1663 1664 1665 1666 1667 1668 1669 1670 1671 1672 1673 1674 1675 1676 1677 1678 1679 1680 1681 1682 1683 1684 1685 1686 1687 1688 1689 1690 1691 1692 1693 1694 1695 1696 1697 1698 1699 1700 1701 1702 1703 1704 1705 1706 1707 1708 1709 1710 1711 1712 1713 1714 1715 1716 1717 1718 1719 1720 1721 1722 1723 1724 1725 1726 1727 1728 1729 1730 1731 1732 1733 1734 1735 1736 1737 1738 1739 1740 1741 1742 1743 1744 1745 1746 1747 1748 1749 1750 1751 1752 1753 1754 1755 1756 1757 1758 1759 1760 1761 1762 1763 1764 1765 1766 1767 1768 1769 1770 1771 1772 1773 1774 1775 1776 1777 1778 1779 1780 1781 1782 1783 1784 1785 1786 1787 1788 1789 1790 1791 1792 1793 1794 1795 1796 1797 1798 1799 1800 1801 1802 1803 1804 1805 1806 1807 1808 1809 1810 1811 1812 1813 1814 1815 1816 1817 1818 1819 1820 1821 1822 1823 1824 1825 1826 1827 1828 1829 1830 1831 1832 1833 1834 1835 1836 1837 1838 1839 1840 1841 1842 1843 1844 1845 1846 1847 1848 1849 1850 1851 1852 1853 1854 1855 1856 1857 1858 1859 1860 1861 1862 1863 1864 1865 1866 1867 1868 1869 1870 1871 1872 1873 1874 1875 1876 1877 1878 1879 1880 1881 1882 1883 1884 1885 1886 1887 1888 1889 1890 1891 1892 1893 1894 1895 1896 1897 1898 1899 1900 1901 1902 1903 1904 1905 1906 1907 1908 1909 1910 1911 1912 1913 1914 1915 1916 1917 1918 1919 1920 1921 1922 1923 1924 1925 1926 1927 1928 1929 1930 1931 1932 1933 1934 1935 1936 1937 1938 1939 1940 1941 1942 1943 1944 1945 1946 1947 1948 1949 1950 1951 1952 1953 1954 1955 1956 1957 1958 1959 1960 1961 1962 1963 1964 1965 1966 1967 1968 1969 1970 1971 1972 1973 1974 1975 1976 1977 1978 1979 1980 1981 1982 1983 1984 1985 1986 1987 1988 1989 1990 1991 1992 1993 1994 1995 1996 1997 1998 1999 2000 2001 2002 2003 2004 2005 2006 2007 2008 2009 2010 2011 2012 2013 2014 2015 2016 2017 2018 2019 2020 2021 2022 2023 2024 2025 2026 2027 2028 2029 2030 2031 2032 2033 2034 2035 2036 2037 2038 2039 2040 2041 2042 2043 2044 2045 2046 2047 2048 2049 2050 2051 2052 2053 2054 2055 2056 2057 2058 2059 2060 2061 2062 2063 2064 2065 2066 2067 2068 2069 2070 2071 2072 2073 2074 2075 2076 2077 2078 2079 2080 2081 2082 2083 2084 2085 2086 2087 2088 2089 2090 2091 2092 2093 2094 2095 2096 2097 2098 2099 2100 2101 2102 2103 2104 2105 2106 2107 2108 2109 2110 2111 2112 2113 2114 2115 2116 2117 2118 2119 2120 2121 2122 2123 2124 2125 2126 2127 2128 2129 2130 2131 2132 2133 2134 2135 2136 2137 2138 2139 2140 2141 2142 2143 2144 2145 2146 2147 2148 2149 2150 2151 2152 2153 2154 2155 2156 2157 2158 2159 2160 2161 2162 2163 2164 2165 2166 2167 2168 2169 2170 2171 2172 2173 2174 2175 2176 2177 2178 2179 2180 2181 2182 2183 2184 2185 2186 2187 2188 2189 2190 2191 2192 2193 2194 2195 2196 2197 2198 2199 2200 2201 2202 2203 2204 2205 2206 2207 2208 2209 2210 2211 2212 2213 2214 2215 2216 2217 2218 2219 2220 2221 2222 2223 2224 2225 2226 2227 2228 2229 2230 2231 2232 2233 2234 2235 2236 2237 2238 2239 2240 2241 2242 2243 2244 2245 2246 2247 2248 2249 2250 2251 2252 2253 2254 2255 2256 2257 2258 2259 2260 2261 2262 2263 2264 2265 2266 2267 2268 2269 2270 2271 2272 2273 2274 2275 2276 2277 2278 2279 2280 2281 2282 2283 2284 2285 2286 2287 2288 2289 2290 2291 2292 2293 2294 2295 2296 2297 2298 2299 2300 2301 2302 2303 2304 2305 2306 2307 2308 2309 2310 2311 2312 2313 2314 2315 2316 2317 2318 2319 2320 2321 2322 2323 2324 2325 2326 2327 2328 2329 2330 2331 2332 2333 2334 2335 2336 2337 2338 2339 2340 2341 2342 2343 2344 2345 2346 2347 2348 2349 2350 2351 2352 2353 2354 2355 2356 2357 2358 2359 2360 2361 2362 2363 2364 2365 2366 2367 2368 2369 2370 2371 2372 2373 2374 2375 2376 2377 2378 2379 2380 2381 2382 2383 2384 2385 2386 2387 2388 2389 2390 2391 2392 2393 2394 2395 2396 2397 2398 2399 2400 2401 2402 2403 2404 2405 2406 2407 2408 2409 2410 2411 2412 2413 2414 2415 2416 2417 2418 2419 2420 2421 2422 2423 2424 2425 2426 2427 2428 2429 2430 2431 2432 2433 2434 2435 2436 2437 2438 2439 2440 2441 2442 2443 2444 2445 2446 2447 2448 2449 2450 2451 2452 2453 2454 2455 2456 2457 2458 2459 2460 2461 2462 2463 2464 2465 2466 2467 2468 2469 2470 2471 2472 2473 2474 2475 2476 2477 2478 2479 2480 2481 2482 2483 2484 2485 2486 2487 2488 2489 2490 2491 2492 2493 2494 2495 2496 2497 2498 2499 2500 2501 2502 2503 2504 2505 2506 2507 2508 2509 2510 2511 2512 2513 2514 2515 2516 2517 2518 2519 2520 2521 2522 2523 2524 2525 2526 2527 2528 2529 2530 2531 2532 2533 2534 2535 2536 2537 2538 2539 2540 2541 2542 2543 2544 2545 2546 2547 2548 2549 2550 2551 2552 2553 2554 2555 2556 2557 2558 2559 2560 2561 2562 2563 2564 2565 2566 2567 2568 2569 2570 2571 2572 2573 2574 2575 2576 2577 2578 2579 2580 2581 2582 2583 2584 2585 2586 2587 2588 2589 2590 2591 2592 2593 2594 2595 2596 2597 2598 2599 2600 2601 2602 2603 2604 2605 2606 2607 2608 2609 2610 2611 2612 2613 2614 2615 2616 2617 2618 2619 2620 2621 2622 2623 2624 2625 2626 2627 2628 2629 2630 2631 2632 2633 2634 2635 2636 2637 2638 2639 2640 2641 2642 2643 2644 2645 2646 2647 2648 2649 2650 2651 2652 2653 2654 2655 2656 2657 2658 2659 2660 2661 2662 2663 2664 2665 2666 2667 2668 2669 2670 2671 2672 2673 2674 2675 2676 2677 2678 2679 2680 2681 2682 2683 2684 2685 2686 2687 2688 2689 2690 2691 2692 2693 2694 2695 2696 2697 2698 2699 2700 2701 2702 2703 2704 2705 2706 2707 2708 2709 2710 2711 2712 2713 2714 2715 2716 2717 2718 2719 2720 2721 2722 2723 2724 2725 2726 2727 2728 2729 2730 2731 2732 2733 2734 2735 2736 2737 2738 2739 2740 2741 2742 2743 2744 2745 2746 2747 2748 2749 2750 2751 2752 2753 2754 2755 2756 2757 2758 2759 2760 2761 2762 2763 2764 2765 2766 2767 2768 2769 2770 2771 2772 2773 2774 2775 2776 2777 2778 2779 2780 2781 2782 2783 2784 2785 2786 2787 2788 2789 2790 2791 2792 2793 2794 2795 2796 2797 2798 2799 2800 2801 2802 2803 2804 2805 2806 2807 2808 2809 2810 2811 2812 2813 2814 2815 2816 2817 2818 2819 2820 2821 2822 2823 2824 2825 2826 2827 2828 2829 2830 2831 2832 2833 2834 2835 2836 2837 2838 2839 2840 2841 2842 2843 2844 2845 2846 2847 2848 2849 2850 2851 2852 2853 2854 2855 2856 2857 2858 2859 2860 2861 2862 2863 2864 2865 2866 2867 2868 2869 2870 2871 2872 2873 2874 2875 2876 2877 2878 2879 2880 2881 2882 2883 2884 2885 2886 2887 2888 2889 2890 2891 2892 2893 2894 2895 2896 2897 2898 2899 2900 2901 2902 2903 2904 2905 2906 2907 2908 2909 2910 2911 2912 2913 2914 2915 2916 2917 2918 2919 2920 2921 2922 2923 2924 2925 2926 2927 2928 2929 2930 2931 2932 2933 2934 2935 2936 2937 2938 2939 2940 2941 2942 2943 2944 2945 2946 2947 2948 2949 2950 2951 2952 2953 2954 2955 2956 2957 2958 2959 2960 2961 2962 2963 2964 2965 2966 2967 2968 2969 2970 2971 2972 2973 2974 2975 2976 2977 2978 2979 2980 2981 2982 2983 2984 2985 2986 2987 2988 2989 2990 2991 2992 2993 2994 2995 2996 2997 2998 2999 3000 3001 3002 3003 3004 3005 3006 3007 3008 3009 3010 3011 3012 3013 3014 3015 3016 3017 3018 3019 3020 3021 3022 3023 3024 3025 3026 3027 3028 3029 3030 3031 3032 3033 3034 3035 3036 3037 3038 3039 3040 3041 3042 3043 3044 3045 3046 3047 3048 3049 3050 3051 3052 3053 3054 3055 3056 3057 3058 3059 3060 3061 3062 3063 3064 3065 3066 3067 3068 3069 3070 3071 3072 3073 3074 3075 3076 3077 3078 3079 3080 3081 3082 3083 3084 3085 3086 3087 3088 3089 3090 3091 3092 3093 3094 3095 3096 3097 3098 3099 3100 3101 3102 3103 3104 3105 3106 3107 3108 3109 3110 3111 3112 3113 3114 3115 3116 3117 3118 3119 3120 3121 3122 3123 3124 3125 3126 3127 3128 3129 3130 3131 3132 3133 3134 3135 3136 3137 3138 3139 3140 3141 3142 3143 3144 3145 3146 3147 3148 3149 3150 3151 3152 3153 3154 3155 3156 3157 3158 3159 3160 3161 3162 3163 3164 3165 3166 3167 3168 3169 3170 3171 3172 3173 3174 3175 3176 3177 3178 3179 3180 3181 3182 3183 3184 3185 3186 3187 3188 3189 3190 3191 3192 3193 3194 3195 3196 3197 3198 3199 3200 3201 3202 3203 3204 3205 3206 3207 3208 3209 3210 3211 3212 3213 3214 3215 3216 3217 3218 3219 3220 3221 3222 3223 3224 3225 3226 3227 3228 3229 3230 3231 3232 3233 3234 3235 3236 3237 3238 3239 3240 3241 3242 3243 3244 3245 3246 3247 3248 3249 3250 3251 3252 3253 3254 3255 3256 3257 3258 3259 3260 3261 3262 3263 3264 3265 3266 3267 3268 3269 3270 3271 3272 3273 3274 3275 3276 3277 3278 3279 3280 3281 3282 3283 3284 3285 3286 3287 3288 3289 3290 3291 3292 3293 3294 3295 3296 3297 3298 3299 3300 3301 3302 3303 3304 3305 3306 3307 3308 3309 3310 3311 3312 3313 3314 3315 3316 3317 3318 3319 3320 3321 3322 3323 3324 3325 3326 3327 3328 3329 3330 3331 3332 3333 3334 3335 3336 3337 3338 3339 3340 3341 3342 3343 3344 3345 3346 3347 3348 3349 3350 3351 3352 3353 3354 3355 3356 3357 3358 3359 3360 3361 3362 3363 3364 3365 3366 3367 3368 3369 3370 3371 3372 3373 3374 3375 3376 3377 3378 3379 3380 3381 3382 3383 3384 3385 3386 3387 3388 3389 3390 3391 3392 3393 3394 3395 3396 3397 3398 3399 3400 3401 3402 3403 3404 3405 3406 3407 3408 3409 3410 3411 3412 3413 3414 3415 3416 3417 3418 3419 3420 3421 3422 3423 3424 3425 3426 3427 3428 3429 3430 3431 3432 3433 3434 3435 3436 3437 3438 3439 3440 3441 3442 3443 3444 3445 3446 3447 3448 3449 3450 3451 3452 3453 3454 3455 3456 3457 3458 3459 3460 3461 3462 3463 3464 3465 3466 3467 3468 3469 3470 3471 3472 3473 3474 3475 3476 3477 3478 3479 3480 3481 3482 3483 3484 3485 3486 3487 3488 3489 3490 3491 3492 3493 3494 3495 3496 3497 3498 3499 3500 3501 3502 3503 3504 3505 3506 3507 3508 3509 3510 3511 3512 3513 3514 3515 3516 3517 3518 3519 3520 3521 3522 3523 3524 3525 3526 3527 3528 3529 3530 3531 3532 3533 3534 3535 3536 3537 3538 3539 3540 3541 3542 3543 3544 3545 3546 3547 3548 3549 3550 3551 3552 3553 3554 3555 3556 3557 3558 3559 3560 3561 3562 3563 3564 3565 3566 3567 3568 3569 3570 3571 3572 3573 3574 3575 3576 3577 3578 3579 3580 3581 3582 3583 3584 3585 3586 3587 3588 3589 3590 3591 3592 3593 3594 3595 3596 3597 3598 3599 3600 3601 3602 3603 3604 3605 3606 3607 3608 3609 3610 3611 3612 3613 3614 3615 3616 3617 3618 3619 3620 3621 3622 3623 3624 3625 3626 3627 3628 3629 3630 3631 3632 3633 3634 3635 3636 3637 3638 3639 3640 3641 3642 3643 3644 3645 3646 3647 3648 3649 3650 3651 3652 3653 3654 3655 3656 3657 3658 3659 3660 3661 3662 3663 3664 3665 3666 3667 3668 3669 3670 3671 3672 3673 3674 3675 3676 3677 3678 3679 3680 3681 3682 3683 3684 3685 3686 3687 3688 3689 3690 3691 3692 3693 3694 3695 3696 3697 3698 3699 3700 3701 3702 3703 3704 3705 3706 3707 3708 3709 3710 3711 3712 3713 3714 3715 3716 3717 3718 3719 3720 3721 3722 3723 3724 3725 3726 3727 3728 3729 3730 3731 3732 3733 3734 3735 3736 3737 3738 3739 3740 3741 3742 3743 3744 3745 3746 3747 3748 3749 3750 3751 3752 3753 3754 3755 3756 3757 3758 3759 3760 3761 3762 3763 3764 3765 3766 3767 3768 3769 3770 3771 3772 3773 3774 3775 3776 3777 3778 3779 3780 3781 3782 3783 3784 3785 3786 3787 3788 3789 3790 3791 3792 3793 3794 3795 3796 3797 3798 3799 3800 3801 3802 3803 3804 3805 3806 3807 3808 3809 3810 3811 3812 3813 3814 3815 3816 3817 3818 3819 3820 3821 3822 3823 3824 3825 3826 3827 3828 3829 3830 3831 3832 3833 3834 3835 3836 3837 3838 3839 3840 3841 3842 3843 3844 3845 3846 3847 3848 3849 3850 3851 3852 3853 3854 3855 3856 3857 3858 3859 3860 3861 3862 3863 3864 3865 3866 3867 3868 3869 3870 3871 3872 3873 3874 3875 3876 3877 3878 3879 3880 3881 3882 3883 3884 3885 3886 3887 3888 3889 3890 3891 3892 3893 3894 3895 3896 3897 3898 3899 3900 3901 3902 3903 3904 3905 3906 3907 3908 3909 3910 3911 3912 3913 3914 3915 3916 3917 3918 3919 3920 3921 3922 3923 3924 3925 3926 3927 3928 3929 3930 3931 3932 3933 3934 3935 3936 3937 3938 3939 3940 3941 3942 3943 3944 3945 3946 3947 3948 3949 3950 3951 3952 3953 3954 3955 3956 3957 3958 3959 3960 3961 3962 3963 3964 3965 3966 3967 3968 3969 3970 3971 3972 3973 3974 3975 3976 3977 3978 3979 3980 3981 3982 3983 3984 3985 3986 3987 3988 3989 3990 3991 3992 3993 3994 3995 3996 3997 3998 3999 4000 4001 4002 4003 4004 4005 4006 4007 4008 4009 4010 4011 4012 4013 4014 4015 4016 4017 4018 4019 4020 4021 4022 4023 4024 4025 4026 4027 4028 4029 4030 4031 4032 4033 4034 4035 4036 4037 4038 4039 4040 4041 4042 4043 4044 4045 4046 4047 4048 4049 4050 4051 4052 4053 4054 4055 4056 4057 4058 4059 4060 4061 4062 4063 4064 4065 4066 4067 4068 4069 4070 4071 4072 4073 4074 4075 4076 4077 4078 4079 4080 4081 4082 4083 4084 4085 4086 4087 4088 4089 4090 4091 4092 4093 4094 4095 4096 4097 4098 4099 4100 4101 4102 4103 4104 4105 4106 4107 4108 4109 4110 4111 4112 4113 4114 4115 4116 4117 4118 4119 4120 4121 4122 4123 4124 4125 4126 4127 4128 4129 4130 4131 4132 4133 4134 4135 4136 4137 4138 4139 4140 4141 4142 4143 4144 4145 4146 4147 4148 4149 4150 4151 4152 4153 4154 4155 4156 4157 4158 4159 4160 4161 4162 4163 4164 4165 4166 4167 4168 4169 4170 4171 4172 4173 4174 4175 4176 4177 4178 4179 4180 4181 4182 4183 4184 4185 4186 4187 4188 4189 4190 4191 4192 4193 4194 4195 4196 4197 4198 4199 4200 4201 4202 4203 4204 4205 4206 4207 4208 4209 4210 4211 4212 4213 4214 4215 4216 4217 4218 4219 4220 4221 4222 4223 4224 4225 4226 4227 4228 4229 4230 4231 4232 4233 4234 4235 4236 4237 4238 4239 4240 4241 4242 4243 4244 4245 4246 4247 4248 4249 4250 4251 4252 4253 4254 4255 4256 4257 4258 4259 4260 4261 4262 4263 4264 4265 4266 4267 4268 4269 4270 4271 4272 4273 4274 4275 4276 4277 4278 4279 4280 4281 4282 4283 4284 4285 4286 4287 4288 4289 4290 4291 4292 4293 4294 4295 4296 4297 4298 4299 4300 4301 4302 4303 4304 4305 4306 4307 4308 4309 4310 4311 4312 4313 4314 4315 4316 4317 4318 4319 4320 4321 4322 4323 4324 4325 4326 4327 4328 4329 4330 4331 4332 4333 4334 4335 4336 4337 4338 4339 4340 4341 4342 4343 4344 4345 4346 4347 4348 4349 4350 4351 4352 4353 4354 4355 4356 4357 4358 4359 4360 4361 4362 4363 4364 4365 4366 4367 4368 4369 4370 4371 4372 4373 4374 4375 4376 4377 4378 4379 4380 4381 4382 4383 4384 4385 4386 4387 4388 4389 4390 4391 4392 4393 4394 4395 4396 4397 4398 4399 4400 4401 4402 4403 4404 4405 4406 4407 4408 4409 4410 4411 4412 4413 4414 4415 4416 4417 4418 4419 4420 4421 4422 4423 4424 4425 4426 4427 4428 4429 4430 4431 4432 4433 4434 4435 4436 4437 4438 4439 4440 4441 4442 4443 4444 4445 4446 4447 4448 4449 4450 4451 4452 4453 4454 4455 4456 4457 4458 4459 4460 4461 4462 4463 4464 4465 4466 4467 4468 4469 4470 4471 4472 4473 4474 4475 4476 4477 4478 4479 4480 4481 4482 4483 4484 4485 4486 4487 4488 4489 4490 4491 4492 4493 4494 4495 4496 4497 4498 4499 4500 4501 4502 4503 4504 4505 4506 4507 4508 4509 4510 4511 4512 4513 4514 4515 4516 4517 4518 4519 4520 4521 4522 4523 4524 4525 4526 4527 4528 4529 4530 4531 4532 4533 4534 4535 4536 4537 4538 4539 4540 4541 4542 4543 4544 4545 4546 4547 4548 4549 4550 4551 4552 4553 4554 4555 4556 4557 4558 4559 4560 4561 4562 4563 4564 4565 4566 4567 4568 4569 4570 4571 4572 4573 4574 4575 4576 4577 4578 4579 4580 4581 4582 4583 4584 4585 4586 4587 4588 4589 4590 4591 4592 4593 4594 4595 4596 4597 4598 4599 4600 4601 4602 4603 4604 4605 4606 4607 4608 4609 4610 4611 4612 4613 4614 4615 4616 4617 4618 4619 4620 4621 4622 4623 4624 4625 4626 4627 4628 4629 4630 4631 4632 4633 4634 4635 4636 4637 4638 4639 4640 4641 4642 4643 4644 4645 4646 4647 4648 4649 4650 4651 4652 4653 4654 4655 4656 4657 4658 4659 4660 4661 4662 4663 4664 4665 4666 4667 4668 4669 4670 4671 4672 4673 4674 4675 4676 4677 4678 4679 4680 4681 4682 4683 4684 4685 4686 4687 4688 4689 4690 4691 4692 4693 4694 4695 4696 4697 4698 4699 4700 4701 4702 4703 4704 4705 4706 4707 4708 4709 4710 4711 4712 4713 4714 4715 4716 4717 4718 4719 4720 4721 4722 4723 4724 4725 4726 4727 4728 4729 4730 4731 4732 4733 4734 4735 4736 4737 4738 4739 4740 4741 4742 4743 4744 4745 4746 4747 4748 4749 4750 4751 4752 4753 4754 4755 4756 4757 4758 4759 4760 4761 4762 4763 4764 4765 4766 4767 4768 4769 4770 4771 4772 4773 4774 4775 4776 4777 4778 4779 4780 4781 4782 4783 4784 4785 4786 4787 4788 4789 4790 4791 4792 4793 4794 4795 4796 4797 4798 4799 4800 4801 4802 4803 4804 4805 4806 4807 4808 4809 4810 4811 4812 4813 4814 4815 4816 4817 4818 4819 4820 4821 4822 4823 4824 4825 4826 4827 4828 4829 4830 4831 4832 4833 4834 4835 4836 4837 4838 4839 4840 4841 4842 4843 4844 4845 4846 4847 4848 4849 4850 4851 4852 4853 4854 4855 4856 4857 4858 4859 4860 4861 4862 4863 4864 4865 4866 4867 4868 4869 4870 4871 4872 4873 4874 4875 4876 4877 4878 4879 4880 4881 4882 4883 4884 4885 4886 4887 4888 4889 4890 4891 4892 4893 4894 4895 4896 4897 4898 4899 4900 4901 4902 4903 4904 4905 4906 4907 4908 4909 4910 4911 4912 4913 4914 4915 4916 4917 4918 4919 4920 4921 4922 4923 4924 4925 4926 4927 4928 4929 4930 4931 4932 4933 4934 4935 4936 4937 4938 4939 4940 4941 4942 4943 4944 4945 4946 4947 4948 4949 4950 4951 4952 4953 4954 4955 4956 4957 4958 4959 4960 4961 4962 4963 4964 4965 4966 4967 4968 4969 4970 4971 4972 4973 4974 4975 4976 4977 4978 4979 4980 4981 4982 4983 4984 4985 4986 4987 4988 4989 4990 4991 4992 4993 4994 4995 4996 4997 4998 4999 5000 5001 5002 5003 5004 5005 5006 5007 5008 5009 5010 5011 5012 5013 5014 5015 5016 5017 5018 5019 5020 5021 5022 5023 5024 5025 5026 5027 5028 5029 5030 5031 5032 5033 5034 5035 5036 5037 5038 5039 5040 5041 5042 5043 5044 5045 5046 5047 5048 5049 5050 5051 5052 5053 5054 5055 5056 5057 5058 5059 5060 5061 5062 5063 5064 5065 5066 5067 5068 5069 5070 5071 5072 5073 5074 5075 5076 5077 5078 5079 5080 5081 5082 5083 5084 5085 5086 5087 5088 5089 5090 5091 5092 5093 5094 5095 5096 5097 5098 5099 5100 5101 5102 5103 5104 5105 5106 5107 5108 5109 5110 5111 5112 5113 5114 5115 5116 5117 5118 5119 5120 5121 5122 5123 5124 5125 5126 5127 5128 5129 5130 5131 5132 5133 5134 5135 5136 5137 5138 5139 5140 5141 5142 5143 5144 5145 5146 5147 5148 5149 5150 5151 5152 5153 5154 5155 5156 5157 5158 5159 5160 5161 5162 5163 5164 5165 5166 5167 5168 5169 5170 5171 5172 5173 5174 5175 5176 5177 5178 5179 5180 5181 5182 5183 5184 5185 5186 5187 5188 5189 5190 5191 5192 5193 5194 5195 5196 5197 5198 5199 5200 5201 5202 5203 5204 5205 5206 5207 5208 5209 5210 5211 5212 5213 5214 5215 5216 5217 5218 5219 5220 5221 5222 5223 5224 5225 5226 5227 5228 5229 5230 5231 5232 5233 5234 5235 5236 5237 5238 5239 5240 5241 5242 5243 5244 5245 5246 5247 5248 5249 5250 5251 5252 5253 5254 5255 5256 5257 5258 5259 5260 5261 5262 5263 5264 5265 5266 5267 5268 5269 5270 5271 5272 5273 5274 5275 5276 5277 5278 5279 5280 5281 5282 5283 5284 5285 5286 5287 5288 5289 5290 5291 5292 5293 5294 5295 5296 5297 5298 5299 5300 5301 5302 5303 5304 5305 5306 5307 5308 5309 5310 5311 5312 5313 5314 5315 5316 5317 5318 5319 5320 5321 5322 5323 5324 5325 5326 5327 5328 5329 5330 5331 5332 5333 5334 5335 5336 5337 5338 5339 5340 5341 5342 5343 5344 5345 5346 5347 5348 5349 5350 5351 5352 5353 5354 5355 5356 5357 5358 5359 5360 5361 5362 5363 5364 5365 5366 5367 5368 5369 5370 5371 5372 5373 5374 5375 5376 5377 5378 5379 5380 5381 5382 5383 5384 5385 5386 5387 5388 5389 5390 5391 5392 5393 5394 5395 5396 5397 5398 5399 5400 5401 5402 5403 5404 5405 5406 5407 5408 5409 5410 5411 5412 5413 5414 5415 5416 5417 5418 5419 5420 5421 5422 5423 5424 5425 5426 5427 5428 5429 5430 5431 5432 5433 5434 5435 5436 5437 5438 5439 5440 5441 5442 5443 5444 5445 5446 5447 5448 5449 5450 5451 5452 5453 5454 5455 5456 5457 5458 5459 5460 5461 5462 5463 5464 5465 5466 5467 5468 5469 5470 5471 5472 5473 5474 5475 5476 5477 5478 5479 5480 5481 5482 5483 5484 5485 5486 5487 5488 5489 5490 5491 5492 5493 5494 5495 5496 5497 5498 5499 5500 5501 5502 5503 5504 5505 5506 5507 5508 5509 5510 5511 5512 5513 5514 5515 5516 5517 5518 5519 5520 5521 5522 5523 5524 5525 5526 5527 5528 5529 5530 5531 5532 5533 5534 5535 5536 5537 5538 5539 5540 5541 5542 5543 5544 5545 5546 5547 5548 5549 5550 5551 5552 5553 5554 5555 5556 5557 5558 5559 5560 5561 5562 5563 5564 5565 5566 5567 5568 5569 5570 5571 5572 5573 5574 5575 5576 5577 5578 5579 5580 5581 5582 5583 5584 5585 5586 5587 5588 5589 5590 5591 5592 5593 5594 5595 5596 5597 5598 5599 5600 5601 5602 5603 5604 5605 5606 5607 5608 5609 5610 5611 5612 5613 5614 5615 5616 5617 5618 5619 5620 5621 5622 5623 5624 5625 5626 5627 5628 5629 5630 5631 5632 5633 5634 5635 5636 5637 5638 5639 5640 5641 5642 5643 5644 5645 5646 5647 5648 5649 5650 5651 5652 5653 5654 5655 5656 5657 5658 5659 5660 5661 5662 5663 5664 5665 5666 5667 5668 5669 5670 5671 5672 5673 5674 5675 5676 5677 5678 5679 5680 5681 5682 5683 5684 5685 5686 5687 5688 5689 5690 5691 5692 5693 5694 5695 5696 5697 5698 5699 5700 5701 5702 5703 5704 5705 5706 5707 5708 5709 5710 5711 5712 5713 5714 5715 5716 5717 5718 5719 5720 5721 5722 5723 5724 5725 5726 5727 5728 5729 5730 5731 5732 5733 5734 5735 5736 5737 5738 5739 5740 5741 5742 5743 5744 5745 5746 5747 5748 5749 5750 5751 5752 5753 5754 5755 5756 5757 5758 5759 5760 5761 5762 5763 5764 5765 5766 5767 5768 5769 5770 5771 5772 5773 5774 5775 5776 5777 5778 5779 5780 5781 5782 5783 5784 5785 5786 5787 5788 5789 5790 5791 5792 5793 5794 5795 5796 5797 5798 5799 5800 5801 5802 5803 5804 5805 5806 5807 5808 5809 5810 5811 5812 5813 5814 5815 5816 5817 5818 5819 5820 5821 5822 5823 5824 5825 5826 5827 5828 5829 5830 5831 5832 5833 5834 5835 5836 5837 5838 5839 5840 5841 5842 5843 5844 5845 5846 5847 5848 5849 5850 5851 5852 5853 5854 5855 5856 5857 5858 5859 5860 5861 5862 5863 5864 5865 5866 5867 5868 5869 5870 5871 5872 5873 5874 5875 5876 5877 5878 5879 5880 5881 5882 5883 5884 5885 5886 5887 5888 5889 5890 5891 5892 5893 5894 5895 5896 5897 5898 5899 5900 5901 5902 5903 5904 5905 5906 5907 5908 5909 5910 5911 5912 5913 5914 5915 5916 5917 5918 5919 5920 5921 5922 5923 5924 5925 5926 5927 5928 5929 5930 5931 5932 5933 5934 5935 5936 5937 5938 5939 5940 5941 5942 5943 5944 5945 5946 5947 5948 5949 5950 5951 5952 5953 5954 5955 5956 5957 5958 5959 5960 5961 5962 5963 5964 5965 5966 5967 5968 5969 5970 5971 5972 5973 5974 5975 5976 5977 5978 5979 5980 5981 5982 5983 5984 5985 5986 5987 5988 5989 5990 5991 5992 5993 5994 5995 5996 5997 5998 5999 6000 6001 6002 6003 6004 6005 6006 6007 6008 6009 6010 6011 6012 6013 6014 6015 6016 6017 6018 6019 6020 6021 6022 6023 6024 6025 6026 6027 6028 6029 6030 6031 6032 6033 6034 6035 6036 6037 6038 6039 6040 6041 6042 6043 6044 6045 6046 6047 6048 6049 6050 6051 6052 6053 6054 6055 6056 6057 6058 6059 6060 6061 6062 6063 6064 6065 6066 6067 6068 6069 6070 6071 6072 6073 6074 6075 6076 6077 6078 6079 6080 6081 6082 6083 6084 6085 6086 6087 6088 6089 6090 6091 6092 6093 6094 6095 6096 6097 6098 6099 6100 6101 6102 6103 6104 6105 6106 6107 6108 6109 6110 6111 6112 6113 6114 6115 6116 6117 6118 6119 6120 6121 6122 6123 6124 6125 6126 6127 6128 6129 6130 6131 6132 6133 6134 6135 6136 6137 6138 6139 6140 6141 6142 6143 6144 6145 6146 6147 6148 6149 6150 6151 6152 6153 6154 6155 6156 6157 6158 6159 6160 6161 6162 6163 6164 6165 6166 6167 6168 6169 6170 6171 6172 6173 6174 6175 6176 6177 6178 6179 6180 6181 6182 6183 6184 6185 6186 6187 6188 6189 6190 6191 6192 6193 6194 6195 6196 6197 6198 6199 6200 6201 6202 6203 6204 6205 6206 6207 6208 6209 6210 6211 6212 6213 6214 6215 6216 6217 6218 6219 6220 6221 6222 6223 6224 6225 6226 6227 6228 6229 6230 6231 6232 6233 6234 6235 6236 6237 6238 6239 6240 6241 6242 6243 6244 6245 6246 6247 6248 6249 6250 6251 6252 6253 6254 6255 6256 6257 6258 6259 6260 6261 6262 6263 6264 6265 6266 6267 6268 6269 6270 6271 6272 6273 6274 6275 6276 6277 6278 6279 6280 6281 6282 6283 6284 6285 6286 6287 6288 6289 6290 6291 6292 6293 6294 6295 6296 6297 6298 6299 6300 6301 6302 6303 6304 6305 6306 6307 6308 6309 6310 6311 6312 6313 6314 6315 6316 6317 6318 6319 6320 6321 6322 6323 6324 6325 6326 6327 6328 6329 6330 6331 6332 6333 6334 6335 6336 6337 6338 6339 6340 6341 6342 6343 6344 6345 6346 6347 6348 6349 6350 6351 6352 6353 6354 6355 6356 6357 6358 6359 6360 6361 6362 6363 6364 6365 6366 6367 6368 6369 6370 6371 6372 6373 6374 6375 6376 6377 6378 6379 6380 6381 6382 6383 6384 6385 6386 6387 6388 6389 6390 6391 6392 6393 6394 6395 6396 6397 6398 6399 6400 6401 6402 6403 6404 6405 6406 6407 6408 6409 6410 6411 6412 6413 6414 6415 6416 6417 6418 6419 6420 6421 6422 6423 6424 6425 6426 6427 6428 6429 6430 6431 6432 6433 6434 6435 6436 6437 6438 6439 6440 6441 6442 6443 6444 6445 6446 6447 6448 6449 6450 6451 6452 6453 6454 6455 6456 6457 6458 6459 6460 6461 6462 6463 6464 6465 6466 6467 6468 6469 6470 6471 6472 6473 6474 6475 6476 6477 6478 6479 6480 6481 6482 6483 6484 6485 6486 6487 6488 6489 6490 6491 6492 6493 6494 6495 6496 6497 6498 6499 6500 6501 6502 6503 6504 6505 6506 6507 6508 6509 6510 6511 6512 6513 6514 6515 6516 6517 6518 6519 6520 6521 6522 6523 6524 6525 6526 6527 6528 6529 6530 6531 6532 6533 6534 6535 6536 6537 6538 6539 6540 6541 6542 6543 6544 6545 6546 6547 6548 6549 6550 6551 6552 6553 6554 6555 6556 6557 6558 6559 6560 6561 6562 6563 6564 6565 6566 6567 6568 6569 6570 6571 6572 6573 6574 6575 6576 6577 6578 6579 6580 6581 6582 6583 6584 6585 6586 6587 6588 6589 6590 6591 6592 6593 6594 6595 6596 6597 6598 6599 6600 6601 6602 6603 6604 6605 6606 6607 6608 6609 6610 6611 6612 6613 6614 6615 6616 6617 6618 6619 6620 6621 6622 6623 6624 6625 6626 6627 6628 6629 6630 6631 6632 6633 6634 6635 6636 6637 6638 6639 6640 6641 6642 6643 6644 6645 6646 6647 6648 6649 6650 6651 6652 6653 6654 6655 6656 6657 6658 6659 6660 6661 6662 6663 6664 6665 6666 6667 6668 6669 6670 6671 6672 6673 6674 6675 6676 6677 6678 6679 6680 6681 6682 6683 6684 6685 6686 6687 6688 6689 6690 6691 6692 6693 6694 6695 6696 6697 6698 6699 6700 6701 6702 6703 6704 6705 6706 6707 6708 6709 6710 6711 6712 6713 6714 6715 6716 6717 6718 6719 6720 6721 6722 6723 6724 6725 6726 6727 6728 6729 6730 6731 6732 6733 6734 6735 6736 6737 6738 6739 6740 6741 6742 6743 6744 6745 6746 6747 6748 6749 6750 6751 6752 6753 6754 6755 6756 6757 6758 6759 6760 6761 6762 6763 6764 6765 6766 6767 6768 6769 6770 6771 6772 6773 6774 6775 6776 6777 6778 6779 6780 6781 6782 6783 6784 6785 6786 6787 6788 6789 6790 6791 6792 6793 6794 6795 6796 6797 6798 6799 6800 6801 6802 6803 6804 6805 6806 6807 6808 6809 6810 6811 6812 6813 6814 6815 6816 6817 6818 6819 6820 6821 6822 6823 6824 6825 6826 6827 6828 6829 6830 6831 6832 6833 6834 6835 6836 6837 6838 6839 6840 6841 6842 6843 6844 6845 6846 6847 6848 6849 6850 6851 6852 6853 6854 6855 6856 6857 6858 6859 6860 6861 6862 6863 6864 6865 6866 6867 6868 6869 6870 6871 6872 6873 6874 6875 6876 6877 6878 6879 6880 6881 6882 6883 6884 6885 6886 6887 6888 6889 6890 6891 6892 6893 6894 6895 6896 6897 6898 6899 6900 6901 6902 6903 6904 6905 6906 6907 6908 6909 6910 6911 6912 6913 6914 6915 6916 6917 6918 6919 6920 6921 6922 6923 6924 6925 6926 6927 6928 6929 6930 6931 6932 6933 6934 6935 6936 6937 6938 6939 6940 6941 6942 6943 6944 6945 6946 6947 6948 6949 6950 6951 6952 6953 6954 6955 6956 6957 6958 6959 6960 6961 6962 6963 6964 6965 6966 6967 6968 6969 6970 6971 6972 6973 6974 6975 6976 6977 6978 6979 6980 6981 6982 6983 6984 6985 6986 6987 6988 6989 6990 6991 6992 6993 6994 6995 6996 6997 6998 6999 7000 7001 7002 7003 7004 7005 7006 7007 7008 7009 7010 7011 7012 7013 7014 7015 7016 7017 7018 7019 7020 7021 7022 7023 7024 7025 7026 7027 7028 7029 7030 7031 7032 7033 7034 7035 7036 7037 7038 7039 7040 7041 7042 7043 7044 7045 7046 7047 7048 7049 7050 7051 7052 7053 7054 7055 7056 7057 7058 7059 7060 7061 7062 7063 7064 7065 7066 7067 7068 7069 7070 7071 7072 7073 7074 7075 7076 7077 7078 7079 7080 7081 7082 7083 7084 7085 7086 7087 7088 7089 7090 7091 7092 7093 7094 7095 7096 7097 7098 7099 7100 7101 7102 7103 7104 7105 7106 7107 7108 7109 7110 7111 7112 7113 7114 7115 7116 7117 7118 7119 7120 7121 7122 7123 7124 7125 7126 7127 7128 7129 7130 7131 7132 7133 7134 7135 7136 7137 7138 7139 7140 7141 7142 7143 7144 7145 7146 7147 7148 7149 7150 7151 7152 7153 7154 7155 7156 7157 7158 7159 7160 7161 7162 7163 7164 7165 7166 7167 7168 7169 7170 7171 7172 7173 7174 7175 7176 7177 7178 7179 7180 7181 7182 7183 7184 7185 7186 7187 7188 7189 7190 7191 7192 7193 7194 7195 7196 7197 7198 7199 7200 7201 7202 7203 7204 7205 7206 7207 7208 7209 7210 7211 7212 7213 7214 7215 7216 7217 7218 7219 7220 7221 7222 7223 7224 7225 7226 7227 7228 7229 7230 7231 7232 7233 7234 7235 7236 7237 7238 7239 7240 7241 7242 7243 7244 7245 7246 7247 7248 7249 7250 7251 7252 7253 7254 7255 7256 7257 7258 7259 7260 7261 7262 7263 7264 7265 7266 7267 7268 7269 7270 7271 7272 7273 7274 7275 7276 7277 7278 7279 7280 7281 7282 7283 7284 7285 7286 7287 7288 7289 7290 7291 7292 7293 7294 7295 7296 7297 7298 7299 7300 7301 7302 7303 7304 7305 7306 7307 7308 7309 7310 7311 7312 7313 7314 7315 7316 7317 7318 7319 7320 7321 7322 7323 7324 7325 7326 7327 7328 7329 7330 7331 7332 7333 7334 7335 7336 7337 7338 7339 7340 7341 7342 7343 7344 7345 7346 7347 7348 7349 7350 7351 7352 7353 7354 7355 7356 7357 7358 7359 7360 7361 7362 7363 7364 7365 7366 7367 7368 7369 7370 7371 7372 7373 7374 7375 7376 7377 7378 7379 7380 7381 7382 7383 7384 7385 7386 7387 7388 7389 7390 7391 7392 7393 7394 7395 7396 7397 7398 7399 7400 7401 7402 7403 7404 7405 7406 7407 7408 7409 7410 7411 7412 7413 7414 7415 7416 7417 7418 7419 7420 7421 7422 7423 7424 7425 7426 7427 7428 7429 7430 7431 7432 7433 7434 7435 7436 7437 7438 7439 7440 7441 7442 7443 7444 7445 7446 7447 7448 7449 7450 7451 7452 7453 7454 7455 7456 7457 7458 7459 7460 7461 7462 7463 7464 7465 7466 7467 7468 7469 7470 7471 7472 7473 7474 7475 7476 7477 7478 7479 7480 7481 7482 7483 7484 7485 7486 7487 7488 7489 7490 7491 7492 7493 7494 7495 7496 7497 7498 7499 7500 7501 7502 7503 7504 7505 7506 7507 7508 7509 7510 7511 7512 7513 7514 7515 7516 7517 7518 7519 7520 7521 7522 7523 7524 7525 7526 7527 7528 7529 7530 7531 7532 7533 7534 7535 7536 7537 7538 7539 7540 7541 7542 7543 7544 7545 7546 7547 7548 7549 7550 7551 7552 7553 7554 7555 7556 7557 7558 7559 7560 7561 7562 7563 7564 7565 7566 7567 7568 7569 7570 7571 7572 7573 7574 7575 7576 7577 7578 7579 7580 7581 7582 7583 7584 7585 7586 7587 7588 7589 7590 7591 7592 7593 7594 7595 7596 7597 7598 7599 7600 7601 7602 7603 7604 7605 7606 7607 7608 7609 7610 7611 7612 7613 7614 7615 7616 7617 7618 7619 7620 7621 7622 7623 7624 7625 7626 7627 7628 7629 7630 7631 7632 7633 7634 7635 7636 7637 7638 7639 7640 7641 7642 7643 7644 7645 7646 7647 7648 7649 7650 7651 7652 7653 7654 7655 7656 7657 7658 7659 7660 7661 7662 7663 7664 7665 7666 7667 7668 7669 7670 7671 7672 7673 7674 7675 7676 7677 7678 7679 7680 7681 7682 7683 7684 7685 7686 7687 7688 7689 7690 7691 7692 7693 7694 7695 7696 7697 7698 7699 7700 7701 7702 7703 7704 7705 7706 7707 7708 7709 7710 7711 7712 7713 7714 7715 7716 7717 7718 7719 7720 7721 7722 7723 7724 7725 7726 7727 7728 7729 7730 7731 7732 7733 7734 7735 7736 7737 7738 7739 7740 7741 7742 7743 7744 7745 7746 7747 7748 7749 7750 7751 7752 7753 7754 7755 7756 7757 7758 7759 7760 7761 7762 7763 7764 7765 7766 7767 7768 7769 7770 7771 7772 7773 7774 7775 7776 7777 7778 7779 7780 7781 7782 7783 7784 7785 7786 7787 7788 7789 7790 7791 7792 7793 7794 7795 7796 7797 7798 7799 7800 7801 7802 7803 7804 7805 7806 7807 7808 7809 7810 7811 7812 7813 7814 7815 7816 7817 7818 7819 7820 7821 7822 7823 7824 7825 7826 7827 7828 7829 7830 7831 7832 7833 7834 7835 7836 7837 7838 7839 7840 7841 7842 7843 7844 7845 7846 7847 7848 7849 7850 7851 7852 7853 7854 7855 7856 7857 7858 7859 7860 7861 7862 7863 7864 7865 7866 7867 7868 7869 7870 7871 7872 7873 7874 7875 7876 7877 7878 7879 7880 7881 7882 7883 7884 7885 7886 7887 7888 7889 7890 7891 7892 7893 7894 7895 7896 7897 7898 7899 7900 7901 7902 7903 7904 7905 7906 7907 7908 7909 7910 7911 7912 7913 7914 7915 7916 7917 7918 7919 7920 7921 7922 7923 7924 7925 7926 7927 7928 7929 7930 7931 7932 7933 7934 7935 7936 7937 7938 7939 7940 7941 7942 7943 7944 7945 7946 7947 7948 7949 7950 7951 7952 7953 7954 7955 7956 7957 7958 7959 7960 7961 7962 7963 7964 7965 7966 7967 7968 7969 7970 7971 7972 7973 7974 7975 7976 7977 7978 7979 7980 7981 7982 7983 7984 7985 7986 7987 7988 7989 7990 7991 7992 7993 7994 7995 7996 7997 7998 7999 8000 8001 8002 8003 8004 8005 8006 8007 8008 8009 8010 8011 8012 8013 8014 8015 8016 8017 8018 8019 8020 8021 8022 8023 8024 8025 8026 8027 8028 8029 8030 8031 8032 8033 8034 8035 8036 8037 8038 8039 8040 8041 8042 8043 8044 8045 8046 8047 8048 8049 8050 8051 8052 8053 8054 8055 8056 8057 8058 8059 8060 8061 8062 8063 8064 8065 8066 8067 8068 8069 8070 8071 8072 8073 8074 8075 8076 8077 8078 8079 8080 8081 8082 8083 8084 8085 8086 8087 8088 8089 8090 8091 8092 8093 8094 8095 8096 8097 8098 8099 8100 8101 8102 8103 8104 8105 8106 8107 8108 8109 8110 8111 8112 8113 8114 8115 8116 8117 8118 8119 8120 8121 8122 8123 8124 8125 8126 8127 8128 8129 8130 8131 8132 8133 8134 8135 8136 8137 8138 8139 8140 8141 8142 8143 8144 8145 8146 8147 8148 8149 8150 8151 8152 8153 8154 8155 8156 8157 8158 8159 8160 8161 8162 8163 8164 8165 8166 8167 8168 8169 8170 8171 8172 8173 8174 8175 8176 8177 8178 8179 8180 8181 8182 8183 8184 8185 8186 8187 8188 8189 8190 8191 8192 8193 8194 8195 8196 8197 8198 8199 8200 8201 8202 8203 8204 8205 8206 8207 8208 8209 8210 8211 8212 8213 8214 8215 8216 8217 8218 8219 8220 8221 8222 8223 8224 8225 8226 8227 8228 8229 8230 8231 8232 8233 8234 8235 8236 8237 8238 8239 8240 8241 8242 8243 8244 8245 8246 8247 8248 8249 8250 8251 8252 8253 8254 8255 8256 8257 8258 8259 8260 8261 8262 8263 8264 8265 8266 8267 8268 8269 8270 8271 8272 8273 8274 8275 8276 8277 8278 8279 8280 8281 8282 8283 8284 8285 8286 8287 8288 8289 8290 8291 8292 8293 8294 8295 8296 8297 8298 8299 8300 8301 8302 8303 8304 8305 8306 8307 8308 8309 8310 8311 8312 8313 8314 8315 8316 8317 8318 8319 8320 8321 8322 8323 8324 8325 8326 8327 8328 8329 8330 8331 8332 8333 8334 8335 8336 8337 8338 8339 8340 8341 8342 8343 8344 8345 8346 8347 8348 8349 8350 8351 8352 8353 8354 8355 8356 8357 8358 8359 8360 8361 8362 8363 8364 8365 8366 8367 8368 8369 8370 8371 8372 8373 8374 8375 8376 8377 8378 8379 8380 8381 8382 8383 8384 8385 8386 8387 8388 8389 8390 8391 8392 8393 8394 8395 8396 8397 8398 8399 8400 8401 8402 8403 8404 8405 8406 8407 8408 8409 8410 8411 8412 8413 8414 8415 8416 8417 8418 8419 8420 8421 8422 8423 8424 8425 8426 8427 8428 8429 8430 8431 8432 8433 8434 8435 8436 8437 8438 8439 8440 8441 8442 8443 8444 8445 8446 8447 8448 8449 8450 8451 8452 8453 8454 8455 8456 8457 8458 8459 8460 8461 8462 8463 8464 8465 8466 8467 8468 8469 8470 8471 8472 8473 8474 8475 8476 8477 8478 8479 8480 8481 8482 8483 8484 8485 8486 8487 8488 8489 8490 8491 8492 8493 8494 8495 8496 8497 8498 8499 8500 8501 8502 8503 8504 8505 8506 8507 8508 8509 8510 8511 8512 8513 8514 8515 8516 8517 8518 8519 8520 8521 8522 8523 8524 8525 8526 8527 8528 8529 8530 8531 8532 8533 8534 8535 8536 8537 8538 8539 8540 8541 8542 8543 8544 8545 8546 8547 8548 8549 8550 8551 8552 8553 8554 8555 8556 8557 8558 8559 8560 8561 8562 8563 8564 8565 8566 8567 8568 8569 8570 8571 8572 8573 8574 8575 8576 8577 8578 8579 8580 8581 8582 8583 8584 8585 8586 8587 8588 8589 8590 8591 8592 8593 8594 8595 8596 8597 8598 8599 8600 8601 8602 8603 8604 8605 8606 8607 8608 8609 8610 8611 8612 8613 8614 8615 8616 8617 8618 8619 8620 8621 8622 8623 8624 8625 8626 8627 8628 8629 8630 8631 8632 8633 8634 8635 8636 8637 8638 8639 8640 8641 8642 8643 8644 8645 8646 8647 8648 8649 8650 8651 8652 8653 8654 8655 8656 8657 8658 8659 8660 8661 8662 8663 8664 8665 8666 8667 8668 8669 8670 8671 8672 8673 8674 8675 8676 8677 8678 8679 8680 8681 8682 8683 8684 8685 8686 8687 8688 8689 8690 8691 8692 8693 8694 8695 8696 8697 8698 8699 8700 8701 8702 8703 8704 8705 8706 8707 8708 8709 8710 8711 8712 8713 8714 8715 8716 8717 8718 8719 8720 8721 8722 8723 8724 8725 8726 8727 8728 8729 8730 8731 8732 8733 8734 8735 8736 8737 8738 8739 8740 8741 8742 8743 8744 8745 8746 8747 8748 8749 8750 8751 8752 8753 8754 8755 8756 8757 8758 8759 8760 8761 8762 8763 8764 8765 8766 8767 8768 8769 8770 8771 8772 8773 8774 8775 8776 8777 8778 8779 8780 8781 8782 8783 8784 8785 8786 8787 8788 8789 8790 8791 8792 8793 8794 8795 8796 8797 8798 8799 8800 8801 8802 8803 8804 8805 8806 8807 8808 8809 8810 8811 8812 8813 8814 8815 8816 8817 8818 8819 8820 8821 8822 8823 8824 8825 8826 8827 8828 8829 8830 8831 8832 8833 8834 8835 8836 8837 8838 8839 8840 8841 8842 8843 8844 8845 8846 8847 8848 8849 8850 8851 8852 8853 8854 8855 8856 8857 8858 8859 8860 8861 8862 8863 8864 8865 8866 8867 8868 8869 8870 8871 8872 8873 8874 8875 8876 8877 8878 8879 8880 8881 8882 8883 8884 8885 8886 8887 8888 8889 8890 8891 8892 8893 8894 8895 8896 8897 8898 8899 8900 8901 8902 8903 8904 8905 8906 8907 8908 8909 8910 8911 8912 8913 8914 8915 8916 8917 8918 8919 8920 8921 8922 8923 8924 8925 8926 8927 8928 8929 8930 8931 8932 8933 8934 8935 8936 8937 8938 8939 8940 8941 8942 8943 8944 8945 8946 8947 8948 8949 8950 8951 8952 8953 8954 8955 8956 8957 8958 8959 8960 8961 8962 8963 8964 8965 8966 8967 8968 8969 8970 8971 8972 8973 8974 8975 8976 8977 8978 8979 8980 8981 8982 8983 8984 8985 8986 8987 8988 8989 8990 8991 8992 8993 8994 8995 8996 8997 8998 8999 9000 9001 9002 9003 9004 9005 9006 9007 9008 9009 9010 9011 9012 9013 9014 9015 9016 9017 9018 9019 9020 9021 9022 9023 9024 9025 9026 9027 9028 9029 9030 9031 9032 9033 9034 9035 9036 9037 9038 9039 9040 9041 9042 9043 9044 9045 9046 9047 9048 9049 9050 9051 9052 9053 9054 9055 9056 9057 9058 9059 9060 9061 9062 9063 9064 9065 9066 9067 9068 9069 9070 9071 9072 9073 9074 9075 9076 9077 9078 9079 9080 9081 9082 9083 9084 9085 9086 9087 9088 9089 9090 9091 9092 9093 9094 9095 9096 9097 9098 9099 9100 9101 9102 9103 9104 9105 9106 9107 9108 9109 9110 9111 9112 9113 9114 9115 9116 9117 9118 9119 9120 9121 9122 9123 9124 9125 9126 9127 9128 9129 9130 9131 9132 9133 9134 9135 9136 9137 9138 9139 9140 9141 9142 9143 9144 9145 9146 9147 9148 9149 9150 9151 9152 9153 9154 9155 9156 9157 9158 9159 9160 9161 9162 9163 9164 9165 9166 9167 9168 9169 9170 9171 9172 9173 9174 9175 9176 9177 9178 9179 9180 9181 9182 9183 9184 9185 9186 9187 9188 9189 9190 9191 9192 9193 9194 9195 9196 9197 9198 9199 9200 9201 9202 9203 9204 9205 9206 9207 9208 9209 9210 9211 9212 9213 9214 9215 9216 9217 9218 9219 9220 9221 9222 9223 9224 9225 9226 9227 9228 9229 9230 9231 9232 9233 9234 9235 9236 9237 9238 9239 9240 9241 9242 9243 9244 9245 9246 9247 9248 9249 9250 9251 9252 9253 9254 9255 9256 9257 9258 9259 9260 9261 9262 9263 9264 9265 9266 9267 9268 9269 9270 9271 9272 9273 9274 9275 9276 9277 9278 9279 9280 9281 9282 9283 9284 9285 9286 9287 9288 9289 9290 9291 9292 9293 9294 9295 9296 9297 9298 9299 9300 9301 9302 9303 9304 9305 9306 9307 9308 9309 9310 9311 9312 9313 9314 9315 9316 9317 9318 9319 9320 9321 9322 9323 9324 9325 9326 9327 9328 9329 9330 9331 9332 9333 9334 9335 9336 9337 9338 9339 9340 9341 9342 9343 9344 9345 9346 9347 9348 9349 9350 9351 9352 9353 9354 9355 9356 9357 9358 9359 9360 9361 9362 9363 9364 9365 9366 9367 9368 9369 9370 9371 9372 9373 9374 9375 9376 9377 9378 9379 9380 9381 9382 9383 9384 9385 9386 9387 9388 9389 9390 9391 9392 9393 9394 9395 9396 9397 9398 9399 9400 9401 9402 9403 9404 9405 9406 9407 9408 9409 9410 9411 9412 9413 9414 9415 9416 9417 9418 9419 9420 9421 9422 9423 9424 9425 9426 9427 9428 9429 9430 9431 9432 9433 9434 9435 9436 9437 9438 9439 9440 9441 9442 9443 9444 9445 9446 9447 9448 9449 9450 9451 9452 9453 9454 9455 9456 9457 9458 9459 9460 9461 9462 9463 9464 9465 9466 9467 9468 9469 9470 9471 9472 9473 9474 9475 9476 9477 9478 9479 9480 9481 9482 9483 9484 9485 9486 9487 9488 9489 9490 9491 9492 9493 9494 9495 9496 9497 9498 9499 9500 9501 9502 9503 9504 9505 9506 9507 9508 9509 9510 9511 9512 9513 9514 9515 9516 9517 9518 9519 9520 9521 9522 9523 9524 9525 9526 9527 9528 9529 9530 9531 9532 9533 9534 9535 9536 9537 9538 9539 9540 9541 9542 9543 9544 9545 9546 9547 9548 9549 9550 9551 9552 9553 9554 9555 9556 9557 9558 9559 9560 9561 9562 9563 9564 9565 9566 9567 9568 9569 9570 9571 9572 9573 9574 9575 9576 9577 9578 9579 9580 9581 9582 9583 9584 9585 9586 9587 9588 9589 9590 9591 9592 9593 9594 9595 9596 9597 9598 9599 9600 9601 9602 9603 9604 9605 9606 9607 9608 9609 9610 9611 9612 9613 9614 9615 9616 9617 9618 9619 9620 9621 9622 9623 9624 9625 9626 9627 9628 9629 9630 9631 9632 9633 9634 9635 9636 9637 9638 9639 9640 9641 9642 9643 9644 9645 9646 9647 9648 9649 9650 9651 9652 9653 9654 9655 9656 9657 9658 9659 9660 9661 9662 9663 9664 9665 9666 9667 9668 9669 9670 9671 9672 9673 9674 9675 9676 9677 9678 9679 9680 9681 9682 9683 9684 9685 9686 9687 9688 9689 9690 9691 9692 9693 9694 9695 9696 9697 9698 9699 9700 9701 9702 9703 9704 9705 9706 9707 9708 9709 9710 9711 9712 9713 9714 9715 9716 9717 9718 9719 9720 9721 9722 9723 9724 9725 9726 9727 9728 9729 9730 9731 9732 9733 9734 9735 9736 9737 9738 9739 9740 9741 9742 9743 9744 9745 9746 9747 9748 9749 9750 9751 9752 9753 9754 9755 9756 9757 9758 9759 9760 9761 9762 9763 9764 9765 9766 9767 9768 9769 9770 9771 9772 9773 9774 9775 9776 9777 9778 9779 9780 9781 9782 9783 9784 9785 9786 9787 9788 9789 9790 9791 9792 9793 9794 9795 9796 9797 9798 9799 9800 9801 9802 9803 9804 9805 9806 9807 9808 9809 9810 9811 9812 9813 9814 9815 9816 9817 9818 9819 9820 9821 9822 9823 9824 9825 9826 9827 9828 9829 9830 9831 9832 9833 9834 9835 9836 9837 9838 9839 9840 9841 9842 9843 9844 9845 9846 9847 9848 9849 9850 9851 9852 9853 9854 9855 9856 9857 9858 9859 9860 9861 9862 9863 9864 9865 9866 9867 9868 9869 9870 9871 9872 9873 9874 9875 9876 9877 9878 9879 9880 9881 9882 9883 9884 9885 9886 9887 9888 9889 9890 9891 9892 9893 9894 9895 9896 9897 9898 9899 9900 9901 9902 9903 9904 9905 9906 9907 9908 9909 9910 9911 9912 9913 9914 9915 9916 9917 9918 9919 9920 9921 9922 9923 9924 9925 9926 9927 9928 9929 9930 9931 9932 9933 9934 9935 9936 9937 9938 9939 9940 9941 9942 9943 9944 9945 9946 9947 9948 9949 9950 9951 9952 9953 9954 9955 9956 9957 9958 9959 9960 9961 9962 9963 9964 9965 9966 9967 9968 9969 9970 9971 9972 9973 9974 9975 9976 9977 9978 9979 9980 9981 9982 9983 9984 9985 9986 9987 9988 9989 9990 9991 9992 9993 9994 9995 9996 9997 9998 9999 10000 10001 10002 10003 10004 10005 10006 10007 10008 10009 10010 10011 10012 10013 10014 10015 10016 10017 10018 10019 10020 10021 10022 10023 10024 10025 10026 10027 10028 10029 10030 10031 10032 10033 10034 10035 10036 10037 10038 10039 10040 10041 10042 10043 10044 10045 10046 10047 10048 10049 10050 10051 10052 10053 10054 10055 10056 10057 10058 10059 10060 10061 10062 10063 10064 10065 10066 10067 10068 10069 10070 10071 10072 10073 10074 10075 10076 10077 10078 10079 10080 10081 10082 10083 10084 10085 10086 10087 10088 10089 10090 10091 10092 10093 10094 10095 10096 10097 10098 10099 10100 10101 10102 10103 10104 10105 10106 10107 10108 10109 10110 10111 10112 10113 10114 10115 10116 10117 10118 10119 10120 10121 10122 10123 10124 10125 10126 10127 10128 10129 10130 10131 10132 10133 10134 10135 10136 10137 10138 10139 10140 10141 10142 10143 10144 10145 10146 10147 10148 10149 10150 10151 10152 10153 10154 10155 10156 10157 10158 10159 10160 10161 10162 10163 10164 10165 10166 10167 10168 10169 10170 10171 10172 10173 10174 10175 10176 10177 10178 10179 10180 10181 10182 10183 10184 10185 10186 10187 10188 10189 10190 10191 10192 10193 10194 10195 10196 10197 10198 10199 10200 10201 10202 10203 10204 10205 10206 10207 10208 10209 10210 10211 10212 10213 10214 10215 10216 10217 10218 10219 10220 10221 10222 10223 10224 10225 10226 10227 10228 10229 10230 10231 10232 10233 10234 10235 10236 10237 10238 10239 10240 10241 10242 10243 10244 10245 10246 10247 10248 10249 10250 10251 10252 10253 10254 10255 10256 10257 10258 10259 10260 10261 10262 10263 10264 10265 10266 10267 10268 10269 10270 10271 10272 10273 10274 10275 10276 10277 10278 10279 10280 10281 10282 10283 10284 10285 10286 10287 10288 10289 10290 10291 10292 10293 10294 10295 10296 10297 10298 10299 10300 10301 10302 10303 10304 10305 10306 10307 10308 10309 10310 10311 10312 10313 10314 10315 10316 10317 10318 10319 10320 10321 10322 10323 10324 10325 10326 10327 10328 10329 10330 10331 10332 10333 10334 10335 10336 10337 10338 10339 10340 10341 10342 10343 10344 10345 10346 10347 10348 10349 10350 10351 10352 10353 10354 10355 10356 10357 10358 10359 10360 10361 10362 10363 10364 10365 10366 10367 10368 10369 10370 10371 10372 10373 10374 10375 10376 10377 10378 10379 10380 10381 10382 10383 10384 10385 10386 10387 10388 10389 10390 10391 10392 10393 10394 10395 10396 10397 10398 10399 10400 10401 10402 10403 10404 10405 10406 10407 10408 10409 10410 10411 10412 10413 10414 10415 10416 10417 10418 10419 10420 10421 10422 10423 10424 10425 10426 10427 10428 10429 10430 10431 10432 10433 10434 10435 10436 10437 10438 10439 10440 10441 10442 10443 10444 10445 10446 10447 10448 10449 10450 10451 10452 10453 10454 10455 10456 10457 10458 10459 10460 10461 10462 10463 10464 10465 10466 10467 10468 10469 10470 10471 10472 10473 10474 10475 10476 10477 10478 10479 10480 10481 10482 10483 10484 10485 10486 10487 10488 10489 10490 10491 10492 10493 10494 10495 10496 10497 10498 10499 10500 10501 10502 10503 10504 10505 10506 10507 10508 10509 10510 10511 10512 10513 10514 10515 10516 10517 10518 10519 10520 10521 10522 10523 10524 10525 10526 10527 10528 10529 10530 10531 10532 10533 10534 10535 10536 10537 10538 10539 10540 10541 10542 10543 10544 10545 10546 10547 10548 10549 10550 10551 10552 10553 10554 10555 10556 10557 10558 10559 10560 10561 10562 10563 10564 10565 10566 10567 10568 10569 10570 10571 10572 10573 10574 10575 10576 10577 10578 10579 10580 10581 10582 10583 10584 10585 10586 10587 10588 10589 10590 10591 10592 10593 10594 10595 10596 10597 10598 10599 10600 10601 10602 10603 10604 10605 10606 10607 10608 10609 10610 10611 10612 10613 10614 10615 10616 10617 10618 10619 10620 10621 10622 10623 10624 10625 10626 10627 10628 10629 10630 10631 10632 10633 10634 10635 10636 10637 10638 10639 10640 10641 10642 10643 10644 10645 10646 10647 10648 10649 10650 10651 10652 10653 10654 10655 10656 10657 10658 10659 10660 10661 10662 10663 10664 10665 10666 10667 10668 10669 10670 10671 10672 10673 10674 10675 10676 10677 10678 10679 10680 10681 10682 10683 10684 10685 10686 10687 10688 10689 10690 10691 10692 10693 10694 10695 10696 10697 10698 10699 10700 10701 10702 10703 10704 10705 10706 10707 10708 10709 10710 10711 10712 10713 10714 10715 10716 10717 10718 10719 10720 10721 10722 10723 10724 10725 10726 10727 10728 10729 10730 10731 10732 10733 10734 10735 10736 10737 10738 10739 10740 10741 10742 10743 10744 10745 10746 10747 10748 10749 10750 10751 10752 10753 10754 10755 10756 10757 10758 10759 10760 10761 10762 10763 10764 10765 10766 10767 10768 10769 10770 10771 10772 10773 10774 10775 10776 10777 10778 10779 10780 10781 10782 10783 10784 10785 10786 10787 10788 10789 10790 10791 10792 10793 10794 10795 10796 10797 10798 10799 10800 10801 10802 10803 10804 10805 10806 10807 10808 10809 10810 10811 10812 10813 10814 10815 10816 10817 10818 10819 10820 10821 10822 10823 10824 10825 10826 10827 10828 10829 10830 10831 10832 10833 10834 10835 10836 10837 10838 10839 10840 10841 10842 10843 10844 10845 10846 10847 10848 10849 10850 10851 10852 10853 10854 10855 10856 10857 10858 10859 10860 10861 10862 10863 10864 10865 10866 10867 10868 10869 10870 10871 10872 10873 10874 10875 10876 10877 10878 10879 10880 10881 10882 10883 10884 10885 10886 10887 10888 10889 10890 10891 10892 10893 10894 10895 10896 10897 10898 10899 10900 10901 10902 10903 10904 10905 10906 10907 10908 10909 10910 10911 10912 10913 10914 10915 10916 10917 10918 10919 10920 10921 10922 10923 10924 10925 10926 10927 10928 10929 10930 10931 10932 10933 10934 10935 10936 10937 10938 10939 10940 10941 10942 10943 10944 10945 10946 10947 10948 10949 10950 10951 10952 10953 10954 10955 10956 10957 10958 10959 10960 10961 10962 10963 10964 10965 10966 10967 10968 10969 10970 10971 10972 10973 10974 10975 10976 10977 10978 10979 10980 10981 10982 10983 10984 10985 10986 10987 10988 10989 10990 10991 10992 10993 10994 10995 10996 10997 10998 10999 11000 11001 11002 11003 11004 11005 11006 11007 11008 11009 11010 11011 11012 11013 11014 11015 11016 11017 11018 11019 11020 11021 11022 11023 11024 11025 11026 11027 11028 11029 11030 11031 11032 11033 11034 11035 11036 11037 11038 11039 11040 11041 11042 11043 11044 11045 11046 11047 11048 11049 11050 11051 11052 11053 11054 11055 11056 11057 11058 11059 11060 11061 11062 11063 11064 11065 11066 11067 11068 11069 11070 11071 11072 11073 11074 11075 11076 11077 11078 11079 11080 11081 11082 11083 11084 11085 11086 11087 11088 11089 11090 11091 11092 11093 11094 11095 11096 11097 11098 11099 11100 11101 11102 11103 11104 11105 11106 11107 11108 11109 11110 11111 11112 11113 11114 11115 11116 11117 11118 11119 11120 11121 11122 11123 11124 11125 11126 11127 11128 11129 11130 11131 11132 11133 11134 11135 11136 11137 11138 11139 11140 11141 11142 11143 11144 11145 11146 11147 11148 11149 11150 11151 11152 11153 11154 11155 11156 11157 11158 11159 11160 11161 11162 11163 11164 11165 11166 11167 11168 11169 11170 11171 11172 11173 11174 11175 11176 11177 11178 11179 11180 11181 11182 11183 11184 11185 11186 11187 11188 11189 11190 11191 11192 11193 11194 11195 11196 11197 11198 11199 11200 11201 11202 11203 11204 11205 11206 11207 11208 11209 11210 11211 11212 11213 11214 11215 11216 11217 11218 11219 11220 11221 11222 11223 11224 11225 11226 11227 11228 11229 11230 11231 11232 11233 11234 11235 11236 11237 11238 11239 11240 11241 11242 11243 11244 11245 11246 11247 11248 11249 11250 11251 11252 11253 11254 11255 11256 11257 11258 11259 11260 11261 11262 11263 11264 11265 11266 11267 11268 11269 11270 11271 11272 11273 11274 11275 11276 11277 11278 11279 11280 11281 11282 11283 11284 11285 11286 11287 11288 11289 11290 11291 11292 11293 11294 11295 11296 11297 11298 11299 11300 11301 11302 11303 11304 11305 11306 11307 11308 11309 11310 11311 11312 11313 11314 11315 11316 11317 11318 11319 11320 11321 11322 11323 11324 11325 11326 11327 11328 11329 11330 11331 11332 11333 11334 11335 11336 11337 11338 11339 11340 11341 11342 11343 11344 11345 11346 11347 11348 11349 11350 11351 11352 11353 11354 11355 11356 11357 11358 11359 11360 11361 11362 11363 11364 11365 11366 11367 11368 11369 11370 11371 11372 11373 11374 11375 11376 11377 11378 11379 11380 11381 11382 11383 11384 11385 11386 11387 11388 11389 11390 11391 11392 11393 11394 11395 11396 11397 11398 11399 11400 11401 11402 11403 11404 11405 11406 11407 11408 11409 11410 11411 11412 11413 11414 11415 11416 11417 11418 11419 11420 11421 11422 11423 11424 11425 11426 11427 11428 11429 11430 11431 11432 11433 11434 11435 11436 11437 11438 11439 11440 11441 11442 11443 11444 11445 11446 11447 11448 11449 11450 11451 11452 11453 11454 11455 11456 11457 11458 11459 11460 11461 11462 11463 11464 11465 11466 11467 11468 11469 11470 11471 11472 11473 11474 11475 11476 11477 11478 11479 11480 11481 11482 11483 11484 11485 11486 11487 11488 11489 11490 11491 11492 11493 11494 11495 11496 11497 11498 11499 11500 11501 11502 11503 11504 11505 11506 11507 11508 11509 11510 11511 11512 11513 11514 11515 11516 11517 11518 11519 11520 11521 11522 11523 11524 11525 11526 11527 11528 11529 11530 11531 11532 11533 11534 11535 11536 11537 11538 11539 11540 11541 11542 11543 11544 11545 11546 11547 11548 11549 11550 11551 11552 11553 11554 11555 11556 11557 11558 11559 11560 11561 11562 11563 11564 11565 11566 11567 11568 11569 11570 11571 11572 11573 11574 11575 11576 11577 11578 11579 11580 11581 11582 11583 11584 11585 11586 11587 11588 11589 11590 11591 11592 11593 11594 11595 11596 11597 11598 11599 11600 11601 11602 11603 11604 11605 11606 11607 11608 11609 11610 11611 11612 11613 11614 11615 11616 11617 11618 11619 11620 11621 11622 11623 11624 11625 11626 11627 11628 11629 11630 11631 11632 11633 11634 11635 11636 11637 11638 11639 11640 11641 11642 11643 11644 11645 11646 11647 11648 11649 11650 11651 11652 11653 11654 11655 11656 11657 11658 11659 11660 11661 11662 11663 11664 11665 11666 11667 11668 11669 11670 11671 11672 11673 11674 11675 11676 11677 11678 11679 11680 11681 11682 11683 11684 11685 11686 11687 11688 11689 11690 11691 11692 11693 11694 11695 11696 11697 11698 11699 11700 11701 11702 11703 11704 11705 11706 11707 11708 11709 11710 11711 11712 11713 11714 11715 11716 11717 11718 11719 11720 11721 11722 11723 11724 11725 11726 11727 11728 11729 11730 11731 11732 11733 11734 11735 11736 11737 11738 11739 11740 11741 11742 11743 11744 11745 11746 11747 11748 11749 11750 11751 11752 11753 11754 11755 11756 11757 11758 11759 11760 11761 11762 11763 11764 11765 11766 11767 11768 11769 11770 11771 11772 11773 11774 11775 11776 11777 11778 11779 11780 11781 11782 11783 11784 11785 11786 11787 11788 11789 11790 11791 11792 11793 11794 11795 11796 11797 11798 11799 11800 11801 11802 11803 11804 11805 11806 11807 11808 11809 11810 11811 11812 11813 11814 11815 11816 11817 11818 11819 11820 11821 11822 11823 11824 11825 11826 11827 11828 11829 11830 11831 11832 11833 11834 11835 11836 11837 11838 11839 11840 11841 11842 11843 11844 11845 11846 11847 11848 11849 11850 11851 11852 11853 11854 11855 11856 11857 11858 11859 11860 11861 11862 11863 11864 11865 11866 11867 11868 11869 11870 11871 11872 11873 11874 11875 11876 11877 11878 11879 11880 11881 11882 11883 11884 11885 11886 11887 11888 11889 11890 11891 11892 11893 11894 11895 11896 11897 11898 11899 11900 11901 11902 11903 11904 11905 11906 11907 11908 11909 11910 11911 11912 11913 11914 11915 11916 11917 11918 11919 11920 11921 11922 11923 11924 11925 11926 11927 11928 11929 11930 11931 11932 11933 11934 11935 11936 11937 11938 11939 11940 11941 11942 11943 11944 11945 11946 11947 11948 11949 11950 11951 11952 11953 11954 11955 11956 11957 11958 11959 11960 11961 11962 11963 11964 11965 11966 11967 11968 11969 11970 11971 11972 11973 11974 11975 11976 11977 11978 11979 11980 11981 11982 11983 11984 11985 11986 11987 11988 11989 11990 11991 11992 11993 11994 11995 11996 11997 11998 11999 12000 12001 12002 12003 12004 12005 12006 12007 12008 12009 12010 12011 12012 12013 12014 12015 12016 12017 12018 12019 12020 12021 12022 12023 12024 12025 12026 12027 12028 12029 12030 12031 12032 12033 12034 12035 12036 12037 12038 12039 12040 12041 12042 12043 12044 12045 12046 12047 12048 12049 12050 12051 12052 12053 12054 12055 12056 12057 12058 12059 12060 12061 12062 12063 12064 12065 12066 12067 12068 12069 12070 12071 12072 12073 12074 12075 12076 12077 12078 12079 12080 12081 12082 12083 12084 12085 12086 12087 12088 12089 12090 12091 12092 12093 12094 12095 12096 12097 12098 12099 12100 12101 12102 12103 12104 12105 12106 12107 12108 12109 12110 12111 12112 12113 12114 12115 12116 12117 12118 12119 12120 12121 12122 12123 12124 12125 12126 12127 12128 12129 12130 12131 12132 12133 12134 12135 12136 12137 12138 12139 12140 12141 12142 12143 12144 12145 12146 12147 12148 12149 12150 12151 12152 12153 12154 12155 12156 12157 12158 12159 12160 12161 12162 12163 12164 12165 12166 12167 12168 12169 12170 12171 12172 12173 12174 12175 12176 12177 12178 12179 12180 12181 12182 12183 12184 12185 12186 12187 12188 12189 12190 12191 12192 12193 12194 12195 12196 12197 12198 12199 12200 12201 12202 12203 12204 12205 12206 12207 12208 12209 12210 12211 12212 12213 12214 12215 12216 12217 12218 12219 12220 12221 12222 12223 12224 12225 12226 12227 12228 12229 12230 12231 12232 12233 12234 12235 12236 12237 12238 12239 12240 12241 12242 12243 12244 12245 12246 12247 12248 12249 12250 12251 12252 12253 12254 12255 12256 12257 12258 12259 12260 12261 12262 12263 12264 12265 12266 12267 12268 12269 12270 12271 12272 12273 12274 12275 12276 12277 12278 12279 12280 12281 12282 12283 12284 12285 12286 12287 12288 12289 12290 12291 12292 12293 12294 12295 12296 12297 12298 12299 12300 12301 12302 12303 12304 12305 12306 12307 12308 12309 12310 12311 12312 12313 12314 12315 12316 12317 12318 12319 12320 12321 12322 12323 12324 12325 12326 12327 12328 12329 12330 12331 12332 12333 12334 12335 12336 12337 12338 12339 12340 12341 12342 12343 12344 12345 12346 12347 12348 12349 12350 12351 12352 12353 12354 12355 12356 12357 12358 12359 12360 12361 12362 12363 12364 12365 12366 12367 12368 12369 12370 12371 12372 12373 12374 12375 12376 12377 12378 12379 12380 12381 12382 12383 12384 12385 12386 12387 12388 12389 12390 12391 12392 12393 12394 12395 12396 12397 12398 12399 12400 12401 12402 12403 12404 12405 12406 12407 12408 12409 12410 12411 12412 12413 12414 12415 12416 12417 12418 12419 12420 12421 12422 12423 12424 12425 12426 12427 12428 12429 12430 12431 12432 12433 12434 12435 12436 12437 12438 12439 12440 12441 12442 12443 12444 12445 12446 12447 12448 12449 12450 12451 12452 12453 12454 12455 12456 12457 12458 12459 12460 12461 12462 12463 12464 12465 12466 12467 12468 12469 12470 12471 12472 12473 12474 12475 12476 12477 12478 12479 12480 12481 12482 12483 12484 12485 12486 12487 12488 12489 12490 12491 12492 12493 12494 12495 12496 12497 12498 12499 12500 12501 12502 12503 12504 12505 12506 12507 12508 12509 12510 12511 12512 12513 12514 12515 12516 12517 12518 12519 12520 12521 12522 12523 12524 12525 12526 12527 12528 12529 12530 12531 12532 12533 12534 12535 12536 12537 12538 12539 12540 12541 12542 12543 12544 12545 12546 12547 12548 12549 12550 12551 12552 12553 12554 12555 12556 12557 12558 12559 12560 12561 12562 12563 12564 12565 12566 12567 12568 12569 12570 12571 12572 12573 12574 12575 12576 12577 12578 12579 12580 12581 12582 12583 12584 12585 12586 12587 12588 12589 12590 12591 12592 12593 12594 12595 12596 12597 12598 12599 12600 12601 12602 12603 12604 12605 12606 12607 12608 12609 12610 12611 12612 12613 12614 12615 12616 12617 12618 12619 12620 12621 12622 12623 12624 12625 12626 12627 12628 12629 12630 12631 12632 12633 12634 12635 12636 12637 12638 12639 12640 12641 12642 12643 12644 12645 12646 12647 12648 12649 12650 12651 12652 12653 12654 12655 12656 12657 12658 12659 12660 12661 12662 12663 12664 12665 12666 12667 12668 12669 12670 12671 12672 12673 12674 12675 12676 12677 12678 12679 12680 12681 12682 12683 12684 12685 12686 12687 12688 12689 12690 12691 12692 12693 12694 12695 12696 12697 12698 12699 12700 12701 12702 12703 12704 12705 12706 12707 12708 12709 12710 12711 12712 12713 12714 12715 12716 12717 12718 12719 12720 12721 12722 12723 12724 12725 12726 12727 12728 12729 12730 12731 12732 12733 12734 12735 12736 12737 12738 12739 12740 12741 12742 12743 12744 12745 12746 12747 12748 12749 12750 12751 12752 12753 12754 12755 12756 12757 12758 12759 12760 12761 12762 12763 12764 12765 12766 12767 12768 12769 12770 12771 12772 12773 12774 12775 12776 12777 12778 12779 12780 12781 12782 12783 12784 12785 12786 12787 12788 12789 12790 12791 12792 12793 12794 12795 12796 12797 12798 12799 12800 12801 12802 12803 12804 12805 12806 12807 12808 12809 12810 12811 12812 12813 12814 12815 12816 12817 12818 12819 12820 12821 12822 12823 12824 12825 12826 12827 12828 12829 12830 12831 12832 12833 12834 12835 12836 12837 12838 12839 12840 12841 12842 12843 12844 12845 12846 12847 12848 12849 12850 12851 12852 12853 12854 12855 12856 12857 12858 12859 12860 12861 12862 12863 12864 12865 12866 12867 12868 12869 12870 12871 12872 12873 12874 12875 12876 12877 12878 12879 12880 12881 12882 12883 12884 12885 12886 12887 12888 12889 12890 12891 12892 12893 12894 12895 12896 12897 12898 12899 12900 12901 12902 12903 12904 12905 12906 12907 12908 12909 12910 12911 12912 12913 12914 12915 12916 12917 12918 12919 12920 12921 12922 12923 12924 12925 12926 12927 12928 12929 12930 12931 12932 12933 12934 12935 12936 12937 12938 12939 12940 12941 12942 12943 12944 12945 12946 12947 12948 12949 12950 12951 12952 12953 12954 12955 12956 12957 12958 12959 12960 12961 12962 12963 12964 12965 12966 12967 12968 12969 12970 12971 12972 12973 12974 12975 12976 12977 12978 12979 12980 12981 12982 12983 12984 12985 12986 12987 12988 12989 12990 12991 12992 12993 12994 12995 12996 12997 12998 12999 13000 13001 13002 13003 13004 13005 13006 13007 13008 13009 13010 13011 13012 13013 13014 13015 13016 13017 13018 13019 13020 13021 13022 13023 13024 13025 13026 13027 13028 13029 13030 13031 13032 13033 13034 13035 13036 13037 13038 13039 13040 13041 13042 13043 13044 13045 13046 13047 13048 13049 13050 13051 13052 13053 13054 13055 13056 13057 13058 13059 13060 13061 13062 13063 13064 13065 13066 13067 13068 13069 13070 13071 13072 13073 13074 13075 13076 13077 13078 13079 13080 13081 13082 13083 13084 13085 13086 13087 13088 13089 13090 13091 13092 13093 13094 13095 13096 13097 13098 13099 13100 13101 13102 13103 13104 13105 13106 13107 13108 13109 13110 13111 13112 13113 13114 13115 13116 13117 13118 13119 13120 13121 13122 13123 13124 13125 13126 13127 13128 13129 13130 13131 13132 13133 13134 13135 13136 13137 13138 13139 13140 13141 13142 13143 13144 13145 13146 13147 13148 13149 13150 13151 13152 13153 13154 13155 13156 13157 13158 13159 13160 13161 13162 13163 13164 13165 13166 13167 13168 13169 13170 13171 13172 13173 13174 13175 13176 13177 13178 13179 13180 13181 13182 13183 13184 13185 13186 13187 13188 13189 13190 13191 13192 13193 13194 13195 13196 13197 13198 13199 13200 13201 13202 13203 13204 13205 13206 13207 13208 13209 13210 13211 13212 13213 13214 13215 13216 13217 13218 13219 13220 13221 13222 13223 13224 13225 13226 13227 13228 13229 13230 13231 13232 13233 13234 13235 13236 13237 13238 13239 13240 13241 13242 13243 13244 13245 13246 13247 13248 13249 13250 13251 13252 13253 13254 13255 13256 13257 13258 13259 13260 13261 13262 13263 13264 13265 13266 13267 13268 13269 13270 13271 13272 13273 13274 13275 13276 13277 13278 13279 13280 13281 13282 13283 13284 13285 13286 13287 13288 13289 13290 13291 13292 13293 13294 13295 13296 13297 13298 13299 13300 13301 13302 13303 13304 13305 13306 13307 13308 13309 13310 13311 13312 13313 13314 13315 13316 13317 13318 13319 13320 13321 13322 13323 13324 13325 13326 13327 13328 13329 13330 13331 13332 13333 13334 13335 13336 13337 13338 13339 13340 13341 13342 13343 13344 13345 13346 13347 13348 13349 13350 13351 13352 13353 13354 13355 13356 13357 13358 13359 13360 13361 13362 13363 13364 13365 13366 13367 13368 13369 13370 13371 13372 13373 13374 13375 13376 13377 13378 13379 13380 13381 13382 13383 13384 13385 13386 13387 13388 13389 13390 13391 13392 13393 13394 13395 13396 13397 13398 13399 13400 13401 13402 13403 13404 13405 13406 13407 13408 13409 13410 13411 13412 13413 13414 13415 13416 13417 13418 13419 13420 13421 13422 13423 13424 13425 13426 13427 13428 13429 13430 13431 13432 13433 13434 13435 13436 13437 13438 13439 13440 13441 13442 13443 13444 13445 13446 13447 13448 13449 13450 13451 13452 13453 13454 13455 13456 13457 13458 13459 13460 13461 13462 13463 13464 13465 13466 13467 13468 13469 13470 13471 13472 13473 13474 13475 13476 13477 13478 13479 13480 13481 13482 13483 13484 13485 13486 13487 13488 13489 13490 13491 13492 13493 13494 13495 13496 13497 13498 13499 13500 13501 13502 13503 13504 13505 13506 13507 13508 13509 13510 13511 13512 13513 13514 13515 13516 13517 13518 13519 13520 13521 13522 13523 13524 13525 13526 13527 13528 13529 13530 13531 13532 13533 13534 13535 13536 13537 13538 13539 13540 13541 13542 13543 13544 13545 13546 13547 13548 13549 13550 13551 13552 13553 13554 13555 13556 13557 13558 13559 13560 13561 13562 13563 13564 13565 13566 13567 13568 13569 13570 13571 13572 13573 13574 13575 13576 13577 13578 13579 13580 13581 13582 13583 13584 13585 13586 13587 13588 13589 13590 13591 13592 13593 13594 13595 13596 13597 13598 13599 13600 13601 13602 13603 13604 13605 13606 13607 13608 13609 13610 13611 13612 13613 13614 13615 13616 13617 13618 13619 13620 13621 13622 13623 13624 13625 13626 13627 13628 13629 13630 13631 13632 13633 13634 13635 13636 13637 13638 13639 13640 13641 13642 13643 13644 13645 13646 13647 13648 13649 13650 13651 13652 13653 13654 13655 13656 13657 13658 13659 13660 13661 13662 13663 13664 13665 13666 13667 13668 13669 13670 13671 13672 13673 13674 13675 13676 13677 13678 13679 13680 13681 13682 13683 13684 13685 13686 13687 13688 13689 13690 13691 13692 13693 13694 13695 13696 13697 13698 13699 13700 13701 13702 13703 13704 13705 13706 13707 13708 13709 13710 13711 13712 13713 13714 13715 13716 13717 13718 13719 13720 13721 13722 13723 13724 13725 13726 13727 13728 13729 13730 13731 13732 13733 13734 13735 13736 13737 13738 13739 13740 13741 13742 13743 13744 13745 13746 13747 13748 13749 13750 13751 13752 13753 13754 13755 13756 13757 13758 13759 13760 13761 13762 13763 13764 13765 13766 13767 13768 13769 13770 13771 13772 13773 13774 13775 13776 13777 13778 13779 13780 13781 13782 13783 13784 13785 13786 13787 13788 13789 13790 13791 13792 13793 13794 13795 13796 13797 13798 13799 13800 13801 13802 13803 13804 13805 13806 13807 13808 13809 13810 13811 13812 13813 13814 13815 13816 13817 13818 13819 13820 13821 13822 13823 13824 13825 13826 13827 13828 13829 13830 13831 13832 13833 13834 13835 13836 13837 13838 13839 13840 13841 13842 13843 13844 13845 13846 13847 13848 13849 13850 13851 13852 13853 13854 13855 13856 13857 13858 13859 13860 13861 13862 13863 13864 13865 13866 13867 13868 13869 13870 13871 13872 13873 13874 13875 13876 13877 13878 13879 13880 13881 13882 13883 13884 13885 13886 13887 13888 13889 13890 13891 13892 13893 13894 13895 13896 13897 13898 13899 13900 13901 13902 13903 13904 13905 13906 13907 13908 13909 13910 13911 13912 13913 13914 13915 13916 13917 13918 13919 13920 13921 13922 13923 13924 13925 13926 13927 13928 13929 13930 13931 13932 13933 13934 13935 13936 13937 13938 13939 13940 13941 13942 13943 13944 13945 13946 13947 13948 13949 13950 13951 13952 13953 13954 13955 13956 13957 13958 13959 13960 13961 13962 13963 13964 13965 13966 13967 13968 13969 13970 13971 13972 13973 13974 13975 13976 13977 13978 13979 13980 13981 13982 13983 13984 13985 13986 13987 13988 13989 13990 13991 13992 13993 13994 13995 13996 13997 13998 13999 14000 14001 14002 14003 14004 14005 14006 14007 14008 14009 14010 14011 14012 14013 14014 14015 14016 14017 14018 14019 14020 14021 14022 14023 14024 14025 14026 14027 14028 14029 14030 14031 14032 14033 14034 14035 14036 14037 14038 14039 14040 14041 14042 14043 14044 14045 14046 14047 14048 14049 14050 14051 14052 14053 14054 14055 14056 14057 14058 14059 14060 14061 14062 14063 14064 14065 14066 14067 14068 14069 14070 14071 14072 14073 14074 14075 14076 14077 14078 14079 14080 14081 14082 14083 14084 14085 14086 14087 14088 14089 14090 14091 14092 14093 14094 14095 14096 14097 14098 14099 14100 14101 14102 14103 14104 14105 14106 14107 14108 14109 14110 14111 14112 14113 14114 14115 14116 14117 14118 14119 14120 14121 14122 14123 14124 14125 14126 14127 14128 14129 14130 14131 14132 14133 14134 14135 14136 14137 14138 14139 14140 14141 14142 14143 14144 14145 14146 14147 14148 14149 14150 14151 14152 14153 14154 14155 14156 14157 14158 14159 14160 14161 14162 14163 14164 14165 14166 14167 14168 14169 14170 14171 14172 14173 14174 14175 14176 14177 14178 14179 14180 14181 14182 14183 14184 14185 14186 14187 14188 14189 14190 14191 14192 14193 14194 14195 14196 14197 14198 14199 14200 14201 14202 14203 14204 14205 14206 14207 14208 14209 14210 14211 14212 14213 14214 14215 14216 14217 14218 14219 14220 14221 14222 14223 14224 14225 14226 14227 14228 14229 14230 14231 14232 14233 14234 14235 14236 14237 14238 14239 14240 14241 14242 14243 14244 14245 14246 14247 14248 14249 14250 14251 14252 14253 14254 14255 14256 14257 14258 14259 14260 14261 14262 14263 14264 14265 14266 14267 14268 14269 14270 14271 14272 14273 14274 14275 14276 14277 14278 14279 14280 14281 14282 14283 14284 14285 14286 14287 14288 14289 14290 14291 14292 14293 14294 14295 14296 14297 14298 14299 14300 14301 14302 14303 14304 14305 14306 14307 14308 14309 14310 14311 14312 14313 14314 14315 14316 14317 14318 14319 14320 14321 14322 14323 14324 14325 14326 14327 14328 14329 14330 14331 14332 14333 14334 14335 14336 14337 14338 14339 14340 14341 14342 14343 14344 14345 14346 14347 14348 14349 14350 14351 14352 14353 14354 14355 14356 14357 14358 14359 14360 14361 14362 14363 14364 14365 14366 14367 14368 14369 14370 14371 14372 14373 14374 14375 14376 14377 14378 14379 14380 14381 14382 14383 14384 14385 14386 14387 14388 14389 14390 14391 14392 14393 14394 14395 14396 14397 14398 14399 14400 14401 14402 14403 14404 14405 14406 14407 14408 14409 14410 14411 14412 14413 14414 14415 14416 14417 14418 14419 14420 14421 14422 14423 14424 14425 14426 14427 14428 14429 14430 14431 14432 14433 14434 14435 14436 14437 14438 14439 14440 14441 14442 14443 14444 14445 14446 14447 14448 14449 14450 14451 14452 14453 14454 14455 14456 14457 14458 14459 14460 14461 14462 14463 14464 14465 14466 14467 14468 14469 14470 14471 14472 14473 14474 14475 14476 14477 14478 14479 14480 14481 14482 14483 14484 14485 14486 14487 14488 14489 14490 14491 14492 14493 14494 14495 14496 14497 14498 14499 14500 14501 14502 14503 14504 14505 14506 14507 14508 14509 14510 14511 14512 14513 14514 14515 14516 14517 14518 14519 14520 14521 14522 14523 14524 14525 14526 14527 14528 14529 14530 14531 14532 14533 14534 14535 14536 14537 14538 14539 14540 14541 14542 14543 14544 14545 14546 14547 14548 14549 14550 14551 14552 14553 14554 14555 14556 14557 14558 14559 14560 14561 14562 14563 14564 14565 14566 14567 14568 14569 14570 14571 14572 14573 14574 14575 14576 14577 14578 14579 14580 14581 14582 14583 14584 14585 14586 14587 14588 14589 14590 14591 14592 14593 14594 14595 14596 14597 14598 14599 14600 14601 14602 14603 14604 14605 14606 14607 14608 14609 14610 14611 14612 14613 14614 14615 14616 14617 14618 14619 14620 14621 14622 14623 14624 14625 14626 14627 14628 14629 14630 14631 14632 14633 14634 14635 14636 14637 14638 14639 14640 14641 14642 14643 14644 14645 14646 14647 14648 14649 14650 14651 14652 14653 14654 14655 14656 14657 14658 14659 14660 14661 14662 14663 14664 14665 14666 14667 14668 14669 14670 14671 14672 14673 14674 14675 14676 14677 14678 14679 14680 14681 14682 14683 14684 14685 14686 14687 14688 14689 14690 14691 14692 14693 14694 14695 14696 14697 14698 14699 14700 14701 14702 14703 14704 14705 14706 14707 14708 14709 14710 14711 14712 14713 14714 14715 14716 14717 14718 14719 14720 14721 14722 14723 14724 14725 14726 14727 14728 14729 14730 14731 14732 14733 14734 14735 14736 14737 14738 14739 14740 14741 14742 14743 14744 14745 14746 14747 14748 14749 14750 14751 14752 14753 14754 14755 14756 14757 14758 14759 14760 14761 14762 14763 14764 14765 14766 14767 14768 14769 14770 14771 14772 14773 14774 14775 14776 14777 14778 14779 14780 14781 14782 14783 14784 14785 14786 14787 14788 14789 14790 14791 14792 14793 14794 14795 14796 14797 14798 14799 14800 14801 14802 14803 14804 14805 14806 14807 14808 14809 14810 14811 14812 14813 14814 14815 14816 14817 14818 14819 14820 14821 14822 14823 14824 14825 14826 14827 14828 14829 14830 14831 14832 14833 14834 14835 14836 14837 14838 14839 14840 14841 14842 14843 14844 14845 14846 14847 14848 14849 14850 14851 14852 14853 14854 14855 14856 14857 14858 14859 14860 14861 14862 14863 14864 14865 14866 14867 14868 14869 14870 14871 14872 14873 14874 14875 14876 14877 14878 14879 14880 14881 14882 14883 14884 14885 14886 14887 14888 14889 14890 14891 14892 14893 14894 14895 14896 14897 14898 14899 14900 14901 14902 14903 14904 14905 14906 14907 14908 14909 14910 14911 14912 14913 14914 14915 14916 14917 14918 14919 14920 14921 14922 14923 14924 14925 14926 14927 14928 14929 14930 14931 14932 14933 14934 14935 14936 14937 14938 14939 14940 14941 14942 14943 14944 14945 14946 14947 14948 14949 14950 14951 14952 14953 14954 14955 14956 14957 14958 14959 14960 14961 14962 14963 14964 14965 14966 14967 14968 14969 14970 14971 14972 14973 14974 14975 14976 14977 14978 14979 14980 14981 14982 14983 14984 14985 14986 14987 14988 14989 14990 14991 14992 14993 14994 14995 14996 14997 14998 14999 15000 15001 15002 15003 15004 15005 15006 15007 15008 15009 15010 15011 15012 15013 15014 15015 15016 15017 15018 15019 15020 15021 15022 15023 15024 15025 15026 15027 15028 15029 15030 15031 15032 15033 15034 15035 15036 15037 15038 15039 15040 15041 15042 15043 15044 15045 15046 15047 15048 15049 15050 15051 15052 15053 15054 15055 15056 15057 15058 15059 15060 15061 15062 15063 15064 15065 15066 15067 15068 15069 15070 15071 15072 15073 15074 15075 15076 15077 15078 15079 15080 15081 15082 15083 15084 15085 15086 15087 15088 15089 15090 15091 15092 15093 15094 15095 15096 15097 15098 15099 15100 15101 15102 15103 15104 15105 15106 15107 15108 15109 15110 15111 15112 15113 15114 15115 15116 15117 15118 15119 15120 15121 15122 15123 15124 15125 15126 15127 15128 15129 15130 15131 15132 15133 15134 15135 15136 15137 15138 15139 15140 15141 15142 15143 15144 15145 15146 15147 15148 15149 15150 15151 15152 15153 15154 15155 15156 15157 15158 15159 15160 15161 15162 15163 15164 15165 15166 15167 15168 15169 15170 15171 15172 15173 15174 15175 15176 15177 15178 15179 15180 15181 15182 15183 15184 15185 15186 15187 15188 15189 15190 15191 15192 15193 15194 15195 15196 15197 15198 15199 15200 15201 15202 15203 15204 15205 15206 15207 15208 15209 15210 15211 15212 15213 15214 15215 15216 15217 15218 15219 15220 15221 15222 15223 15224 15225 15226 15227 15228 15229 15230 15231 15232 15233 15234 15235 15236 15237 15238 15239 15240 15241 15242 15243 15244 15245 15246 15247 15248 15249 15250 15251 15252 15253 15254 15255 15256 15257 15258 15259 15260 15261 15262 15263 15264 15265 15266 15267 15268 15269 15270 15271 15272 15273 15274 15275 15276 15277 15278 15279 15280 15281 15282 15283 15284 15285 15286 15287 15288 15289 15290 15291 15292 15293 15294 15295 15296 15297 15298 15299 15300 15301 15302 15303 15304 15305 15306 15307 15308 15309 15310 15311 15312 15313 15314 15315 15316 15317 15318 15319 15320 15321 15322 15323 15324 15325 15326 15327 15328 15329 15330 15331 15332 15333 15334 15335 15336 15337 15338 15339 15340 15341 15342 15343 15344 15345 15346 15347 15348 15349 15350 15351 15352 15353 15354 15355 15356 15357 15358 15359 15360 15361 15362 15363 15364 15365 15366 15367 15368 15369 15370 15371 15372 15373 15374 15375 15376 15377 15378 15379 15380 15381 15382 15383 15384 15385 15386 15387 15388 15389 15390 15391 15392 15393 15394 15395 15396 15397 15398 15399 15400 15401 15402 15403 15404 15405 15406 15407 15408 15409 15410 15411 15412 15413 15414 15415 15416 15417 15418 15419 15420 15421 15422 15423 15424 15425 15426 15427 15428 15429 15430 15431 15432 15433 15434 15435 15436 15437 15438 15439 15440 15441 15442 15443 15444 15445 15446 15447 15448 15449 15450 15451 15452 15453 15454 15455 15456 15457 15458 15459 15460 15461 15462 15463 15464 15465 15466 15467 15468 15469 15470 15471 15472 15473 15474 15475 15476 15477 15478 15479 15480 15481 15482 15483 15484 15485 15486 15487 15488 15489 15490 15491 15492 15493 15494 15495 15496 15497 15498 15499 15500 15501 15502 15503 15504 15505 15506 15507 15508 15509 15510 15511 15512 15513 15514 15515 15516 15517 15518 15519 15520 15521 15522 15523 15524 15525 15526 15527 15528 15529 15530 15531 15532 15533 15534 15535 15536 15537 15538 15539 15540 15541 15542 15543 15544 15545 15546 15547 15548 15549 15550 15551 15552 15553 15554 15555 15556 15557 15558 15559 15560 15561 15562 15563 15564 15565 15566 15567 15568 15569 15570 15571 15572 15573 15574 15575 15576 15577 15578 15579 15580 15581 15582 15583 15584 15585 15586 15587 15588 15589 15590 15591 15592 15593 15594 15595 15596 15597 15598 15599 15600 15601 15602 15603 15604 15605 15606 15607 15608 15609 15610 15611 15612 15613 15614 15615 15616 15617 15618 15619 15620 15621 15622 15623 15624 15625 15626 15627 15628 15629 15630 15631 15632 15633 15634 15635 15636 15637 15638 15639 15640 15641 15642 15643 15644 15645 15646 15647 15648 15649 15650 15651 15652 15653 15654 15655 15656 15657 15658 15659 15660 15661 15662 15663 15664 15665 15666 15667 15668 15669 15670 15671 15672 15673 15674 15675 15676 15677 15678 15679 15680 15681 15682 15683 15684 15685 15686 15687 15688 15689 15690 15691 15692 15693 15694 15695 15696 15697 15698 15699 15700 15701 15702 15703 15704 15705 15706 15707 15708 15709 15710 15711 15712 15713 15714 15715 15716 15717 15718 15719 15720 15721 15722 15723 15724 15725 15726 15727 15728 15729 15730 15731 15732 15733 15734 15735 15736 15737 15738 15739 15740 15741 15742 15743 15744 15745 15746 15747 15748 15749 15750 15751 15752 15753 15754 15755 15756 15757 15758 15759 15760 15761 15762 15763 15764 15765 15766 15767 15768 15769 15770 15771 15772 15773 15774 15775 15776 15777 15778 15779 15780 15781 15782 15783 15784 15785 15786 15787 15788 15789 15790 15791 15792 15793 15794 15795 15796 15797 15798 15799 15800 15801 15802 15803 15804 15805 15806 15807 15808 15809 15810 15811 15812 15813 15814 15815 15816 15817 15818 15819 15820 15821 15822 15823 15824 15825 15826 15827 15828 15829 15830 15831 15832 15833 15834 15835 15836 15837 15838 15839 15840 15841 15842 15843 15844 15845 15846 15847 15848 15849 15850 15851 15852 15853 15854 15855 15856 15857 15858 15859 15860 15861 15862 15863 15864 15865 15866 15867 15868 15869 15870 15871 15872 15873 15874 15875 15876 15877 15878 15879 15880 15881 15882 15883 15884 15885 15886 15887 15888 15889 15890 15891 15892 15893 15894 15895 15896 15897 15898 15899 15900 15901 15902 15903 15904 15905 15906 15907 15908 15909 15910 15911 15912 15913 15914 15915 15916 15917 15918 15919 15920 15921 15922 15923 15924 15925 15926 15927 15928 15929 15930 15931 15932 15933 15934 15935 15936 15937 15938 15939 15940 15941 15942 15943 15944 15945 15946 15947 15948 15949 15950 15951 15952 15953 15954 15955 15956 15957 15958 15959 15960 15961 15962 15963 15964 15965 15966 15967 15968 15969 15970 15971 15972 15973 15974 15975 15976 15977 15978 15979 15980 15981 15982 15983 15984 15985 15986 15987 15988 15989 15990 15991 15992 15993 15994 15995 15996 15997 15998 15999 16000 16001 16002 16003 16004 16005 16006 16007 16008 16009 16010 16011 16012 16013 16014 16015 16016 16017 16018 16019 16020 16021 16022 16023 16024 16025 16026 16027 16028 16029 16030 16031 16032 16033 16034 16035 16036 16037 16038 16039 16040 16041 16042 16043 16044 16045 16046 16047 16048 16049 16050 16051 16052 16053 16054 16055 16056 16057 16058 16059 16060 16061 16062 16063 16064 16065 16066 16067 16068 16069 16070 16071 16072 16073 16074 16075 16076 16077 16078 16079 16080 16081 16082 16083 16084 16085 16086 16087 16088 16089 16090 16091 16092 16093 16094 16095 16096 16097 16098 16099 16100 16101 16102 16103 16104 16105 16106 16107 16108 16109 16110 16111 16112 16113 16114 16115 16116 16117 16118 16119 16120 16121 16122 16123 16124 16125 16126 16127 16128 16129 16130 16131 16132 16133 16134 16135 16136 16137 16138 16139 16140 16141 16142 16143 16144 16145 16146 16147 16148 16149 16150 16151 16152 16153 16154 16155 16156 16157 16158 16159 16160 16161 16162 16163 16164 16165 16166 16167 16168 16169 16170 16171 16172 16173 16174 16175 16176 16177 16178 16179 16180 16181 16182 16183 16184 16185 16186 16187 16188 16189 16190 16191 16192 16193 16194 16195 16196 16197 16198 16199 16200 16201 16202 16203 16204 16205 16206 16207 16208 16209 16210 16211 16212 16213 16214 16215 16216 16217 16218 16219 16220 16221 16222 16223 16224 16225 16226 16227 16228 16229 16230 16231 16232 16233 16234 16235 16236 16237 16238 16239 16240 16241 16242 16243 16244 16245 16246 16247 16248 16249 16250 16251 16252 16253 16254 16255 16256 16257 16258 16259 16260 16261 16262 16263 16264 16265 16266 16267 16268 16269 16270 16271 16272 16273 16274 16275 16276 16277 16278 16279 16280 16281 16282 16283 16284 16285 16286 16287 16288 16289 16290 16291 16292 16293 16294 16295 16296 16297 16298 16299 16300 16301 16302 16303 16304 16305 16306 16307 16308 16309 16310 16311 16312 16313 16314 16315 16316 16317 16318 16319 16320 16321 16322 16323 16324 16325 16326 16327 16328 16329 16330 16331 16332 16333 16334 16335 16336 16337 16338 16339 16340 16341 16342 16343 16344 16345 16346 16347 16348 16349 16350 16351 16352 16353 16354 16355 16356 16357 16358 16359 16360 16361 16362 16363 16364 16365 16366 16367 16368 16369 16370 16371 16372 16373 16374 16375 16376 16377 16378 16379 16380 16381 16382 16383 16384 16385 16386 16387 16388 16389 16390 16391 16392 16393 16394 16395 16396 16397 16398 16399 16400 16401 16402 16403 16404 16405 16406 16407 16408 16409 16410 16411 16412 16413 16414 16415 16416 16417 16418 16419 16420 16421 16422 16423 16424 16425 16426 16427 16428 16429 16430 16431 16432 16433 16434 16435 16436 16437 16438 16439 16440 16441 16442 16443 16444 16445 16446 16447 16448 16449 16450 16451 16452 16453 16454 16455 16456 16457 16458 16459 16460 16461 16462 16463 16464 16465 16466 16467 16468 16469 16470 16471 16472 16473 16474 16475 16476 16477 16478 16479 16480 16481 16482 16483 16484 16485 16486 16487 16488 16489 16490 16491 16492 16493 16494 16495 16496 16497 16498 16499 16500 16501 16502 16503 16504 16505 16506 16507 16508 16509 16510 16511 16512 16513 16514 16515 16516 16517 16518 16519 16520 16521 16522 16523 16524 16525 16526 16527 16528 16529 16530 16531 16532 16533 16534 16535 16536 16537 16538 16539 16540 16541 16542 16543 16544 16545 16546 16547 16548 16549 16550 16551 16552 16553 16554 16555 16556 16557 16558 16559 16560 16561 16562 16563 16564 16565 16566 16567 16568 16569 16570 16571 16572 16573 16574 16575 16576 16577 16578 16579 16580 16581 16582 16583 16584 16585 16586 16587 16588 16589 16590 16591 16592 16593 16594 16595 16596 16597 16598 16599 16600 16601 16602 16603 16604 16605 16606 16607 16608 16609 16610 16611 16612 16613 16614 16615 16616 16617 16618 16619 16620 16621 16622 16623 16624 16625 16626 16627 16628 16629 16630 16631 16632 16633 16634 16635 16636 16637 16638 16639 16640 16641 16642 16643 16644 16645 16646 16647 16648 16649 16650 16651 16652 16653 16654 16655 16656 16657 16658 16659 16660 16661 16662 16663 16664 16665 16666 16667 16668 16669 16670 16671 16672 16673 16674 16675 16676 16677 16678 16679 16680 16681 16682 16683 16684 16685 16686 16687 16688 16689 16690 16691 16692 16693 16694 16695 16696 16697 16698 16699 16700 16701 16702 16703 16704 16705 16706 16707 16708 16709 16710 16711 16712 16713 16714 16715 16716 16717 16718 16719 16720 16721 16722 16723 16724 16725 16726 16727 16728 16729 16730 16731 16732 16733 16734 16735 16736 16737 16738 16739 16740 16741 16742 16743 16744 16745 16746 16747 16748 16749 16750 16751 16752 16753 16754 16755 16756 16757 16758 16759 16760 16761 16762 16763 16764 16765 16766 16767 16768 16769 16770 16771 16772 16773 16774 16775 16776 16777 16778 16779 16780 16781 16782 16783 16784 16785 16786 16787 16788 16789 16790 16791 16792 16793 16794 16795 16796 16797 16798 16799 16800 16801 16802 16803 16804 16805 16806 16807 16808 16809 16810 16811 16812 16813 16814 16815 16816 16817 16818 16819 16820 16821 16822 16823 16824 16825 16826 16827 16828 16829 16830 16831 16832 16833 16834 16835 16836 16837 16838 16839 16840 16841 16842 16843 16844 16845 16846 16847 16848 16849 16850 16851 16852 16853 16854 16855 16856 16857 16858 16859 16860 16861 16862 16863 16864 16865 16866 16867 16868 16869 16870 16871 16872 16873 16874 16875 16876 16877 16878 16879 16880 16881 16882 16883 16884 16885 16886 16887 16888 16889 16890 16891 16892 16893 16894 16895 16896 16897 16898 16899 16900 16901 16902 16903 16904 16905 16906 16907 16908 16909 16910 16911 16912 16913 16914 16915 16916 16917 16918 16919 16920 16921 16922 16923 16924 16925 16926 16927 16928 16929 16930 16931 16932 16933 16934 16935 16936 16937 16938 16939 16940 16941 16942 16943 16944 16945 16946 16947 16948 16949 16950 16951 16952 16953 16954 16955 16956 16957 16958 16959 16960 16961 16962 16963 16964 16965 16966 16967 16968 16969 16970 16971 16972 16973 16974 16975 16976 16977 16978 16979 16980 16981 16982 16983 16984 16985 16986 16987 16988 16989 16990 16991 16992 16993 16994 16995 16996 16997 16998 16999 17000 17001 17002 17003 17004 17005 17006 17007 17008 17009 17010 17011 17012 17013 17014 17015 17016 17017 17018 17019 17020 17021 17022 17023 17024 17025 17026 17027 17028 17029 17030 17031 17032 17033 17034 17035 17036 17037 17038 17039 17040 17041 17042 17043 17044 17045 17046 17047 17048 17049 17050 17051 17052 17053 17054 17055 17056 17057 17058 17059 17060 17061 17062 17063 17064 17065 17066 17067 17068 17069 17070 17071 17072 17073 17074 17075 17076 17077 17078 17079 17080 17081 17082 17083 17084 17085 17086 17087 17088 17089 17090 17091 17092 17093 17094 17095 17096 17097 17098 17099 17100 17101 17102 17103 17104 17105 17106 17107 17108 17109 17110 17111 17112 17113 17114 17115 17116 17117 17118 17119 17120 17121 17122 17123 17124 17125 17126 17127 17128 17129 17130 17131 17132 17133 17134 17135 17136 17137 17138 17139 17140 17141 17142 17143 17144 17145 17146 17147 17148 17149 17150 17151 17152 17153 17154 17155 17156 17157 17158 17159 17160 17161 17162 17163 17164 17165 17166 17167 17168 17169 17170 17171 17172 17173 17174 17175 17176 17177 17178 17179 17180 17181 17182 17183 17184 17185 17186 17187 17188 17189 17190 17191 17192 17193 17194 17195 17196 17197 17198 17199 17200 17201 17202 17203 17204 17205 17206 17207 17208 17209 17210 17211 17212 17213 17214 17215 17216 17217 17218 17219 17220 17221 17222 17223 17224 17225 17226 17227 17228 17229 17230 17231 17232 17233 17234 17235 17236 17237 17238 17239 17240 17241 17242 17243 17244 17245 17246 17247 17248 17249 17250 17251 17252 17253 17254 17255 17256 17257 17258 17259 17260 17261 17262 17263 17264 17265 17266 17267 17268 17269 17270 17271 17272 17273 17274 17275 17276 17277 17278 17279 17280 17281 17282 17283 17284 17285 17286 17287 17288 17289 17290 17291 17292 17293 17294 17295 17296 17297 17298 17299 17300 17301 17302 17303 17304 17305 17306 17307 17308 17309 17310 17311 17312 17313 17314 17315 17316 17317 17318 17319 17320 17321 17322 17323 17324 17325 17326 17327 17328 17329 17330 17331 17332 17333 17334 17335 17336 17337 17338 17339 17340 17341 17342 17343 17344 17345 17346 17347 17348 17349 17350 17351 17352 17353 17354 17355 17356 17357 17358 17359 17360 17361 17362 17363 17364 17365 17366 17367 17368 17369 17370 17371 17372 17373 17374 17375 17376 17377 17378 17379 17380 17381 17382 17383 17384 17385 17386 17387 17388 17389 17390 17391 17392 17393 17394 17395 17396 17397 17398 17399 17400 17401 17402 17403 17404 17405 17406 17407 17408 17409 17410 17411 17412 17413 17414 17415 17416 17417 17418 17419 17420 17421 17422 17423 17424 17425 17426 17427 17428 17429 17430 17431 17432 17433 17434 17435 17436 17437 17438 17439 17440 17441 17442 17443 17444 17445 17446 17447 17448 17449 17450 17451 17452 17453 17454 17455 17456 17457 17458 17459 17460 17461 17462 17463 17464 17465 17466 17467 17468 17469 17470 17471 17472 17473 17474 17475 17476 17477 17478 17479 17480 17481 17482 17483 17484 17485 17486 17487 17488 17489 17490 17491 17492 17493 17494 17495 17496 17497 17498 17499 17500 17501 17502 17503 17504 17505 17506 17507 17508 17509 17510 17511 17512 17513 17514 17515 17516 17517 17518 17519 17520 17521 17522 17523 17524 17525 17526 17527 17528 17529 17530 17531 17532 17533 17534 17535 17536 17537 17538 17539 17540 17541 17542 17543 17544 17545 17546 17547 17548 17549 17550 17551 17552 17553 17554 17555 17556 17557 17558 17559 17560 17561 17562 17563 17564 17565 17566 17567 17568 17569 17570 17571 17572 17573 17574 17575 17576 17577 17578 17579 17580 17581 17582 17583 17584 17585 17586 17587 17588 17589 17590 17591 17592 17593 17594 17595 17596 17597 17598 17599 17600 17601 17602 17603 17604 17605 17606 17607 17608 17609 17610 17611 17612 17613 17614 17615 17616 17617 17618 17619 17620 17621 17622 17623 17624 17625 17626 17627 17628 17629 17630 17631 17632 17633 17634 17635 17636 17637 17638 17639 17640 17641 17642 17643 17644 17645 17646 17647 17648 17649 17650 17651 17652 17653 17654 17655 17656 17657 17658 17659 17660 17661 17662 17663 17664 17665 17666 17667 17668 17669 17670 17671 17672 17673 17674 17675 17676 17677 17678 17679 17680 17681 17682 17683 17684 17685 17686 17687 17688 17689 17690 17691 17692 17693 17694 17695 17696 17697 17698 17699 17700 17701 17702 17703 17704 17705 17706 17707 17708 17709 17710 17711 17712 17713 17714 17715 17716 17717 17718 17719 17720 17721 17722 17723 17724 17725 17726 17727 17728 17729 17730 17731 17732 17733 17734 17735 17736 17737 17738 17739 17740 17741 17742 17743 17744 17745 17746 17747 17748 17749 17750 17751 17752 17753 17754 17755 17756 17757 17758 17759 17760 17761 17762 17763 17764 17765 17766 17767 17768 17769 17770 17771 17772 17773 17774 17775 17776 17777 17778 17779 17780 17781 17782 17783 17784 17785 17786 17787 17788 17789 17790 17791 17792 17793 17794 17795 17796 17797 17798 17799 17800 17801 17802 17803 17804 17805 17806 17807 17808 17809 17810 17811 17812 17813 17814 17815 17816 17817 17818 17819 17820 17821 17822 17823 17824 17825 17826 17827 17828 17829 17830 17831 17832 17833 17834 17835 17836 17837 17838 17839 17840 17841 17842 17843 17844 17845 17846 17847 17848 17849 17850 17851 17852 17853 17854 17855 17856 17857 17858 17859 17860 17861 17862 17863 17864 17865 17866 17867 17868 17869 17870 17871 17872 17873 17874 17875 17876 17877 17878 17879 17880 17881 17882 17883 17884 17885 17886 17887 17888 17889 17890 17891 17892 17893 17894 17895 17896 17897 17898 17899 17900 17901 17902 17903 17904 17905 17906 17907 17908 17909 17910 17911 17912 17913 17914 17915 17916 17917 17918 17919 17920 17921 17922 17923 17924 17925 17926 17927 17928 17929 17930 17931 17932 17933 17934 17935 17936 17937 17938 17939 17940 17941 17942 17943 17944 17945 17946 17947 17948 17949 17950 17951 17952 17953 17954 17955 17956 17957 17958 17959 17960 17961 17962 17963 17964 17965 17966 17967 17968 17969 17970 17971 17972 17973 17974 17975 17976 17977 17978 17979 17980 17981 17982 17983 17984 17985 17986 17987 17988 17989 17990 17991 17992 17993 17994 17995 17996 17997 17998 17999 18000 18001 18002 18003 18004 18005 18006 18007 18008 18009 18010 18011 18012 18013 18014 18015 18016 18017 18018 18019 18020 18021 18022 18023 18024 18025 18026 18027 18028 18029 18030 18031 18032 18033 18034 18035 18036 18037 18038 18039 18040 18041 18042 18043 18044 18045 18046 18047 18048 18049 18050 18051 18052 18053 18054 18055 18056 18057 18058 18059 18060 18061 18062 18063 18064 18065 18066 18067 18068 18069 18070 18071 18072 18073 18074 18075 18076 18077 18078 18079 18080 18081 18082 18083 18084 18085 18086 18087 18088 18089 18090 18091 18092 18093 18094 18095 18096 18097 18098 18099 18100 18101 18102 18103 18104 18105 18106 18107 18108 18109 18110 18111 18112 18113 18114 18115 18116 18117 18118 18119 18120 18121 18122 18123 18124 18125 18126 18127 18128 18129 18130 18131 18132 18133 18134 18135 18136 18137 18138 18139 18140 18141 18142 18143 18144 18145 18146 18147 18148 18149 18150 18151 18152 18153 18154 18155 18156 18157 18158 18159 18160 18161 18162 18163 18164 18165 18166 18167 18168 18169 18170 18171 18172 18173 18174 18175 18176 18177 18178 18179 18180 18181 18182 18183 18184 18185 18186 18187 18188 18189 18190 18191 18192 18193 18194 18195 18196 18197 18198 18199 18200 18201 18202 18203 18204 18205 18206 18207 18208 18209 18210 18211 18212 18213 18214 18215 18216 18217 18218 18219 18220 18221 18222 18223 18224 18225 18226 18227 18228 18229 18230 18231 18232 18233 18234 18235 18236 18237 18238 18239 18240 18241 18242 18243 18244 18245 18246 18247 18248 18249 18250 18251 18252 18253 18254 18255 18256 18257 18258 18259 18260 18261 18262 18263 18264 18265 18266 18267 18268 18269 18270 18271 18272 18273 18274 18275 18276 18277 18278 18279 18280 18281 18282 18283 18284 18285 18286 18287 18288 18289 18290 18291 18292 18293 18294 18295 18296 18297 18298 18299 18300 18301 18302 18303 18304 18305 18306 18307 18308 18309 18310 18311 18312 18313 18314 18315 18316 18317 18318 18319 18320 18321 18322 18323 18324 18325 18326 18327 18328 18329 18330 18331 18332 18333 18334 18335 18336 18337 18338 18339 18340 18341 18342 18343 18344 18345 18346 18347 18348 18349 18350 18351 18352 18353 18354 18355 18356 18357 18358 18359 18360 18361 18362 18363 18364 18365 18366 18367 18368 18369 18370 18371 18372 18373 18374 18375 18376 18377 18378 18379 18380 18381 18382 18383 18384 18385 18386 18387 18388 18389 18390 18391 18392 18393 18394 18395 18396 18397 18398 18399 18400 18401 18402 18403 18404 18405 18406 18407 18408 18409 18410 18411 18412 18413 18414 18415 18416 18417 18418 18419 18420 18421 18422 18423 18424 18425 18426 18427 18428 18429 18430 18431 18432 18433 18434 18435 18436 18437 18438 18439 18440 18441 18442 18443 18444 18445 18446 18447 18448 18449 18450 18451 18452 18453 18454 18455 18456 18457 18458 18459 18460 18461 18462 18463 18464 18465 18466 18467 18468 18469 18470 18471 18472 18473 18474 18475 18476 18477 18478 18479 18480 18481 18482 18483 18484 18485 18486 18487 18488 18489 18490 18491 18492 18493 18494 18495 18496 18497 18498 18499 18500 18501 18502 18503 18504 18505 18506 18507 18508 18509 18510 18511 18512 18513 18514 18515 18516 18517 18518 18519 18520 18521 18522 18523 18524 18525 18526 18527 18528 18529 18530 18531 18532 18533 18534 18535 18536 18537 18538 18539 18540 18541 18542 18543 18544 18545 18546 18547 18548 18549 18550 18551 18552 18553 18554 18555 18556 18557 18558 18559 18560 18561 18562 18563 18564 18565 18566 18567 18568 18569 18570 18571 18572 18573 18574 18575 18576 18577 18578 18579 18580 18581 18582 18583 18584 18585 18586 18587 18588 18589 18590 18591 18592 18593 18594 18595 18596 18597 18598 18599 18600 18601 18602 18603 18604 18605 18606 18607 18608 18609 18610 18611 18612 18613 18614 18615 18616 18617 18618 18619 18620 18621 18622 18623 18624 18625 18626 18627 18628 18629 18630 18631 18632 18633 18634 18635 18636 18637 18638 18639 18640 18641 18642 18643 18644 18645 18646 18647 18648 18649 18650 18651 18652 18653 18654 18655 18656 18657 18658 18659 18660 18661 18662 18663 18664 18665 18666 18667 18668 18669 18670 18671 18672 18673 18674 18675 18676 18677 18678 18679 18680 18681 18682 18683 18684 18685 18686 18687 18688 18689 18690 18691 18692 18693 18694 18695 18696 18697 18698 18699 18700 18701 18702 18703 18704 18705 18706 18707 18708 18709 18710 18711 18712 18713 18714 18715 18716 18717 18718 18719 18720 18721 18722 18723 18724 18725 18726 18727 18728 18729 18730 18731 18732 18733 18734 18735 18736 18737 18738 18739 18740 18741 18742 18743 18744 18745 18746 18747 18748 18749 18750 18751 18752 18753 18754 18755 18756 18757 18758 18759 18760 18761 18762 18763 18764 18765 18766 18767 18768 18769 18770 18771 18772 18773 18774 18775 18776 18777 18778 18779 18780 18781 18782 18783 18784 18785 18786 18787 18788 18789 18790 18791 18792 18793 18794 18795 18796 18797 18798 18799 18800 18801 18802 18803 18804 18805 18806 18807 18808 18809 18810 18811 18812 18813 18814 18815 18816 18817 18818 18819 18820 18821 18822 18823 18824 18825 18826 18827 18828 18829 18830 18831 18832 18833 18834 18835 18836 18837 18838 18839 18840 18841 18842 18843 18844 18845 18846 18847 18848 18849 18850 18851 18852 18853 18854 18855 18856 18857 18858 18859 18860 18861 18862 18863 18864 18865 18866 18867 18868 18869 18870 18871 18872 18873 18874 18875 18876 18877 18878 18879 18880 18881 18882 18883 18884 18885 18886 18887 18888 18889 18890 18891 18892 18893 18894 18895 18896 18897 18898 18899 18900 18901 18902 18903 18904 18905 18906 18907 18908 18909 18910 18911 18912 18913 18914 18915 18916 18917 18918 18919 18920 18921 18922 18923 18924 18925 18926 18927 18928 18929 18930 18931 18932 18933 18934 18935 18936 18937 18938 18939 18940 18941 18942 18943 18944 18945 18946 18947 18948 18949 18950 18951 18952 18953 18954 18955 18956 18957 18958 18959 18960 18961 18962 18963 18964 18965 18966 18967 18968 18969 18970 18971 18972 18973 18974 18975 18976 18977 18978 18979 18980 18981 18982 18983 18984 18985 18986 18987 18988 18989 18990 18991 18992 18993 18994 18995 18996 18997 18998 18999 19000 19001 19002 19003 19004 19005 19006 19007 19008 19009 19010 19011 19012 19013 19014 19015 19016 19017 19018 19019 19020 19021 19022 19023 19024 19025 19026 19027 19028 19029 19030 19031 19032 19033 19034 19035 19036 19037 19038 19039 19040 19041 19042 19043 19044 19045 19046 19047 19048 19049 19050 19051 19052 19053 19054 19055 19056 19057 19058 19059 19060 19061 19062 19063 19064 19065 19066 19067 19068 19069 19070 19071 19072 19073 19074 19075 19076 19077 19078 19079 19080 19081 19082 19083 19084 19085 19086 19087 19088 19089 19090 19091 19092 19093 19094 19095 19096 19097 19098 19099 19100 19101 19102 19103 19104 19105 19106 19107 19108 19109 19110 19111 19112 19113 19114 19115 19116 19117 19118 19119 19120 19121 19122 19123 19124 19125 19126 19127 19128 19129 19130 19131 19132 19133 19134 19135 19136 19137 19138 19139 19140 19141 19142 19143 19144 19145 19146 19147 19148 19149 19150 19151 19152 19153 19154 19155 19156 19157 19158 19159 19160 19161 19162 19163 19164 19165 19166 19167 19168 19169 19170 19171 19172 19173 19174 19175 19176 19177 19178 19179 19180 19181 19182 19183 19184 19185 19186 19187 19188 19189 19190 19191 19192 19193 19194 19195 19196 19197 19198 19199 19200 19201 19202 19203 19204 19205 19206 19207 19208 19209 19210 19211 19212 19213 19214 19215 19216 19217 19218 19219 19220 19221 19222 19223 19224 19225 19226 19227 19228 19229 19230 19231 19232 19233 19234 19235 19236 19237 19238 19239 19240 19241 19242 19243 19244 19245 19246 19247 19248 19249 19250 19251 19252 19253 19254 19255 19256 19257 19258 19259 19260 19261 19262 19263 19264 19265 19266 19267 19268 19269 19270 19271 19272 19273 19274 19275 19276 19277 19278 19279 19280 19281 19282 19283 19284 19285 19286 19287 19288 19289 19290 19291 19292 19293 19294 19295 19296 19297 19298 19299 19300 19301 19302 19303 19304 19305 19306 19307 19308 19309 19310 19311 19312 19313 19314 19315 19316 19317 19318 19319 19320 19321 19322 19323 19324 19325 19326 19327 19328 19329 19330 19331 19332 19333 19334 19335 19336 19337 19338 19339 19340 19341 19342 19343 19344 19345 19346 19347 19348 19349 19350 19351 19352 19353 19354 19355 19356 19357 19358 19359 19360 19361 19362 19363 19364 19365 19366 19367 19368 19369 19370 19371 19372 19373 19374 19375 19376 19377 19378 19379 19380 19381 19382 19383 19384 19385 19386 19387 19388 19389 19390 19391 19392 19393 19394 19395 19396 19397 19398 19399 19400 19401 19402 19403 19404 19405 19406 19407 19408 19409 19410 19411 19412 19413 19414 19415 19416 19417 19418 19419 19420 19421 19422 19423 19424 19425 19426 19427 19428 19429 19430 19431 19432 19433 19434 19435 19436 19437 19438 19439 19440 19441 19442 19443 19444 19445 19446 19447 19448 19449 19450 19451 19452 19453 19454 19455 19456 19457 19458 19459 19460 19461 19462 19463 19464 19465 19466 19467 19468 19469 19470 19471 19472 19473 19474 19475 19476 19477 19478 19479 19480 19481 19482 19483 19484 19485 19486 19487 19488 19489 19490 19491 19492 19493 19494 19495 19496 19497 19498 19499 19500 19501 19502 19503 19504 19505 19506 19507 19508 19509 19510 19511 19512 19513 19514 19515 19516 19517 19518 19519 19520 19521 19522 19523 19524 19525 19526 19527 19528 19529 19530 19531 19532 19533 19534 19535 19536 19537 19538 19539 19540 19541 19542 19543 19544 19545 19546 19547 19548 19549 19550 19551 19552 19553 19554 19555 19556 19557 19558 19559 19560 19561 19562 19563 19564 19565 19566 19567 19568 19569 19570 19571 19572 19573 19574 19575 19576 19577 19578 19579 19580 19581 19582 19583 19584 19585 19586 19587 19588 19589 19590 19591 19592 19593 19594 19595 19596 19597 19598 19599 19600 19601 19602 19603 19604 19605 19606 19607 19608 19609 19610 19611 19612 19613 19614 19615 19616 19617 19618 19619 19620 19621 19622 19623 19624 19625 19626 19627 19628 19629 19630 19631 19632 19633 19634 19635 19636 19637 19638 19639 19640 19641 19642 19643 19644 19645 19646 19647 19648 19649 19650 19651 19652 19653 19654 19655 19656 19657 19658 19659 19660 19661 19662 19663 19664 19665 19666 19667 19668 19669 19670 19671 19672 19673 19674 19675 19676 19677 19678 19679 19680 19681 19682 19683 19684 19685 19686 19687 19688 19689 19690 19691 19692 19693 19694 19695 19696 19697 19698 19699 19700 19701 19702 19703 19704 19705 19706 19707 19708 19709 19710 19711 19712 19713 19714 19715 19716 19717 19718 19719 19720 19721 19722 19723 19724 19725 19726 19727 19728 19729 19730 19731 19732 19733 19734 19735 19736 19737 19738 19739 19740 19741 19742 19743 19744 19745 19746 19747 19748 19749 19750 19751 19752 19753 19754 19755 19756 19757 19758 19759 19760 19761 19762 19763 19764 19765 19766 19767 19768 19769 19770 19771 19772 19773 19774 19775 19776 19777 19778 19779 19780 19781 19782 19783 19784 19785 19786 19787 19788 19789 19790 19791 19792 19793 19794 19795 19796 19797 19798 19799 19800 19801 19802 19803 19804 19805 19806 19807 19808 19809 19810 19811 19812 19813 19814 19815 19816 19817 19818 19819 19820 19821 19822 19823 19824 19825 19826 19827 19828 19829 19830 19831 19832 19833 19834 19835 19836 19837 19838 19839 19840 19841 19842 19843 19844 19845 19846 19847 19848 19849 19850 19851 19852 19853 19854 19855 19856 19857 19858 19859 19860 19861 19862 19863 19864 19865 19866 19867 19868 19869 19870 19871 19872 19873 19874 19875 19876 19877 19878 19879 19880 19881 19882 19883 19884 19885 19886 19887 19888 19889 19890 19891 19892 19893 19894 19895 19896 19897 19898 19899 19900 19901 19902 19903 19904 19905 19906 19907 19908 19909 19910 19911 19912 19913 19914 19915 19916 19917 19918 19919 19920 19921 19922 19923 19924 19925 19926 19927 19928 19929 19930 19931 19932 19933 19934 19935 19936 19937 19938 19939 19940 19941 19942 19943 19944 19945 19946 19947 19948 19949 19950 19951 19952 19953 19954 19955 19956 19957 19958 19959 19960 19961 19962 19963 19964 19965 19966 19967 19968 19969 19970 19971 19972 19973 19974 19975 19976 19977 19978 19979 19980 19981 19982 19983 19984 19985 19986 19987 19988 19989 19990 19991 19992 19993 19994 19995 19996 19997 19998 19999 20000 20001 20002 20003 20004 20005 20006 20007 20008 20009 20010 20011 20012 20013 20014 20015 20016 20017 20018 20019 20020 20021 20022 20023 20024 20025 20026 20027 20028 20029 20030 20031 20032 20033 20034 20035 20036 20037 20038 20039 20040 20041 20042 20043 20044 20045 20046 20047 20048 20049 20050 20051 20052 20053 20054 20055 20056 20057 20058 20059 20060 20061 20062 20063 20064 20065 20066 20067 20068 20069 20070 20071 20072 20073 20074 20075 20076 20077 20078 20079 20080 20081 20082 20083 20084 20085 20086 20087 20088 20089 20090 20091 20092 20093 20094 20095 20096 20097 20098 20099 20100 20101 20102 20103 20104 20105 20106 20107 20108 20109 20110 20111 20112 20113 20114 20115 20116 20117 20118 20119 20120 20121 20122 20123 20124 20125 20126 20127 20128 20129 20130 20131 20132 20133 20134 20135 20136 20137 20138 20139 20140 20141 20142 20143 20144 20145 20146 20147 20148 20149 20150 20151 20152 20153 20154 20155 20156 20157 20158 20159 20160 20161 20162 20163 20164 20165 20166 20167 20168 20169 20170 20171 20172 20173 20174 20175 20176 20177 20178 20179 20180 20181 20182 20183 20184 20185 20186 20187 20188 20189 20190 20191 20192 20193 20194 20195 20196 20197 20198 20199 20200 20201 20202 20203 20204 20205 20206 20207 20208 20209 20210 20211 20212 20213 20214 20215 20216 20217 20218 20219 20220 20221 20222 20223 20224 20225 20226 20227 20228 20229 20230 20231 20232 20233 20234 20235 20236 20237 20238 20239 20240 20241 20242 20243 20244 20245 20246 20247 20248 20249 20250 20251 20252 20253 20254 20255 20256 20257 20258 20259 20260 20261 20262 20263 20264 20265 20266 20267 20268 20269 20270 20271 20272 20273 20274 20275 20276 20277 20278 20279 20280 20281 20282 20283 20284 20285 20286 20287 20288 20289 20290 20291 20292 20293 20294 20295 20296 20297 20298 20299 20300 20301 20302 20303 20304 20305 20306 20307 20308 20309 20310 20311 20312 20313 20314 20315 20316 20317 20318 20319 20320 20321 20322 20323 20324 20325 20326 20327 20328 20329 20330 20331 20332 20333 20334 20335 20336 20337 20338 20339 20340 20341 20342 20343 20344 20345 20346 20347 20348 20349 20350 20351 20352 20353 20354 20355 20356 20357 20358 20359 20360 20361 20362 20363 20364 20365 20366 20367 20368 20369 20370 20371 20372 20373 20374 20375 20376 20377 20378 20379 20380 20381 20382 20383 20384 20385 20386 20387 20388 20389 20390 20391 20392 20393 20394 20395 20396 20397 20398 20399 20400 20401 20402 20403 20404 20405 20406 20407 20408 20409 20410 20411 20412 20413 20414 20415 20416 20417 20418 20419 20420 20421 20422 20423 20424 20425 20426 20427 20428 20429 20430 20431 20432 20433 20434 20435 20436 20437 20438 20439 20440 20441 20442 20443 20444 20445 20446 20447 20448 20449 20450 20451 20452 20453 20454 20455 20456 20457 20458 20459 20460 20461 20462 20463 20464 20465 20466 20467 20468 20469 20470 20471 20472 20473 20474 20475 20476 20477 20478 20479 20480 20481 20482 20483 20484 20485 20486 20487 20488 20489 20490 20491 20492 20493 20494 20495 20496 20497 20498 20499 20500 20501 20502 20503 20504 20505 20506 20507 20508 20509 20510 20511 20512 20513 20514 20515 20516 20517 20518 20519 20520 20521 20522 20523 20524 20525 20526 20527 20528 20529 20530 20531 20532 20533 20534 20535 20536 20537 20538 20539 20540 20541 20542 20543 20544 20545 20546 20547 20548 20549 20550 20551 20552 20553 20554 20555 20556 20557 20558 20559 20560 20561 20562 20563 20564 20565 20566 20567 20568 20569 20570 20571 20572 20573 20574 20575 20576 20577 20578 20579 20580 20581 20582 20583 20584 20585 20586 20587 20588 20589 20590 20591 20592 20593 20594 20595 20596 20597 20598 20599 20600 20601 20602 20603 20604 20605 20606 20607 20608 20609 20610 20611 20612 20613 20614 20615 20616 20617 20618 20619 20620 20621 20622 20623 20624 20625 20626 20627 20628 20629 20630 20631 20632 20633 20634 20635 20636 20637 20638 20639 20640 20641 20642 20643 20644 20645 20646 20647 20648 20649 20650 20651 20652 20653 20654 20655 20656 20657 20658 20659 20660 20661 20662 20663 20664 20665 20666 20667 20668 20669 20670 20671 20672 20673 20674 20675 20676 20677 20678 20679 20680 20681 20682 20683 20684 20685 20686 20687 20688 20689 20690 20691 20692 20693 20694 20695 20696 20697 20698 20699 20700 20701 20702 20703 20704 20705 20706 20707 20708 20709 20710 20711 20712 20713 20714 20715 20716 20717 20718 20719 20720 20721 20722 20723 20724 20725 20726 20727 20728 20729 20730 20731 20732 20733 20734 20735 20736 20737 20738 20739 20740 20741 20742 20743 20744 20745 20746 20747 20748 20749 20750 20751 20752 20753 20754 20755 20756 20757 20758 20759 20760 20761 20762 20763 20764 20765 20766 20767 20768 20769 20770 20771 20772 20773 20774 20775 20776 20777 20778 20779 20780 20781 20782 20783 20784 20785 20786 20787 20788 20789 20790 20791 20792 20793 20794 20795 20796 20797 20798 20799 20800 20801 20802 20803 20804 20805 20806 20807 20808 20809 20810 20811 20812 20813 20814 20815 20816 20817 20818 20819 20820 20821 20822 20823 20824 20825 20826 20827 20828 20829 20830 20831 20832 20833 20834 20835 20836 20837 20838 20839 20840 20841 20842 20843 20844 20845 20846 20847 20848 20849 20850 20851 20852 20853 20854 20855 20856 20857 20858 20859 20860 20861 20862 20863 20864 20865 20866 20867 20868 20869 20870 20871 20872 20873 20874 20875 20876 20877 20878 20879 20880 20881 20882 20883 20884 20885 20886 20887 20888 20889 20890 20891 20892 20893 20894 20895 20896 20897 20898 20899 20900 20901 20902 20903 20904 20905 20906 20907 20908 20909 20910 20911 20912 20913 20914 20915 20916 20917 20918 20919 20920 20921 20922 20923 20924 20925 20926 20927 20928 20929 20930 20931 20932 20933 20934 20935 20936 20937 20938 20939 20940 20941 20942 20943 20944 20945 20946 20947 20948 20949 20950 20951 20952 20953 20954 20955 20956 20957 20958 20959 20960 20961 20962 20963 20964 20965 20966 20967 20968 20969 20970 20971 20972 20973 20974 20975 20976 20977 20978 20979 20980 20981 20982 20983 20984 20985 20986 20987 20988 20989 20990 20991 20992 20993 20994 20995 20996 20997 20998 20999 21000 21001 21002 21003 21004 21005 21006 21007 21008 21009 21010 21011 21012 21013 21014 21015 21016 21017 21018 21019 21020 21021 21022 21023 21024 21025 21026 21027 21028 21029 21030 21031 21032 21033 21034 21035 21036 21037 21038 21039 21040 21041 21042 21043 21044 21045 21046 21047 21048 21049 21050 21051 21052 21053 21054 21055 21056 21057 21058 21059 21060 21061 21062 21063 21064 21065 21066 21067 21068 21069 21070 21071 21072 21073 21074 21075 21076 21077 21078 21079 21080 21081 21082 21083 21084 21085 21086 21087 21088 21089 21090 21091 21092 21093 21094 21095 21096 21097 21098 21099 21100 21101 21102 21103 21104 21105 21106 21107 21108 21109 21110 21111 21112 21113 21114 21115 21116 21117 21118 21119 21120 21121 21122 21123 21124 21125 21126 21127 21128 21129 21130 21131 21132 21133 21134 21135 21136 21137 21138 21139 21140 21141 21142 21143 21144 21145 21146 21147 21148 21149 21150 21151 21152 21153 21154 21155 21156 21157 21158 21159 21160 21161 21162 21163 21164 21165 21166 21167 21168 21169 21170 21171 21172 21173 21174 21175 21176 21177 21178 21179 21180 21181 21182 21183 21184 21185 21186 21187 21188 21189 21190 21191 21192 21193 21194 21195 21196 21197 21198 21199 21200 21201 21202 21203 21204 21205 21206 21207 21208 21209 21210 21211 21212 21213 21214 21215 21216 21217 21218 21219 21220 21221 21222 21223 21224 21225 21226 21227 21228 21229 21230 21231 21232 21233 21234 21235 21236 21237 21238 21239 21240 21241 21242 21243 21244 21245 21246 21247 21248 21249 21250 21251 21252 21253 21254 21255 21256 21257 21258 21259 21260 21261 21262 21263 21264 21265 21266 21267 21268 21269 21270 21271 21272 21273 21274 21275 21276 21277 21278 21279 21280 21281 21282 21283 21284 21285 21286 21287 21288 21289 21290 21291 21292 21293 21294 21295 21296 21297 21298 21299 21300 21301 21302 21303 21304 21305 21306 21307 21308 21309 21310 21311 21312 21313 21314 21315 21316 21317 21318 21319 21320 21321 21322 21323 21324 21325 21326 21327 21328 21329 21330 21331 21332 21333 21334 21335 21336 21337 21338 21339 21340 21341 21342 21343 21344 21345 21346 21347 21348 21349 21350 21351 21352 21353 21354 21355 21356 21357 21358 21359 21360 21361 21362 21363 21364 21365 21366 21367 21368 21369 21370 21371 21372 21373 21374 21375 21376 21377 21378 21379 21380 21381 21382 21383 21384 21385 21386 21387 21388 21389 21390 21391 21392 21393 21394 21395 21396 21397 21398 21399 21400 21401 21402 21403 21404 21405 21406 21407 21408 21409 21410 21411 21412 21413 21414 21415 21416 21417 21418 21419 21420 21421 21422 21423 21424 21425 21426 21427 21428 21429 21430 21431 21432 21433 21434 21435 21436 21437 21438 21439 21440 21441 21442 21443 21444 21445 21446 21447 21448 21449 21450 21451 21452 21453 21454 21455 21456 21457 21458 21459 21460 21461 21462 21463 21464 21465 21466 21467 21468 21469 21470 21471 21472 21473 21474 21475 21476 21477 21478 21479 21480 21481 21482 21483 21484 21485 21486 21487 21488 21489 21490 21491 21492 21493 21494 21495 21496 21497 21498 21499 21500 21501 21502 21503 21504 21505 21506 21507 21508 21509 21510 21511 21512 21513 21514 21515 21516 21517 21518 21519 21520 21521 21522 21523 21524 21525 21526 21527 21528 21529 21530 21531 21532 21533 21534 21535 21536 21537 21538 21539 21540 21541 21542 21543 21544 21545 21546 21547 21548 21549 21550 21551 21552 21553 21554 21555 21556 21557 21558 21559 21560 21561 21562 21563 21564 21565 21566 21567 21568 21569 21570 21571 21572 21573 21574 21575 21576 21577 21578 21579 21580 21581 21582 21583 21584 21585 21586 21587 21588 21589 21590 21591 21592 21593 21594 21595 21596 21597 21598 21599 21600 21601 21602 21603 21604 21605 21606 21607 21608 21609 21610 21611 21612 21613 21614 21615 21616 21617 21618 21619 21620 21621 21622 21623 21624 21625 21626 21627 21628 21629 21630 21631 21632 21633 21634 21635 21636 21637 21638 21639 21640 21641 21642 21643 21644 21645 21646 21647 21648 21649 21650 21651 21652 21653 21654 21655 21656 21657 21658 21659 21660 21661 21662 21663 21664 21665 21666 21667 21668 21669 21670 21671 21672 21673 21674 21675 21676 21677 21678 21679 21680 21681 21682 21683 21684 21685 21686 21687 21688 21689 21690 21691 21692 21693 21694 21695 21696 21697 21698 21699 21700 21701 21702 21703 21704 21705 21706 21707 21708 21709 21710 21711 21712 21713 21714 21715 21716 21717 21718 21719 21720 21721 21722 21723 21724 21725 21726 21727 21728 21729 21730 21731 21732 21733 21734 21735 21736 21737 21738 21739 21740 21741 21742 21743 21744 21745 21746 21747 21748 21749 21750 21751 21752 21753 21754 21755 21756 21757 21758 21759 21760 21761 21762 21763 21764 21765 21766 21767 21768 21769 21770 21771 21772 21773 21774 21775 21776 21777 21778 21779 21780 21781 21782 21783 21784 21785 21786 21787 21788 21789 21790 21791 21792 21793 21794 21795 21796 21797 21798 21799 21800 21801 21802 21803 21804 21805 21806 21807 21808 21809 21810 21811 21812 21813 21814 21815 21816 21817 21818 21819 21820 21821 21822 21823 21824 21825 21826 21827 21828 21829 21830 21831 21832 21833 21834 21835 21836 21837 21838 21839 21840 21841 21842 21843 21844 21845 21846 21847 21848 21849 21850 21851 21852 21853 21854 21855 21856 21857 21858 21859 21860 21861 21862 21863 21864 21865 21866 21867 21868 21869 21870 21871 21872 21873 21874 21875 21876 21877 21878 21879 21880 21881 21882 21883 21884 21885 21886 21887 21888 21889 21890 21891 21892 21893 21894 21895 21896 21897 21898 21899 21900 21901 21902 21903 21904 21905 21906 21907 21908 21909 21910 21911 21912 21913 21914 21915 21916 21917 21918 21919 21920 21921 21922 21923 21924 21925 21926 21927 21928 21929 21930 21931 21932 21933 21934 21935 21936 21937 21938 21939 21940 21941 21942 21943 21944 21945 21946 21947 21948 21949 21950 21951 21952 21953 21954 21955 21956 21957 21958 21959 21960 21961 21962 21963 21964 21965 21966 21967 21968 21969 21970 21971 21972 21973 21974 21975 21976 21977 21978 21979 21980 21981 21982 21983 21984 21985 21986 21987 21988 21989 21990 21991 21992 21993 21994 21995 21996 21997 21998 21999 22000 22001 22002 22003 22004 22005 22006 22007 22008 22009 22010 22011 22012 22013 22014 22015 22016 22017 22018 22019 22020 22021 22022 22023 22024 22025 22026 22027 22028 22029 22030 22031 22032 22033 22034 22035 22036 22037 22038 22039 22040 22041 22042 22043 22044 22045 22046 22047 22048 22049 22050 22051 22052 22053 22054 22055 22056 22057 22058 22059 22060 22061 22062 22063 22064 22065 22066 22067 22068 22069 22070 22071 22072 22073 22074 22075 22076 22077 22078 22079 22080 22081 22082 22083 22084 22085 22086 22087 22088 22089 22090 22091 22092 22093 22094 22095 22096 22097 22098 22099 22100 22101 22102 22103 22104 22105 22106 22107 22108 22109 22110 22111 22112 22113 22114 22115 22116 22117 22118 22119 22120 22121 22122 22123 22124 22125 22126 22127 22128 22129 22130 22131 22132 22133 22134 22135 22136 22137 22138 22139 22140 22141 22142 22143 22144 22145 22146 22147 22148 22149 22150 22151 22152 22153 22154 22155 22156 22157 22158 22159 22160 22161 22162 22163 22164 22165 22166 22167 22168 22169 22170 22171 22172 22173 22174 22175 22176 22177 22178 22179 22180 22181 22182 22183 22184 22185 22186 22187 22188 22189 22190 22191 22192 22193 22194 22195 22196 22197 22198 22199 22200 22201 22202 22203 22204 22205 22206 22207 22208 22209 22210 22211 22212 22213 22214 22215 22216 22217 22218 22219 22220 22221 22222 22223 22224 22225 22226 22227 22228 22229 22230 22231 22232 22233 22234 22235 22236 22237 22238 22239 22240 22241 22242 22243 22244 22245 22246 22247 22248 22249 22250 22251 22252 22253 22254 22255 22256 22257 22258 22259 22260 22261 22262 22263 22264 22265 22266 22267 22268 22269 22270 22271 22272 22273 22274 22275 22276 22277 22278 22279 22280 22281 22282 22283 22284 22285 22286 22287 22288 22289 22290 22291 22292 22293 22294 22295 22296 22297 22298 22299 22300 22301 22302 22303 22304 22305 22306 22307 22308 22309 22310 22311 22312 22313 22314 22315 22316 22317 22318 22319 22320 22321 22322 22323 22324 22325 22326 22327 22328 22329 22330 22331 22332 22333 22334 22335 22336 22337 22338 22339 22340 22341 22342 22343 22344 22345 22346 22347 22348 22349 22350 22351 22352 22353 22354 22355 22356 22357 22358 22359 22360 22361 22362 22363 22364 22365 22366 22367 22368 22369 22370 22371 22372 22373 22374 22375 22376 22377 22378 22379 22380 22381 22382 22383 22384 22385 22386 22387 22388 22389 22390 22391 22392 22393 22394 22395 22396 22397 22398 22399 22400 22401 22402 22403 22404 22405 22406 22407 22408 22409 22410 22411 22412 22413 22414 22415 22416 22417 22418 22419 22420 22421 22422 22423 22424 22425 22426 22427 22428 22429 22430 22431 22432 22433 22434 22435 22436 22437 22438 22439 22440 22441 22442 22443 22444 22445 22446 22447 22448 22449 22450 22451 22452 22453 22454 22455 22456 22457 22458 22459 22460 22461 22462 22463 22464 22465 22466 22467 22468 22469 22470 22471 22472 22473 22474 22475 22476 22477 22478 22479 22480 22481 22482 22483 22484 22485 22486 22487 22488 22489 22490 22491 22492 22493 22494 22495 22496 22497 22498 22499 22500 22501 22502 22503 22504 22505 22506 22507 22508 22509 22510 22511 22512 22513 22514 22515 22516 22517 22518 22519 22520 22521 22522 22523 22524 22525 22526 22527 22528 22529 22530 22531 22532 22533 22534 22535 22536 22537 22538 22539 22540 22541 22542 22543 22544 22545 22546 22547 22548 22549 22550 22551 22552 22553 22554 22555 22556 22557 22558 22559 22560 22561 22562 22563 22564 22565 22566 22567 22568 22569 22570 22571 22572 22573 22574 22575 22576 22577 22578 22579 22580 22581 22582 22583 22584 22585 22586 22587 22588 22589 22590 22591 22592 22593 22594 22595 22596 22597 22598 22599 22600 22601 22602 22603 22604 22605 22606 22607 22608 22609 22610 22611 22612 22613 22614 22615 22616 22617 22618 22619 22620 22621 22622 22623 22624 22625 22626 22627 22628 22629 22630 22631 22632 22633 22634 22635 22636 22637 22638 22639 22640 22641 22642 22643 22644 22645 22646 22647 22648 22649 22650 22651 22652 22653 22654 22655 22656 22657 22658 22659 22660 22661 22662 22663 22664 22665 22666 22667 22668 22669 22670 22671 22672 22673 22674 22675 22676 22677 22678 22679 22680 22681 22682 22683 22684 22685 22686 22687 22688 22689 22690 22691 22692 22693 22694 22695 22696 22697 22698 22699 22700 22701 22702 22703 22704 22705 22706 22707 22708 22709 22710 22711 22712 22713 22714 22715 22716 22717 22718 22719 22720 22721 22722 22723 22724 22725 22726 22727 22728 22729 22730 22731 22732 22733 22734 22735 22736 22737 22738 22739 22740 22741 22742 22743 22744 22745 22746 22747 22748 22749 22750 22751 22752 22753 22754 22755 22756 22757 22758 22759 22760 22761 22762 22763 22764 22765 22766 22767 22768 22769 22770 22771 22772 22773 22774 22775 22776 22777 22778 22779 22780 22781 22782 22783 22784 22785 22786 22787 22788 22789 22790 22791 22792 22793 22794 22795 22796 22797 22798 22799 22800 22801 22802 22803 22804 22805 22806 22807 22808 22809 22810 22811 22812 22813 22814 22815 22816 22817 22818 22819 22820 22821 22822 22823 22824 22825 22826 22827 22828 22829 22830 22831 22832 22833 22834 22835 22836 22837 22838 22839 22840 22841 22842 22843 22844 22845 22846 22847 22848 22849 22850 22851 22852 22853 22854 22855 22856 22857 22858 22859 22860 22861 22862 22863 22864 22865 22866 22867 22868 22869 22870 22871 22872 22873 22874 22875 22876 22877 22878 22879 22880 22881 22882 22883 22884 22885 22886 22887 22888 22889 22890 22891 22892 22893 22894 22895 22896 22897 22898 22899 22900 22901 22902 22903 22904 22905 22906 22907 22908 22909 22910 22911 22912 22913 22914 22915 22916 22917 22918 22919 22920 22921 22922 22923 22924 22925 22926 22927 22928 22929 22930 22931 22932 22933 22934 22935 22936 22937 22938 22939 22940 22941 22942 22943 22944 22945 22946 22947 22948 22949 22950 22951 22952 22953 22954 22955 22956 22957 22958 22959 22960 22961 22962 22963 22964 22965 22966 22967 22968 22969 22970 22971 22972 22973 22974 22975 22976 22977 22978 22979 22980 22981 22982 22983 22984 22985 22986 22987 22988 22989 22990 22991 22992 22993 22994 22995 22996 22997 22998 22999 23000 23001 23002 23003 23004 23005 23006 23007 23008 23009 23010 23011 23012 23013 23014 23015 23016 23017 23018 23019 23020 23021 23022 23023 23024 23025 23026 23027 23028 23029 23030 23031 23032 23033 23034 23035 23036 23037 23038 23039 23040 23041 23042 23043 23044 23045 23046 23047 23048 23049 23050 23051 23052 23053 23054 23055 23056 23057 23058 23059 23060 23061 23062 23063 23064 23065 23066 23067 23068 23069 23070 23071 23072 23073 23074 23075 23076 23077 23078 23079 23080 23081 23082 23083 23084 23085 23086 23087 23088 23089 23090 23091 23092 23093 23094 23095 23096 23097 23098 23099 23100 23101 23102 23103 23104 23105 23106 23107 23108 23109 23110 23111 23112 23113 23114 23115 23116 23117 23118 23119 23120 23121 23122 23123 23124 23125 23126 23127 23128 23129 23130 23131 23132 23133 23134 23135 23136 23137 23138 23139 23140 23141 23142 23143 23144 23145 23146 23147 23148 23149 23150 23151 23152 23153 23154 23155 23156 23157 23158 23159 23160 23161 23162 23163 23164 23165 23166 23167 23168 23169 23170 23171 23172 23173 23174 23175 23176 23177 23178 23179 23180 23181 23182 23183 23184 23185 23186 23187 23188 23189 23190 23191 23192 23193 23194 23195 23196 23197 23198 23199 23200 23201 23202 23203 23204 23205 23206 23207 23208 23209 23210 23211 23212 23213 23214 23215 23216 23217 23218 23219 23220 23221 23222 23223 23224 23225 23226 23227 23228 23229 23230 23231 23232 23233 23234 23235 23236 23237 23238 23239 23240 23241 23242 23243 23244 23245 23246 23247 23248 23249 23250 23251 23252 23253 23254 23255 23256 23257 23258 23259 23260 23261 23262 23263 23264 23265 23266 23267 23268 23269 23270 23271 23272 23273 23274 23275 23276 23277 23278 23279 23280 23281 23282 23283 23284 23285 23286 23287 23288 23289 23290 23291 23292 23293 23294 23295 23296 23297 23298 23299 23300 23301 23302 23303 23304 23305 23306 23307 23308 23309 23310 23311 23312 23313 23314 23315 23316 23317 23318 23319 23320 23321 23322 23323 23324 23325 23326 23327 23328 23329 23330 23331 23332 23333 23334 23335 23336 23337 23338 23339 23340 23341 23342 23343 23344 23345 23346 23347 23348 23349 23350 23351 23352 23353 23354 23355 23356 23357 23358 23359 23360 23361 23362 23363 23364 23365 23366 23367 23368 23369 23370 23371 23372 23373 23374 23375 23376 23377 23378 23379 23380 23381 23382 23383 23384 23385 23386 23387 23388 23389 23390 23391 23392 23393 23394 23395 23396 23397 23398 23399 23400 23401 23402 23403 23404 23405 23406 23407 23408 23409 23410 23411 23412 23413 23414 23415 23416 23417 23418 23419 23420 23421 23422 23423 23424 23425 23426 23427 23428 23429 23430 23431 23432 23433 23434 23435 23436 23437 23438 23439 23440 23441 23442 23443 23444 23445 23446 23447 23448 23449 23450 23451 23452 23453 23454 23455 23456 23457 23458 23459 23460 23461 23462 23463 23464 23465 23466 23467 23468 23469 23470 23471 23472 23473 23474 23475 23476 23477 23478 23479 23480 23481 23482 23483 23484 23485 23486 23487 23488 23489 23490 23491 23492 23493 23494 23495 23496 23497 23498 23499 23500 23501 23502 23503 23504 23505 23506 23507 23508 23509 23510 23511 23512 23513 23514 23515 23516 23517 23518 23519 23520 23521 23522 23523 23524 23525 23526 23527 23528 23529 23530 23531 23532 23533 23534 23535 23536 23537 23538 23539 23540 23541 23542 23543 23544 23545 23546 23547 23548 23549 23550 23551 23552 23553 23554 23555 23556 23557 23558 23559 23560 23561 23562 23563 23564 23565 23566 23567 23568 23569 23570 23571 23572 23573 23574 23575 23576 23577 23578 23579 23580 23581 23582 23583 23584 23585 23586 23587 23588 23589 23590 23591 23592 23593 23594 23595 23596 23597 23598 23599 23600 23601 23602 23603 23604 23605 23606 23607 23608 23609 23610 23611 23612 23613 23614 23615 23616 23617 23618 23619 23620 23621 23622 23623 23624 23625 23626 23627 23628 23629 23630 23631 23632 23633 23634 23635 23636 23637 23638 23639 23640 23641 23642 23643 23644 23645 23646 23647 23648 23649 23650 23651 23652 23653 23654 23655 23656 23657 23658 23659 23660 23661 23662 23663 23664 23665 23666 23667 23668 23669 23670 23671 23672 23673 23674 23675 23676 23677 23678 23679 23680 23681 23682 23683 23684 23685 23686 23687 23688 23689 23690 23691 23692 23693 23694 23695 23696 23697 23698 23699 23700 23701 23702 23703 23704 23705 23706 23707 23708 23709 23710 23711 23712 23713 23714 23715 23716 23717 23718 23719 23720 23721 23722 23723 23724 23725 23726 23727 23728 23729 23730 23731 23732 23733 23734 23735 23736 23737 23738 23739 23740 23741 23742 23743 23744 23745 23746 23747 23748 23749 23750 23751 23752 23753 23754 23755 23756 23757 23758 23759 23760 23761 23762 23763 23764 23765 23766 23767 23768 23769 23770 23771 23772 23773 23774 23775 23776 23777 23778 23779 23780 23781 23782 23783 23784 23785 23786 23787 23788 23789 23790 23791 23792 23793 23794 23795 23796 23797 23798 23799 23800 23801 23802 23803 23804 23805 23806 23807 23808 23809 23810 23811 23812 23813 23814 23815 23816 23817 23818 23819 23820 23821 23822 23823 23824 23825 23826 23827 23828 23829 23830 23831 23832 23833 23834 23835 23836 23837 23838 23839 23840 23841 23842 23843 23844 23845 23846 23847 23848 23849 23850 23851 23852 23853 23854 23855 23856 23857 23858 23859 23860 23861 23862 23863 23864 23865 23866 23867 23868 23869 23870 23871 23872 23873 23874 23875 23876 23877 23878 23879 23880 23881 23882 23883 23884 23885 23886 23887 23888 23889 23890 23891 23892 23893 23894 23895 23896 23897 23898 23899 23900 23901 23902 23903 23904 23905 23906 23907 23908 23909 23910 23911 23912 23913 23914 23915 23916 23917 23918 23919 23920 23921 23922 23923 23924 23925 23926 23927 23928 23929 23930 23931 23932 23933 23934 23935 23936 23937 23938 23939 23940 23941 23942 23943 23944 23945 23946 23947 23948 23949 23950 23951 23952 23953 23954 23955 23956 23957 23958 23959 23960 23961 23962 23963 23964 23965 23966 23967 23968 23969 23970 23971 23972 23973 23974 23975 23976 23977 23978 23979 23980 23981 23982 23983 23984 23985 23986 23987 23988 23989 23990 23991 23992 23993 23994 23995 23996 23997 23998 23999 24000 24001 24002 24003 24004 24005 24006 24007 24008 24009 24010 24011 24012 24013 24014 24015 24016 24017 24018 24019 24020 24021 24022 24023 24024 24025 24026 24027 24028 24029 24030 24031 24032 24033 24034 24035 24036 24037 24038 24039 24040 24041 24042 24043 24044 24045 24046 24047 24048 24049 24050 24051 24052 24053 24054 24055 24056 24057 24058 24059 24060 24061 24062 24063 24064 24065 24066 24067 24068 24069 24070 24071 24072 24073 24074 24075 24076 24077 24078 24079 24080 24081 24082 24083 24084 24085 24086 24087 24088 24089 24090 24091 24092 24093 24094 24095 24096 24097 24098 24099 24100 24101 24102 24103 24104 24105 24106 24107 24108 24109 24110 24111 24112 24113 24114 24115 24116 24117 24118 24119 24120 24121 24122 24123 24124 24125 24126 24127 24128 24129 24130 24131 24132 24133 24134 24135 24136 24137 24138 24139 24140 24141 24142 24143 24144 24145 24146 24147 24148 24149 24150 24151 24152 24153 24154 24155 24156 24157 24158 24159 24160 24161 24162 24163 24164 24165 24166 24167 24168 24169 24170 24171 24172 24173 24174 24175 24176 24177 24178 24179 24180 24181 24182 24183 24184 24185 24186 24187 24188 24189 24190 24191 24192 24193 24194 24195 24196 24197 24198 24199 24200 24201 24202 24203 24204 24205 24206 24207 24208 24209 24210 24211 24212 24213 24214 24215 24216 24217 24218 24219 24220 24221 24222 24223 24224 24225 24226 24227 24228 24229 24230 24231 24232 24233 24234 24235 24236 24237 24238 24239 24240 24241 24242 24243 24244 24245 24246 24247 24248 24249 24250 24251 24252 24253 24254 24255 24256 24257 24258 24259 24260 24261 24262 24263 24264 24265 24266 24267 24268 24269 24270 24271 24272 24273 24274 24275 24276 24277 24278 24279 24280 24281 24282 24283 24284 24285 24286 24287 24288 24289 24290 24291 24292 24293 24294 24295 24296 24297 24298 24299 24300 24301 24302 24303 24304 24305 24306 24307 24308 24309 24310 24311 24312 24313 24314 24315 24316 24317 24318 24319 24320 24321 24322 24323 24324 24325 24326 24327 24328 24329 24330 24331 24332 24333 24334 24335 24336 24337 24338 24339 24340 24341 24342 24343 24344 24345 24346 24347 24348 24349 24350 24351 24352 24353 24354 24355 24356 24357 24358 24359 24360 24361 24362 24363 24364 24365 24366 24367 24368 24369 24370 24371 24372 24373 24374 24375 24376 24377 24378 24379 24380 24381 24382 24383 24384 24385 24386 24387 24388 24389 24390 24391 24392 24393 24394 24395 24396 24397 24398 24399 24400 24401 24402 24403 24404 24405 24406 24407 24408 24409 24410 24411 24412 24413 24414 24415 24416 24417 24418 24419 24420 24421 24422 24423 24424 24425 24426 24427 24428 24429 24430 24431 24432 24433 24434 24435 24436 24437 24438 24439 24440 24441 24442 24443 24444 24445 24446 24447 24448 24449 24450 24451 24452 24453 24454 24455 24456 24457 24458 24459 24460 24461 24462 24463 24464 24465 24466 24467 24468 24469 24470 24471 24472 24473 24474 24475 24476 24477 24478 24479 24480 24481 24482 24483 24484 24485 24486 24487 24488 24489 24490 24491 24492 24493 24494 24495 24496 24497 24498 24499 24500 24501 24502 24503 24504 24505 24506 24507 24508 24509 24510 24511 24512 24513 24514 24515 24516 24517 24518 24519 24520 24521 24522 24523 24524 24525 24526 24527 24528 24529 24530 24531 24532 24533 24534 24535 24536 24537 24538 24539 24540 24541 24542 24543 24544 24545 24546 24547 24548 24549 24550 24551 24552 24553 24554 24555 24556 24557 24558 24559 24560 24561 24562 24563 24564 24565 24566 24567 24568 24569 24570 24571 24572 24573 24574 24575 24576 24577 24578 24579 24580 24581 24582 24583 24584 24585 24586 24587 24588 24589 24590 24591 24592 24593 24594 24595 24596 24597 24598 24599 24600 24601 24602 24603 24604 24605 24606 24607 24608 24609 24610 24611 24612 24613 24614 24615 24616 24617 24618 24619 24620 24621 24622 24623 24624 24625 24626 24627 24628 24629 24630 24631 24632 24633 24634 24635 24636 24637 24638 24639 24640 24641 24642 24643 24644 24645 24646 24647 24648 24649 24650 24651 24652 24653 24654 24655 24656 24657 24658 24659 24660 24661 24662 24663 24664 24665 24666 24667 24668 24669 24670 24671 24672 24673 24674 24675 24676 24677 24678 24679 24680 24681 24682 24683 24684 24685 24686 24687 24688 24689 24690 24691 24692 24693 24694 24695 24696 24697 24698 24699 24700 24701 24702 24703 24704 24705 24706 24707 24708 24709 24710 24711 24712 24713 24714 24715 24716 24717 24718 24719 24720 24721 24722 24723 24724 24725 24726 24727 24728 24729 24730 24731 24732 24733 24734 24735 24736 24737 24738 24739 24740 24741 24742 24743 24744 24745 24746 24747 24748 24749 24750 24751 24752 24753 24754 24755 24756 24757 24758 24759 24760 24761 24762 24763 24764 24765 24766 24767 24768 24769 24770 24771 24772 24773 24774 24775 24776 24777 24778 24779 24780 24781 24782 24783 24784 24785 24786 24787 24788 24789 24790 24791 24792 24793 24794 24795 24796 24797 24798 24799 24800 24801 24802 24803 24804 24805 24806 24807 24808 24809 24810 24811 24812 24813 24814 24815 24816 24817 24818 24819 24820 24821 24822 24823 24824 24825 24826 24827 24828 24829 24830 24831 24832 24833 24834 24835 24836 24837 24838 24839 24840 24841 24842 24843 24844 24845 24846 24847 24848 24849 24850 24851 24852 24853 24854 24855 24856 24857 24858 24859 24860 24861 24862 24863 24864 24865 24866 24867 24868 24869 24870 24871 24872 24873 24874 24875 24876 24877 24878 24879 24880 24881 24882 24883 24884 24885 24886 24887 24888 24889 24890 24891 24892 24893 24894 24895 24896 24897 24898 24899 24900 24901 24902 24903 24904 24905 24906 24907 24908 24909 24910 24911 24912 24913 24914 24915 24916 24917 24918 24919 24920 24921 24922 24923 24924 24925 24926 24927 24928 24929 24930 24931 24932 24933 24934 24935 24936 24937 24938 24939 24940 24941 24942 24943 24944 24945 24946 24947 24948 24949 24950 24951 24952 24953 24954 24955 24956 24957 24958 24959 24960 24961 24962 24963 24964 24965 24966 24967 24968 24969 24970 24971 24972 24973 24974 24975 24976 24977 24978 24979 24980 24981 24982 24983 24984 24985 24986 24987 24988 24989 24990 24991 24992 24993 24994 24995 24996 24997 24998 24999 25000 25001 25002 25003 25004 25005 25006 25007 25008 25009 25010 25011 25012 25013 25014 25015 25016 25017 25018 25019 25020 25021 25022 25023 25024 25025 25026 25027 25028 25029 25030 25031 25032 25033 25034 25035 25036 25037 25038 25039 25040 25041 25042 25043 25044 25045 25046 25047 25048 25049 25050 25051 25052 25053 25054 25055 25056 25057 25058 25059 25060 25061 25062 25063 25064 25065 25066 25067 25068 25069 25070 25071 25072 25073 25074 25075 25076 25077 25078 25079 25080 25081 25082 25083 25084 25085 25086 25087 25088 25089 25090 25091 25092 25093 25094 25095 25096 25097 25098 25099 25100 25101 25102 25103 25104 25105 25106 25107 25108 25109 25110 25111 25112 25113 25114 25115 25116 25117 25118 25119 25120 25121 25122 25123 25124 25125 25126 25127 25128 25129 25130 25131 25132 25133 25134 25135 25136 25137 25138 25139 25140 25141 25142 25143 25144 25145 25146 25147 25148 25149 25150 25151 25152 25153 25154 25155 25156 25157 25158 25159 25160 25161 25162 25163 25164 25165 25166 25167 25168 25169 25170 25171 25172 25173 25174 25175 25176 25177 25178 25179 25180 25181 25182 25183 25184 25185 25186 25187 25188 25189 25190 25191 25192 25193 25194 25195 25196 25197 25198 25199 25200 25201 25202 25203 25204 25205 25206 25207 25208 25209 25210 25211 25212 25213 25214 25215 25216 25217 25218 25219 25220 25221 25222 25223 25224 25225 25226 25227 25228 25229 25230 25231 25232 25233 25234 25235 25236 25237 25238 25239 25240 25241 25242 25243 25244 25245 25246 25247 25248 25249 25250 25251 25252 25253 25254 25255 25256 25257 25258 25259 25260 25261 25262 25263 25264 25265 25266 25267 25268 25269 25270 25271 25272 25273 25274 25275 25276 25277 25278 25279 25280 25281 25282 25283 25284 25285 25286 25287 25288 25289 25290 25291 25292 25293 25294 25295 25296 25297 25298 25299 25300 25301 25302 25303 25304 25305 25306 25307 25308 25309 25310 25311 25312 25313 25314 25315 25316 25317 25318 25319 25320 25321 25322 25323 25324 25325 25326 25327 25328 25329 25330 25331 25332 25333 25334 25335 25336 25337 25338 25339 25340 25341 25342 25343 25344 25345 25346 25347 25348 25349 25350 25351 25352 25353 25354 25355 25356 25357 25358 25359 25360 25361 25362 25363 25364 25365 25366 25367 25368 25369 25370 25371 25372 25373 25374 25375 25376 25377 25378 25379 25380 25381 25382 25383 25384 25385 25386 25387 25388 25389 25390 25391 25392 25393 25394 25395 25396 25397 25398 25399 25400 25401 25402 25403 25404 25405 25406 25407 25408 25409 25410 25411 25412 25413 25414 25415 25416 25417 25418 25419 25420 25421 25422 25423 25424 25425 25426 25427 25428 25429 25430 25431 25432 25433 25434 25435 25436 25437 25438 25439 25440 25441 25442 25443 25444 25445 25446 25447 25448 25449 25450 25451 25452 25453 25454 25455 25456 25457 25458 25459 25460 25461 25462 25463 25464 25465 25466 25467 25468 25469 25470 25471 25472 25473 25474 25475 25476 25477 25478 25479 25480 25481 25482 25483 25484 25485 25486 25487 25488 25489 25490 25491 25492 25493 25494 25495 25496 25497 25498 25499 25500 25501 25502 25503 25504 25505 25506 25507 25508 25509 25510 25511 25512 25513 25514 25515 25516 25517 25518 25519 25520 25521 25522 25523 25524 25525 25526 25527 25528 25529 25530 25531 25532 25533 25534 25535 25536 25537 25538 25539 25540 25541 25542 25543 25544 25545 25546 25547 25548 25549 25550 25551 25552 25553 25554 25555 25556 25557 25558 25559 25560 25561 25562 25563 25564 25565 25566 25567 25568 25569 25570 25571 25572 25573 25574 25575 25576 25577 25578 25579 25580 25581 25582 25583 25584 25585 25586 25587 25588 25589 25590 25591 25592 25593 25594 25595 25596 25597 25598 25599 25600 25601 25602 25603 25604 25605 25606 25607 25608 25609 25610 25611 25612 25613 25614 25615 25616 25617 25618 25619 25620 25621 25622 25623 25624 25625 25626 25627 25628 25629 25630 25631 25632 25633 25634 25635 25636 25637 25638 25639 25640 25641 25642 25643 25644 25645 25646 25647 25648 25649 25650 25651 25652 25653 25654 25655 25656 25657 25658 25659 25660 25661 25662 25663 25664 25665 25666 25667 25668 25669 25670 25671 25672 25673 25674 25675 25676 25677 25678 25679 25680 25681 25682 25683 25684 25685 25686 25687 25688 25689 25690 25691 25692 25693 25694 25695 25696 25697 25698 25699 25700 25701 25702 25703 25704 25705 25706 25707 25708 25709 25710 25711 25712 25713 25714 25715 25716 25717 25718 25719 25720 25721 25722 25723 25724 25725 25726 25727 25728 25729 25730 25731 25732 25733 25734 25735 25736 25737 25738 25739 25740 25741 25742 25743 25744 25745 25746 25747 25748 25749 25750 25751 25752 25753 25754 25755 25756 25757 25758 25759 25760 25761 25762 25763 25764 25765 25766 25767 25768 25769 25770 25771 25772 25773 25774 25775 25776 25777 25778 25779 25780 25781 25782 25783 25784 25785 25786 25787 25788 25789 25790 25791 25792 25793 25794 25795 25796 25797 25798 25799 25800 25801 25802 25803 25804 25805 25806 25807 25808 25809 25810 25811 25812 25813 25814 25815 25816 25817 25818 25819 25820 25821 25822 25823 25824 25825 25826 25827 25828 25829 25830 25831 25832 25833 25834 25835 25836 25837 25838 25839 25840 25841 25842 25843 25844 25845 25846 25847 25848 25849 25850 25851 25852 25853 25854 25855 25856 25857 25858 25859 25860 25861 25862 25863 25864 25865 25866 25867 25868 25869 25870 25871 25872 25873 25874 25875 25876 25877 25878 25879 25880 25881 25882 25883 25884 25885 25886 25887 25888 25889 25890 25891 25892 25893 25894 25895 25896 25897 25898 25899 25900 25901 25902 25903 25904 25905 25906 25907 25908 25909 25910 25911 25912 25913 25914 25915 25916 25917 25918 25919 25920 25921 25922 25923 25924 25925 25926 25927 25928 25929 25930 25931 25932 25933 25934 25935 25936 25937 25938 25939 25940 25941 25942 25943 25944 25945 25946 25947 25948 25949 25950 25951 25952 25953 25954 25955 25956 25957 25958 25959 25960 25961 25962 25963 25964 25965 25966 25967 25968 25969 25970 25971 25972 25973 25974 25975 25976 25977 25978 25979 25980 25981 25982 25983 25984 25985 25986 25987 25988 25989 25990 25991 25992 25993 25994 25995 25996 25997 25998 25999 26000 26001 26002 26003 26004 26005 26006 26007 26008 26009 26010 26011 26012 26013 26014 26015 26016 26017 26018 26019 26020 26021 26022 26023 26024 26025 26026 26027 26028 26029 26030 26031 26032 26033 26034 26035 26036 26037 26038 26039 26040 26041 26042 26043 26044 26045 26046 26047 26048 26049 26050 26051 26052 26053 26054 26055 26056 26057 26058 26059 26060 26061 26062 26063 26064 26065 26066 26067 26068 26069 26070 26071 26072 26073 26074 26075 26076 26077 26078 26079 26080 26081 26082 26083 26084 26085 26086 26087 26088 26089 26090 26091 26092 26093 26094 26095 26096 26097 26098 26099 26100 26101 26102 26103 26104 26105 26106 26107 26108 26109 26110 26111 26112 26113 26114 26115 26116 26117 26118 26119 26120 26121 26122 26123 26124 26125 26126 26127 26128 26129 26130 26131 26132 26133 26134 26135 26136 26137 26138 26139 26140 26141 26142 26143 26144 26145 26146 26147 26148 26149 26150 26151 26152 26153 26154 26155 26156 26157 26158 26159 26160 26161 26162 26163 26164 26165 26166 26167 26168 26169 26170 26171 26172 26173 26174 26175 26176 26177 26178 26179 26180 26181 26182 26183 26184 26185 26186 26187 26188 26189 26190 26191 26192 26193 26194 26195 26196 26197 26198 26199 26200 26201 26202 26203 26204 26205 26206 26207 26208 26209 26210 26211 26212 26213 26214 26215 26216 26217 26218 26219 26220 26221 26222 26223 26224 26225 26226 26227 26228 26229 26230 26231 26232 26233 26234 26235 26236 26237 26238 26239 26240 26241 26242 26243 26244 26245 26246 26247 26248 26249 26250 26251 26252 26253 26254 26255 26256 26257 26258 26259 26260 26261 26262 26263 26264 26265 26266 26267 26268 26269 26270 26271 26272 26273 26274 26275 26276 26277 26278 26279 26280 26281 26282 26283 26284 26285 26286 26287 26288 26289 26290 26291 26292 26293 26294 26295 26296 26297 26298 26299 26300 26301 26302 26303 26304 26305 26306 26307 26308 26309 26310 26311 26312 26313 26314 26315 26316 26317 26318 26319 26320 26321 26322 26323 26324 26325 26326 26327 26328 26329 26330 26331 26332 26333 26334 26335 26336 26337 26338 26339 26340 26341 26342 26343 26344 26345 26346 26347 26348 26349 26350 26351 26352 26353 26354 26355 26356 26357 26358 26359 26360 26361 26362 26363 26364 26365 26366 26367 26368 26369 26370 26371 26372 26373 26374 26375 26376 26377 26378 26379 26380 26381 26382 26383 26384 26385 26386 26387 26388 26389 26390 26391 26392 26393 26394 26395 26396 26397 26398 26399 26400 26401 26402 26403 26404 26405 26406 26407 26408 26409 26410 26411 26412 26413 26414 26415 26416 26417 26418 26419 26420 26421 26422 26423 26424 26425 26426 26427 26428 26429 26430 26431 26432 26433 26434 26435 26436 26437 26438 26439 26440 26441 26442 26443 26444 26445 26446 26447 26448 26449 26450 26451 26452 26453 26454 26455 26456 26457 26458 26459 26460 26461 26462 26463 26464 26465 26466 26467 26468 26469 26470 26471 26472 26473 26474 26475 26476 26477 26478 26479 26480 26481 26482 26483 26484 26485 26486 26487 26488 26489 26490 26491 26492 26493 26494 26495 26496 26497 26498 26499 26500 26501 26502 26503 26504 26505 26506 26507 26508 26509 26510 26511 26512 26513 26514 26515 26516 26517 26518 26519 26520 26521 26522 26523 26524 26525 26526 26527 26528 26529 26530 26531 26532 26533 26534 26535 26536 26537 26538 26539 26540 26541 26542 26543 26544 26545 26546 26547 26548 26549 26550 26551 26552 26553 26554 26555 26556 26557 26558 26559 26560 26561 26562 26563 26564 26565 26566 26567 26568 26569 26570 26571 26572 26573 26574 26575 26576 26577 26578 26579 26580 26581 26582 26583 26584 26585 26586 26587 26588 26589 26590 26591 26592 26593 26594 26595 26596 26597 26598 26599 26600 26601 26602 26603 26604 26605 26606 26607 26608 26609 26610 26611 26612 26613 26614 26615 26616 26617 26618 26619 26620 26621 26622 26623 26624 26625 26626 26627 26628 26629 26630 26631 26632 26633 26634 26635 26636 26637 26638 26639 26640 26641 26642 26643 26644 26645 26646 26647 26648 26649 26650 26651 26652 26653 26654 26655 26656 26657 26658 26659 26660 26661 26662 26663 26664 26665 26666 26667 26668 26669 26670 26671 26672 26673 26674 26675 26676 26677 26678 26679 26680 26681 26682 26683 26684 26685 26686 26687 26688 26689 26690 26691 26692 26693 26694 26695 26696 26697 26698 26699 26700 26701 26702 26703 26704 26705 26706 26707 26708 26709 26710 26711 26712 26713 26714 26715 26716 26717 26718 26719 26720 26721 26722 26723 26724 26725 26726 26727 26728 26729 26730 26731 26732 26733 26734 26735 26736 26737 26738 26739 26740 26741 26742 26743 26744 26745 26746 26747 26748 26749 26750 26751 26752 26753 26754 26755 26756 26757 26758 26759 26760 26761 26762 26763 26764 26765 26766 26767 26768 26769 26770 26771 26772 26773 26774 26775 26776 26777 26778 26779 26780 26781 26782 26783 26784 26785 26786 26787 26788 26789 26790 26791 26792 26793 26794 26795 26796 26797 26798 26799 26800 26801 26802 26803 26804 26805 26806 26807 26808 26809 26810 26811 26812 26813 26814 26815 26816 26817 26818 26819 26820 26821 26822 26823 26824 26825 26826 26827 26828 26829 26830 26831 26832 26833 26834 26835 26836 26837 26838 26839 26840 26841 26842 26843 26844 26845 26846 26847 26848 26849 26850 26851 26852 26853 26854 26855 26856 26857 26858 26859 26860 26861 26862 26863 26864 26865 26866 26867 26868 26869 26870 26871 26872 26873 26874 26875 26876 26877 26878 26879 26880 26881 26882 26883 26884 26885 26886 26887 26888 26889 26890 26891 26892 26893 26894 26895 26896 26897 26898 26899 26900 26901 26902 26903 26904 26905 26906 26907 26908 26909 26910 26911 26912 26913 26914 26915 26916 26917 26918 26919 26920 26921 26922 26923 26924 26925 26926 26927 26928 26929 26930 26931 26932 26933 26934 26935 26936 26937 26938 26939 26940 26941 26942 26943 26944 26945 26946 26947 26948 26949 26950 26951 26952 26953 26954 26955 26956 26957 26958 26959 26960 26961 26962 26963 26964 26965 26966 26967 26968 26969 26970 26971 26972 26973 26974 26975 26976 26977 26978 26979 26980 26981 26982 26983 26984 26985 26986 26987 26988 26989 26990 26991 26992 26993 26994 26995 26996 26997 26998 26999 27000 27001 27002 27003 27004 27005 27006 27007 27008 27009 27010 27011 27012 27013 27014 27015 27016 27017 27018 27019 27020 27021 27022 27023 27024 27025 27026 27027 27028 27029 27030 27031 27032 27033 27034 27035 27036 27037 27038 27039 27040 27041 27042 27043 27044 27045 27046 27047 27048 27049 27050 27051 27052 27053 27054 27055 27056 27057 27058 27059 27060 27061 27062 27063 27064 27065 27066 27067 27068 27069 27070 27071 27072 27073 27074 27075 27076 27077 27078 27079 27080 27081 27082 27083 27084 27085 27086 27087 27088 27089 27090 27091 27092 27093 27094 27095 27096 27097 27098 27099 27100 27101 27102 27103 27104 27105 27106 27107 27108 27109 27110 27111 27112 27113 27114 27115 27116 27117 27118 27119 27120 27121 27122 27123 27124 27125 27126 27127 27128 27129 27130 27131 27132 27133 27134 27135 27136 27137 27138 27139 27140 27141 27142 27143 27144 27145 27146 27147 27148 27149 27150 27151 27152 27153 27154 27155 27156 27157 27158 27159 27160 27161 27162 27163 27164 27165 27166 27167 27168 27169 27170 27171 27172 27173 27174 27175 27176 27177 27178 27179 27180 27181 27182 27183 27184 27185 27186 27187 27188 27189 27190 27191 27192 27193 27194 27195 27196 27197 27198 27199 27200 27201 27202 27203 27204 27205 27206 27207 27208 27209 27210 27211 27212 27213 27214 27215 27216 27217 27218 27219 27220 27221 27222 27223 27224 27225 27226 27227 27228 27229 27230 27231 27232 27233 27234 27235 27236 27237 27238 27239 27240 27241 27242 27243 27244 27245 27246 27247 27248 27249 27250 27251 27252 27253 27254 27255 27256 27257 27258 27259 27260 27261 27262 27263 27264 27265 27266 27267 27268 27269 27270 27271 27272 27273 27274 27275 27276 27277 27278 27279 27280 27281 27282 27283 27284 27285 27286 27287 27288 27289 27290 27291 27292 27293 27294 27295 27296 27297 27298 27299 27300 27301 27302 27303 27304 27305 27306 27307 27308 27309 27310 27311 27312 27313 27314 27315 27316 27317 27318 27319 27320 27321 27322 27323 27324 27325 27326 27327 27328 27329 27330 27331 27332 27333 27334 27335 27336 27337 27338 27339 27340 27341 27342 27343 27344 27345 27346 27347 27348 27349 27350 27351 27352 27353 27354 27355 27356 27357 27358 27359 27360 27361 27362 27363 27364 27365 27366 27367 27368 27369 27370 27371 27372 27373 27374 27375 27376 27377 27378 27379 27380 27381 27382 27383 27384 27385 27386 27387 27388 27389 27390 27391 27392 27393 27394 27395 27396 27397 27398 27399 27400 27401 27402 27403 27404 27405 27406 27407 27408 27409 27410 27411 27412 27413 27414 27415 27416 27417 27418 27419 27420 27421 27422 27423 27424 27425 27426 27427 27428 27429 27430 27431 27432 27433 27434 27435 27436 27437 27438 27439 27440 27441 27442 27443 27444 27445 27446 27447 27448 27449 27450 27451 27452 27453 27454 27455 27456 27457 27458 27459 27460 27461 27462 27463 27464 27465 27466 27467 27468 27469 27470 27471 27472 27473 27474 27475 27476 27477 27478 27479 27480 27481 27482 27483 27484 27485 27486 27487 27488 27489 27490 27491 27492 27493 27494 27495 27496 27497 27498 27499 27500 27501 27502 27503 27504 27505 27506 27507 27508 27509 27510 27511 27512 27513 27514 27515 27516 27517 27518 27519 27520 27521 27522 27523 27524 27525 27526 27527 27528 27529 27530 27531 27532 27533 27534 27535 27536 27537 27538 27539 27540 27541 27542 27543 27544 27545 27546 27547 27548 27549 27550 27551 27552 27553 27554 27555 27556 27557 27558 27559 27560 27561 27562 27563 27564 27565 27566 27567 27568 27569 27570 27571 27572 27573 27574 27575 27576 27577 27578 27579 27580 27581 27582 27583 27584 27585 27586 27587 27588 27589 27590 27591 27592 27593 27594 27595 27596 27597 27598 27599 27600 27601 27602 27603 27604 27605 27606 27607 27608 27609 27610 27611 27612 27613 27614 27615 27616 27617 27618 27619 27620 27621 27622 27623 27624 27625 27626 27627 27628 27629 27630 27631 27632 27633 27634 27635 27636 27637 27638 27639 27640 27641 27642 27643 27644 27645 27646 27647 27648 27649 27650 27651 27652 27653 27654 27655 27656 27657 27658 27659 27660 27661 27662 27663 27664 27665 27666 27667 27668 27669 27670 27671 27672 27673 27674 27675 27676 27677 27678 27679 27680 27681 27682 27683 27684 27685 27686 27687 27688 27689 27690 27691 27692 27693 27694 27695 27696 27697 27698 27699 27700 27701 27702 27703 27704 27705 27706 27707 27708 27709 27710 27711 27712 27713 27714 27715 27716 27717 27718 27719 27720 27721 27722 27723 27724 27725 27726 27727 27728 27729 27730 27731 27732 27733 27734 27735 27736 27737 27738 27739 27740 27741 27742 27743 27744 27745 27746 27747 27748 27749 27750 27751 27752 27753 27754 27755 27756 27757 27758 27759 27760 27761 27762 27763 27764 27765 27766 27767 27768 27769 27770 27771 27772 27773 27774 27775 27776 27777 27778 27779 27780 27781 27782 27783 27784 27785 27786 27787 27788 27789 27790 27791 27792 27793 27794 27795 27796 27797 27798 27799 27800 27801 27802 27803 27804 27805 27806 27807 27808 27809 27810 27811 27812 27813 27814 27815 27816 27817 27818 27819 27820 27821 27822 27823 27824 27825 27826 27827 27828 27829 27830 27831 27832 27833 27834 27835 27836 27837 27838 27839 27840 27841 27842 27843 27844 27845 27846 27847 27848 27849 27850 27851 27852 27853 27854 27855 27856 27857 27858 27859 27860 27861 27862 27863 27864 27865 27866 27867 27868 27869 27870 27871 27872 27873 27874 27875 27876 27877 27878 27879 27880 27881 27882 27883 27884 27885 27886 27887 27888 27889 27890 27891 27892 27893 27894 27895 27896 27897 27898 27899 27900 27901 27902 27903 27904 27905 27906 27907 27908 27909 27910 27911 27912 27913 27914 27915 27916 27917 27918 27919 27920 27921 27922 27923 27924 27925 27926 27927 27928 27929 27930 27931 27932 27933 27934 27935 27936 27937 27938 27939 27940 27941 27942 27943 27944 27945 27946 27947 27948 27949 27950 27951 27952 27953 27954 27955 27956 27957 27958 27959 27960 27961 27962 27963 27964 27965 27966 27967 27968 27969 27970 27971 27972 27973 27974 27975 27976 27977 27978 27979 27980 27981 27982 27983 27984 27985 27986 27987 27988 27989 27990 27991 27992 27993 27994 27995 27996 27997 27998 27999 28000 28001 28002 28003 28004 28005 28006 28007 28008 28009 28010 28011 28012 28013 28014 28015 28016 28017 28018 28019 28020 28021 28022 28023 28024 28025 28026 28027 28028 28029 28030 28031 28032 28033 28034 28035 28036 28037 28038 28039 28040 28041 28042 28043 28044 28045 28046 28047 28048 28049 28050 28051 28052 28053 28054 28055 28056 28057 28058 28059 28060 28061 28062 28063 28064 28065 28066 28067 28068 28069 28070 28071 28072 28073 28074 28075 28076 28077 28078 28079 28080 28081 28082 28083 28084 28085 28086 28087 28088 28089 28090 28091 28092 28093 28094 28095 28096 28097 28098 28099 28100 28101 28102 28103 28104 28105 28106 28107 28108 28109 28110 28111 28112 28113 28114 28115 28116 28117 28118 28119 28120 28121 28122 28123 28124 28125 28126 28127 28128 28129 28130 28131 28132 28133 28134 28135 28136 28137 28138 28139 28140 28141 28142 28143 28144 28145 28146 28147 28148 28149 28150 28151 28152 28153 28154 28155 28156 28157 28158 28159 28160 28161 28162 28163 28164 28165 28166 28167 28168 28169 28170 28171 28172 28173 28174 28175 28176 28177 28178 28179 28180 28181 28182 28183 28184 28185 28186 28187 28188 28189 28190 28191 28192 28193 28194 28195 28196 28197 28198 28199 28200 28201 28202 28203 28204 28205 28206 28207 28208 28209 28210 28211 28212 28213 28214 28215 28216 28217 28218 28219 28220 28221 28222 28223 28224 28225 28226 28227 28228 28229 28230 28231 28232 28233 28234 28235 28236 28237 28238 28239 28240 28241 28242 28243 28244 28245 28246 28247 28248 28249 28250 28251 28252 28253 28254 28255 28256 28257 28258 28259 28260 28261 28262 28263 28264 28265 28266 28267 28268 28269 28270 28271 28272 28273 28274 28275 28276 28277 28278 28279 28280 28281 28282 28283 28284 28285 28286 28287 28288 28289 28290 28291 28292 28293 28294 28295 28296 28297 28298 28299 28300 28301 28302 28303 28304 28305 28306 28307 28308 28309 28310 28311 28312 28313 28314 28315 28316 28317 28318 28319 28320 28321 28322 28323 28324 28325 28326 28327 28328 28329 28330 28331 28332 28333 28334 28335 28336 28337 28338 28339 28340 28341 28342 28343 28344 28345 28346 28347 28348 28349 28350 28351 28352 28353 28354 28355 28356 28357 28358 28359 28360 28361 28362 28363 28364 28365 28366 28367 28368 28369 28370 28371 28372 28373 28374 28375 28376 28377 28378 28379 28380 28381 28382 28383 28384 28385 28386 28387 28388 28389 28390 28391 28392 28393 28394 28395 28396 28397 28398 28399 28400 28401 28402 28403 28404 28405 28406 28407 28408 28409 28410 28411 28412 28413 28414 28415 28416 28417 28418 28419 28420 28421 28422 28423 28424 28425 28426 28427 28428 28429 28430 28431 28432 28433 28434 28435 28436 28437 28438 28439 28440 28441 28442 28443 28444 28445 28446 28447 28448 28449 28450 28451 28452 28453 28454 28455 28456 28457 28458 28459 28460 28461 28462 28463 28464 28465 28466 28467 28468 28469 28470 28471 28472 28473 28474 28475 28476 28477 28478 28479 28480 28481 28482 28483 28484 28485 28486 28487 28488 28489 28490 28491 28492 28493 28494 28495 28496 28497 28498 28499 28500 28501 28502 28503 28504 28505 28506 28507 28508 28509 28510 28511 28512 28513 28514 28515 28516 28517 28518 28519 28520 28521 28522 28523 28524 28525 28526 28527 28528 28529 28530 28531 28532 28533 28534 28535 28536 28537 28538 28539 28540 28541 28542 28543 28544 28545 28546 28547 28548 28549 28550 28551 28552 28553 28554 28555 28556 28557 28558 28559 28560 28561 28562 28563 28564 28565 28566 28567 28568 28569 28570 28571 28572 28573 28574 28575 28576 28577 28578 28579 28580 28581 28582 28583 28584 28585 28586 28587 28588 28589 28590 28591 28592 28593 28594 28595 28596 28597 28598 28599 28600 28601 28602 28603 28604 28605 28606 28607 28608 28609 28610 28611 28612 28613 28614 28615 28616 28617 28618 28619 28620 28621 28622 28623 28624 28625 28626 28627 28628 28629 28630 28631 28632 28633 28634 28635 28636 28637 28638 28639 28640 28641 28642 28643 28644 28645 28646 28647 28648 28649 28650 28651 28652 28653 28654 28655 28656 28657 28658 28659 28660 28661 28662 28663 28664 28665 28666 28667 28668 28669 28670 28671 28672 28673 28674 28675 28676 28677 28678 28679 28680 28681 28682 28683 28684 28685 28686 28687 28688 28689 28690 28691 28692 28693 28694 28695 28696 28697 28698 28699 28700 28701 28702 28703 28704 28705 28706 28707 28708 28709 28710 28711 28712 28713 28714 28715 28716 28717 28718 28719 28720 28721 28722 28723 28724 28725 28726 28727 28728 28729 28730 28731 28732 28733 28734 28735 28736 28737 28738 28739 28740 28741 28742 28743 28744 28745 28746 28747 28748 28749 28750 28751 28752 28753 28754 28755 28756 28757 28758 28759 28760 28761 28762 28763 28764 28765 28766 28767 28768 28769 28770 28771 28772 28773 28774 28775 28776 28777 28778 28779 28780 28781 28782 28783 28784 28785 28786 28787 28788 28789 28790 28791 28792 28793 28794 28795 28796 28797 28798 28799 28800 28801 28802 28803 28804 28805 28806 28807 28808 28809 28810 28811 28812 28813 28814 28815 28816 28817 28818 28819 28820 28821 28822 28823 28824 28825 28826 28827 28828 28829 28830 28831 28832 28833 28834 28835 28836 28837 28838 28839 28840 28841 28842 28843 28844 28845 28846 28847 28848 28849 28850 28851 28852 28853 28854 28855 28856 28857 28858 28859 28860 28861 28862 28863 28864 28865 28866 28867 28868 28869 28870 28871 28872 28873 28874 28875 28876 28877 28878 28879 28880 28881 28882 28883 28884 28885 28886 28887 28888 28889 28890 28891 28892 28893 28894 28895 28896 28897 28898 28899 28900 28901 28902 28903 28904 28905 28906 28907 28908 28909 28910 28911 28912 28913 28914 28915 28916 28917 28918 28919 28920 28921 28922 28923 28924 28925 28926 28927 28928 28929 28930 28931 28932 28933 28934 28935 28936 28937 28938 28939 28940 28941 28942 28943 28944 28945 28946 28947 28948 28949 28950 28951 28952 28953 28954 28955 28956 28957 28958 28959 28960 28961 28962 28963 28964 28965 28966 28967 28968 28969 28970 28971 28972 28973 28974 28975 28976 28977 28978 28979 28980 28981 28982 28983 28984 28985 28986 28987 28988 28989 28990 28991 28992 28993 28994 28995 28996 28997 28998 28999 29000 29001 29002 29003 29004 29005 29006 29007 29008 29009 29010 29011 29012 29013 29014 29015 29016 29017 29018 29019 29020 29021 29022 29023 29024 29025 29026 29027 29028 29029 29030 29031 29032 29033 29034 29035 29036 29037 29038 29039 29040 29041 29042 29043 29044 29045 29046 29047 29048 29049 29050 29051 29052 29053 29054 29055 29056 29057 29058 29059 29060 29061 29062 29063 29064 29065 29066 29067 29068 29069 29070 29071 29072 29073 29074 29075 29076 29077 29078 29079 29080 29081 29082 29083 29084 29085 29086 29087 29088 29089 29090 29091 29092 29093 29094 29095 29096 29097 29098 29099 29100 29101 29102 29103 29104 29105 29106 29107 29108 29109 29110 29111 29112 29113 29114 29115 29116 29117 29118 29119 29120 29121 29122 29123 29124 29125 29126 29127 29128 29129 29130 29131 29132 29133 29134 29135 29136 29137 29138 29139 29140 29141 29142 29143 29144 29145 29146 29147 29148 29149 29150 29151 29152 29153 29154 29155 29156 29157 29158 29159 29160 29161 29162 29163 29164 29165 29166 29167 29168 29169 29170 29171 29172 29173 29174 29175 29176 29177 29178 29179 29180 29181 29182 29183 29184 29185 29186 29187 29188 29189 29190 29191 29192 29193 29194 29195 29196 29197 29198 29199 29200 29201 29202 29203 29204 29205 29206 29207 29208 29209 29210 29211 29212 29213 29214 29215 29216 29217 29218 29219 29220 29221 29222 29223 29224 29225 29226 29227 29228 29229 29230 29231 29232 29233 29234 29235 29236 29237 29238 29239 29240 29241 29242 29243 29244 29245 29246 29247 29248 29249 29250 29251 29252 29253 29254 29255 29256 29257 29258 29259 29260 29261 29262 29263 29264 29265 29266 29267 29268 29269 29270 29271 29272 29273 29274 29275 29276 29277 29278 29279 29280 29281 29282 29283 29284 29285 29286 29287 29288 29289 29290 29291 29292 29293 29294 29295 29296 29297 29298 29299 29300 29301 29302 29303 29304 29305 29306 29307 29308 29309 29310 29311 29312 29313 29314 29315 29316 29317 29318 29319 29320 29321 29322 29323 29324 29325 29326 29327 29328 29329 29330 29331 29332 29333 29334 29335 29336 29337 29338 29339 29340 29341 29342 29343 29344 29345 29346 29347 29348 29349 29350 29351 29352 29353 29354 29355 29356 29357 29358 29359 29360 29361 29362 29363 29364 29365 29366 29367 29368 29369 29370 29371 29372 29373 29374 29375 29376 29377 29378 29379 29380 29381 29382 29383 29384 29385 29386 29387 29388 29389 29390 29391 29392 29393 29394 29395 29396 29397 29398 29399 29400 29401 29402 29403 29404 29405 29406 29407 29408 29409 29410 29411 29412 29413 29414 29415 29416 29417 29418 29419 29420 29421 29422 29423 29424 29425 29426 29427 29428 29429 29430 29431 29432 29433 29434 29435 29436 29437 29438 29439 29440 29441 29442 29443 29444 29445 29446 29447 29448 29449 29450 29451 29452 29453 29454 29455 29456 29457 29458 29459 29460 29461 29462 29463 29464 29465 29466 29467 29468 29469 29470 29471 29472 29473 29474 29475 29476 29477 29478 29479 29480 29481 29482 29483 29484 29485 29486 29487 29488 29489 29490 29491 29492 29493 29494 29495 29496 29497 29498 29499 29500 29501 29502 29503 29504 29505 29506 29507 29508 29509 29510 29511 29512 29513 29514 29515 29516 29517 29518 29519 29520 29521 29522 29523 29524 29525 29526 29527 29528 29529 29530 29531 29532 29533 29534 29535 29536 29537 29538 29539 29540 29541 29542 29543 29544 29545 29546 29547 29548 29549 29550 29551 29552 29553 29554 29555 29556 29557 29558 29559 29560 29561 29562 29563 29564 29565 29566 29567 29568 29569 29570 29571 29572 29573 29574 29575 29576 29577 29578 29579 29580 29581 29582 29583 29584 29585 29586 29587 29588 29589 29590 29591 29592 29593 29594 29595 29596 29597 29598 29599 29600 29601 29602 29603 29604 29605 29606 29607 29608 29609 29610 29611 29612 29613 29614 29615 29616 29617 29618 29619 29620 29621 29622 29623 29624 29625 29626 29627 29628 29629 29630 29631 29632 29633 29634 29635 29636 29637 29638 29639 29640 29641 29642 29643 29644 29645 29646 29647 29648 29649 29650 29651 29652 29653 29654 29655 29656 29657 29658 29659 29660 29661 29662 29663 29664 29665 29666 29667 29668 29669 29670 29671 29672 29673 29674 29675 29676 29677 29678 29679 29680 29681 29682 29683 29684 29685 29686 29687 29688 29689 29690 29691 29692 29693 29694 29695 29696 29697 29698 29699 29700 29701 29702 29703 29704 29705 29706 29707 29708 29709 29710 29711 29712 29713 29714 29715 29716 29717 29718 29719 29720 29721 29722 29723 29724 29725 29726 29727 29728 29729 29730 29731 29732 29733 29734 29735 29736 29737 29738 29739 29740 29741 29742 29743 29744 29745 29746 29747 29748 29749 29750 29751 29752 29753 29754 29755 29756 29757 29758 29759 29760 29761 29762 29763 29764 29765 29766 29767 29768 29769 29770 29771 29772 29773 29774 29775 29776 29777 29778 29779 29780 29781 29782 29783 29784 29785 29786 29787 29788 29789 29790 29791 29792 29793 29794 29795 29796 29797 29798 29799 29800 29801 29802 29803 29804 29805 29806 29807 29808 29809 29810 29811 29812 29813 29814 29815 29816 29817 29818 29819 29820 29821 29822 29823 29824 29825 29826 29827 29828 29829 29830 29831 29832 29833 29834 29835 29836 29837 29838 29839 29840 29841 29842 29843 29844 29845 29846 29847 29848 29849 29850 29851 29852 29853 29854 29855 29856 29857 29858 29859 29860 29861 29862 29863 29864 29865 29866 29867 29868 29869 29870 29871 29872 29873 29874 29875 29876 29877 29878 29879 29880 29881 29882 29883 29884 29885 29886 29887 29888 29889 29890 29891 29892 29893 29894 29895 29896 29897 29898 29899 29900 29901 29902 29903 29904 29905 29906 29907 29908 29909 29910 29911 29912 29913 29914 29915 29916 29917 29918 29919 29920 29921 29922 29923 29924 29925 29926 29927 29928 29929 29930 29931 29932 29933 29934 29935 29936 29937 29938 29939 29940 29941 29942 29943 29944 29945 29946 29947 29948 29949 29950 29951 29952 29953 29954 29955 29956 29957 29958 29959 29960 29961 29962 29963 29964 29965 29966 29967 29968 29969 29970 29971 29972 29973 29974 29975 29976 29977 29978 29979 29980 29981 29982 29983 29984 29985 29986 29987 29988 29989 29990 29991 29992 29993 29994 29995 29996 29997 29998 29999 30000 30001 30002 30003 30004 30005 30006 30007 30008 30009 30010 30011 30012 30013 30014 30015 30016 30017 30018 30019 30020 30021 30022 30023 30024 30025 30026 30027 30028 30029 30030 30031 30032 30033 30034 30035 30036 30037 30038 30039 30040 30041 30042 30043 30044 30045 30046 30047 30048 30049 30050 30051 30052 30053 30054 30055 30056 30057 30058 30059 30060 30061 30062 30063 30064 30065 30066 30067 30068 30069 30070 30071 30072 30073 30074 30075 30076 30077 30078 30079 30080 30081 30082 30083 30084 30085 30086 30087 30088 30089 30090 30091 30092 30093 30094 30095 30096 30097 30098 30099 30100 30101 30102 30103 30104 30105 30106 30107 30108 30109 30110 30111 30112 30113 30114 30115 30116 30117 30118 30119 30120 30121 30122 30123 30124 30125 30126 30127 30128 30129 30130 30131 30132 30133 30134 30135 30136 30137 30138 30139 30140 30141 30142 30143 30144 30145 30146 30147 30148 30149 30150 30151 30152 30153 30154 30155 30156 30157 30158 30159 30160 30161 30162 30163 30164 30165 30166 30167 30168 30169 30170 30171 30172 30173 30174 30175 30176 30177 30178 30179 30180 30181 30182 30183 30184 30185 30186 30187 30188 30189 30190 30191 30192 30193 30194 30195 30196 30197 30198 30199 30200 30201 30202 30203 30204 30205 30206 30207 30208 30209 30210 30211 30212 30213 30214 30215 30216 30217 30218 30219 30220 30221 30222 30223 30224 30225 30226 30227 30228 30229 30230 30231 30232 30233 30234 30235 30236 30237 30238 30239 30240 30241 30242 30243 30244 30245 30246 30247 30248 30249 30250 30251 30252 30253 30254 30255 30256 30257 30258 30259 30260 30261 30262 30263 30264 30265 30266 30267 30268 30269 30270 30271 30272 30273 30274 30275 30276 30277 30278 30279 30280 30281 30282 30283 30284 30285 30286 30287 30288 30289 30290 30291 30292 30293 30294 30295 30296 30297 30298 30299 30300 30301 30302 30303 30304 30305 30306 30307 30308 30309 30310 30311 30312 30313 30314 30315 30316 30317 30318 30319 30320 30321 30322 30323 30324 30325 30326 30327 30328 30329 30330 30331 30332 30333 30334 30335 30336 30337 30338 30339 30340 30341 30342 30343 30344 30345 30346 30347 30348 30349 30350 30351 30352 30353 30354 30355 30356 30357 30358 30359 30360 30361 30362 30363 30364 30365 30366 30367 30368 30369 30370 30371 30372 30373 30374 30375 30376 30377 30378 30379 30380 30381 30382 30383 30384 30385 30386 30387 30388 30389 30390 30391 30392 30393 30394 30395 30396 30397 30398 30399 30400 30401 30402 30403 30404 30405 30406 30407 
</DataArray>
<DataArray type="UInt32" Name="offsets" format="ascii">
3 6 9 12 14 17 20 23 26 29 32 34 37 40 43 46 48 51 54 57 60 63 65 68 71 73 76 79 82 85 88 91 94 97 100 103 106 109 112 115 118 121 124 127 130 133 136 139 142 145 147 150 153 156 159 161 164 167 170 173 176 178 181 184 187 190 193 196 199 202 205 208 211 214 217 220 223 226 229 232 235 238 240 243 246 248 251 254 257 260 263 266 269 272 275 278 281 284 287 289 292 295 298 300 302 305 308 311 314 316 319 321 324 327 330 333 336 338 340 343 346 349 351 354 356 359 362 365 368 371 373 376 379 382 385 387 390 393 395 398 401 403 406 409 412 414 416 419 422 425 428 431 433 435 438 441 444 446 449 451 454 457 460 463 466 469 472 475 478 481 484 487 490 493 496 499 502 505 508 511 514 517 520 523 526 529 532 535 538 541 544 547 550 553 556 558 561 563 565 568 571 573 576 579 582 585 588 591 594 596 599 602 605 608 610 613 616 619 622 624 627 630 632 635 638 640 642 645 648 651 653 655 658 661 663 665 668 671 673 676 679 682 685 688 690 693 695 698 701 703 706 709 711 714 716 719 722 725 728 730 733 736 739 742 745 747 750 753 756 759 762 765 768 771 774 777 780 783 786 789 792 795 798 801 803 806 809 812 815 818 820 823 826 829 832 835 838 841 844 846 849 852 855 857 860 863 866 868 871 874 877 880 882 884 886 888 891 894 897 900 903 906 909 912 915 918 921 924 927 930 933 936 939 942 945 948 950 952 954 957 960 963 966 969 972 975 978 981 983 986 989 991 994 997 1000 1003 1006 1009 1012 1015 1018 1020 1023 1026 1029 1032 1035 1038 1041 1044 1047 1050 1053 1056 1059 1061 1063 1066 1069 1072 1075 1078 1081 1084 1087 1090 1093 1096 1099 1102 1105 1108 1111 1114 1117 1120 1123 1125 1128 1131 1134 1137 1140 1143 1146 1149 1152 1155 1158 1161 1164 1167 1170 1173 1176 1179 1182 1185 1188 1191 1194 1197 1199 1202 1204 1206 1209 1212 1215 1218 1221 1224 1227 1230 1233 1236 1239 1242 1245 1247 1249 1252 1254 1257 1260 1262 1264 1267 1269 1271 1274 1277 1279 1282 1285 1288 1291 1294 1297 1299 1301 1304 1307 1309 1312 1315 1318 1321 1324 1327 1330 1333 1336 1339 1341 1344 1347 1350 1353 1356 1359 1362 1365 1368 1371 1374 1377 1380 1383 1386 1389 1392 1395 1398 1401 1404 1407 1410 1412 1415 1418 1420 1423 1425 1428 1431 1434 1436 1439 1442 1445 1447 1449 1452 1455 1457 1460 1462 1464 1467 1470 1472 1475 1478 1481 1484 1487 1489 1492 1495 1498 1501 1504 1507 1510 1512 1515 1518 1521 1523 1526 1529 1532 1534 1537 1540 1543 1545 1548 1550 1553 1556 1559 1561 1564 1567 1570 1573 1576 1579 1582 1585 1588 1591 1594 1597 1600 1603 1606 1609 1612 1615 1617 1620 1623 1625 1628 1631 1634 1636 1639 1642 1645 1648 1651 1654 1657 1660 1663 1666 1668 1671 1674 1677 1680 1683 1686 1689 1692 1695 1698 1701 1704 1707 1710 1713 1716 1719 1722 1725 1728 1731 1734 1737 1740 1743 1746 1748 1751 1754 1757 1760 1763 1765 1768 1770 1773 1776 1779 1782 1785 1788 1791 1794 1797 1800 1803 1805 1808 1811 1814 1817 1820 1823 1826 1829 1832 1835 1838 1841 1844 1847 1850 1853 1856 1859 1862 1865 1868 1870 1873 1876 1879 1882 1885 1888 1891 1894 1897 1900 1903 1906 1908 1911 1913 1916 1919 1922 1925 1927 1930 1933 1936 1938 1941 1944 1947 1950 1952 1955 1958 1960 1963 1966 1969 1972 1975 1977 1979 1982 1985 1988 1991 1994 1996 1999 2002 2005 2008 2011 2013 2016 2019 2021 2024 2027 2030 2032 2034 2037 2040 2043 2046 2049 2052 2055 2058 2061 2064 2067 2070 2073 2075 2078 2081 2084 2086 2089 2092 2095 2098 2101 2104 2107 2110 2113 2116 2119 2122 2125 2128 2131 2134 2136 2139 2141 2144 2147 2150 2153 2156 2159 2162 2165 2168 2171 2174 2177 2180 2183 2186 2188 2191 2194 2197 2200 2203 2206 2209 2212 2215 2218 2221 2223 2226 2229 2232 2235 2237 2240 2243 2246 2248 2251 2253 2256 2259 2262 2265 2268 2271 2274 2277 2280 2283 2285 2288 2291 2293 2296 2299 2302 2305 2308 2311 2314 2317 2320 2323 2326 2329 2332 2335 2338 2341 2344 2347 2350 2353 2356 2359 2362 2364 2367 2370 2373 2376 2379 2382 2385 2387 2389 2391 2393 2396 2399 2401 2403 2406 2409 2412 2415 2418 2421 2424 2427 2430 2433 2436 2439 2442 2445 2448 2451 2454 2457 2460 2463 2466 2469 2472 2475 2478 2481 2484 2487 2490 2493 2496 2499 2502 2505 2508 2511 2514 2517 2520 2523 2526 2529 2531 2534 2537 2540 2543 2546 2549 2552 2555 2558 2561 2563 2566 2569 2572 2575 2578 2581 2584 2587 2589 2592 2595 2598 2601 2604 2607 2609 2612 2615 2618 2621 2624 2627 2630 2632 2634 2637 2640 2643 2646 2649 2652 2655 2658 2661 2664 2667 2670 2673 2675 2678 2681 2684 2687 2690 2693 2696 2699 2702 2705 2708 2711 2714 2717 2720 2723 2726 2729 2732 2735 2738 2741 2744 2747 2750 2753 2756 2759 2762 2765 2768 2771 2774 2777 2780 2783 2786 2789 2792 2795 2798 2801 2804 2807 2809 2812 2815 2818 2821 2823 2826 2829 2832 2835 2838 2841 2844 2847 2850 2853 2856 2859 2862 2865 2868 2871 2874 2877 2880 2883 2886 2889 2892 2895 2898 2901 2904 2907 2910 2913 2916 2919 2922 2925 2928 2931 2934 2937 2940 2943 2946 2949 2952 2955 2958 2961 2964 2967 2970 2973 2976 2979 2982 2985 2988 2991 2994 2997 3000 3003 3006 3009 3012 3014 3017 3020 3023 3026 3029 3032 3035 3037 3040 3043 3046 3049 3052 3055 3058 3060 3063 3066 3069 3071 3074 3077 3079 3082 3085 3088 3091 3094 3097 3100 3103 3106 3109 3112 3115 3118 3121 3123 3126 3129 3132 3135 3138 3140 3143 3146 3149 3152 3154 3157 3160 3163 3166 3168 3171 3173 3176 3179 3181 3184 3187 3190 3193 3196 3199 3202 3205 3208 3211 3214 3217 3220 3223 3226 3229 3232 3235 3238 3241 3243 3246 3249 3251 3254 3257 3260 3263 3266 3269 3272 3275 3278 3281 3284 3287 3290 3293 3296 3299 3302 3305 3308 3311 3314 3317 3320 3323 3326 3329 3332 3335 3338 3341 3344 3347 3350 3353 3356 3359 3362 3365 3368 3371 3374 3377 3380 3383 3386 3389 3392 3395 3398 3401 3404 3407 3410 3413 3416 3419 3422 3425 3428 3431 3434 3437 3440 3443 3446 3449 3452 3455 3458 3461 3464 3467 3470 3473 3476 3479 3482 3485 3488 3491 3494 3497 3500 3503 3506 3509 3512 3515 3518 3521 3524 3527 3530 3533 3536 3538 3541 3544 3547 3550 3553 3556 3559 3562 3565 3568 3571 3573 3576 3579 3582 3584 3587 3590 3593 3596 3599 3602 3605 3608 3611 3614 3617 3620 3623 3626 3629 3632 3634 3637 3640 3643 3646 3649 3652 3655 3657 3660 3663 3666 3668 3671 3674 3677 3680 3683 3686 3689 3691 3694 3697 3699 3702 3705 3708 3710 3713 3716 3719 3722 3725 3728 3731 3734 3737 3740 3743 3746 3749 3752 3755 3758 3761 3764 3767 3770 3773 3776 3779 3782 3785 3788 3791 3794 3797 3800 3803 3806 3809 3812 3814 3817 3820 3823 3826 3829 3832 3835 3838 3841 3843 3846 3849 3852 3854 3857 3859 3862 3865 3868 3871 3874 3877 3880 3883 3886 3889 3891 3894 3896 3899 3901 3903 3906 3909 3912 3915 3918 3921 3924 3927 3930 3933 3936 3939 3942 3945 3947 3950 3952 3955 3958 3960 3962 3965 3967 3970 3973 3976 3979 3981 3984 3987 3990 3993 3995 3998 4000 4003 4006 4009 4012 4015 4017 4020 4023 4025 4028 4030 4033 4036 4039 4042 4044 4047 4050 4053 4056 4058 4061 4064 4067 4070 4073 4076 4078 4081 4084 4087 4089 4092 4095 4098 4101 4104 4107 4110 4113 4115 4118 4121 4124 4127 4130 4133 4136 4139 4141 4144 4147 4150 4153 4156 4159 4162 4165 4168 4171 4174 4177 4180 4183 4186 4189 4192 4195 4198 4201 4204 4207 4210 4213 4216 4219 4222 4225 4228 4231 4234 4237 4240 4243 4246 4249 4252 4255 4258 4261 4264 4267 4270 4273 4276 4278 4281 4284 4287 4290 4293 4296 4299 4302 4305 4308 4311 4314 4317 4320 4322 4325 4328 4331 4334 4337 4340 4343 4345 4348 4351 4354 4357 4360 4362 4365 4368 4371 4374 4377 4380 4383 4386 4389 4392 4395 4398 4401 4404 4407 4410 4413 4416 4419 4422 4425 4428 4431 4434 4437 4440 4443 4445 4448 4451 4454 4457 4460 4463 4466 4469 4472 4475 4478 4481 4484 4487 4490 4493 4496 4499 4502 4505 4508 4511 4514 4517 4520 4523 4526 4528 4531 4534 4537 4540 4542 4545 4548 4550 4553 4556 4558 4561 4564 4567 4569 4571 4574 4577 4580 4583 4586 4589 4592 4594 4597 4600 4603 4606 4609 4612 4615 4618 4620 4623 4626 4629 4631 4633 4636 4639 4642 4645 4647 4650 4653 4655 4657 4659 4662 4665 4667 4670 4673 4676 4679 4682 4685 4688 4691 4694 4697 4700 4703 4706 4709 4711 4714 4717 4720 4723 4725 4728 4731 4734 4737 4740 4743 4745 4748 4751 4753 4756 4759 4762 4765 4768 4771 4774 4776 4778 4781 4783 4786 4789 4792 4795 4798 4801 4804 4807 4810 4812 4814 4817 4820 4823 4826 4828 4831 4834 4837 4840 4843 4846 4849 4851 4854 4857 4860 4862 4865 4868 4871 4873 4876 4879 4882 4884 4887 4890 4893 4896 4899 4902 4905 4908 4911 4914 4917 4920 4923 4926 4929 4931 4933 4936 4939 4942 4945 4948 4950 4953 4955 4958 4961 4964 4967 4970 4973 4976 4979 4982 4985 4988 4991 4993 4996 4999 5002 5005 5008 5011 5013 5015 5018 5021 5023 5026 5029 5032 5035 5038 5041 5043 5046 5049 5052 5054 5057 5060 5063 5066 5069 5072 5075 5078 5081 5084 5087 5090 5093 5096 5099 5101 5104 5107 5110 5113 5115 5118 5121 5123 5126 5129 5132 5135 5138 5140 5143 5146 5149 5152 5155 5158 5161 5164 5167 5170 5172 5175 5178 5181 5183 5186 5188 5190 5193 5196 5199 5202 5205 5208 5210 5213 5215 5218 5221 5224 5227 5230 5233 5235 5238 5241 5244 5247 5250 5253 5256 5259 5262 5265 5268 5271 5274 5277 5279 5282 5285 5288 5291 5294 5297 5300 5303 5306 5309 5312 5314 5317 5320 5322 5325 5328 5331 5334 5337 5340 5343 5345 5348 5351 5354 5356 5359 5362 5365 5368 5371 5374 5377 5379 5382 5385 5388 5391 5394 5397 5400 5403 5406 5409 5412 5415 5418 5420 5423 5425 5428 5431 5434 5437 5440 5443 5446 5449 5452 5455 5457 5460 5463 5466 5468 5471 5474 5477 5480 5482 5484 5487 5490 5492 5495 5498 5501 5503 5506 5509 5511 5514 5517 5520 5523 5525 5528 5531 5534 5537 5540 5543 5546 5549 5552 5555 5558 5561 5564 5567 5570 5573 5576 5579 5582 5585 5588 5591 5594 5596 5599 5602 5604 5607 5610 5613 5616 5619 5622 5625 5628 5631 5634 5637 5640 5642 5645 5647 5650 5653 5656 5659 5662 5664 5667 5670 5673 5675 5678 5681 5683 5685 5687 5690 5693 5696 5699 5701 5704 5707 5710 5712 5715 5718 5721 5724 5726 5729 5732 5735 5738 5741 5744 5747 5750 5753 5756 5758 5761 5764 5766 5769 5772 5775 5778 5781 5784 5786 5789 5792 5795 5798 5801 5804 5807 5810 5812 5815 5817 5820 5823 5826 5829 5832 5835 5838 5841 5844 5847 5850 5853 5855 5857 5860 5863 5865 5868 5871 5873 5876 5879 5882 5885 5888 5890 5893 5896 5899 5902 5905 5908 5911 5914 5917 5919 5921 5924 5927 5930 5933 5936 5939 5942 5945 5948 5951 5954 5957 5960 5963 5966 5969 5972 5975 5978 5981 5984 5987 5990 5993 5996 5999 6002 6005 6008 6011 6014 6016 6019 6022 6025 6028 6031 6034 6036 6039 6041 6044 6047 6049 6052 6055 6057 6060 6063 6066 6069 6072 6075 6078 6081 6084 6087 6090 6093 6095 6097 6100 6102 6104 6107 6110 6113 6116 6119 6122 6125 6128 6131 6134 6137 6140 6143 6146 6149 6152 6155 6158 6161 6164 6167 6170 6173 6176 6179 6182 6185 6188 6191 6194 6197 6200 6203 6206 6209 6212 6215 6218 6221 6224 6227 6230 6233 6236 6239 6242 6245 6248 6251 6254 6257 6260 6263 6266 6269 6271 6274 6277 6280 6283 6285 6288 6290 6293 6296 6298 6301 6304 6307 6309 6312 6315 6318 6320 6323 6326 6329 6332 6335 6338 6341 6344 6347 6350 6353 6356 6359 6361 6364 6367 6370 6373 6375 6378 6381 6384 6387 6390 6393 6396 6399 6402 6405 6408 6411 6414 6417 6420 6422 6425 6428 6430 6433 6436 6439 6442 6445 6447 6449 6452 6455 6458 6461 6464 6467 6469 6472 6475 6478 6480 6483 6486 6489 6492 6495 6498 6501 6503 6506 6509 6512 6515 6518 6521 6524 6526 6529 6531 6534 6537 6540 6542 6544 6547 6550 6553 6555 6558 6560 6563 6565 6567 6570 6573 6576 6579 6581 6584 6587 6590 6592 6594 6596 6599 6602 6605 6607 6610 6613 6616 6619 6622 6625 6628 6630 6633 6636 6638 6641 6644 6646 6648 6651 6654 6657 6660 6663 6666 6669 6672 6675 6678 6680 6683 6685 6688 6691 6694 6697 6700 6703 6706 6709 6712 6715 6717 6719 6721 6724 6726 6729 6732 6735 6738 6741 6744 6746 6749 6752 6755 6758 6761 6764 6767 6770 6773 6776 6779 6782 6785 6788 6791 6794 6797 6800 6803 6806 6809 6812 6814 6817 6820 6823 6826 6828 6831 6834 6836 6839 6842 6845 6848 6851 6854 6857 6860 6862 6865 6868 6871 6874 6876 6879 6882 6885 6888 6890 6893 6896 6899 6902 6905 6908 6911 6913 6916 6919 6921 6924 6927 6930 6933 6936 6939 6942 6945 6948 6951 6954 6957 6960 6963 6966 6969 6972 6975 6978 6981 6984 6987 6990 6993 6996 6999 7002 7005 7008 7011 7014 7017 7020 7023 7026 7029 7032 7035 7038 7041 7044 7047 7049 7052 7054 7057 7060 7063 7066 7069 7072 7075 7078 7081 7084 7087 7090 7093 7096 7099 7102 7105 7108 7111 7113 7116 7119 7122 7125 7128 7131 7134 7137 7140 7143 7146 7149 7152 7155 7158 7161 7163 7166 7169 7172 7175 7178 7180 7183 7186 7188 7191 7194 7197 7200 7203 7206 7209 7212 7214 7217 7220 7223 7226 7228 7231 7234 7236 7239 7242 7245 7248 7251 7254 7257 7260 7263 7266 7269 7272 7275 7278 7280 7283 7286 7288 7291 7294 7297 7300 7302 7305 7308 7311 7314 7317 7320 7323 7325 7328 7331 7333 7336 7339 7342 7345 7348 7351 7354 7357 7359 7361 7364 7367 7370 7372 7375 7377 7379 7382 7385 7388 7391 7394 7397 7400 7403 7406 7409 7412 7415 7418 7421 7424 7427 7430 7433 7436 7439 7442 7445 7448 7451 7454 7457 7460 7462 7465 7468 7471 7474 7476 7478 7481 7484 7487 7489 7492 7495 7498 7500 7503 7506 7509 7512 7515 7517 7520 7523 7525 7528 7531 7534 7537 7540 7543 7546 7549 7552 7555 7558 7561 7564 7567 7570 7573 7576 7579 7582 7585 7588 7591 7594 7597 7600 7603 7606 7609 7611 7614 7617 7620 7623 7626 7629 7631 7634 7637 7640 7643 7646 7649 7652 7655 7658 7660 7663 7666 7668 7671 7674 7677 7679 7682 7685 7688 7691 7694 7697 7700 7703 7706 7709 7712 7715 7718 7721 7724 7726 7729 7731 7734 7737 7740 7743 7746 7749 7752 7755 7758 7761 7764 7767 7770 7773 7776 7779 7782 7784 7787 7790 7793 7796 7799 7802 7805 7808 7811 7814 7817 7820 7822 7825 7828 7831 7833 7836 7838 7841 7844 7847 7850 7853 7856 7859 7862 7865 7867 7870 7873 7875 7877 7880 7883 7886 7889 7892 7895 7898 7900 7903 7905 7908 7911 7913 7915 7918 7921 7924 7926 7929 7932 7935 7938 7941 7944 7947 7950 7952 7955 7958 7961 7964 7967 7970 7973 7976 7979 7982 7985 7988 7991 7994 7997 8000 8002 8005 8008 8011 8014 8017 8020 8023 8026 8029 8031 8034 8036 8039 8042 8044 8047 8050 8053 8056 8059 8062 8064 8067 8070 8073 8076 8079 8081 8083 8086 8089 8091 8094 8096 8099 8102 8104 8107 8110 8112 8115 8118 8121 8124 8127 8129 8132 8135 8137 8139 8142 8145 8148 8151 8154 8157 8160 8163 8166 8169 8172 8175 8178 8180 8183 8185 8188 8191 8194 8197 8200 8202 8205 8208 8211 8214 8216 8219 8222 8225 8228 8230 8233 8236 8239 8241 8244 8247 8250 8253 8256 8258 8261 8264 8267 8269 8271 8273 8276 8278 8281 8284 8287 8290 8293 8296 8299 8302 8304 8307 8310 8313 8316 8319 8321 8324 8327 8330 8332 8335 8337 8340 8343 8346 8348 8351 8354 8357 8360 8363 8366 8369 8372 8375 8378 8381 8384 8387 8390 8392 8395 8398 8401 8404 8407 8409 8412 8415 8418 8420 8423 8426 8429 8432 8435 8437 8440 8443 8446 8449 8452 8455 8457 8460 8463 8466 8468 8470 8473 8475 8477 8480 8483 8485 8488 8491 8494 8497 8500 8502 8505 8508 8510 8513 8516 8519 8522 8525 8528 8530 8533 8536 8539 8542 8545 8548 8550 8553 8556 8559 8562 8565 8568 8570 8572 8575 8577 8579 8582 8584 8587 8590 8592 8595 8598 8601 8604 8607 8610 8613 8616 8618 8621 8624 8627 8630 8633 8636 8639 8642 8645 8648 8651 8653 8656 8659 8662 8665 8668 8671 8674 8677 8680 8683 8686 8689 8692 8695 8698 8700 8703 8706 8708 8711 8714 8717 8720 8723 8726 8729 8731 8733 8736 8739 8742 8744 8747 8749 8752 8755 8758 8761 8763 8766 8769 8772 8774 8777 8780 8783 8785 8788 8791 8794 8797 8800 8803 8805 8808 8811 8813 8816 8819 8822 8825 8828 8831 8834 8837 8840 8843 8846 8849 8852 8855 8858 8861 8864 8867 8870 8873 8876 8879 8882 8885 8888 8891 8894 8897 8900 8903 8905 8908 8911 8914 8917 8919 8922 8925 8928 8931 8934 8937 8940 8943 8946 8949 8952 8955 8958 8961 8964 8967 8969 8972 8975 8978 8981 8983 8986 8988 8991 8993 8996 8999 9002 9005 9007 9009 9012 9015 9018 9021 9023 9026 9029 9032 9034 9037 9039 9042 9045 9047 9050 9053 9056 9059 9061 9064 9067 9070 9073 9076 9079 9082 9085 9088 9091 9094 9097 9100 9103 9106 9109 9112 9114 9117 9120 9123 9126 9129 9132 9135 9138 9140 9143 9146 9149 9152 9154 9157 9159 9162 9165 9168 9171 9174 9176 9179 9182 9185 9187 9190 9193 9196 9199 9202 9205 9208 9211 9214 9217 9220 9223 9226 9229 9231 9234 9237 9240 9243 9245 9248 9251 9254 9257 9260 9262 9265 9268 9271 9274 9277 9280 9283 9286 9289 9292 9295 9298 9301 9304 9307 9310 9313 9316 9319 9322 9325 9328 9331 9334 9337 9340 9343 9346 9349 9352 9354 9357 9360 9363 9366 9369 9372 9375 9378 9381 9383 9386 9389 9392 9395 9398 9401 9404 9407 9409 9412 9415 9418 9421 9424 9427 9429 9432 9435 9438 9440 9443 9445 9448 9451 9454 9457 9460 9463 9465 9468 9471 9474 9476 9479 9482 9485 9488 9491 9494 9497 9500 9503 9506 9509 9512 9515 9518 9521 9524 9527 9530 9533 9536 9538 9541 9544 9547 9550 9552 9555 9558 9560 9563 9565 9568 9571 9574 9576 9579 9582 9585 9588 9591 9594 9597 9600 9603 9606 9609 9612 9615 9618 9621 9624 9627 9630 9633 9635 9638 9641 9644 9647 9650 9653 9656 9659 9662 9665 9667 9670 9673 9676 9679 9682 9685 9688 9691 9694 9696 9699 9702 9705 9708 9711 9714 9717 9720 9723 9726 9729 9732 9735 9738 9741 9744 9747 9750 9753 9756 9759 9762 9765 9768 9771 9774 9776 9779 9782 9785 9788 9791 9794 9797 9800 9803 9806 9809 9812 9815 9818 9821 9824 9827 9830 9832 9835 9838 9841 9844 9847 9850 9853 9856 9858 9861 9864 9867 9870 9873 9876 9879 9882 9885 9888 9891 9893 9896 9899 9902 9905 9908 9911 9914 9917 9920 9923 9926 9929 9932 9935 9938 9941 9944 9947 9950 9953 9956 9959 9962 9964 9967 9970 9973 9976 9979 9982 9985 9988 9991 9994 9996 9999 10001 10004 10006 10009 10012 10015 10018 10020 10023 10026 10029 10031 10034 10037 10040 10043 10046 10049 10052 10054 10057 10060 10063 10066 10068 10071 10074 10077 10080 10083 10085 10088 10091 10094 10097 10100 10103 10105 10108 10111 10114 10117 10120 10123 10126 10129 10132 10135 10138 10141 10144 10147 10150 10152 10155 10158 10160 10162 10165 10168 10171 10174 10177 10180 10183 10186 10189 10192 10195 10198 10200 10203 10206 10209 10212 10215 10218 10221 10224 10227 10230 10233 10236 10239 10242 10245 10248 10251 10254 10257 10259 10262 10265 10268 10270 10273 10276 10279 10282 10285 10287 10290 10293 10296 10299 10301 10303 10306 10309 10312 10315 10318 10321 10324 10327 10330 10333 10335 10338 10341 10344 10347 10350 10353 10356 10359 10362 10365 10368 10371 10374 10377 10380 10383 10386 10389 10392 10395 10397 10400 10403 10405 10408 10411 10414 10417 10420 10423 10426 10429 10431 10434 10437 10440 10443 10446 10449 10452 10455 10457 10460 10463 10466 10469 10471 10473 10476 10479 10482 10485 10488 10491 10494 10497 10500 10503 10506 10509 10512 10515 10518 10520 10523 10526 10528 10531 10534 10537 10540 10543 10546 10548 10551 10554 10557 10560 10563 10566 10568 10570 10573 10575 10578 10580 10582 10585 10588 10590 10593 10596 10599 10601 10604 10607 10610 10612 10615 10618 10620 10623 10626 10628 10631 10634 10636 10639 10642 10644 10646 10648 10651 10654 10657 10660 10663 10666 10669 10671 10674 10677 10680 10682 10685 10688 10690 10693 10696 10699 10702 10705 10708 10711 10714 10717 10720 10723 10726 10728 10731 10734 10737 10739 10742 10745 10748 10751 10754 10757 10760 10763 10766 10769 10772 10775 10778 10781 10784 10787 10790 10793 10796 10799 10802 10805 10807 10810 10812 10815 10818 10821 10823 10826 10829 10832 10835 10838 10841 10844 10847 10850 10853 10855 10858 10860 10863 10866 10869 10872 10875 10878 10881 10884 10887 10890 10893 10896 10899 10902 10905 10908 10911 10914 10917 10920 10922 10924 10927 10930 10933 10936 10939 10942 10945 10948 10950 10953 10956 10959 10962 10965 10968 10971 10974 10977 10979 10982 10985 10988 10990 10993 10996 10999 11002 11005 11008 11011 11014 11017 11020 11023 11026 11029 11032 11034 11037 11040 11043 11046 11049 11051 11054 11056 11058 11061 11064 11067 11070 11073 11076 11079 11081 11084 11087 11090 11093 11096 11099 11102 11105 11108 11111 11114 11117 11120 11123 11126 11129 11132 11135 11138 11141 11143 11146 11148 11151 11154 11157 11160 11162 11165 11167 11170 11173 11176 11179 11182 11185 11188 11190 11193 11196 11199 11202 11205 11208 11211 11213 11216 11219 11222 11224 11227 11230 11233 11236 11239 11241 11244 11246 11249 11252 11255 11258 11261 11264 11267 11270 11272 11275 11277 11280 11282 11285 11288 11291 11294 11297 11300 11303 11306 11309 11312 11315 11318 11321 11324 11327 11330 11333 11336 11338 11341 11344 11346 11349 11352 11355 11358 11360 11363 11366 11369 11372 11375 11378 11381 11384 11387 11390 11393 11396 11399 11401 11404 11407 11409 11411 11413 11416 11419 11422 11425 11428 11431 11434 11437 11440 11443 11446 11449 11451 11454 11456 11459 11462 11465 11467 11470 11473 11476 11479 11482 11485 11487 11490 11493 11496 11498 11501 11504 11506 11509 11512 11515 11517 11520 11522 11525 11528 11531 11534 11536 11539 11542 11545 11548 11551 11554 11557 11560 11563 11566 11569 11571 11574 11577 11580 11583 11585 11588 11591 11594 11597 11600 11603 11605 11608 11611 11613 11616 11618 11621 11624 11627 11630 11633 11636 11639 11642 11645 11647 11650 11653 11655 11658 11661 11664 11667 11670 11672 11675 11678 11681 11684 11687 11690 11693 11696 11698 11701 11704 11707 11710 11713 11716 11719 11722 11725 11727 11730 11733 11735 11738 11740 11743 11746 11749 11752 11754 11757 11760 11762 11765 11768 11771 11773 11776 11779 11782 11785 11788 11791 11794 11797 11800 11803 11805 11808 11811 11813 11816 11819 11822 11825 11828 11831 11834 11837 11840 11843 11846 11848 11851 11854 11856 11859 11862 11865 11868 11871 11874 11877 11880 11883 11886 11889 11892 11895 11898 11901 11904 11907 11910 11913 11916 11919 11922 11925 11928 11931 11934 11937 11940 11943 11946 11949 11952 11954 11957 11960 11963 11966 11969 11972 11975 11978 11981 11984 11987 11990 11993 11996 11999 12002 12005 12008 12011 12014 12017 12020 12023 12026 12029 12031 12034 12037 12040 12043 12046 12049 12052 12055 12058 12061 12064 12067 12070 12073 12076 12078 12080 12083 12086 12089 12092 12095 12098 12100 12103 12106 12108 12111 12114 12117 12120 12123 12126 12129 12131 12134 12137 12140 12142 12145 12148 12151 12153 12156 12159 12162 12164 12167 12169 12171 12174 12177 12179 12181 12183 12186 12189 12191 12194 12197 12200 12202 12205 12208 12211 12214 12217 12220 12222 12224 12227 12230 12233 12236 12239 12241 12243 12246 12249 12252 12255 12258 12261 12263 12266 12268 12271 12274 12277 12280 12283 12286 12289 12291 12294 12297 12300 12303 12306 12309 12312 12314 12317 12320 12323 12326 12329 12332 12335 12338 12341 12344 12347 12349 12352 12354 12356 12359 12362 12364 12367 12370 12373 12376 12379 12382 12385 12387 12389 12391 12394 12396 12399 12402 12405 12408 12411 12413 12416 12419 12422 12425 12428 12431 12434 12437 12440 12443 12446 12449 12452 12455 12458 12461 12464 12467 12470 12473 12476 12479 12482 12484 12487 12490 12493 12496 12499 12502 12505 12508 12511 12514 12517 12520 12523 12526 12529 12532 12535 12538 12541 12544 12547 12550 12553 12556 12559 12562 12565 12568 12571 12574 12577 12580 12583 12586 12589 12592 12595 12598 12601 12604 12607 12610 12613 12616 12619 12621 12624 12627 12630 12632 12635 12638 12641 12644 12647 12650 12653 12656 12659 12662 12664 12667 12670 12673 12676 12679 12682 12685 12688 12691 12694 12697 12700 12703 12706 12708 12711 12714 12717 12720 12723 12725 12728 12731 12734 12737 12740 12743 12745 12748 12751 12754 12757 12760 12763 12766 12769 12772 12775 12778 12781 12783 12786 12789 12792 12795 12797 12800 12803 12806 12809 12812 12815 12818 12821 12824 12826 12829 12832 12835 12838 12841 12844 12847 12850 12852 12855 12858 12861 12863 12865 12868 12871 12874 12877 12880 12883 12886 12888 12891 12894 12897 12899 12902 12905 12908 12911 12914 12917 12920 12923 12926 12929 12932 12935 12937 12940 12943 12946 12949 12952 12955 12957 12960 12963 12966 12969 12971 12974 12977 12980 12983 12986 12989 12992 12995 12998 13001 13004 13007 13010 13013 13016 13019 13022 13025 13028 13031 13034 13037 13040 13043 13046 13049 13052 13055 13058 13061 13064 13067 13070 13073 13076 13079 13082 13085 13088 13091 13094 13097 13100 13103 13106 13109 13112 13115 13118 13121 13124 13127 13130 13133 13136 13139 13142 13144 13147 13150 13153 13155 13158 13160 13163 13165 13168 13171 13174 13177 13180 13183 13186 13189 13192 13195 13198 13201 13204 13207 13210 13213 13216 13219 13222 13224 13227 13230 13232 13235 13238 13240 13243 13246 13249 13251 13254 13257 13260 13263 13265 13267 13270 13273 13276 13279 13282 13284 13287 13290 13293 13296 13298 13301 13303 13306 13309 13311 13314 13316 13319 13321 13324 13327 13330 13333 13335 13338 13341 13344 13346 13348 13351 13354 13357 13360 13363 13366 13369 13371 13374 13377 13379 13382 13385 13388 13391 13394 13397 13400 13402 13405 13408 13410 13413 13416 13418 13421 13424 13426 13429 13432 13434 13437 13440 13443 13446 13449 13452 13455 13458 13461 13464 13467 13470 13473 13476 13479 13482 13485 13488 13491 13494 13497 13500 13503 13506 13509 13512 13515 13518 13521 13523 13526 13529 13532 13535 13538 13541 13544 13547 13549 13552 13555 13558 13561 13564 13567 13570 13573 13576 13579 13582 13585 13588 13591 13594 13597 13600 13603 13606 13609 13612 13615 13618 13621 13624 13627 13630 13632 13635 13637 13640 13643 13646 13649 13652 13654 13657 13660 13663 13665 13668 13671 13674 13677 13680 13683 13686 13689 13692 13695 13697 13700 13703 13706 13709 13712 13715 13718 13720 13723 13726 13729 13732 13735 13738 13741 13744 13747 13750 13753 13756 13759 13762 13764 13767 13770 13773 13776 13779 13782 13785 13787 13790 13793 13796 13799 13802 13804 13807 13810 13813 13816 13819 13821 13824 13826 13829 13832 13835 13837 13840 13843 13846 13849 13852 13855 13858 13861 13864 13867 13870 13873 13876 13879 13882 13885 13887 13890 13893 13896 13899 13902 13905 13908 13911 13914 13917 13920 13923 13926 13929 13932 13935 13938 13941 13943 13946 13949 13952 13955 13958 13961 13964 13967 13970 13973 13976 13979 13982 13985 13988 13991 13994 13997 14000 14003 14006 14009 14012 14015 14018 14021 14024 14027 14029 14032 14035 14038 14040 14043 14046 14049 14052 14055 14058 14061 14064 14067 14070 14072 14074 14077 14080 14083 14086 14089 14092 14095 14097 14100 14103 14105 14108 14111 14114 14116 14119 14122 14125 14128 14130 14133 14136 14139 14142 14145 14148 14150 14153 14156 14158 14160 14163 14166 14169 14172 14175 14178 14181 14184 14186 14189 14192 14195 14197 14200 14203 14206 14209 14212 14215 14218 14221 14224 14227 14230 14233 14236 14239 14242 14245 14248 14251 14254 14256 14259 14262 14265 14267 14270 14273 14276 14279 14282 14285 14288 14291 14294 14297 14299 14302 14305 14308 14311 14314 14317 14320 14323 14326 14329 14332 14335 14338 14341 14344 14347 14350 14353 14356 14359 14362 14365 14368 14371 14374 14377 14380 14383 14386 14389 14392 14395 14398 14401 14404 14407 14410 14413 14416 14419 14421 14424 14427 14430 14433 14436 14439 14442 14445 14448 14451 14453 14456 14458 14461 14464 14467 14470 14473 14476 14479 14482 14485 14488 14491 14494 14497 14499 14501 14504 14507 14510 14513 14516 14519 14522 14525 14528 14531 14534 14537 14540 14543 14546 14549 14552 14554 14557 14560 14563 14566 14569 14572 14575 14578 14581 14584 14587 14590 14593 14596 14599 14602 14605 14608 14611 14614 14617 14620 14623 14626 14629 14632 14635 14638 14641 14644 14647 14650 14653 14656 14659 14661 14664 14666 14669 14672 14675 14678 14680 14683 14686 14689 14691 14694 14697 14700 14703 14706 14708 14711 14714 14717 14720 14723 14726 14728 14731 14734 14736 14739 14741 14744 14747 14750 14753 14756 14759 14762 14765 14768 14771 14774 14777 14779 14782 14785 14787 14790 14793 14796 14799 14802 14805 14808 14810 14813 14816 14818 14821 14824 14827 14830 14833 14835 14838 14840 14843 14846 14849 14852 14855 14857 14860 14863 14866 14868 14871 14874 14877 14880 14883 14886 14888 14890 14893 14895 14898 14901 14904 14907 14910 14913 14916 14919 14922 14925 14928 14931 14934 14937 14940 14943 14946 14949 14952 14954 14957 14960 14963 14966 14969 14972 14975 14978 14981 14984 14987 14990 14993 14996 14999 15002 15005 15008 15011 15014 15017 15020 15023 15026 15029 15032 15035 15038 15041 15044 15047 15050 15053 15056 15059 15062 15065 15068 15071 15074 15077 15080 15083 15086 15089 15091 15094 15097 15100 15103 15106 15109 15112 15115 15118 15121 15124 15127 15130 15133 15136 15139 15142 15145 15147 15150 15153 15156 15158 15161 15164 15167 15170 15173 15176 15179 15182 15185 15188 15191 15194 15197 15200 15202 15205 15207 15210 15213 15216 15219 15222 15225 15228 15231 15234 15237 15240 15243 15246 15249 15252 15255 15258 15261 15264 15267 15270 15273 15276 15279 15282 15285 15288 15291 15294 15297 15300 15303 15306 15309 15312 15315 15318 15321 15324 15327 15330 15333 15336 15339 15342 15345 15348 15351 15354 15357 15360 15363 15366 15369 15372 15375 15378 15381 15384 15387 15390 15393 15396 15399 15402 15405 15408 15411 15414 15417 15420 15423 15426 15429 15432 15435 15438 15441 15444 15447 15450 15453 15456 15459 15462 15465 15468 15471 15474 15477 15480 15483 15486 15489 15491 15494 15497 15500 15503 15506 15509 15512 15515 15518 15521 15524 15527 15530 15533 15535 15538 15541 15544 15547 15550 15553 15556 15559 15562 15565 15567 15570 15573 15575 15578 15581 15584 15586 15589 15591 15594 15597 15600 15603 15606 15609 15612 15615 15618 15621 15624 15626 15629 15631 15634 15636 15638 15641 15644 15646 15649 15652 15655 15658 15661 15664 15666 15668 15671 15674 15677 15680 15683 15686 15689 15692 15695 15698 15701 15704 15707 15710 15713 15716 15719 15722 15725 15728 15730 15733 15736 15738 15741 15744 15747 15750 15753 15756 15758 15761 15764 15767 15769 15772 15775 15778 15781 15783 15785 15787 15790 15793 15796 15799 15801 15804 15807 15810 15813 15816 15819 15821 15824 15827 15830 15833 15835 15838 15841 15843 15846 15849 15852 15855 15858 15861 15864 15867 15870 15873 15875 15878 15881 15884 15887 15889 15892 15895 15898 15901 15904 15906 15909 15912 15914 15917 15920 15923 15926 15929 15932 15935 15937 15940 15943 15946 15949 15952 15954 15957 15960 15963 15966 15969 15972 15975 15978 15981 15984 15987 15990 15993 15996 15999 16002 16005 16008 16011 16014 16017 16020 16023 16026 16029 16031 16034 16037 16040 16043 16046 16049 16052 16055 16058 16061 16064 16067 16070 16073 16075 16078 16081 16084 16087 16090 16093 16096 16099 16102 16104 16107 16110 16113 16116 16119 16122 16125 16128 16131 16133 16136 16139 16141 16144 16147 16150 16152 16155 16158 16161 16164 16167 16170 16173 16176 16179 16182 16185 16188 16191 16194 16197 16200 16202 16205 16207 16210 16212 16215 16218 16221 16224 16227 16229 16232 16235 16238 16241 16244 16247 16249 16252 16255 16257 16260 16263 16265 16268 16271 16274 16277 16279 16281 16284 16287 16289 16292 16295 16297 16299 16302 16305 16308 16311 16313 16316 16319 16322 16325 16328 16330 16333 16335 16338 16341 16344 16346 16349 16352 16355 16357 16360 16362 16365 16368 16370 16373 16376 16379 16382 16385 16388 16391 16394 16397 16400 16402 16405 16408 16411 16414 16417 16420 16423 16425 16428 16431 16434 16436 16438 16441 16444 16446 16448 16451 16454 16457 16460 16463 16465 16468 16470 16472 16475 16478 16480 16482 16485 16488 16491 16493 16496 16498 16501 16503 16505 16508 16511 16514 16517 16520 16523 16526 16529 16532 16534 16537 16540 16543 16546 16549 16551 16554 16556 16559 16562 16565 16568 16571 16573 16576 16579 16582 16585 16587 16590 16592 16595 16598 16601 16603 16606 16608 16610 16613 16616 16619 16622 16624 16627 16630 16632 16635 16638 16640 16643 16645 16648 16651 16654 16657 16659 16662 16664 16667 16669 16672 16675 16678 16681 16684 16686 16689 16692 16695 16697 16700 16702 16705 16708 16711 16714 16717 16719 16722 16725 16727 16730 16733 16736 16738 16741 16744 16747 16749 16751 16754 16757 16760 16763 16765 16767 16770 16773 16776 16779 16782 16785 16787 16790 16793 16796 16799 16802 16805 16808 16811 16814 16817 16820 16823 16826 16828 16831 16834 16836 16839 16842 16844 16846 16848 16851 16854 16857 16860 16863 16866 16869 16872 16875 16878 16881 16884 16887 16890 16893 16896 16899 16902 16905 16908 16911 16914 16917 16919 16922 16925 16928 16930 16933 16936 16939 16941 16944 16947 16950 16953 16956 16958 16961 16964 16967 16970 16973 16976 16979 16981 16983 16986 16989 16992 16994 16997 17000 17002 17005 17008 17011 17014 17017 17020 17023 17026 17029 17032 17035 17038 17041 17044 17047 17050 17053 17055 17058 17061 17064 17067 17070 17073 17076 17078 17081 17084 17086 17089 17092 17095 17097 17100 17103 17106 17108 17110 17113 17116 17119 17122 17125 17128 17131 17134 17137 17140 17143 17146 17149 17152 17155 17158 17161 17164 17167 17170 17173 17176 17179 17182 17185 17188 17191 17194 17197 17200 17203 17205 17208 17211 17214 17217 17220 17223 17226 17229 17231 17233 17236 17239 17241 17243 17246 17249 17252 17255 17257 17260 17263 17266 17269 17272 17275 17278 17281 17284 17287 17290 17293 17296 17299 17301 17304 17307 17310 17313 17316 17319 17322 17325 17327 17330 17333 17336 17339 17342 17344 17347 17350 17353 17356 17358 17361 17364 17367 17370 17373 17376 17379 17382 17385 17388 17391 17394 17396 17398 17401 17404 17407 17410 17413 17416 17419 17421 17424 17427 17430 17433 17436 17439 17442 17445 17448 17451 17454 17457 17460 17463 17466 17469 17472 17475 17478 17481 17484 17486 17489 17492 17495 17498 17500 17503 17506 17509 17512 17515 17518 17520 17522 17525 17527 17529 17532 17535 17538 17541 17544 17547 17550 17553 17556 17559 17562 17565 17567 17570 17573 17576 17579 17582 17584 17587 17590 17593 17596 17599 17602 17605 17608 17611 17614 17617 17620 17623 17626 17629 17632 17635 17638 17641 17643 17646 17649 17652 17655 17658 17661 17664 17666 17669 17672 17675 17678 17681 17684 17687 17690 17692 17695 17698 17701 17704 17707 17710 17713 17716 17719 17722 17725 17727 17730 17733 17736 17739 17742 17745 17748 17750 17753 17755 17758 17761 17764 17767 17770 17773 17776 17779 17782 17785 17788 17791 17794 17797 17800 17803 17806 17809 17812 17815 17818 17820 17823 17826 17828 17831 17834 17837 17840 17843 17846 17849 17852 17855 17858 17861 17864 17867 17870 17873 17876 17879 17882 17885 17888 17890 17893 17896 17899 17902 17904 17907 17910 17913 17916 17919 17922 17924 17927 17930 17933 17936 17939 17942 17945 17948 17951 17954 17957 17960 17963 17966 17969 17972 17975 17977 17979 17982 17984 17987 17990 17993 17996 17999 18002 18005 18008 18011 18014 18017 18020 18023 18026 18028 18031 18034 18037 18040 18043 18046 18049 18052 18055 18058 18061 18063 18066 18068 18071 18073 18076 18079 18082 18085 18087 18090 18093 18096 18098 18100 18103 18106 18109 18112 18115 18117 18120 18123 18126 18129 18132 18135 18137 18139 18142 18145 18147 18150 18153 18156 18159 18162 18165 18168 18170 18173 18176 18178 18181 18184 18187 18190 18193 18195 18198 18201 18204 18207 18210 18212 18215 18218 18221 18224 18226 18229 18232 18235 18237 18240 18242 18245 18247 18250 18253 18256 18259 18262 18265 18267 18270 18273 18276 18279 18282 18285 18288 18291 18293 18296 18298 18301 18304 18306 18308 18311 18314 18317 18320 18323 18326 18329 18331 18334 18337 18340 18343 18346 18349 18352 18355 18357 18360 18363 18366 18369 18372 18375 18378 18381 18384 18386 18389 18392 18395 18397 18400 18403 18406 18408 18411 18413 18415 18418 18421 18423 18426 18429 18432 18434 18437 18440 18443 18446 18449 18451 18454 18457 18459 18461 18464 18467 18470 18473 18475 18478 18481 18484 18487 18490 18493 18496 18499 18502 18505 18508 18510 18513 18516 18519 18522 18525 18528 18531 18534 18537 18540 18543 18546 18549 18552 18554 18556 18559 18562 18565 18568 18570 18573 18576 18579 18581 18584 18587 18590 18593 18596 18599 18602 18605 18608 18611 18614 18617 18620 18623 18625 18628 18631 18634 18637 18640 18642 18645 18648 18651 18654 18657 18660 18663 18665 18668 18671 18673 18676 18679 18682 18685 18687 18690 18692 18695 18698 18701 18703 18705 18708 18711 18714 18716 18719 18721 18723 18725 18728 18730 18733 18736 18739 18742 18745 18748 18751 18754 18757 18760 18763 18766 18769 18772 18775 18778 18781 18784 18787 18790 18793 18796 18799 18801 18804 18807 18809 18812 18815 18817 18819 18822 18825 18828 18831 18834 18837 18840 18843 18846 18849 18852 18855 18857 18860 18863 18866 18868 18871 18874 18877 18880 18882 18885 18888 18891 18894 18897 18900 18903 18906 18909 18912 18915 18918 18920 18923 18926 18928 18931 18933 18936 18939 18941 18944 18947 18950 18952 18954 18957 18960 18963 18966 18969 18971 18973 18976 18979 18981 18984 18987 18990 18992 18995 18998 19001 19004 19007 19010 19013 19016 19019 19022 19025 19028 19031 19034 19037 19040 19043 19046 19049 19051 19054 19057 19059 19062 19065 19068 19070 19073 19076 19078 19081 19084 19087 19090 19093 19096 19099 19102 19105 19108 19110 19113 19116 19119 19121 19124 19126 19129 19132 19135 19137 19140 19142 19145 19148 19150 19152 19155 19158 19161 19164 19167 19170 19173 19176 19179 19182 19185 19188 19191 19194 19197 19200 19203 19206 19209 19212 19215 19218 19220 19223 19226 19229 19232 19235 19238 19241 19244 19247 19250 19253 19256 19259 19262 19265 19267 19270 19273 19276 19279 19282 19285 19288 19291 19294 19297 19300 19302 19305 19308 19311 19314 19317 19320 19323 19326 19329 19332 19335 19338 19341 19344 19347 19350 19353 19356 19359 19362 19365 19368 19371 19374 19377 19380 19383 19385 19388 19391 19394 19397 19399 19402 19405 19408 19411 19414 19417 19420 19423 19426 19429 19431 19434 19437 19439 19442 19445 19448 19451 19454 19457 19460 19463 19466 19469 19472 19475 19478 19481 19484 19487 19490 19493 19496 19499 19502 19505 19508 19511 19514 19517 19520 19523 19526 19529 19532 19535 19538 19541 19544 19547 19550 19553 19556 19559 19562 19565 19568 19571 19574 19577 19580 19583 19586 19589 19592 19595 19598 19601 19604 19607 19609 19612 19615 19618 19621 19624 19627 19630 19633 19636 19639 19642 19645 19648 19651 19654 19657 19660 19663 19666 19669 19672 19675 19678 19681 19683 19686 19689 19692 19695 19697 19700 19703 19706 19709 19712 19715 19718 19721 19724 19727 19730 19733 19736 19739 19741 19744 19747 19750 19753 19755 19758 19761 19764 19767 19769 19772 19775 19778 19781 19784 19787 19789 19792 19795 19797 19800 19803 19805 19808 19811 19813 19815 19818 19821 19824 19827 19830 19833 19836 19839 19842 19844 19847 19850 19853 19856 19859 19862 19865 19868 19871 19874 19877 19880 19883 19886 19888 19890 19893 19896 19899 19902 19904 19907 19910 19913 19916 19919 19922 19925 19928 19930 19933 19936 19939 19942 19945 19948 19950 19953 19955 19958 19961 19964 19967 19970 19973 19976 19979 19982 19985 19988 19991 19994 19997 20000 20003 20006 20009 20012 20015 20018 20021 20024 20027 20030 20032 20035 20038 20040 20043 20046 20049 20052 20055 20058 20060 20063 20066 20069 20072 20075 20078 20081 20084 20087 20090 20093 20096 20099 20102 20105 20108 20111 20114 20117 20120 20123 20126 20129 20132 20135 20138 20141 20144 20147 20150 20153 20156 20159 20162 20165 20168 20171 20174 20176 20179 20182 20185 20188 20191 20194 20196 20199 20202 20205 20208 20211 20214 20217 20220 20223 20225 20228 20231 20234 20237 20240 20243 20246 20248 20251 20254 20257 20260 20262 20265 20268 20271 20274 20277 20280 20283 20285 20288 20291 20294 20297 20300 20303 20305 20308 20311 20314 20316 20319 20322 20324 20327 20330 20333 20335 20338 20340 20343 20346 20349 20352 20355 20357 20360 20363 20365 20368 20371 20374 20376 20379 20382 20385 20388 20391 20394 20397 20399 20402 20404 20407 20410 20413 20416 20418 20420 20423 20426 20429 20432 20435 20438 20441 20444 20447 20449 20452 20455 20458 20461 20464 20467 20470 20472 20475 20478 20481 20484 20486 20489 20492 20495 20498 20501 20504 20507 20510 20513 20516 20519 20522 20525 20528 20531 20534 20536 20539 20542 20545 20548 20550 20552 20555 20558 20561 20564 20567 20570 20573 20576 20579 20582 20585 20588 20591 20594 20597 20600 20603 20606 20609 20612 20615 20618 20621 20624 20627 20630 20633 20636 20639 20642 20645 20648 20651 20654 20657 20660 20663 20666 20669 20672 20675 20678 20681 20684 20687 20690 20693 20696 20699 20702 20704 20707 20710 20713 20716 20718 20721 20724 20727 20730 20733 20736 20739 20742 20745 20748 20750 20753 20756 20758 20761 20764 20766 20769 20771 20774 20776 20779 20782 20785 20788 20791 20794 20797 20800 20803 20806 20809 20812 20815 20818 20821 20824 20827 20830 20833 20836 20839 20841 20844 20847 20850 20853 20855 20858 20861 20864 20867 20870 20872 20874 20877 20880 20883 20886 20889 20892 20895 20898 20901 20903 20906 20909 20912 20915 20918 20921 20924 20926 20928 20931 20934 20937 20940 20943 20946 20949 20952 20955 20958 20960 20962 20965 20968 20971 20974 20977 20979 20982 20985 20988 20991 20994 20997 21000 21003 21006 21008 21011 21014 21017 21020 21023 21026 21029 21032 21034 21036 21039 21042 21045 21048 21050 21053 21055 21058 21061 21064 21066 21069 21072 21075 21078 21081 21084 21087 21089 21092 21095 21098 21101 21104 21106 21109 21112 21114 21117 21120 21123 21125 21128 21130 21132 21135 21137 21140 21143 21146 21149 21152 21155 21157 21159 21162 21165 21167 21170 21173 21176 21179 21182 21185 21188 21190 21193 21196 21199 21201 21204 21206 21209 21212 21214 21217 21220 21222 21225 21228 21231 21234 21237 21240 21243 21246 21249 21252 21255 21258 21261 21264 21267 21270 21273 21276 21279 21282 21285 21287 21290 21293 21296 21299 21302 21305 21308 21310 21313 21316 21319 21322 21325 21327 21330 21333 21336 21339 21341 21344 21347 21350 21353 21356 21359 21362 21364 21367 21370 21373 21376 21379 21382 21385 21387 21390 21393 21396 21399 21402 21405 21408 21411 21414 21417 21420 21423 21426 21429 21432 21435 21438 21441 21444 21446 21449 21452 21454 21457 21460 21463 21466 21469 21472 21474 21477 21479 21482 21485 21488 21490 21493 21496 21499 21502 21504 21507 21509 21512 21515 21518 21521 21524 21526 21529 21532 21535 21538 21541 21544 21547 21550 21552 21555 21558 21560 21563 21566 21569 21572 21575 21578 21581 21584 21586 21589 21591 21594 21597 21599 21602 21604 21607 21610 21612 21615 21618 21621 21624 21627 21630 21633 21636 21639 21642 21644 21647 21650 21653 21656 21659 21662 21665 21668 21670 21673 21676 21678 21681 21684 21687 21690 21693 21696 21699 21701 21704 21707 21710 21713 21716 21719 21722 21725 21728 21731 21734 21737 21740 21743 21746 21749 21752 21755 21758 21761 21764 21767 21770 21773 21776 21779 21782 21785 21788 21791 21794 21797 21800 21803 21806 21809 21812 21815 21818 21821 21824 21827 21829 21832 21835 21838 21841 21843 21846 21849 21851 21854 21857 21860 21863 21866 21869 21872 21875 21878 21880 21883 21886 21889 21892 21894 21897 21899 21902 21905 21908 21911 21914 21917 21920 21923 21926 21929 21931 21934 21937 21940 21942 21945 21947 21950 21953 21955 21958 21960 21963 21966 21969 21972 21975 21978 21981 21984 21987 21990 21993 21996 21999 22002 22005 22008 22011 22013 22016 22019 22022 22025 22028 22031 22034 22037 22040 22043 22045 22048 22051 22053 22056 22059 22062 22065 22068 22071 22074 22077 22080 22082 22084 22087 22090 22093 22096 22099 22101 22104 22106 22109 22112 22114 22116 22119 22122 22125 22128 22131 22134 22137 22140 22143 22146 22149 22152 22155 22158 22161 22164 22167 22169 22172 22175 22177 22180 22183 22185 22188 22191 22194 22196 22199 22201 22204 22207 22210 22213 22216 22219 22222 22225 22228 22231 22234 22237 22240 22243 22246 22249 22252 22255 22258 22261 22264 22267 22270 22273 22276 22279 22281 22284 22287 22290 22293 22296 22299 22302 22305 22308 22311 22314 22316 22319 22322 22325 22328 22331 22334 22337 22340 22342 22345 22348 22351 22354 22357 22360 22362 22365 22368 22370 22373 22375 22378 22381 22384 22387 22390 22393 22396 22399 22402 22405 22408 22411 22414 22417 22420 22423 22425 22428 22431 22434 22436 22439 22442 22445 22448 22451 22454 22457 22460 22462 22465 22468 22471 22474 22477 22480 22483 22486 22488 22490 22493 22496 22499 22502 22505 22508 22511 22513 22516 22519 22522 22525 22528 22531 22533 22536 22539 22542 22545 22548 22551 22554 22557 22559 22562 22565 22568 22571 22574 22577 22580 22583 22586 22589 22592 22595 22598 22601 22604 22607 22609 22612 22615 22618 22621 22624 22627 22629 22632 22635 22638 22641 22644 22647 22650 22652 22655 22658 22661 22664 22667 22670 22673 22676 22679 22682 22685 22688 22691 22694 22697 22699 22702 22705 22708 22711 22714 22717 22720 22722 22725 22728 22730 22733 22736 22739 22742 22745 22747 22750 22753 22756 22759 22762 22765 22768 22771 22773 22776 22779 22782 22785 22788 22791 22794 22797 22800 22803 22806 22809 22812 22815 22818 22821 22824 22827 22830 22833 22836 22838 22841 22844 22847 22850 22853 22856 22859 22862 22864 22867 22870 22873 22876 22879 22882 22884 22887 22890 22893 22896 22898 22901 22904 22907 22910 22913 22916 22919 22921 22923 22926 22928 22931 22934 22937 22940 22943 22946 22949 22952 22955 22958 22961 22964 22966 22969 22972 22975 22978 22981 22984 22986 22989 22992 22995 22998 23001 23004 23007 23010 23012 23015 23018 23020 23023 23026 23029 23032 23034 23037 23040 23043 23046 23049 23051 23053 23056 23059 23062 23065 23067 23070 23073 23076 23079 23082 23085 23088 23091 23094 23097 23100 23103 23106 23109 23112 23115 23118 23121 23124 23127 23130 23133 23136 23139 23142 23145 23148 23151 23154 23156 23159 23162 23165 23168 23171 23174 23177 23180 23182 23185 23188 23191 23194 23197 23199 23202 23205 23208 23210 23213 23216 23219 23222 23225 23227 23230 23232 23235 23237 23239 23242 23245 23248 23251 23253 23256 23258 23261 23264 23267 23270 23273 23276 23279 23282 23285 23288 23291 23293 23296 23299 23302 23304 23307 23310 23313 23316 23319 23322 23325 23328 23331 23334 23337 23340 23343 23346 23349 23352 23355 23358 23361 23364 23367 23370 23373 23376 23379 23382 23385 23388 23391 23394 23397 23400 23403 23406 23409 23412 23415 23418 23421 23424 23427 23430 23433 23436 23439 23442 23445 23448 23450 23453 23456 23459 23462 23465 23468 23471 23474 23477 23480 23483 23486 23489 23492 23495 23497 23500 23503 23506 23509 23511 23514 23517 23519 23522 23524 23527 23530 23533 23536 23539 23541 23544 23547 23550 23553 23556 23559 23562 23565 23568 23571 23574 23577 23580 23583 23586 23589 23591 23594 23596 23599 23602 23605 23608 23611 23614 23617 23620 23623 23626 23629 23632 23635 23638 23641 23644 23646 23649 23651 23654 23657 23660 23663 23666 23669 23671 23674 23676 23679 23682 23685 23688 23690 23693 23696 23699 23702 23705 23708 23711 23714 23717 23720 23723 23726 23729 23732 23735 23738 23741 23744 23747 23750 23753 23756 23759 23762 23765 23767 23770 23773 23776 23779 23782 23785 23788 23791 23794 23797 23800 23803 23805 23807 23810 23812 23815 23818 23820 23822 23825 23828 23830 23833 23836 23839 23842 23845 23848 23850 23853 23856 23858 23861 23864 23867 23869 23872 23875 23878 23881 23884 23887 23889 23891 23894 23897 23900 23903 23906 23909 23912 23915 23918 23921 23923 23926 23929 23932 23935 23938 23941 23943 23946 23949 23952 23955 23957 23960 23963 23965 23968 23971 23974 23977 23980 23983 23985 23988 23991 23994 23996 23998 24000 24003 24006 24009 24012 24015 24017 24020 24022 24025 24028 24031 24034 24037 24040 24043 24046 24049 24052 24055 24058 24060 24063 24066 24069 24072 24075 24078 24081 24084 24086 24089 24091 24094 24096 24099 24102 24104 24107 24110 24112 24115 24118 24121 24124 24127 24130 24132 24135 24138 24140 24143 24146 24149 24152 24155 24158 24161 24164 24167 24170 24173 24176 24179 24182 24185 24188 24191 24194 24197 24200 24203 24206 24209 24212 24215 24218 24221 24224 24227 24230 24233 24236 24239 24242 24244 24247 24250 24253 24256 24259 24262 24265 24267 24270 24273 24276 24279 24282 24285 24287 24290 24293 24296 24298 24301 24304 24307 24310 24313 24316 24319 24322 24325 24328 24330 24333 24336 24339 24342 24345 24347 24350 24353 24356 24359 24362 24365 24367 24370 24373 24375 24378 24381 24384 24387 24390 24393 24396 24399 24402 24405 24408 24411 24414 24416 24419 24422 24424 24427 24430 24433 24436 24439 24442 24445 24448 24451 24454 24457 24460 24463 24466 24468 24471 24474 24477 24480 24483 24486 24488 24490 24493 24496 24499 24502 24505 24507 24510 24513 24516 24519 24522 24525 24528 24531 24534 24537 24540 24543 24546 24548 24551 24554 24557 24560 24562 24565 24568 24571 24574 24577 24579 24582 24585 24588 24591 24594 24597 24600 24603 24606 24609 24612 24615 24618 24621 24624 24627 24630 24632 24635 24637 24640 24643 24645 24648 24651 24654 24657 24660 24662 24665 24668 24670 24673 24676 24678 24681 24684 24687 24689 24692 24695 24697 24700 24703 24706 24709 24711 24714 24717 24720 24723 24726 24729 24732 24735 24738 24741 24744 24746 24749 24752 24755 24758 24761 24764 24766 24769 24772 24775 24778 24781 24784 24787 24790 24793 24796 24799 24802 24805 24808 24811 24814 24817 24820 24823 24826 24828 24831 24833 24836 24839 24842 24845 24848 24850 24853 24856 24859 24862 24865 24868 24871 24874 24877 24879 24882 24885 24888 24891 24893 24896 24899 24902 24905 24908 24911 24914 24917 24920 24923 24926 24928 24931 24934 24937 24939 24942 24945 24948 24951 24953 24956 24959 24962 24965 24967 24970 24972 24975 24978 24981 24984 24986 24989 24992 24995 24998 25001 25004 25007 25010 25012 25015 25018 25021 25023 25025 25028 25031 25034 25037 25040 25043 25046 25049 25052 25055 25057 25060 25063 25066 25068 25071 25073 25076 25079 25082 25085 25088 25091 25094 25097 25100 25103 25106 25109 25112 25115 25118 25121 25124 25127 25130 25133 25136 25139 25142 25145 25148 25151 25154 25156 25159 25162 25165 25168 25171 25174 25177 25180 25183 25186 25189 25192 25195 25198 25201 25204 25207 25209 25212 25215 25218 25221 25224 25226 25229 25232 25235 25237 25240 25243 25246 25249 25252 25255 25258 25261 25264 25267 25270 25273 25275 25278 25280 25283 25286 25289 25292 25295 25298 25301 25304 25307 25310 25313 25316 25319 25322 25325 25328 25331 25334 25337 25340 25343 25346 25349 25351 25354 25356 25359 25362 25364 25367 25370 25372 25375 25378 25381 25384 25387 25390 25392 25395 25398 25401 25403 25406 25409 25412 25415 25418 25421 25424 25427 25430 25433 25436 25439 25442 25445 25448 25451 25454 25457 25460 25462 25465 25468 25471 25474 25477 25480 25482 25485 25488 25491 25494 25497 25500 25503 25506 25509 25511 25514 25517 25520 25523 25525 25528 25531 25533 25536 25539 25542 25545 25548 25551 25554 25557 25560 25563 25565 25568 25571 25574 25576 25579 25582 25584 25587 25590 25592 25595 25598 25601 25604 25607 25610 25613 25616 25619 25622 25625 25628 25631 25634 25637 25640 25643 25646 25649 25652 25655 25658 25661 25664 25667 25670 25673 25676 25679 25682 25685 25688 25691 25694 25697 25700 25703 25706 25709 25712 25715 25718 25721 25724 25727 25730 25733 25736 25739 25742 25745 25747 25750 25753 25756 25759 25762 25765 25768 25771 25774 25777 25780 25783 25786 25789 25792 25795 25798 25801 25804 25806 25809 25812 25815 25818 25821 25824 25827 25830 25833 25836 25839 25842 25845 25848 25851 25854 25857 25860 25863 25865 25868 25871 25874 25877 25880 25883 25886 25888 25890 25893 25896 25899 25902 25905 25908 25911 25914 25917 25920 25923 25926 25929 25932 25935 25937 25940 25943 25946 25949 25952 25955 25958 25961 25964 25967 25970 25973 25976 25979 25982 25985 25987 25990 25993 25996 25999 26002 26005 26007 26010 26013 26015 26018 26021 26024 26027 26030 26033 26036 26039 26042 26045 26048 26051 26054 26057 26060 26063 26066 26069 26071 26074 26076 26079 26082 26085 26088 26091 26094 26097 26100 26103 26106 26109 26112 26115 26118 26121 26124 26127 26130 26133 26135 26138 26141 26144 26146 26149 26152 26155 26158 26161 26164 26166 26169 26171 26174 26176 26179 26182 26185 26187 26190 26193 26196 26198 26201 26204 26206 26209 26211 26214 26217 26220 26223 26225 26227 26230 26233 26236 26239 26242 26245 26247 26250 26253 26256 26259 26262 26265 26268 26271 26274 26277 26280 26283 26285 26287 26290 26293 26295 26298 26301 26304 26307 26310 26313 26316 26319 26322 26325 26328 26331 26334 26337 26340 26343 26346 26349 26352 26355 26358 26361 26364 26367 26370 26373 26375 26378 26381 26384 26387 26390 26393 26395 26398 26401 26404 26407 26410 26413 26416 26419 26422 26425 26428 26431 26434 26437 26440 26443 26445 26448 26450 26453 26456 26459 26461 26464 26467 26470 26472 26475 26478 26481 26484 26486 26489 26492 26495 26498 26501 26503 26506 26509 26512 26515 26517 26519 26522 26525 26528 26531 26534 26537 26540 26542 26545 26548 26551 26554 26557 26559 26562 26565 26568 26570 26573 26576 26579 26582 26585 26587 26590 26592 26595 26598 26601 26604 26607 26609 26611 26614 26617 26620 26622 26625 26627 26630 26633 26636 26639 26642 26645 26648 26651 26653 26656 26659 26662 26665 26668 26670 26673 26676 26678 26681 26684 26687 26690 26692 26695 26698 26700 26702 26705 26708 26711 26714 26717 26720 26723 26726 26729 26731 26733 26736 26739 26742 26745 26748 26751 26754 26756 26759 26762 26765 26767 26770 26773 26776 26779 26781 26784 26787 26790 26793 26796 26799 26802 26805 26808 26811 26813 26815 26818 26821 26823 26826 26828 26831 26834 26837 26840 26843 26845 26848 26851 26854 26857 26860 26863 26866 26869 26872 26875 26878 26881 26883 26886 26889 26892 26895 26898 26901 26904 26907 26910 26913 26916 26919 26922 26924 26927 26930 26933 26936 26939 26941 26943 26946 26949 26952 26955 26958 26961 26964 26967 26970 26973 26976 26979 26982 26985 26988 26990 26993 26996 26998 27001 27004 27007 27010 27013 27015 27018 27021 27024 27027 27030 27033 27036 27039 27042 27045 27048 27051 27054 27057 27060 27063 27066 27069 27072 27075 27078 27081 27084 27087 27090 27093 27096 27099 27102 27105 27108 27111 27114 27117 27120 27123 27126 27129 27132 27135 27138 27141 27144 27147 27150 27153 27156 27159 27162 27165 27168 27171 27174 27177 27180 27183 27186 27189 27192 27195 27198 27201 27204 27207 27210 27213 27216 27219 27222 27224 27227 27230 27233 27236 27239 27242 27245 27248 27251 27254 27257 27260 27263 27266 27269 27272 27275 27278 27280 27283 27286 27289 27292 27295 27298 27301 27304 27307 27310 27313 27316 27319 27322 27325 27328 27331 27334 27337 27340 27343 27346 27349 27352 27355 27358 27361 27364 27367 27369 27372 27375 27378 27381 27384 27387 27390 27393 27395 27398 27401 27404 27407 27410 27413 27416 27419 27422 27425 27428 27431 27434 27437 27440 27443 27446 27448 27451 27454 27457 27460 27463 27466 27469 27472 27475 27478 27481 27484 27487 27490 27493 27496 27499 27502 27505 27508 27511 27514 27517 27520 27523 27526 27529 27532 27535 27538 27541 27544 27547 27550 27553 27556 27559 27562 27565 27568 27571 27574 27577 27580 27583 27586 27589 27592 27594 27597 27599 27602 27604 27607 27609 27612 27615 27618 27621 27624 27627 27630 27633 27636 27639 27642 27645 27648 27651 27654 27656 27659 27662 27665 27667 27670 27673 27676 27679 27682 27685 27688 27691 27694 27697 27700 27703 27705 27708 27711 27713 27715 27718 27721 27724 27727 27729 27732 27735 27738 27741 27743 27746 27748 27751 27754 27756 27759 27762 27765 27767 27770 27773 27776 27778 27781 27784 27786 27789 27792 27795 27798 27801 27804 27807 27810 27813 27816 27819 27822 27825 27828 27831 27834 27837 27840 27843 27846 27849 27852 27855 27858 27861 27863 27866 27869 27872 27875 27878 27881 27884 27886 27889 27891 27894 27897 27900 27903 27905 27908 27911 27914 27916 27918 27921 27924 27926 27929 27931 27934 27936 27938 27941 27944 27947 27950 27952 27955 27958 27960 27963 27966 27969 27972 27975 27978 27981 27984 27987 27990 27993 27996 27999 28002 28005 28008 28011 28014 28017 28020 28023 28026 28028 28031 28034 28037 28040 28043 28046 28049 28052 28054 28057 28059 28062 28065 28068 28071 28074 28077 28079 28082 28085 28088 28091 28094 28096 28099 28102 28105 28108 28111 28114 28117 28120 28122 28125 28127 28130 28132 28135 28138 28140 28143 28146 28148 28151 28154 28157 28160 28162 28165 28168 28171 28173 28176 28179 28181 28184 28187 28190 28193 28196 28199 28202 28205 28208 28211 28214 28216 28219 28221 28223 28226 28228 28231 28234 28236 28239 28242 28244 28247 28249 28252 28254 28257 28259 28262 28265 28268 28271 28274 28276 28279 28282 28285 28288 28291 28293 28296 28299 28302 28305 28308 28311 28314 28317 28320 28323 28325 28328 28330 28332 28335 28337 28339 28342 28344 28347 28350 28353 28355 28358 28360 28363 28365 28368 28371 28374 28376 28379 28382 28385 28388 28390 28393 28396 28398 28401 28404 28407 28409 28412 28415 28417 28419 28422 28425 28428 28431 28434 28436 28439 28441 28444 28446 28449 28451 28454 28457 28460 28463 28465 28468 28471 28473 28475 28478 28480 28483 28485 28487 28490 28492 28494 28496 28498 28501 28504 28507 28510 28513 28516 28519 28522 28525 28528 28530 28533 28536 28539 28542 28544 28547 28550 28552 28555 28558 28560 28563 28566 28569 28572 28574 28576 28579 28582 28585 28588 28591 28594 28597 28600 28603 28606 28609 28612 28615 28618 28621 28624 28627 28630 28633 28636 28639 28642 28644 28647 28650 28653 28656 28659 28662 28665 28668 28671 28674 28677 28680 28683 28686 28689 28692 28695 28698 28701 28704 28707 28710 28712 28715 28718 28721 28724 28726 28728 28731 28733 28736 28738 28740 28743 28746 28749 28752 28754 28757 28760 28763 28765 28768 28771 28774 28776 28778 28781 28784 28787 28790 28793 28795 28798 28801 28804 28807 28810 28813 28816 28818 28820 28823 28825 28828 28831 28833 28835 28837 28840 28843 28846 28849 28852 28854 28856 28858 28861 28863 28865 28868 28871 28874 28877 28879 28882 28885 28888 28891 28894 28896 28899 28901 28904 28907 28909 28912 28915 28918 28921 28924 28927 28930 28932 28934 28937 28940 28943 28946 28948 28950 28953 28956 28959 28961 28963 28965 28967 28970 28972 28975 28977 28980 28982 28985 28987 28990 28993 28995 28998 29000 29002 29004 29007 29010 29013 29016 29019 29022 29025 29028 29031 29034 29037 29040 29043 29046 29049 29052 29055 29058 29061 29064 29067 29070 29073 29076 29079 29082 29084 29087 29090 29093 29096 29099 29102 29105 29108 29111 29114 29117 29120 29123 29126 29129 29132 29135 29138 29141 29144 29147 29150 29152 29154 29157 29160 29163 29166 29169 29172 29175 29178 29181 29184 29187 29190 29193 29196 29199 29202 29205 29208 29211 29214 29217 29220 29223 29226 29229 29232 29234 29237 29240 29243 29246 29249 29251 29253 29255 29258 29261 29264 29267 29270 29273 29275 29278 29281 29284 29286 29289 29292 29295 29298 29300 29303 29306 29308 29310 29313 29316 29319 29321 29324 29327 29329 29332 29335 29338 29341 29344 29346 29349 29352 29354 29357 29360 29362 29364 29367 29369 29371 29374 29377 29380 29382 29385 29388 29391 29394 29397 29400 29403 29406 29409 29412 29415 29418 29421 29424 29427 29430 29433 29436 29439 29442 29445 29448 29451 29454 29457 29460 29462 29464 29467 29470 29473 29476 29479 29482 29484 29487 29490 29493 29496 29499 29502 29505 29508 29510 29512 29515 29518 29521 29524 29527 29529 29532 29535 29538 29541 29544 29547 29550 29552 29555 29558 29561 29564 29566 29568 29571 29574 29577 29580 29583 29586 29589 29592 29595 29598 29600 29603 29606 29609 29612 29614 29617 29619 29621 29624 29627 29630 29632 29635 29638 29641 29643 29646 29649 29652 29655 29658 29661 29664 29666 29669 29672 29675 29677 29680 29683 29685 29688 29690 29693 29696 29698 29701 29704 29707 29709 29712 29715 29718 29720 29723 29726 29728 29730 29733 29736 29738 29741 29743 29745 29748 29751 29754 29756 29759 29762 29765 29768 29771 29774 29777 29779 29782 29784 29787 29789 29791 29794 29797 29800 29802 29804 29807 29809 29812 29814 29816 29819 29822 29825 29828 29831 29834 29837 29840 29843 29846 29849 29852 29855 29858 29860 29863 29866 29869 29872 29875 29878 29881 29884 29887 29890 29893 29896 29899 29902 29905 29908 29911 29913 29916 29919 29922 29925 29928 29931 29933 29936 29939 29942 29944 29947 29950 29953 29956 29959 29962 29965 29967 29970 29973 29976 29979 29982 29985 29988 29991 29994 29997 30000 30003 30006 30009 30012 30015 30018 30021 30024 30027 30030 30033 30036 30039 30042 30045 30048 30051 30054 30057 30060 30063 30065 30068 30071 30074 30077 30080 30082 30085 30088 30091 30094 30096 30099 30102 30104 30107 30109 30112 30115 30118 30121 30124 30127 30130 30133 30136 30139 30141 30144 30147 30149 30152 30155 30157 30160 30163 30165 30168 30170 30173 30176 30179 30182 30185 30188 30191 30194 30197 30200 30203 30206 30209 30212 30215 30218 30221 30224 30227 30230 30233 30236 30239 30242 30245 30248 30251 30254 30257 30260 30262 30265 30268 30270 30273 30276 30279 30282 30284 30286 30289 30292 30295 30298 30300 30302 30305 30308 30311 30313 30315 30318 30321 30323 30326 30329 30331 30334 30337 30340 30343 30345 30348 30351 30354 30357 30359 30362 30365 30368 30371 30374 30377 30380 30383 30386 30389 30392 30395 30397 30400 30402 30405 30408 
</DataArray>
<DataArray type="UInt32" Name="types" format="ascii">
5 5 5 5 3 5 5 5 5 5 5 3 5 5 5 5 3 5 5 5 5 5 3 5 5 3 5 5 5 5 5 5 5 5 5 5 5 5 5 5 5 5 5 5 5 5 5 5 5 5 3 5 5 5 5 3 5 5 5 5 5 3 5 5 5 5 5 5 5 5 5 5 5 5 5 5 5 5 5 5 5 5 3 5 5 3 5 5 5 5 5 5 5 5 5 5 5 5 5 3 5 5 5 3 3 5 5 5 5 3 5 3 5 5 5 5 5 3 3 5 5 5 3 5 3 5 5 5 5 5 3 5 5 5 5 3 5 5 3 5 5 3 5 5 5 3 3 5 5 5 5 5 3 3 5 5 5 3 5 3 5 5 5 5 5 5 5 5 5 5 5 5 5 5 5 5 5 5 5 5 5 5 5 5 5 5 5 5 5 5 5 5 5 5 5 3 5 3 3 5 5 3 5 5 5 5 5 5 5 3 5 5 5 5 3 5 5 5 5 3 5 5 3 5 5 3 3 5 5 5 3 3 5 5 3 3 5 5 3 5 5 5 5 5 3 5 3 5 5 3 5 5 3 5 3 5 5 5 5 3 5 5 5 5 5 3 5 5 5 5 5 5 5 5 5 5 5 5 5 5 5 5 5 5 3 5 5 5 5 5 3 5 5 5 5 5 5 5 5 3 5 5 5 3 5 5 5 3 5 5 5 5 3 3 3 3 5 5 5 5 5 5 5 5 5 5 5 5 5 5 5 5 5 5 5 5 3 3 3 5 5 5 5 5 5 5 5 5 3 5 5 3 5 5 5 5 5 5 5 5 5 3 5 5 5 5 5 5 5 5 5 5 5 5 5 3 3 5 5 5 5 5 5 5 5 5 5 5 5 5 5 5 5 5 5 5 5 3 5 5 5 5 5 5 5 5 5 5 5 5 5 5 5 5 5 5 5 5 5 5 5 5 3 5 3 3 5 5 5 5 5 5 5 5 5 5 5 5 5 3 3 5 3 5 5 3 3 5 3 3 5 5 3 5 5 5 5 5 5 3 3 5 5 3 5 5 5 5 5 5 5 5 5 5 3 5 5 5 5 5 5 5 5 5 5 5 5 5 5 5 5 5 5 5 5 5 5 5 3 5 5 3 5 3 5 5 5 3 5 5 5 3 3 5 5 3 5 3 3 5 5 3 5 5 5 5 5 3 5 5 5 5 5 5 5 3 5 5 5 3 5 5 5 3 5 5 5 3 5 3 5 5 5 3 5 5 5 5 5 5 5 5 5 5 5 5 5 5 5 5 5 5 3 5 5 3 5 5 5 3 5 5 5 5 5 5 5 5 5 5 3 5 5 5 5 5 5 5 5 5 5 5 5 5 5 5 5 5 5 5 5 5 5 5 5 5 5 3 5 5 5 5 5 3 5 3 5 5 5 5 5 5 5 5 5 5 5 3 5 5 5 5 5 5 5 5 5 5 5 5 5 5 5 5 5 5 5 5 5 3 5 5 5 5 5 5 5 5 5 5 5 5 3 5 3 5 5 5 5 3 5 5 5 3 5 5 5 5 3 5 5 3 5 5 5 5 5 3 3 5 5 5 5 5 3 5 5 5 5 5 3 5 5 3 5 5 5 3 3 5 5 5 5 5 5 5 5 5 5 5 5 5 3 5 5 5 3 5 5 5 5 5 5 5 5 5 5 5 5 5 5 5 5 3 5 3 5 5 5 5 5 5 5 5 5 5 5 5 5 5 5 3 5 5 5 5 5 5 5 5 5 5 5 3 5 5 5 5 3 5 5 5 3 5 3 5 5 5 5 5 5 5 5 5 5 3 5 5 3 5 5 5 5 5 5 5 5 5 5 5 5 5 5 5 5 5 5 5 5 5 5 5 3 5 5 5 5 5 5 5 3 3 3 3 5 5 3 3 5 5 5 5 5 5 5 5 5 5 5 5 5 5 5 5 5 5 5 5 5 5 5 5 5 5 5 5 5 5 5 5 5 5 5 5 5 5 5 5 5 5 3 5 5 5 5 5 5 5 5 5 5 3 5 5 5 5 5 5 5 5 3 5 5 5 5 5 5 3 5 5 5 5 5 5 5 3 3 5 5 5 5 5 5 5 5 5 5 5 5 5 3 5 5 5 5 5 5 5 5 5 5 5 5 5 5 5 5 5 5 5 5 5 5 5 5 5 5 5 5 5 5 5 5 5 5 5 5 5 5 5 5 5 5 5 5 3 5 5 5 5 3 5 5 5 5 5 5 5 5 5 5 5 5 5 5 5 5 5 5 5 5 5 5 5 5 5 5 5 5 5 5 5 5 5 5 5 5 5 5 5 5 5 5 5 5 5 5 5 5 5 5 5 5 5 5 5 5 5 5 5 5 5 5 5 3 5 5 5 5 5 5 5 3 5 5 5 5 5 5 5 3 5 5 5 3 5 5 3 5 5 5 5 5 5 5 5 5 5 5 5 5 5 3 5 5 5 5 5 3 5 5 5 5 3 5 5 5 5 3 5 3 5 5 3 5 5 5 5 5 5 5 5 5 5 5 5 5 5 5 5 5 5 5 5 3 5 5 3 5 5 5 5 5 5 5 5 5 5 5 5 5 5 5 5 5 5 5 5 5 5 5 5 5 5 5 5 5 5 5 5 5 5 5 5 5 5 5 5 5 5 5 5 5 5 5 5 5 5 5 5 5 5 5 5 5 5 5 5 5 5 5 5 5 5 5 5 5 5 5 5 5 5 5 5 5 5 5 5 5 5 5 5 5 5 5 5 5 5 5 5 5 5 5 3 5 5 5 5 5 5 5 5 5 5 5 3 5 5 5 3 5 5 5 5 5 5 5 5 5 5 5 5 5 5 5 5 3 5 5 5 5 5 5 5 3 5 5 5 3 5 5 5 5 5 5 5 3 5 5 3 5 5 5 3 5 5 5 5 5 5 5 5 5 5 5 5 5 5 5 5 5 5 5 5 5 5 5 5 5 5 5 5 5 5 5 5 5 5 3 5 5 5 5 5 5 5 5 5 3 5 5 5 3 5 3 5 5 5 5 5 5 5 5 5 5 3 5 3 5 3 3 5 5 5 5 5 5 5 5 5 5 5 5 5 5 3 5 3 5 5 3 3 5 3 5 5 5 5 3 5 5 5 5 3 5 3 5 5 5 5 5 3 5 5 3 5 3 5 5 5 5 3 5 5 5 5 3 5 5 5 5 5 5 3 5 5 5 3 5 5 5 5 5 5 5 5 3 5 5 5 5 5 5 5 5 3 5 5 5 5 5 5 5 5 5 5 5 5 5 5 5 5 5 5 5 5 5 5 5 5 5 5 5 5 5 5 5 5 5 5 5 5 5 5 5 5 5 5 5 5 5 3 5 5 5 5 5 5 5 5 5 5 5 5 5 5 3 5 5 5 5 5 5 5 3 5 5 5 5 5 3 5 5 5 5 5 5 5 5 5 5 5 5 5 5 5 5 5 5 5 5 5 5 5 5 5 5 5 3 5 5 5 5 5 5 5 5 5 5 5 5 5 5 5 5 5 5 5 5 5 5 5 5 5 5 5 3 5 5 5 5 3 5 5 3 5 5 3 5 5 5 3 3 5 5 5 5 5 5 5 3 5 5 5 5 5 5 5 5 3 5 5 5 3 3 5 5 5 5 3 5 5 3 3 3 5 5 3 5 5 5 5 5 5 5 5 5 5 5 5 5 5 3 5 5 5 5 3 5 5 5 5 5 5 3 5 5 3 5 5 5 5 5 5 5 3 3 5 3 5 5 5 5 5 5 5 5 5 3 3 5 5 5 5 3 5 5 5 5 5 5 5 3 5 5 5 3 5 5 5 3 5 5 5 3 5 5 5 5 5 5 5 5 5 5 5 5 5 5 5 3 3 5 5 5 5 5 3 5 3 5 5 5 5 5 5 5 5 5 5 5 5 3 5 5 5 5 5 5 3 3 5 5 3 5 5 5 5 5 5 3 5 5 5 3 5 5 5 5 5 5 5 5 5 5 5 5 5 5 5 3 5 5 5 5 3 5 5 3 5 5 5 5 5 3 5 5 5 5 5 5 5 5 5 5 3 5 5 5 3 5 3 3 5 5 5 5 5 5 3 5 3 5 5 5 5 5 5 3 5 5 5 5 5 5 5 5 5 5 5 5 5 5 3 5 5 5 5 5 5 5 5 5 5 5 3 5 5 3 5 5 5 5 5 5 5 3 5 5 5 3 5 5 5 5 5 5 5 3 5 5 5 5 5 5 5 5 5 5 5 5 5 3 5 3 5 5 5 5 5 5 5 5 5 5 3 5 5 5 3 5 5 5 5 3 3 5 5 3 5 5 5 3 5 5 3 5 5 5 5 3 5 5 5 5 5 5 5 5 5 5 5 5 5 5 5 5 5 5 5 5 5 5 5 3 5 5 3 5 5 5 5 5 5 5 5 5 5 5 5 3 5 3 5 5 5 5 5 3 5 5 5 3 5 5 3 3 3 5 5 5 5 3 5 5 5 3 5 5 5 5 3 5 5 5 5 5 5 5 5 5 5 3 5 5 3 5 5 5 5 5 5 3 5 5 5 5 5 5 5 5 3 5 3 5 5 5 5 5 5 5 5 5 5 5 5 3 3 5 5 3 5 5 3 5 5 5 5 5 3 5 5 5 5 5 5 5 5 5 3 3 5 5 5 5 5 5 5 5 5 5 5 5 5 5 5 5 5 5 5 5 5 5 5 5 5 5 5 5 5 5 5 3 5 5 5 5 5 5 3 5 3 5 5 3 5 5 3 5 5 5 5 5 5 5 5 5 5 5 5 3 3 5 3 3 5 5 5 5 5 5 5 5 5 5 5 5 5 5 5 5 5 5 5 5 5 5 5 5 5 5 5 5 5 5 5 5 5 5 5 5 5 5 5 5 5 5 5 5 5 5 5 5 5 5 5 5 5 5 5 3 5 5 5 5 3 5 3 5 5 3 5 5 5 3 5 5 5 3 5 5 5 5 5 5 5 5 5 5 5 5 5 3 5 5 5 5 3 5 5 5 5 5 5 5 5 5 5 5 5 5 5 5 3 5 5 3 5 5 5 5 5 3 3 5 5 5 5 5 5 3 5 5 5 3 5 5 5 5 5 5 5 3 5 5 5 5 5 5 5 3 5 3 5 5 5 3 3 5 5 5 3 5 3 5 3 3 5 5 5 5 3 5 5 5 3 3 3 5 5 5 3 5 5 5 5 5 5 5 3 5 5 3 5 5 3 3 5 5 5 5 5 5 5 5 5 5 3 5 3 5 5 5 5 5 5 5 5 5 5 3 3 3 5 3 5 5 5 5 5 5 3 5 5 5 5 5 5 5 5 5 5 5 5 5 5 5 5 5 5 5 5 5 5 3 5 5 5 5 3 5 5 3 5 5 5 5 5 5 5 5 3 5 5 5 5 3 5 5 5 5 3 5 5 5 5 5 5 5 3 5 5 3 5 5 5 5 5 5 5 5 5 5 5 5 5 5 5 5 5 5 5 5 5 5 5 5 5 5 5 5 5 5 5 5 5 5 5 5 5 5 5 5 5 5 3 5 3 5 5 5 5 5 5 5 5 5 5 5 5 5 5 5 5 5 5 5 3 5 5 5 5 5 5 5 5 5 5 5 5 5 5 5 5 3 5 5 5 5 5 3 5 5 3 5 5 5 5 5 5 5 5 3 5 5 5 5 3 5 5 3 5 5 5 5 5 5 5 5 5 5 5 5 5 5 3 5 5 3 5 5 5 5 3 5 5 5 5 5 5 5 3 5 5 3 5 5 5 5 5 5 5 5 3 3 5 5 5 3 5 3 3 5 5 5 5 5 5 5 5 5 5 5 5 5 5 5 5 5 5 5 5 5 5 5 5 5 5 5 3 5 5 5 5 3 3 5 5 5 3 5 5 5 3 5 5 5 5 5 3 5 5 3 5 5 5 5 5 5 5 5 5 5 5 5 5 5 5 5 5 5 5 5 5 5 5 5 5 5 5 5 3 5 5 5 5 5 5 3 5 5 5 5 5 5 5 5 5 3 5 5 3 5 5 5 3 5 5 5 5 5 5 5 5 5 5 5 5 5 5 5 3 5 3 5 5 5 5 5 5 5 5 5 5 5 5 5 5 5 5 5 3 5 5 5 5 5 5 5 5 5 5 5 5 3 5 5 5 3 5 3 5 5 5 5 5 5 5 5 5 3 5 5 3 3 5 5 5 5 5 5 5 3 5 3 5 5 3 3 5 5 5 3 5 5 5 5 5 5 5 5 3 5 5 5 5 5 5 5 5 5 5 5 5 5 5 5 5 3 5 5 5 5 5 5 5 5 5 3 5 3 5 5 3 5 5 5 5 5 5 3 5 5 5 5 5 3 3 5 5 3 5 3 5 5 3 5 5 3 5 5 5 5 5 3 5 5 3 3 5 5 5 5 5 5 5 5 5 5 5 5 5 3 5 3 5 5 5 5 5 3 5 5 5 5 3 5 5 5 5 3 5 5 5 3 5 5 5 5 5 3 5 5 5 3 3 3 5 3 5 5 5 5 5 5 5 5 3 5 5 5 5 5 3 5 5 5 3 5 3 5 5 5 3 5 5 5 5 5 5 5 5 5 5 5 5 5 5 3 5 5 5 5 5 3 5 5 5 3 5 5 5 5 5 3 5 5 5 5 5 5 3 5 5 5 3 3 5 3 3 5 5 3 5 5 5 5 5 3 5 5 3 5 5 5 5 5 5 3 5 5 5 5 5 5 3 5 5 5 5 5 5 3 3 5 3 3 5 3 5 5 3 5 5 5 5 5 5 5 5 3 5 5 5 5 5 5 5 5 5 5 5 3 5 5 5 5 5 5 5 5 5 5 5 5 5 5 5 3 5 5 3 5 5 5 5 5 5 5 3 3 5 5 5 3 5 3 5 5 5 5 3 5 5 5 3 5 5 5 3 5 5 5 5 5 5 3 5 5 3 5 5 5 5 5 5 5 5 5 5 5 5 5 5 5 5 5 5 5 5 5 5 5 5 5 5 5 5 5 5 3 5 5 5 5 3 5 5 5 5 5 5 5 5 5 5 5 5 5 5 5 5 3 5 5 5 5 3 5 3 5 3 5 5 5 5 3 3 5 5 5 5 3 5 5 5 3 5 3 5 5 3 5 5 5 5 3 5 5 5 5 5 5 5 5 5 5 5 5 5 5 5 5 5 3 5 5 5 5 5 5 5 5 3 5 5 5 5 3 5 3 5 5 5 5 5 3 5 5 5 3 5 5 5 5 5 5 5 5 5 5 5 5 5 5 3 5 5 5 5 3 5 5 5 5 5 3 5 5 5 5 5 5 5 5 5 5 5 5 5 5 5 5 5 5 5 5 5 5 5 5 5 5 5 5 5 5 3 5 5 5 5 5 5 5 5 5 3 5 5 5 5 5 5 5 5 3 5 5 5 5 5 5 3 5 5 5 3 5 3 5 5 5 5 5 5 3 5 5 5 3 5 5 5 5 5 5 5 5 5 5 5 5 5 5 5 5 5 5 5 5 3 5 5 5 5 3 5 5 3 5 3 5 5 5 3 5 5 5 5 5 5 5 5 5 5 5 5 5 5 5 5 5 5 5 3 5 5 5 5 5 5 5 5 5 5 3 5 5 5 5 5 5 5 5 5 3 5 5 5 5 5 5 5 5 5 5 5 5 5 5 5 5 5 5 5 5 5 5 5 5 5 5 3 5 5 5 5 5 5 5 5 5 5 5 5 5 5 5 5 5 5 3 5 5 5 5 5 5 5 5 3 5 5 5 5 5 5 5 5 5 5 5 3 5 5 5 5 5 5 5 5 5 5 5 5 5 5 5 5 5 5 5 5 5 5 5 3 5 5 5 5 5 5 5 5 5 5 3 5 3 5 3 5 5 5 5 3 5 5 5 3 5 5 5 5 5 5 5 3 5 5 5 5 3 5 5 5 5 5 3 5 5 5 5 5 5 3 5 5 5 5 5 5 5 5 5 5 5 5 5 5 5 3 5 5 3 3 5 5 5 5 5 5 5 5 5 5 5 5 3 5 5 5 5 5 5 5 5 5 5 5 5 5 5 5 5 5 5 5 3 5 5 5 3 5 5 5 5 5 3 5 5 5 5 3 3 5 5 5 5 5 5 5 5 5 5 3 5 5 5 5 5 5 5 5 5 5 5 5 5 5 5 5 5 5 5 5 3 5 5 3 5 5 5 5 5 5 5 5 3 5 5 5 5 5 5 5 5 3 5 5 5 5 3 3 5 5 5 5 5 5 5 5 5 5 5 5 5 5 5 3 5 5 3 5 5 5 5 5 5 3 5 5 5 5 5 5 3 3 5 3 5 3 3 5 5 3 5 5 5 3 5 5 5 3 5 5 3 5 5 3 5 5 3 5 5 3 3 3 5 5 5 5 5 5 5 3 5 5 5 3 5 5 3 5 5 5 5 5 5 5 5 5 5 5 5 3 5 5 5 3 5 5 5 5 5 5 5 5 5 5 5 5 5 5 5 5 5 5 5 5 5 5 3 5 3 5 5 5 3 5 5 5 5 5 5 5 5 5 5 3 5 3 5 5 5 5 5 5 5 5 5 5 5 5 5 5 5 5 5 5 5 5 3 3 5 5 5 5 5 5 5 5 3 5 5 5 5 5 5 5 5 5 3 5 5 5 3 5 5 5 5 5 5 5 5 5 5 5 5 5 5 3 5 5 5 5 5 3 5 3 3 5 5 5 5 5 5 5 3 5 5 5 5 5 5 5 5 5 5 5 5 5 5 5 5 5 5 5 5 3 5 3 5 5 5 5 3 5 3 5 5 5 5 5 5 5 3 5 5 5 5 5 5 5 3 5 5 5 3 5 5 5 5 5 3 5 3 5 5 5 5 5 5 5 5 3 5 3 5 3 5 5 5 5 5 5 5 5 5 5 5 5 5 5 5 5 5 5 3 5 5 3 5 5 5 5 3 5 5 5 5 5 5 5 5 5 5 5 5 5 3 5 5 3 3 3 5 5 5 5 5 5 5 5 5 5 5 5 3 5 3 5 5 5 3 5 5 5 5 5 5 3 5 5 5 3 5 5 3 5 5 5 3 5 3 5 5 5 5 3 5 5 5 5 5 5 5 5 5 5 5 3 5 5 5 5 3 5 5 5 5 5 5 3 5 5 3 5 3 5 5 5 5 5 5 5 5 5 3 5 5 3 5 5 5 5 5 3 5 5 5 5 5 5 5 5 3 5 5 5 5 5 5 5 5 5 3 5 5 3 5 3 5 5 5 5 3 5 5 3 5 5 5 3 5 5 5 5 5 5 5 5 5 5 3 5 5 3 5 5 5 5 5 5 5 5 5 5 5 3 5 5 3 5 5 5 5 5 5 5 5 5 5 5 5 5 5 5 5 5 5 5 5 5 5 5 5 5 5 5 5 5 5 5 5 3 5 5 5 5 5 5 5 5 5 5 5 5 5 5 5 5 5 5 5 5 5 5 5 5 5 3 5 5 5 5 5 5 5 5 5 5 5 5 5 5 5 3 3 5 5 5 5 5 5 3 5 5 3 5 5 5 5 5 5 5 3 5 5 5 3 5 5 5 3 5 5 5 3 5 3 3 5 5 3 3 3 5 5 3 5 5 5 3 5 5 5 5 5 5 3 3 5 5 5 5 5 3 3 5 5 5 5 5 5 3 5 3 5 5 5 5 5 5 5 3 5 5 5 5 5 5 5 3 5 5 5 5 5 5 5 5 5 5 5 3 5 3 3 5 5 3 5 5 5 5 5 5 5 3 3 3 5 3 5 5 5 5 5 3 5 5 5 5 5 5 5 5 5 5 5 5 5 5 5 5 5 5 5 5 5 5 5 3 5 5 5 5 5 5 5 5 5 5 5 5 5 5 5 5 5 5 5 5 5 5 5 5 5 5 5 5 5 5 5 5 5 5 5 5 5 5 5 5 5 5 5 5 5 3 5 5 5 3 5 5 5 5 5 5 5 5 5 5 3 5 5 5 5 5 5 5 5 5 5 5 5 5 5 3 5 5 5 5 5 3 5 5 5 5 5 5 3 5 5 5 5 5 5 5 5 5 5 5 5 3 5 5 5 5 3 5 5 5 5 5 5 5 5 5 3 5 5 5 5 5 5 5 5 3 5 5 5 3 3 5 5 5 5 5 5 5 3 5 5 5 3 5 5 5 5 5 5 5 5 5 5 5 5 3 5 5 5 5 5 5 3 5 5 5 5 3 5 5 5 5 5 5 5 5 5 5 5 5 5 5 5 5 5 5 5 5 5 5 5 5 5 5 5 5 5 5 5 5 5 5 5 5 5 5 5 5 5 5 5 5 5 5 5 5 5 5 5 5 5 5 5 5 5 3 5 5 5 3 5 3 5 3 5 5 5 5 5 5 5 5 5 5 5 5 5 5 5 5 5 5 5 3 5 5 3 5 5 3 5 5 5 3 5 5 5 5 3 3 5 5 5 5 5 3 5 5 5 5 3 5 3 5 5 3 5 3 5 3 5 5 5 5 3 5 5 5 3 3 5 5 5 5 5 5 5 3 5 5 3 5 5 5 5 5 5 5 3 5 5 3 5 5 3 5 5 3 5 5 3 5 5 5 5 5 5 5 5 5 5 5 5 5 5 5 5 5 5 5 5 5 5 5 5 5 5 5 5 5 3 5 5 5 5 5 5 5 5 3 5 5 5 5 5 5 5 5 5 5 5 5 5 5 5 5 5 5 5 5 5 5 5 5 5 5 5 3 5 3 5 5 5 5 5 3 5 5 5 3 5 5 5 5 5 5 5 5 5 5 3 5 5 5 5 5 5 5 3 5 5 5 5 5 5 5 5 5 5 5 5 5 5 3 5 5 5 5 5 5 5 3 5 5 5 5 5 3 5 5 5 5 5 3 5 3 5 5 5 3 5 5 5 5 5 5 5 5 5 5 5 5 5 5 5 5 3 5 5 5 5 5 5 5 5 5 5 5 5 5 5 5 5 5 5 3 5 5 5 5 5 5 5 5 5 5 5 5 5 5 5 5 5 5 5 5 5 5 5 5 5 5 5 5 3 5 5 5 3 5 5 5 5 5 5 5 5 5 5 3 3 5 5 5 5 5 5 5 3 5 5 3 5 5 5 3 5 5 5 5 3 5 5 5 5 5 5 3 5 5 3 3 5 5 5 5 5 5 5 5 3 5 5 5 3 5 5 5 5 5 5 5 5 5 5 5 5 5 5 5 5 5 5 5 3 5 5 5 3 5 5 5 5 5 5 5 5 5 5 3 5 5 5 5 5 5 5 5 5 5 5 5 5 5 5 5 5 5 5 5 5 5 5 5 5 5 5 5 5 5 5 5 5 5 5 5 5 5 5 5 3 5 5 5 5 5 5 5 5 5 5 3 5 3 5 5 5 5 5 5 5 5 5 5 5 5 5 3 3 5 5 5 5 5 5 5 5 5 5 5 5 5 5 5 5 5 3 5 5 5 5 5 5 5 5 5 5 5 5 5 5 5 5 5 5 5 5 5 5 5 5 5 5 5 5 5 5 5 5 5 5 5 3 5 3 5 5 5 5 3 5 5 5 3 5 5 5 5 5 3 5 5 5 5 5 5 3 5 5 3 5 3 5 5 5 5 5 5 5 5 5 5 5 5 3 5 5 3 5 5 5 5 5 5 5 3 5 5 3 5 5 5 5 5 3 5 3 5 5 5 5 5 3 5 5 5 3 5 5 5 5 5 5 3 3 5 3 5 5 5 5 5 5 5 5 5 5 5 5 5 5 5 5 5 5 5 3 5 5 5 5 5 5 5 5 5 5 5 5 5 5 5 5 5 5 5 5 5 5 5 5 5 5 5 5 5 5 5 5 5 5 5 5 5 5 5 5 5 5 5 5 5 3 5 5 5 5 5 5 5 5 5 5 5 5 5 5 5 5 5 5 3 5 5 5 3 5 5 5 5 5 5 5 5 5 5 5 5 5 5 3 5 3 5 5 5 5 5 5 5 5 5 5 5 5 5 5 5 5 5 5 5 5 5 5 5 5 5 5 5 5 5 5 5 5 5 5 5 5 5 5 5 5 5 5 5 5 5 5 5 5 5 5 5 5 5 5 5 5 5 5 5 5 5 5 5 5 5 5 5 5 5 5 5 5 5 5 5 5 5 5 5 5 5 5 5 5 5 5 5 5 5 5 5 5 5 5 3 5 5 5 5 5 5 5 5 5 5 5 5 5 5 3 5 5 5 5 5 5 5 5 5 5 3 5 5 3 5 5 5 3 5 3 5 5 5 5 5 5 5 5 5 5 5 3 5 3 5 3 3 5 5 3 5 5 5 5 5 5 3 3 5 5 5 5 5 5 5 5 5 5 5 5 5 5 5 5 5 5 5 5 3 5 5 3 5 5 5 5 5 5 3 5 5 5 3 5 5 5 5 3 3 3 5 5 5 5 3 5 5 5 5 5 5 3 5 5 5 5 3 5 5 3 5 5 5 5 5 5 5 5 5 5 3 5 5 5 5 3 5 5 5 5 5 3 5 5 3 5 5 5 5 5 5 5 3 5 5 5 5 5 3 5 5 5 5 5 5 5 5 5 5 5 5 5 5 5 5 5 5 5 5 5 5 5 5 5 3 5 5 5 5 5 5 5 5 5 5 5 5 5 5 3 5 5 5 5 5 5 5 5 5 3 5 5 5 5 5 5 5 5 5 3 5 5 3 5 5 5 3 5 5 5 5 5 5 5 5 5 5 5 5 5 5 5 5 3 5 3 5 3 5 5 5 5 5 3 5 5 5 5 5 5 3 5 5 3 5 5 3 5 5 5 5 3 3 5 5 3 5 5 3 3 5 5 5 5 3 5 5 5 5 5 3 5 3 5 5 5 3 5 5 5 3 5 3 5 5 3 5 5 5 5 5 5 5 5 5 5 3 5 5 5 5 5 5 5 3 5 5 5 3 3 5 5 3 3 5 5 5 5 5 3 5 3 3 5 5 3 3 5 5 5 3 5 3 5 3 3 5 5 5 5 5 5 5 5 5 3 5 5 5 5 5 3 5 3 5 5 5 5 5 3 5 5 5 5 3 5 3 5 5 5 3 5 3 3 5 5 5 5 3 5 5 3 5 5 3 5 3 5 5 5 5 3 5 3 5 3 5 5 5 5 5 3 5 5 5 3 5 3 5 5 5 5 5 3 5 5 3 5 5 5 3 5 5 5 3 3 5 5 5 5 3 3 5 5 5 5 5 5 3 5 5 5 5 5 5 5 5 5 5 5 5 5 3 5 5 3 5 5 3 3 3 5 5 5 5 5 5 5 5 5 5 5 5 5 5 5 5 5 5 5 5 5 5 5 3 5 5 5 3 5 5 5 3 5 5 5 5 5 3 5 5 5 5 5 5 5 3 3 5 5 5 3 5 5 3 5 5 5 5 5 5 5 5 5 5 5 5 5 5 5 5 5 3 5 5 5 5 5 5 5 3 5 5 3 5 5 5 3 5 5 5 3 3 5 5 5 5 5 5 5 5 5 5 5 5 5 5 5 5 5 5 5 5 5 5 5 5 5 5 5 5 5 5 5 3 5 5 5 5 5 5 5 5 3 3 5 5 3 3 5 5 5 5 3 5 5 5 5 5 5 5 5 5 5 5 5 5 5 3 5 5 5 5 5 5 5 5 3 5 5 5 5 5 3 5 5 5 5 3 5 5 5 5 5 5 5 5 5 5 5 5 3 3 5 5 5 5 5 5 5 3 5 5 5 5 5 5 5 5 5 5 5 5 5 5 5 5 5 5 5 5 5 3 5 5 5 5 3 5 5 5 5 5 5 3 3 5 3 3 5 5 5 5 5 5 5 5 5 5 5 5 3 5 5 5 5 5 3 5 5 5 5 5 5 5 5 5 5 5 5 5 5 5 5 5 5 5 3 5 5 5 5 5 5 5 3 5 5 5 5 5 5 5 5 3 5 5 5 5 5 5 5 5 5 5 5 3 5 5 5 5 5 5 5 3 5 3 5 5 5 5 5 5 5 5 5 5 5 5 5 5 5 5 5 5 5 5 5 3 5 5 3 5 5 5 5 5 5 5 5 5 5 5 5 5 5 5 5 5 5 5 5 3 5 5 5 5 3 5 5 5 5 5 5 3 5 5 5 5 5 5 5 5 5 5 5 5 5 5 5 5 5 3 3 5 3 5 5 5 5 5 5 5 5 5 5 5 5 5 5 3 5 5 5 5 5 5 5 5 5 5 5 3 5 3 5 3 5 5 5 5 3 5 5 5 3 3 5 5 5 5 5 3 5 5 5 5 5 5 3 3 5 5 3 5 5 5 5 5 5 5 3 5 5 3 5 5 5 5 5 3 5 5 5 5 5 3 5 5 5 5 3 5 5 5 3 5 3 5 3 5 5 5 5 5 5 3 5 5 5 5 5 5 5 5 3 5 3 5 5 3 3 5 5 5 5 5 5 5 3 5 5 5 5 5 5 5 5 3 5 5 5 5 5 5 5 5 5 3 5 5 5 3 5 5 5 3 5 3 3 5 5 3 5 5 5 3 5 5 5 5 5 3 5 5 3 3 5 5 5 5 3 5 5 5 5 5 5 5 5 5 5 5 3 5 5 5 5 5 5 5 5 5 5 5 5 5 5 3 3 5 5 5 5 3 5 5 5 3 5 5 5 5 5 5 5 5 5 5 5 5 5 5 3 5 5 5 5 5 3 5 5 5 5 5 5 5 3 5 5 3 5 5 5 5 3 5 3 5 5 5 3 3 5 5 5 3 5 3 3 3 5 3 5 5 5 5 5 5 5 5 5 5 5 5 5 5 5 5 5 5 5 5 5 5 5 3 5 5 3 5 5 3 3 5 5 5 5 5 5 5 5 5 5 5 5 3 5 5 5 3 5 5 5 5 3 5 5 5 5 5 5 5 5 5 5 5 5 3 5 5 3 5 3 5 5 3 5 5 5 3 3 5 5 5 5 5 3 3 5 5 3 5 5 5 3 5 5 5 5 5 5 5 5 5 5 5 5 5 5 5 5 5 5 5 3 5 5 3 5 5 5 3 5 5 3 5 5 5 5 5 5 5 5 5 5 3 5 5 5 3 5 3 5 5 5 3 5 3 5 5 3 3 5 5 5 5 5 5 5 5 5 5 5 5 5 5 5 5 5 5 5 5 5 5 3 5 5 5 5 5 5 5 5 5 5 5 5 5 5 5 3 5 5 5 5 5 5 5 5 5 5 5 3 5 5 5 5 5 5 5 5 5 5 5 5 5 5 5 5 5 5 5 5 5 5 5 5 5 5 5 3 5 5 5 5 3 5 5 5 5 5 5 5 5 5 5 3 5 5 3 5 5 5 5 5 5 5 5 5 5 5 5 5 5 5 5 5 5 5 5 5 5 5 5 5 5 5 5 5 5 5 5 5 5 5 5 5 5 5 5 5 5 5 5 5 5 5 5 5 5 5 5 5 5 5 5 3 5 5 5 5 5 5 5 5 5 5 5 5 5 5 5 5 5 5 5 5 5 5 5 5 3 5 5 5 5 3 5 5 5 5 5 5 5 5 5 5 5 5 5 5 3 5 5 5 5 3 5 5 5 5 3 5 5 5 5 5 5 3 5 5 3 5 5 3 5 5 3 3 5 5 5 5 5 5 5 5 5 3 5 5 5 5 5 5 5 5 5 5 5 5 5 5 3 3 5 5 5 5 3 5 5 5 5 5 5 5 5 3 5 5 5 5 5 5 3 5 3 5 5 5 5 5 5 5 5 5 5 5 5 5 5 5 5 5 5 5 5 5 5 5 5 5 3 5 5 3 5 5 5 5 5 5 3 5 5 5 5 5 5 5 5 5 5 5 5 5 5 5 5 5 5 5 5 5 5 5 5 5 5 5 5 5 5 5 5 5 5 5 5 5 5 3 5 5 5 5 5 5 3 5 5 5 5 5 5 5 5 5 3 5 5 5 5 5 5 5 3 5 5 5 5 3 5 5 5 5 5 5 5 3 5 5 5 5 5 5 3 5 5 5 3 5 5 3 5 5 5 3 5 3 5 5 5 5 5 3 5 5 3 5 5 5 3 5 5 5 5 5 5 5 3 5 3 5 5 5 5 3 3 5 5 5 5 5 5 5 5 5 3 5 5 5 5 5 5 5 3 5 5 5 5 3 5 5 5 5 5 5 5 5 5 5 5 5 5 5 5 5 3 5 5 5 5 3 3 5 5 5 5 5 5 5 5 5 5 5 5 5 5 5 5 5 5 5 5 5 5 5 5 5 5 5 5 5 5 5 5 5 5 5 5 5 5 5 5 5 5 5 5 5 5 5 5 5 5 3 5 5 5 5 3 5 5 5 5 5 5 5 5 5 5 3 5 5 3 5 5 3 5 3 5 3 5 5 5 5 5 5 5 5 5 5 5 5 5 5 5 5 5 5 5 5 5 3 5 5 5 5 3 5 5 5 5 5 3 3 5 5 5 5 5 5 5 5 5 3 5 5 5 5 5 5 5 3 3 5 5 5 5 5 5 5 5 5 5 3 3 5 5 5 5 5 3 5 5 5 5 5 5 5 5 5 3 5 5 5 5 5 5 5 5 3 3 5 5 5 5 3 5 3 5 5 5 3 5 5 5 5 5 5 5 3 5 5 5 5 5 3 5 5 3 5 5 5 3 5 3 3 5 3 5 5 5 5 5 5 3 3 5 5 3 5 5 5 5 5 5 5 3 5 5 5 3 5 3 5 5 3 5 5 3 5 5 5 5 5 5 5 5 5 5 5 5 5 5 5 5 5 5 5 5 5 3 5 5 5 5 5 5 5 3 5 5 5 5 5 3 5 5 5 5 3 5 5 5 5 5 5 5 3 5 5 5 5 5 5 5 3 5 5 5 5 5 5 5 5 5 5 5 5 5 5 5 5 5 5 5 3 5 5 3 5 5 5 5 5 5 3 5 3 5 5 5 3 5 5 5 5 3 5 3 5 5 5 5 5 3 5 5 5 5 5 5 5 5 3 5 5 3 5 5 5 5 5 5 5 5 3 5 3 5 5 3 5 3 5 5 3 5 5 5 5 5 5 5 5 5 5 3 5 5 5 5 5 5 5 5 3 5 5 3 5 5 5 5 5 5 5 3 5 5 5 5 5 5 5 5 5 5 5 5 5 5 5 5 5 5 5 5 5 5 5 5 5 5 5 5 5 5 5 5 5 5 5 5 5 5 5 5 5 5 3 5 5 5 5 3 5 5 3 5 5 5 5 5 5 5 5 5 3 5 5 5 5 3 5 3 5 5 5 5 5 5 5 5 5 5 3 5 5 5 3 5 3 5 5 3 5 3 5 5 5 5 5 5 5 5 5 5 5 5 5 5 5 5 5 3 5 5 5 5 5 5 5 5 5 5 3 5 5 3 5 5 5 5 5 5 5 5 5 3 3 5 5 5 5 5 3 5 3 5 5 3 3 5 5 5 5 5 5 5 5 5 5 5 5 5 5 5 5 5 3 5 5 3 5 5 3 5 5 5 3 5 3 5 5 5 5 5 5 5 5 5 5 5 5 5 5 5 5 5 5 5 5 5 5 5 5 5 5 3 5 5 5 5 5 5 5 5 5 5 5 3 5 5 5 5 5 5 5 5 3 5 5 5 5 5 5 3 5 5 3 5 3 5 5 5 5 5 5 5 5 5 5 5 5 5 5 5 5 3 5 5 5 3 5 5 5 5 5 5 5 5 3 5 5 5 5 5 5 5 5 3 3 5 5 5 5 5 5 5 3 5 5 5 5 5 5 3 5 5 5 5 5 5 5 5 3 5 5 5 5 5 5 5 5 5 5 5 5 5 5 5 5 3 5 5 5 5 5 5 3 5 5 5 5 5 5 5 3 5 5 5 5 5 5 5 5 5 5 5 5 5 5 5 3 5 5 5 5 5 5 5 3 5 5 3 5 5 5 5 5 3 5 5 5 5 5 5 5 5 3 5 5 5 5 5 5 5 5 5 5 5 5 5 5 5 5 5 5 5 5 5 3 5 5 5 5 5 5 5 5 3 5 5 5 5 5 5 3 5 5 5 5 3 5 5 5 5 5 5 5 3 3 5 3 5 5 5 5 5 5 5 5 5 5 5 5 3 5 5 5 5 5 5 3 5 5 5 5 5 5 5 5 3 5 5 3 5 5 5 5 3 5 5 5 5 5 3 3 5 5 5 5 3 5 5 5 5 5 5 5 5 5 5 5 5 5 5 5 5 5 5 5 5 5 5 5 5 5 5 5 5 5 3 5 5 5 5 5 5 5 5 3 5 5 5 5 5 3 5 5 5 3 5 5 5 5 5 3 5 3 5 3 3 5 5 5 5 3 5 3 5 5 5 5 5 5 5 5 5 5 5 3 5 5 5 3 5 5 5 5 5 5 5 5 5 5 5 5 5 5 5 5 5 5 5 5 5 5 5 5 5 5 5 5 5 5 5 5 5 5 5 5 5 5 5 5 5 5 5 5 5 5 5 5 3 5 5 5 5 5 5 5 5 5 5 5 5 5 5 5 3 5 5 5 5 3 5 5 3 5 3 5 5 5 5 5 3 5 5 5 5 5 5 5 5 5 5 5 5 5 5 5 5 3 5 3 5 5 5 5 5 5 5 5 5 5 5 5 5 5 5 5 3 5 3 5 5 5 5 5 5 3 5 3 5 5 5 5 3 5 5 5 5 5 5 5 5 5 5 5 5 5 5 5 5 5 5 5 5 5 5 5 5 5 3 5 5 5 5 5 5 5 5 5 5 5 5 3 3 5 3 5 5 3 3 5 5 3 5 5 5 5 5 5 3 5 5 3 5 5 5 3 5 5 5 5 5 5 3 3 5 5 5 5 5 5 5 5 5 5 3 5 5 5 5 5 5 3 5 5 5 5 3 5 5 3 5 5 5 5 5 5 3 5 5 5 3 3 3 5 5 5 5 5 3 5 3 5 5 5 5 5 5 5 5 5 5 5 5 3 5 5 5 5 5 5 5 5 3 5 3 5 3 5 5 3 5 5 3 5 5 5 5 5 5 3 5 5 3 5 5 5 5 5 5 5 5 5 5 5 5 5 5 5 5 5 5 5 5 5 5 5 5 5 5 5 5 5 5 5 5 5 5 3 5 5 5 5 5 5 5 3 5 5 5 5 5 5 3 5 5 5 3 5 5 5 5 5 5 5 5 5 5 3 5 5 5 5 5 3 5 5 5 5 5 5 3 5 5 3 5 5 5 5 5 5 5 5 5 5 5 5 5 3 5 5 3 5 5 5 5 5 5 5 5 5 5 5 5 5 5 3 5 5 5 5 5 5 3 3 5 5 5 5 5 3 5 5 5 5 5 5 5 5 5 5 5 5 5 3 5 5 5 5 3 5 5 5 5 5 3 5 5 5 5 5 5 5 5 5 5 5 5 5 5 5 5 5 3 5 3 5 5 3 5 5 5 5 5 3 5 5 3 5 5 3 5 5 5 3 5 5 3 5 5 5 5 3 5 5 5 5 5 5 5 5 5 5 5 3 5 5 5 5 5 5 3 5 5 5 5 5 5 5 5 5 5 5 5 5 5 5 5 5 5 5 5 3 5 3 5 5 5 5 5 3 5 5 5 5 5 5 5 5 5 3 5 5 5 5 3 5 5 5 5 5 5 5 5 5 5 5 3 5 5 5 3 5 5 5 5 3 5 5 5 5 3 5 3 5 5 5 5 3 5 5 5 5 5 5 5 5 3 5 5 5 3 3 5 5 5 5 5 5 5 5 5 5 3 5 5 5 3 5 3 5 5 5 5 5 5 5 5 5 5 5 5 5 5 5 5 5 5 5 5 5 5 5 5 5 5 5 3 5 5 5 5 5 5 5 5 5 5 5 5 5 5 5 5 5 3 5 5 5 5 5 3 5 5 5 3 5 5 5 5 5 5 5 5 5 5 5 5 3 5 3 5 5 5 5 5 5 5 5 5 5 5 5 5 5 5 5 5 5 5 5 5 5 5 3 5 3 5 5 3 5 5 3 5 5 5 5 5 5 3 5 5 5 3 5 5 5 5 5 5 5 5 5 5 5 5 5 5 5 5 5 5 5 3 5 5 5 5 5 5 3 5 5 5 5 5 5 5 5 5 3 5 5 5 5 3 5 5 3 5 5 5 5 5 5 5 5 5 5 3 5 5 5 3 5 5 3 5 5 3 5 5 5 5 5 5 5 5 5 5 5 5 5 5 5 5 5 5 5 5 5 5 5 5 5 5 5 5 5 5 5 5 5 5 5 5 5 5 5 5 5 5 5 5 5 5 5 5 5 5 5 3 5 5 5 5 5 5 5 5 5 5 5 5 5 5 5 5 5 5 5 3 5 5 5 5 5 5 5 5 5 5 5 5 5 5 5 5 5 5 5 3 5 5 5 5 5 5 5 3 3 5 5 5 5 5 5 5 5 5 5 5 5 5 5 5 3 5 5 5 5 5 5 5 5 5 5 5 5 5 5 5 5 3 5 5 5 5 5 5 3 5 5 3 5 5 5 5 5 5 5 5 5 5 5 5 5 5 5 5 5 5 3 5 3 5 5 5 5 5 5 5 5 5 5 5 5 5 5 5 5 5 5 5 3 5 5 5 3 5 5 5 5 5 5 3 5 3 5 3 5 5 5 3 5 5 5 3 5 5 3 5 3 5 5 5 5 3 3 5 5 5 5 5 5 3 5 5 5 5 5 5 5 5 5 5 5 5 3 3 5 5 3 5 5 5 5 5 5 5 5 5 5 5 5 5 5 5 5 5 5 5 5 5 5 5 5 5 5 3 5 5 5 5 5 5 3 5 5 5 5 5 5 5 5 5 5 5 5 5 5 5 5 3 5 3 5 5 5 3 5 5 5 3 5 5 5 5 3 5 5 5 5 5 3 5 5 5 5 3 3 5 5 5 5 5 5 5 3 5 5 5 5 5 3 5 5 5 3 5 5 5 5 5 3 5 3 5 5 5 5 5 3 3 5 5 5 3 5 3 5 5 5 5 5 5 5 5 3 5 5 5 5 5 3 5 5 3 5 5 5 5 3 5 5 3 3 5 5 5 5 5 5 5 5 5 3 3 5 5 5 5 5 5 5 3 5 5 5 3 5 5 5 5 3 5 5 5 5 5 5 5 5 5 5 3 3 5 5 3 5 3 5 5 5 5 5 3 5 5 5 5 5 5 5 5 5 5 5 5 3 5 5 5 5 5 5 5 5 5 5 5 5 5 3 5 5 5 5 5 3 3 5 5 5 5 5 5 5 5 5 5 5 5 5 5 5 3 5 5 3 5 5 5 5 5 3 5 5 5 5 5 5 5 5 5 5 5 5 5 5 5 5 5 5 5 5 5 5 5 5 5 5 5 5 5 5 5 5 5 5 5 5 5 5 5 5 5 5 5 5 5 5 5 5 5 5 5 5 5 5 5 5 5 5 5 5 5 5 5 5 5 5 5 5 5 3 5 5 5 5 5 5 5 5 5 5 5 5 5 5 5 5 5 5 3 5 5 5 5 5 5 5 5 5 5 5 5 5 5 5 5 5 5 5 5 5 5 5 5 5 5 5 5 5 3 5 5 5 5 5 5 5 5 3 5 5 5 5 5 5 5 5 5 5 5 5 5 5 5 5 5 3 5 5 5 5 5 5 5 5 5 5 5 5 5 5 5 5 5 5 5 5 5 5 5 5 5 5 5 5 5 5 5 5 5 5 5 5 5 5 5 5 5 5 5 5 5 5 5 5 3 5 3 5 3 5 3 5 5 5 5 5 5 5 5 5 5 5 5 5 5 5 3 5 5 5 3 5 5 5 5 5 5 5 5 5 5 5 5 3 5 5 3 3 5 5 5 5 3 5 5 5 5 3 5 3 5 5 3 5 5 5 3 5 5 5 3 5 5 3 5 5 5 5 5 5 5 5 5 5 5 5 5 5 5 5 5 5 5 5 5 5 5 5 5 3 5 5 5 5 5 5 5 3 5 3 5 5 5 5 3 5 5 5 3 3 5 5 3 5 3 5 3 3 5 5 5 5 3 5 5 3 5 5 5 5 5 5 5 5 5 5 5 5 5 5 5 5 5 5 5 5 5 5 3 5 5 5 5 5 5 5 5 3 5 3 5 5 5 5 5 5 3 5 5 5 5 5 3 5 5 5 5 5 5 5 5 3 5 3 5 3 5 5 3 5 5 3 5 5 5 5 3 5 5 5 3 5 5 3 5 5 5 5 5 5 5 5 5 5 5 3 5 3 3 5 3 5 5 3 5 5 3 5 3 5 3 5 3 5 5 5 5 5 3 5 5 5 5 5 3 5 5 5 5 5 5 5 5 5 5 3 5 3 3 5 3 3 5 3 5 5 5 3 5 3 5 3 5 5 5 3 5 5 5 5 3 5 5 3 5 5 5 3 5 5 3 3 5 5 5 5 5 3 5 3 5 3 5 3 5 5 5 5 3 5 5 3 3 5 3 5 3 3 5 3 3 3 3 5 5 5 5 5 5 5 5 5 5 3 5 5 5 5 3 5 5 3 5 5 3 5 5 5 5 3 3 5 5 5 5 5 5 5 5 5 5 5 5 5 5 5 5 5 5 5 5 5 5 3 5 5 5 5 5 5 5 5 5 5 5 5 5 5 5 5 5 5 5 5 5 5 3 5 5 5 5 3 3 5 3 5 3 3 5 5 5 5 3 5 5 5 3 5 5 5 3 3 5 5 5 5 5 3 5 5 5 5 5 5 5 3 3 5 3 5 5 3 3 3 5 5 5 5 5 3 3 3 5 3 3 5 5 5 5 3 5 5 5 5 5 3 5 3 5 5 3 5 5 5 5 5 5 5 3 3 5 5 5 5 3 3 5 5 5 3 3 3 3 5 3 5 3 5 3 5 3 5 5 3 5 3 3 3 5 5 5 5 5 5 5 5 5 5 5 5 5 5 5 5 5 5 5 5 5 5 5 5 5 5 3 5 5 5 5 5 5 5 5 5 5 5 5 5 5 5 5 5 5 5 5 5 5 3 3 5 5 5 5 5 5 5 5 5 5 5 5 5 5 5 5 5 5 5 5 5 5 5 5 5 5 3 5 5 5 5 5 3 3 3 5 5 5 5 5 5 3 5 5 5 3 5 5 5 5 3 5 5 3 3 5 5 5 3 5 5 3 5 5 5 5 5 3 5 5 3 5 5 3 3 5 3 3 5 5 5 3 5 5 5 5 5 5 5 5 5 5 5 5 5 5 5 5 5 5 5 5 5 5 5 5 5 5 3 3 5 5 5 5 5 5 3 5 5 5 5 5 5 5 5 3 3 5 5 5 5 5 3 5 5 5 5 5 5 5 3 5 5 5 5 3 3 5 5 5 5 5 5 5 5 5 5 3 5 5 5 5 3 5 3 3 5 5 5 3 5 5 5 3 5 5 5 5 5 5 5 3 5 5 5 3 5 5 3 5 3 5 5 3 5 5 5 3 5 5 5 3 5 5 3 3 5 5 3 5 3 3 5 5 5 3 5 5 5 5 5 5 5 3 5 3 5 3 3 5 5 5 3 3 5 3 5 3 3 5 5 5 5 5 5 5 5 5 5 5 5 5 5 3 5 5 5 5 5 5 5 5 5 5 5 5 5 5 5 5 5 3 5 5 5 5 5 5 3 5 5 5 3 5 5 5 5 5 5 5 3 5 5 5 5 5 5 5 5 5 5 5 5 5 5 5 5 5 5 5 5 5 5 5 5 5 5 5 5 5 5 5 5 3 5 5 5 5 5 3 5 5 5 5 3 5 5 3 5 3 5 5 5 5 5 5 5 5 5 5 3 5 5 3 5 5 3 5 5 3 5 3 5 5 5 5 5 5 5 5 5 5 5 5 5 5 5 5 5 5 5 5 5 5 5 5 5 5 5 5 5 5 3 5 5 3 5 5 5 5 3 3 5 5 5 5 3 3 5 5 5 3 3 5 5 3 5 5 3 5 5 5 5 3 5 5 5 5 3 5 5 5 5 5 5 5 5 5 5 5 5 3 5 3 5 5 
</DataArray>
</Cells>
<PointData Scalars="" Vectors="displacement," Tensors="">
<DataArray type="Float64" Name="displacement" NumberOfComponents="3" format="ascii">
-0.044997056711688202 -7.2808910643272313e-07 0 -0.044830529989228075 1.3263344790875632e-06 0 -0.042716889529971214 1.0943914370746459e-06 0 -0.044997056711688202 -7.2808910643272313e-07 0 -0.044830529989228075 1.3263344790875632e-06 0 -0.045001030590921622 3.6384038360227449e-07 0 -0.042366779458691849 -5.2405170785277002e-06 0 -0.041215844100130468 -6.1790616495655608e-05 0 -0.043051182538517203 -5.0557448660668136e-06 0 -0.042366779458691849 -5.2405170785277002e-06 0 -0.042707266920000833 -1.0080267928061056e-07 0 -0.041215844100130468 -6.1790616495655608e-05 0 -0.043621240064019545 1.3389501323079749e-05 0 -0.042712523729194464 -8.063555239585133e-08 0 -0.042707266920000833 -1.0080267928061056e-07 0 -0.041215844100130468 -6.1790616495655608e-05 0 -0.040100181808030454 -2.2294602125206389e-07 0 -0.041215844100130468 -6.1790616495655608e-05 0 -0.040265852632698163 -3.8335135768084239e-05 0 -0.039113301995694842 -3.7038379515940979e-05 0 -0.041215844100130468 -6.1790616495655608e-05 0 -0.040100181808030454 -2.2294602125206389e-07 0 -0.039113301995694842 -3.7038379515940979e-05 0 -0.041358904960059555 -6.3893939484339411e-05 0 -0.040265852632698163 -3.8335135768084239e-05 0 -0.041905638296150474 -7.4161915012484951e-07 0 -0.041215844100130468 -6.1790616495655608e-05 0 -0.040265852632698163 -3.8335135768084239e-05 0 -0.041905638296150474 -7.4161915012484951e-07 0 -0.041215844100130468 -6.1790616495655608e-05 0 -0.041905638296150474 -7.4161915012484951e-07 0 -0.043051182538517203 -5.0557448660668136e-06 0 -0.041678247167139533 -2.0655356545353136e-05 0 -0.042803682714641265 -0.00016557932579364842 0 -0.041905638296150474 -7.4161915012484951e-07 0 -0.043051182538517203 -5.0557448660668136e-06 0 -0.043294507909112691 0.00012973943415370886 0 -0.041358904960059555 -6.3893939484339411e-05 0 -0.041905638296150474 -7.4161915012484951e-07 0 -0.043294507909112691 0.00012973943415370886 0 -0.044111978193946078 -8.8828607870537621e-05 0 -0.043051182538517203 -5.0557448660668136e-06 0 -0.043294507909112691 0.00012973943415370886 0 -0.042366779458691849 -5.2405170785277002e-06 0 -0.043051182538517203 -5.0557448660668136e-06 0 -0.044994357835238911 -1.7325142623277158e-06 0 -0.043621240064019545 1.3389501323079749e-05 0 -0.044999358125999762 3.4891982884192521e-08 0 -0.044111978193946078 -8.8828607870537621e-05 0 -0.043051182538517203 -5.0557448660668136e-06 0 -0.044994357835238911 -1.7325142623277158e-06 0 -0.044111978193946078 -8.8828607870537621e-05 0 -0.044994357835238911 -1.7325142623277158e-06 0 -0.045000043929547623 1.7573229735170147e-07 0 -0.045000043929547623 1.7573229735170147e-07 0 -0.044999550240625935 -1.0806717769573029e-07 0 -0.044564500823488687 -4.5291926136450506e-05 0 -0.044111978193946078 -8.8828607870537621e-05 0 -0.045000043929547623 1.7573229735170147e-07 0 -0.044564500823488687 -4.5291926136450506e-05 0 -0.044997780677756005 -9.4664381662469674e-07 0 -0.043609650051951235 -0.00042747717958499678 0 -0.044289871542067406 -0.00024783633235861798 0 -0.04499952837455358 -1.3866811556815619e-08 0 -0.044045449299702708 -0.00018753178009219112 0 -0.043609650051951235 -0.00042747717958499678 0 -0.044289871542067406 -0.00024783633235861798 0 -0.0433872354009293 -0.00022963426494028118 0 -0.044111978193946078 -8.8828607870537621e-05 0 -0.044564500823488687 -4.5291926136450506e-05 0 -0.043294507909112691 0.00012973943415370886 0 -0.044045449299702708 -0.00018753178009219112 0 -0.042803682714641265 -0.00016557932579364842 0 -0.044999523671410219 -9.0021231065887613e-09 0 -0.044289871542067406 -0.00024783633235861798 0 -0.044569803675547977 -0.00012117623272539259 0 -0.044997780677756005 -9.4664381662469674e-07 0 -0.044999523671410219 -9.0021231065887613e-09 0 -0.044289871542067406 -0.00024783633235861798 0 -0.044289871542067406 -0.00024783633235861798 0 -0.043939217759245849 -8.8481095416241594e-05 0 -0.044569803675547977 -0.00012117623272539259 0 -0.043939217759245849 -8.8481095416241594e-05 0 -0.043351028549393815 1.4993736974245885e-05 0 -0.0433872354009293 -0.00022963426494028118 0 -0.044289871542067406 -0.00024783633235861798 0 -0.043939217759245849 -8.8481095416241594e-05 0 -0.0433872354009293 -0.00022963426494028118 0 -0.043351028549393815 1.4993736974245885e-05 0 -0.0433872354009293 -0.00022963426494028118 0 -0.042637540569919592 -4.2756676182815037e-05 0 -0.043939217759245849 -8.8481095416241594e-05 0 -0.043594767392885737 0.00021742112304568115 0 -0.043958777282696197 0.00016688018877346203 0 -0.043939217759245849 -8.8481095416241594e-05 0 -0.043351028549393815 1.4993736974245885e-05 0 -0.043594767392885737 0.00021742112304568115 0 -0.043609650051951235 -0.00042747717958499678 0 -0.042364708969772832 -0.00037173211059155983 0 -0.0433872354009293 -0.00022963426494028118 0 -0.042364708969772832 -0.00037173211059155983 0 -0.0433872354009293 -0.00022963426494028118 0 -0.042637540569919592 -4.2756676182815037e-05 0 -0.041358904960059555 -6.3893939484339411e-05 0 -0.042364708969772832 -0.00037173211059155983 0 -0.04160840964010596 -4.6976189746823734e-05 0 -0.042364708969772832 -0.00037173211059155983 0 -0.042637540569919592 -4.2756676182815037e-05 0 -0.04160840964010596 -4.6976189746823734e-05 0 -0.04160840964010596 -4.6976189746823734e-05 0 -0.041739500952379875 0.00036934564521653264 0 -0.04000601437607082 0.00010780564554275449 0 -0.042637540569919592 -4.2756676182815037e-05 0 -0.041739500952379875 0.00036934564521653264 0 -0.043160503431121759 0.00037801195005699432 0 -0.042637540569919592 -4.2756676182815037e-05 0 -0.04160840964010596 -4.6976189746823734e-05 0 -0.041739500952379875 0.00036934564521653264 0 -0.041739500952379875 0.00036934564521653264 0 -0.039630400078335501 0.0006207896336251201 0 -0.04000601437607082 0.00010780564554275449 0 -0.043594767392885737 0.00021742112304568115 0 -0.043160503431121759 0.00037801195005699432 0 -0.043582168141165389 0.00054714396531258121 0 -0.043351028549393815 1.4993736974245885e-05 0 -0.043594767392885737 0.00021742112304568115 0 -0.043160503431121759 0.00037801195005699432 0 -0.043351028549393815 1.4993736974245885e-05 0 -0.042637540569919592 -4.2756676182815037e-05 0 -0.043160503431121759 0.00037801195005699432 0 -0.041739500952379875 0.00036934564521653264 0 -0.043160503431121759 0.00037801195005699432 0 -0.042962191744185835 0.00077499648843901245 0 -0.043160503431121759 0.00037801195005699432 0 -0.042962191744185835 0.00077499648843901245 0 -0.043271900464977892 0.00082700654549996717 0 -0.043160503431121759 0.00037801195005699432 0 -0.043582168141165389 0.00054714396531258121 0 -0.043271900464977892 0.00082700654549996717 0 -0.042962191744185835 0.00077499648843901245 0 -0.043077899097555369 0.00094652866516788689 0 -0.043271900464977892 0.00082700654549996717 0 -0.042962191744185835 0.00077499648843901245 0 -0.043077899097555369 0.00094652866516788689 0 -0.042603457943013096 0.001023169171286137 0 -0.042772321052222159 0.0015745645133138076 0 -0.040271046434524879 0.0019018945323702105 0 -0.043077899097555369 0.00094652866516788689 0 -0.042603457943013096 0.001023169171286137 0 -0.042950777612065928 0.0010444583390662287 0 -0.040555402863135234 0.0017970134517442146 0 -0.039630400078335501 0.0006207896336251201 0 -0.037898074568974774 0.0010031221250266504 0 -0.041739500952379875 0.00036934564521653264 0 -0.040555402863135234 0.0017970134517442146 0 -0.039630400078335501 0.0006207896336251201 0 -0.041739500952379875 0.00036934564521653264 0 -0.042962191744185835 0.00077499648843901245 0 -0.042603457943013096 0.001023169171286137 0 -0.04164196927814745 0.00026521099507006047 0 -0.042772321052222159 0.0015745645133138076 0 -0.041739500952379875 0.00036934564521653264 0 -0.042147558182907219 0.0017334225527128441 0 -0.040555402863135234 0.0017970134517442146 0 -0.042147558182907219 0.0017334225527128441 0 -0.041413508376050387 0.0036185525097086691 0 -0.043149465352469218 0.0037783942052995872 0 -0.042147558182907219 0.0017334225527128441 0 -0.040555402863135234 0.0017970134517442146 0 -0.041413508376050387 0.0036185525097086691 0 -0.040555402863135234 0.0017970134517442146 0 -0.039301737370815069 0.0036128915115403171 0 -0.041413508376050387 0.0036185525097086691 0 -0.040555402863135234 0.0017970134517442146 0 -0.037898074568974774 0.0010031221250266504 0 -0.039301737370815069 0.0036128915115403171 0 -0.038140257476490282 0.0012241308463996265 0 -0.036323765901723926 0.0024781589864469561 0 -0.037898074568974774 0.0010031221250266504 0 -0.035479850351863018 0.0010027061988903134 0 -0.036902828505985197 0.0013544048606616728 0 -0.039630400078335501 0.0006207896336251201 0 -0.037898074568974774 0.0010031221250266504 0 -0.038036011871851627 0.0004075537398843149 0 -0.037898074568974774 0.0010031221250266504 0 -0.038036011871851627 0.0004075537398843149 0 -0.036382660695573145 0.00044329306136674224 0 -0.037898074568974774 0.0010031221250266504 0 -0.035479850351863018 0.0010027061988903134 0 -0.036382660695573145 0.00044329306136674224 0 -0.035479850351863018 0.0010027061988903134 0 -0.034669885715284947 0.0002507633716461824 0 -0.036382660695573145 0.00044329306136674224 0 -0.034669885715284947 0.0002507633716461824 0 -0.034872601638353505 4.7416854148120589e-07 0 -0.036382660695573145 0.00044329306136674224 0 -0.034872601638353505 4.7416854148120589e-07 0 -0.036382660695573145 0.00044329306136674224 0 -0.037297092652619573 0.0001335270482593181 0 -0.034872601638353505 4.7416854148120589e-07 0 -0.037297092652619573 0.0001335270482593181 0 -0.037485312313426507 4.6925451042620779e-08 0 -0.038036011871851627 0.0004075537398843149 0 -0.036382660695573145 0.00044329306136674224 0 -0.037297092652619573 0.0001335270482593181 0 -0.038036011871851627 0.0004075537398843149 0 -0.037297092652619573 0.0001335270482593181 0 -0.038698261900064437 0.00011100974354578344 0 -0.037297092652619573 0.0001335270482593181 0 -0.039113301995694842 -3.7038379515940979e-05 0 -0.038698261900064437 0.00011100974354578344 0 -0.037297092652619573 0.0001335270482593181 0 -0.037485312313426507 4.6925451042620779e-08 0 -0.039113301995694842 -3.7038379515940979e-05 0 -0.040100181808030454 -2.2294602125206389e-07 0 -0.037485312313426507 4.6925451042620779e-08 0 -0.039113301995694842 -3.7038379515940979e-05 0 -0.040265852632698163 -3.8335135768084239e-05 0 -0.039113301995694842 -3.7038379515940979e-05 0 -0.038698261900064437 0.00011100974354578344 0 -0.040265852632698163 -3.8335135768084239e-05 0 -0.04000601437607082 0.00010780564554275449 0 -0.038698261900064437 0.00011100974354578344 0 -0.041358904960059555 -6.3893939484339411e-05 0 -0.04160840964010596 -4.6976189746823734e-05 0 -0.04000601437607082 0.00010780564554275449 0 -0.041358904960059555 -6.3893939484339411e-05 0 -0.040265852632698163 -3.8335135768084239e-05 0 -0.04000601437607082 0.00010780564554275449 0 -0.039630400078335501 0.0006207896336251201 0 -0.038036011871851627 0.0004075537398843149 0 -0.04000601437607082 0.00010780564554275449 0 -0.038036011871851627 0.0004075537398843149 0 -0.04000601437607082 0.00010780564554275449 0 -0.038698261900064437 0.00011100974354578344 0 -0.041096778360322432 0.00071056535430943956 0 -0.041191790179496666 0.00049464420641647325 0 -0.040975084060016383 0.00060913605090087317 0 -0.041589765789149351 0.00058257672731501953 0 -0.039203182346210293 0.0011070344261171162 0 -0.041281534156457668 0.00075396698881881558 0 -0.041222322323025119 0.00080971048854532567 0 -0.041227490635901351 0.00065095065438437228 0 -0.041096778360322432 0.00071056535430943956 0 -0.041222322323025119 0.00080971048854532567 0 -0.041191790179496666 0.00049464420641647325 0 -0.039203182346210293 0.0011070344261171162 0 -0.039674226961670701 0.00079646437458626076 0 -0.041364481968552691 0.00066418793724212321 0 -0.041351530156631379 0.00073369617724138058 0 -0.041227490635901351 0.00065095065438437228 0 -0.041351530156631379 0.00073369617724138058 0 -0.041281534156457668 0.00075396698881881558 0 -0.041227490635901351 0.00065095065438437228 0 -0.041281534156457668 0.00075396698881881558 0 -0.041331755612828029 0.00083255616444363029 0 -0.041222322323025119 0.00080971048854532567 0 -0.041351530156631379 0.00073369617724138058 0 -0.041281534156457668 0.00075396698881881558 0 -0.041331755612828029 0.00083255616444363029 0 -0.041351530156631379 0.00073369617724138058 0 -0.041331755612828029 0.00083255616444363029 0 -0.041403626005035318 0.00080010723030612149 0 -0.041331755612828029 0.00083255616444363029 0 -0.04139321694000439 0.00092042611415420899 0 -0.041403626005035318 0.00080010723030612149 0 -0.041331755612828029 0.00083255616444363029 0 -0.041222322323025119 0.00080971048854532567 0 -0.041274245380455529 0.00090365427806974805 0 -0.041331755612828029 0.00083255616444363029 0 -0.041274245380455529 0.00090365427806974805 0 -0.04139321694000439 0.00092042611415420899 0 -0.041222322323025119 0.00080971048854532567 0 -0.041134193259553788 0.00092165941350217772 0 -0.041274245380455529 0.00090365427806974805 0 -0.041096778360322432 0.00071056535430943956 0 -0.041222322323025119 0.00080971048854532567 0 -0.041101778016143897 0.00083347083985640523 0 -0.041222322323025119 0.00080971048854532567 0 -0.041101778016143897 0.00083347083985640523 0 -0.041134193259553788 0.00092165941350217772 0 -0.041101778016143897 0.00083347083985640523 0 -0.041134193259553788 0.00092165941350217772 0 -0.04104634680991319 0.00091027322879907644 0 -0.044996960843652622 -7.7454029691882758e-07 0 -0.044992930306695572 -9.873916100124532e-07 0 -0.044983713414368118 -7.4163999835327665e-07 0 -0.041275548117119761 0.00075171205400376552 0 -0.042394121240714525 0.00054704009721796235 0 -0.041134193259553788 0.00092165941350217772 0 -0.041284598399738658 0.0010581465573371218 0 -0.041060721168975703 0.00092644219068979303 0 -0.044728005076344828 -0.00012700381754665675 0 -0.04435863404804833 -0.00040394297180115351 0 -0.044401675694249125 -0.00040967926666249447 0 -0.044728005076344828 -0.00012700381754665675 0 -0.044828916828280913 -0.00018587109730421405 0 -0.044401675694249125 -0.00040967926666249447 0 -0.04300200200389364 0.00040611487231110655 0 -0.042394121240714525 0.00054704009721796235 0 -0.045044330805035927 -5.3850387193087001e-05 0 -0.043113376281195027 0.00040867477122507792 0 -0.041134193259553788 0.00092165941350217772 0 -0.041284598399738658 0.0010581465573371218 0 -0.041274245380455529 0.00090365427806974805 0 -0.044996960843652622 -7.7454029691882758e-07 0 -0.044999985004566249 8.9152462870850366e-10 0 -0.044992930306695572 -9.873916100124532e-07 0 -0.044996960843652622 -7.7454029691882758e-07 0 -0.045000004014773401 -1.0846047822842179e-09 0 -0.044999985004566249 8.9152462870850366e-10 0 -0.044728005076344828 -0.00012700381754665675 0 -0.04499965276039139 1.0291614358331434e-07 0 -0.044828916828280913 -0.00018587109730421405 0 -0.045044330805035927 -5.3850387193087001e-05 0 -0.044999791685797791 -1.1446735137495832e-07 0 -0.04499965276039139 1.0291614358331434e-07 0 -0.044828916828280913 -0.00018587109730421405 0 -0.045041491883075553 -4.3036432830799257e-05 0 -0.04300200200389364 0.00040611487231110655 0 -0.043924471787939623 0.00046037182633128763 0 -0.041284598399738658 0.0010581465573371218 0 -0.04139321694000439 0.00092042611415420899 0 -0.041634450470425098 0.0010045471579641656 0 -0.041284598399738658 0.0010581465573371218 0 -0.041274245380455529 0.00090365427806974805 0 -0.04139321694000439 0.00092042611415420899 0 -0.04139321694000439 0.00092042611415420899 0 -0.041634450470425098 0.0010045471579641656 0 -0.041674219598271584 0.00074196154479037315 0 -0.041284598399738658 0.0010581465573371218 0 -0.041634450470425098 0.0010045471579641656 0 -0.041618920986278798 0.001235326802646735 0 -0.044982996350684666 1.938629759810253e-05 0 -0.044976898275777014 2.3580536454766352e-05 0 -0.044971865181479963 3.1070990975864016e-05 0 -0.04329250520839014 0.00051701070354784383 0 -0.042320785219935486 0.00044230121243941895 0 -0.04329250520839014 0.00051701070354784383 0 -0.043924471787939623 0.00046037182633128763 0 -0.044982996350684666 1.938629759810253e-05 0 -0.044989845359008317 1.064411747277e-05 0 -0.044988719620487068 1.0711964988972952e-05 0 -0.044999993019463128 3.1854742217169638e-09 0 -0.044997305627568443 1.7852588340269357e-06 0 -0.044999998713273766 -3.1706483435396933e-10 0 -0.044989845359008317 1.064411747277e-05 0 -0.044988719620487068 1.0711964988972952e-05 0 -0.044999969067250713 2.4495954909639265e-08 0 -0.043924471787939623 0.00046037182633128763 0 -0.045000258243376577 3.9495076197589692e-07 0 -0.04499965276039139 1.0291614358331434e-07 0 -0.045000291512318838 -9.4679389257311661e-08 0 -0.045041491883075553 -4.3036432830799257e-05 0 -0.044998770206553601 -1.9410432131680134e-08 0 -0.043924471787939623 0.00046037182633128763 0 -0.044999969067250713 2.4495954909639265e-08 0 -0.044985281499581385 1.3451713763783631e-05 0 -0.044999990090205055 1.8115479514868958e-09 0 -0.044989845359008317 1.064411747277e-05 0 -0.044999969067250713 2.4495954909639265e-08 0 -0.044985281499581385 1.3451713763783631e-05 0 -0.044982996350684666 1.938629759810253e-05 0 -0.044985281499581385 1.3451713763783631e-05 0 -0.044976898275777014 2.3580536454766352e-05 0 -0.044982996350684666 1.938629759810253e-05 0 -0.044989845359008317 1.064411747277e-05 0 -0.044985281499581385 1.3451713763783631e-05 0 -0.044976898275777014 2.3580536454766352e-05 0 -0.044966674251560784 3.5270532528093894e-05 0 -0.044974297033311322 1.8452397805962283e-05 0 -0.04333297942236889 0.00029789304573664112 0 -0.042320785219935486 0.00044230121243941895 0 -0.044976898275777014 2.3580536454766352e-05 0 -0.044966674251560784 3.5270532528093894e-05 0 -0.044971865181479963 3.1070990975864016e-05 0 -0.04139321694000439 0.00092042611415420899 0 -0.041470896260482983 0.00083470425759777365 0 -0.041403626005035318 0.00080010723030612149 0 -0.041470896260482983 0.00083470425759777365 0 -0.041403626005035318 0.00080010723030612149 0 -0.041472589811805412 0.0006936030042746479 0 -0.041556595213747549 0.00065844694224584572 0 -0.041535132084725777 0.00067014855044977492 0 -0.041521156604631973 0.00063351791083513073 0 -0.041158213377068119 0.00105065545145905 0 -0.042320785219935486 0.00044230121243941895 0 -0.041364481968552691 0.00066418793724212321 0 -0.041351530156631379 0.00073369617724138058 0 -0.041472589811805412 0.0006936030042746479 0 -0.041351530156631379 0.00073369617724138058 0 -0.041403626005035318 0.00080010723030612149 0 -0.041472589811805412 0.0006936030042746479 0 -0.042320785219935486 0.00044230121243941895 0 -0.041440006771160387 0.00073824557827791481 0 -0.041552609305950138 0.00062865505642462473 0 -0.041597101968608316 0.00064317194140757516 0 -0.041573087171364813 0.0005942453359254529 0 -0.041521156604631973 0.00063351791083513073 0 -0.041552609305950138 0.00062865505642462473 0 -0.0415307659719883 0.00060711738056816109 0 -0.04333297942236889 0.00029789304573664112 0 -0.043640846429962833 0.00041815387831579547 0 -0.041556595213747549 0.00065844694224584572 0 -0.041552609305950138 0.00062865505642462473 0 -0.041597101968608316 0.00064317194140757516 0 -0.041556595213747549 0.00065844694224584572 0 -0.041521156604631973 0.00063351791083513073 0 -0.041552609305950138 0.00062865505642462473 0 -0.042625661912082925 0.00062276174533102389 0 -0.042557652861545101 0.00066382697892404313 0 -0.042667609176736003 0.00082713712870271453 0 -0.043640846429962833 0.00041815387831579547 0 -0.042117447307002454 0.00065851542234599523 0 -0.043640846429962833 0.00041815387831579547 0 -0.044085400498411254 0.00043764749543227847 0 -0.044539558015638657 0.00025657190839860144 0 -0.044247142973598677 0.00012065672817410408 0 -0.043895177130885213 0.00050724278454896603 0 -0.044539558015638657 0.00025657190839860144 0 -0.044554687455296012 -7.6237581779308955e-05 0 -0.044247142973598677 0.00012065672817410408 0 -0.044966674251560784 3.5270532528093894e-05 0 -0.04495526764306465 4.1850537739129782e-05 0 -0.044974297033311322 1.8452397805962283e-05 0 -0.044953835489799372 8.8145412894825132e-05 0 -0.044941679463947844 9.5227389437222015e-05 0 -0.044960043856926868 3.5064720702930936e-05 0 -0.044953835489799372 8.8145412894825132e-05 0 -0.044967969419561507 3.2931395144236424e-05 0 -0.044960043856926868 3.5064720702930936e-05 0 -0.044085400498411254 0.00043764749543227847 0 -0.044856474540268892 -7.3781464696849513e-05 0 -0.043640846429962833 0.00041815387831579547 0 -0.045140286734693287 -1.718476889004356e-05 0 -0.044985281499581385 1.3451713763783631e-05 0 -0.044976898275777014 2.3580536454766352e-05 0 -0.044974297033311322 1.8452397805962283e-05 0 -0.044974297033311322 1.8452397805962283e-05 0 -0.044999990090205055 1.8115479514868958e-09 0 -0.044999978543689673 3.7106758299908283e-09 0 -0.044985281499581385 1.3451713763783631e-05 0 -0.044974297033311322 1.8452397805962283e-05 0 -0.044999990090205055 1.8115479514868958e-09 0 -0.045140286734693287 -1.718476889004356e-05 0 -0.04499989080812649 2.147448001129288e-08 0 -0.045000011271942135 1.2459270377888985e-08 0 -0.04499997184858813 -8.5490898375933983e-09 0 -0.044960043856926868 3.5064720702930936e-05 0 -0.044999841362985023 -1.8638085993259622e-08 0 -0.044856474540268892 -7.3781464696849513e-05 0 -0.044999350326926278 -8.4510316968656504e-08 0 -0.044554687455296012 -7.6237581779308955e-05 0 -0.044717318413639691 -6.1813192548588997e-05 0 -0.044967969419561507 3.2931395144236424e-05 0 -0.045000011271942135 1.2459270377888985e-08 0 -0.044960043856926868 3.5064720702930936e-05 0 -0.044554687455296012 -7.6237581779308955e-05 0 -0.044717318413639691 -6.1813192548588997e-05 0 -0.044360480511001409 -4.111027727058194e-05 0 -0.044999350326926278 -8.4510316968656504e-08 0 -0.044717318413639691 -6.1813192548588997e-05 0 -0.044999512990399095 -1.050706766252836e-07 0 -0.044717318413639691 -6.1813192548588997e-05 0 -0.044999512990399095 -1.050706766252836e-07 0 -0.044569803675547977 -0.00012117623272539259 0 -0.044999523671410219 -9.0021231065887613e-09 0 -0.044999512990399095 -1.050706766252836e-07 0 -0.044569803675547977 -0.00012117623272539259 0 -0.043939217759245849 -8.8481095416241594e-05 0 -0.044569803675547977 -0.00012117623272539259 0 -0.044360480511001409 -4.111027727058194e-05 0 -0.044717318413639691 -6.1813192548588997e-05 0 -0.044569803675547977 -0.00012117623272539259 0 -0.044360480511001409 -4.111027727058194e-05 0 -0.043939217759245849 -8.8481095416241594e-05 0 -0.044360480511001409 -4.111027727058194e-05 0 -0.043958777282696197 0.00016688018877346203 0 -0.044360480511001409 -4.111027727058194e-05 0 -0.044247142973598677 0.00012065672817410408 0 -0.043958777282696197 0.00016688018877346203 0 -0.044554687455296012 -7.6237581779308955e-05 0 -0.044360480511001409 -4.111027727058194e-05 0 -0.044247142973598677 0.00012065672817410408 0 -0.044247142973598677 0.00012065672817410408 0 -0.043958777282696197 0.00016688018877346203 0 -0.043895177130885213 0.00050724278454896603 0 -0.043594767392885737 0.00021742112304568115 0 -0.043958777282696197 0.00016688018877346203 0 -0.043582168141165389 0.00054714396531258121 0 -0.043958777282696197 0.00016688018877346203 0 -0.043895177130885213 0.00050724278454896603 0 -0.043582168141165389 0.00054714396531258121 0 -0.043895177130885213 0.00050724278454896603 0 -0.043587029872063081 0.00072817841648331702 0 -0.043582168141165389 0.00054714396531258121 0 -0.043587029872063081 0.00072817841648331702 0 -0.043582168141165389 0.00054714396531258121 0 -0.043378647748586685 0.00087382946460215765 0 -0.043582168141165389 0.00054714396531258121 0 -0.043271900464977892 0.00082700654549996717 0 -0.043378647748586685 0.00087382946460215765 0 -0.043271900464977892 0.00082700654549996717 0 -0.043171409782688394 0.00084774161762043304 0 -0.043378647748586685 0.00087382946460215765 0 -0.043077899097555369 0.00094652866516788689 0 -0.043271900464977892 0.00082700654549996717 0 -0.043171409782688394 0.00084774161762043304 0 -0.043077899097555369 0.00094652866516788689 0 -0.043171409782688394 0.00084774161762043304 0 -0.043026175975335541 0.00079566771636907095 0 -0.043171409782688394 0.00084774161762043304 0 -0.043192398162020161 0.00080439604343757675 0 -0.043378647748586685 0.00087382946460215765 0 -0.043192398162020161 0.00080439604343757675 0 -0.043378647748586685 0.00087382946460215765 0 -0.043117226758281273 0.00086844029363917336 0 -0.043192398162020161 0.00080439604343757675 0 -0.043117226758281273 0.00086844029363917336 0 -0.043049710611484583 0.00067847404851087195 0 -0.043192398162020161 0.00080439604343757675 0 -0.043049710611484583 0.00067847404851087195 0 -0.043111717890213265 0.0007141636156598306 0 -0.043171409782688394 0.00084774161762043304 0 -0.043192398162020161 0.00080439604343757675 0 -0.043111717890213265 0.0007141636156598306 0 -0.043587029872063081 0.00072817841648331702 0 -0.043378647748586685 0.00087382946460215765 0 -0.043392865062954158 0.00099750047492140029 0 -0.043378647748586685 0.00087382946460215765 0 -0.043392865062954158 0.00099750047492140029 0 -0.043117226758281273 0.00086844029363917336 0 -0.043392865062954158 0.00099750047492140029 0 -0.043117226758281273 0.00086844029363917336 0 -0.042699634623907745 0.00096035767381906067 0 -0.043117226758281273 0.00086844029363917336 0 -0.042709421565300658 0.00075367095670736937 0 -0.042699634623907745 0.00096035767381906067 0 -0.042709421565300658 0.00075367095670736937 0 -0.043049710611484583 0.00067847404851087195 0 -0.042745935094231489 0.00045250002092175158 0 -0.043117226758281273 0.00086844029363917336 0 -0.042709421565300658 0.00075367095670736937 0 -0.043049710611484583 0.00067847404851087195 0 -0.042150069934407432 0.00075250617397951472 0 -0.042699634623907745 0.00096035767381906067 0 -0.04192681338734059 0.0013643078371877164 0 -0.042709421565300658 0.00075367095670736937 0 -0.042150069934407432 0.00075250617397951472 0 -0.042373858591015619 0.00048203238246548335 0 -0.042709421565300658 0.00075367095670736937 0 -0.042150069934407432 0.00075250617397951472 0 -0.042699634623907745 0.00096035767381906067 0 -0.043392865062954158 0.00099750047492140029 0 -0.042699634623907745 0.00096035767381906067 0 -0.04192681338734059 0.0013643078371877164 0 -0.044452881643283169 0.00087096028627609533 0 -0.04032350080838748 0.0021319509466812187 0 -0.043392865062954158 0.00099750047492140029 0 -0.043826269922052706 0.00092865524094033476 0 -0.044111589984716496 0.0011492114982692414 0 -0.04248815570828833 0.0013003381867510277 0 -0.04032350080838748 0.0021319509466812187 0 -0.043898239453061025 0.00074130176009017405 0 -0.04248815570828833 0.0013003381867510277 0 -0.043826269922052706 0.00092865524094033476 0 -0.04401588947666131 0.00082819221381876819 0 -0.044111589984716496 0.0011492114982692414 0 -0.043963354232151405 0.00082676469698748662 0 -0.043838043540515577 0.00073573291039152704 0 -0.043845832491447682 0.00058735304651246693 0 -0.04248815570828833 0.0013003381867510277 0 -0.043219649377429468 0.00070764188431768696 0 -0.043826269922052706 0.00092865524094033476 0 -0.043963354232151405 0.00082676469698748662 0 -0.043838043540515577 0.00073573291039152704 0 -0.042634928122439665 0.001079583522456995 0 -0.042594847913059265 0.00086892423039174461 0 -0.042711233977334201 0.0010377271119805715 0 -0.043838043540515577 0.00073573291039152704 0 -0.043741769293553785 0.00067115109579919685 0 -0.043845832491447682 0.00058735304651246693 0 -0.043826269922052706 0.00092865524094033476 0 -0.043838043540515577 0.00073573291039152704 0 -0.043741769293553785 0.00067115109579919685 0 -0.043392865062954158 0.00099750047492140029 0 -0.043826269922052706 0.00092865524094033476 0 -0.043741769293553785 0.00067115109579919685 0 -0.043895177130885213 0.00050724278454896603 0 -0.043587029872063081 0.00072817841648331702 0 -0.043741769293553785 0.00067115109579919685 0 -0.043587029872063081 0.00072817841648331702 0 -0.043392865062954158 0.00099750047492140029 0 -0.043741769293553785 0.00067115109579919685 0 -0.044085400498411254 0.00043764749543227847 0 -0.043964864255520708 0.00049434029175582156 0 -0.043895177130885213 0.00050724278454896603 0 -0.043741769293553785 0.00067115109579919685 0 -0.043845832491447682 0.00058735304651246693 0 -0.043857529195143109 0.00058344074952817592 0 -0.043895177130885213 0.00050724278454896603 0 -0.043845832491447682 0.00058735304651246693 0 -0.042557652861545101 0.00066382697892404313 0 -0.042667609176736003 0.00082713712870271453 0 -0.042594847913059265 0.00086892423039174461 0 -0.042667609176736003 0.00082713712870271453 0 -0.042594847913059265 0.00086892423039174461 0 -0.042711233977334201 0.0010377271119805715 0 -0.044085400498411254 0.00043764749543227847 0 -0.043219649377429468 0.00070764188431768696 0 -0.041521156604631973 0.00063351791083513073 0 -0.0415307659719883 0.00060711738056816109 0 -0.041481725556042223 0.00056424247990058266 0 -0.041573087171364813 0.0005942453359254529 0 -0.0415307659719883 0.00060711738056816109 0 -0.041481725556042223 0.00056424247990058266 0 -0.041552609305950138 0.00062865505642462473 0 -0.041573087171364813 0.0005942453359254529 0 -0.0415307659719883 0.00060711738056816109 0 -0.041364481968552691 0.00066418793724212321 0 -0.041472589811805412 0.0006936030042746479 0 -0.041399409783522884 0.00057660635397680459 0 -0.041440006771160387 0.00073824557827791481 0 -0.04149750361770381 0.00053932975025158174 0 -0.041472589811805412 0.0006936030042746479 0 -0.041399409783522884 0.00057660635397680459 0 -0.041481725556042223 0.00056424247990058266 0 -0.037047685090976917 0.0015643744580403145 0 -0.036875652017269979 0.0016661306505142744 0 -0.037008314328780899 0.00171848518088261 0 -0.039079122881780365 0.0010478291035134523 0 -0.040079546252241249 0.0014357874016554567 0 -0.041399409783522884 0.00057660635397680459 0 -0.041481725556042223 0.00056424247990058266 0 -0.041543192712630045 0.00051275697680183631 0 -0.041573087171364813 0.0005942453359254529 0 -0.041481725556042223 0.00056424247990058266 0 -0.041543192712630045 0.00051275697680183631 0 -0.042117447307002454 0.00065851542234599523 0 -0.040079546252241249 0.0014357874016554567 0 -0.04248815570828833 0.0013003381867510277 0 -0.040079546252241249 0.0014357874016554567 0 -0.039160276951904202 0.0021648706177808739 0 -0.039006703438880977 0.0017386988100699325 0 -0.039214366061324717 0.0017877696004743326 0 -0.036875652017269979 0.0016661306505142744 0 -0.036894723914221925 0.001816400878904743 0 -0.037008314328780899 0.00171848518088261 0 -0.039311725884536561 0.0020858340019498482 0 -0.039160276951904202 0.0021648706177808739 0 -0.039214366061324717 0.0017877696004743326 0 -0.040079546252241249 0.0014357874016554567 0 -0.035243496520384471 0.0026613394875952415 0 -0.035243496520384471 0.0026613394875952415 0 -0.04032350080838748 0.0021319509466812187 0 -0.034150553843185417 0.0035725725719694705 0 -0.034713919512710176 0.0037102424619689799 0 -0.034260787552705167 0.0023487834310590861 0 -0.034150553843185417 0.0035725725719694705 0 -0.033616010267678915 0.0020770328974568345 0 -0.034260787552705167 0.0023487834310590861 0 -0.04032350080838748 0.0021319509466812187 0 -0.037569980139613809 0.001368139556906324 0 -0.035243496520384471 0.0026613394875952415 0 -0.032244886246897447 0.0026388643412224981 0 -0.042150069934407432 0.00075250617397951472 0 -0.04192681338734059 0.0013643078371877164 0 -0.041287286379774669 0.00038542464274285372 0 -0.031741820441977389 0.0039366805766820542 0 -0.030813750543129098 0.0036997226378257058 0 -0.031375479896804698 0.0028725097168316657 0 -0.035243496520384471 0.0026613394875952415 0 -0.033626698523153191 0.0027312894090171271 0 -0.036894723914221925 0.001816400878904743 0 -0.037032203581750578 0.0018615858414305496 0 -0.037008314328780899 0.00171848518088261 0 -0.037032203581750578 0.0018615858414305496 0 -0.037176188064014057 0.0019090851784904807 0 -0.037217229203571615 0.0016936955050573788 0 -0.037032203581750578 0.0018615858414305496 0 -0.037008314328780899 0.00171848518088261 0 -0.037217229203571615 0.0016936955050573788 0 -0.030813750543129098 0.0036997226378257058 0 -0.030324352656913984 0.0032285158925656711 0 -0.030602334765636997 0.0029167641021787638 0 -0.030813750543129098 0.0036997226378257058 0 -0.030324352656913984 0.0032285158925656711 0 -0.029917594158966151 0.0034445174320300105 0 -0.033626698523153191 0.0027312894090171271 0 -0.034243377646928225 0.0028472518595510882 0 -0.037402250294137983 0.0032139638402327239 0 -0.037581474407468292 0.0030552932883612933 0 -0.037613024822999726 0.0032502295602478124 0 -0.034243377646928225 0.0028472518595510882 0 -0.033570181799102351 0.0032494950547679396 0 -0.029917186255954097 0.0034137094188362218 0 -0.029618428661060833 0.0031016815515889861 0 -0.029311176333716635 0.0032107867943972517 0 -0.029908489084481366 0.00320142164968333 0 -0.029917186255954097 0.0034137094188362218 0 -0.029618428661060833 0.0031016815515889861 0 -0.03317692683185626 0.0031224046624690753 0 -0.034243377646928225 0.0028472518595510882 0 -0.030324352656913984 0.0032285158925656711 0 -0.029908489084481366 0.00320142164968333 0 -0.029917594158966151 0.0034445174320300105 0 -0.037402250294137983 0.0032139638402327239 0 -0.037419452711438268 0.0028071398835640715 0 -0.037581474407468292 0.0030552932883612933 0 -0.034243377646928225 0.0028472518595510882 0 -0.037458026573093245 0.0022710047008387443 0 -0.037047685090976917 0.0015643744580403145 0 -0.037008314328780899 0.00171848518088261 0 -0.037217229203571615 0.0016936955050573788 0 -0.039079122881780365 0.0010478291035134523 0 -0.039203182346210293 0.0011070344261171162 0 -0.037047685090976917 0.0015643744580403145 0 -0.037217229203571615 0.0016936955050573788 0 -0.037251669123346792 0.0014561771594114581 0 -0.041364481968552691 0.00066418793724212321 0 -0.041399409783522884 0.00057660635397680459 0 -0.041227490635901351 0.00065095065438437228 0 -0.037419452711438268 0.0028071398835640715 0 -0.03768813884081508 0.0023980511000797839 0 -0.037320841242267762 0.0016449257327058498 0 -0.03768813884081508 0.0023980511000797839 0 -0.037320841242267762 0.0016449257327058498 0 -0.038333176876295269 0.0018416630389081231 0 -0.037458026573093245 0.0022710047008387443 0 -0.039203182346210293 0.0011070344261171162 0 -0.029840627395114304 0.0010806230374052748 0 -0.02930127978033286 0.00014674906403231333 0 -0.028674593992667297 0.001299213921153955 0 -0.029840627395114304 0.0010806230374052748 0 -0.030666167620515657 0.0005181090166501744 0 -0.02930127978033286 0.00014674906403231333 0 -0.029840627395114304 0.0010806230374052748 0 -0.030666167620515657 0.0005181090166501744 0 -0.03105234638743827 0.0018238145858662273 0 -0.029840627395114304 0.0010806230374052748 0 -0.030179221988684665 0.0019120862583924701 0 -0.03105234638743827 0.0018238145858662273 0 -0.029840627395114304 0.0010806230374052748 0 -0.030179221988684665 0.0019120862583924701 0 -0.028674593992667297 0.001299213921153955 0 -0.03009241628974104 0.0018803095601056911 0 -0.028991877199756575 0.0013027272848007147 0 -0.029597456088667828 0.0020262343875950633 0 -0.030179221988684665 0.0019120862583924701 0 -0.029288957263150471 0.0013115454479551334 0 -0.029597456088667828 0.0020262343875950633 0 -0.029904953473601739 0.0024201472596675809 0 -0.030179221988684665 0.0019120862583924701 0 -0.029597456088667828 0.0020262343875950633 0 -0.029904953473601739 0.0024201472596675809 0 -0.029420501928068724 0.0024333617360629734 0 -0.029716124082075922 0.0028190858114928272 0 -0.029299955835561733 0.0028107593950645808 0 -0.029420501928068724 0.0024333617360629734 0 -0.029904953473601739 0.0024201472596675809 0 -0.029716124082075922 0.0028190858114928272 0 -0.029420501928068724 0.0024333617360629734 0 -0.029904953473601739 0.0024201472596675809 0 -0.029716124082075922 0.0028190858114928272 0 -0.030110437421750083 0.0028564301943065124 0 -0.030324352656913984 0.0032285158925656711 0 -0.029908489084481366 0.00320142164968333 0 -0.030110437421750083 0.0028564301943065124 0 -0.029908489084481366 0.00320142164968333 0 -0.029716124082075922 0.0028190858114928272 0 -0.030110437421750083 0.0028564301943065124 0 -0.029716124082075922 0.0028190858114928272 0 -0.029618428661060833 0.0031016815515889861 0 -0.029299955835561733 0.0028107593950645808 0 -0.029908489084481366 0.00320142164968333 0 -0.029716124082075922 0.0028190858114928272 0 -0.029618428661060833 0.0031016815515889861 0 -0.030324352656913984 0.0032285158925656711 0 -0.030602334765636997 0.0029167641021787638 0 -0.030110437421750083 0.0028564301943065124 0 -0.030602334765636997 0.0029167641021787638 0 -0.030110437421750083 0.0028564301943065124 0 -0.030299359212647151 0.0024974063359930938 0 -0.029904953473601739 0.0024201472596675809 0 -0.030110437421750083 0.0028564301943065124 0 -0.030299359212647151 0.0024974063359930938 0 -0.030602334765636997 0.0029167641021787638 0 -0.030701890863306481 0.0023894150426866981 0 -0.030299359212647151 0.0024974063359930938 0 -0.030701890863306481 0.0023894150426866981 0 -0.030179221988684665 0.0019120862583924701 0 -0.03105234638743827 0.0018238145858662273 0 -0.030701890863306481 0.0023894150426866981 0 -0.030299359212647151 0.0024974063359930938 0 -0.030179221988684665 0.0019120862583924701 0 -0.029904953473601739 0.0024201472596675809 0 -0.030299359212647151 0.0024974063359930938 0 -0.030179221988684665 0.0019120862583924701 0 -0.033616010267678915 0.0020770328974568345 0 -0.033783833631505479 0.0010065387570269647 0 -0.033049754728881636 0.00060249928759281571 0 -0.032244886246897447 0.0026388643412224981 0 -0.03207761183722449 0.0011714376194682909 0 -0.030701890863306481 0.0023894150426866981 0 -0.031375479896804698 0.0028725097168316657 0 -0.03105234638743827 0.0018238145858662273 0 -0.030602334765636997 0.0029167641021787638 0 -0.030701890863306481 0.0023894150426866981 0 -0.031375479896804698 0.0028725097168316657 0 -0.030813750543129098 0.0036997226378257058 0 -0.030602334765636997 0.0029167641021787638 0 -0.031375479896804698 0.0028725097168316657 0 -0.041287286379774669 0.00038542464274285372 0 -0.04117718829201944 4.8984647753215721e-05 0 -0.040446271990888037 -0.00070032660761990061 0 -0.033616010267678915 0.0020770328974568345 0 -0.034260787552705167 0.0023487834310590861 0 -0.033783833631505479 0.0010065387570269647 0 -0.037569980139613809 0.001368139556906324 0 -0.037191463373120959 0.00011908464707585679 0 -0.041287286379774669 0.00038542464274285372 0 -0.04117718829201944 4.8984647753215721e-05 0 -0.041875392868578283 0.00036026368781994471 0 -0.042150069934407432 0.00075250617397951472 0 -0.041287286379774669 0.00038542464274285372 0 -0.041875392868578283 0.00036026368781994471 0 -0.04117718829201944 4.8984647753215721e-05 0 -0.041145474392577729 -0.0005310578734516433 0 -0.041529150408167917 -0.00021619070110980465 0 -0.04117718829201944 4.8984647753215721e-05 0 -0.041145474392577729 -0.0005310578734516433 0 -0.040446271990888037 -0.00070032660761990061 0 -0.041145474392577729 -0.0005310578734516433 0 -0.040831638195110674 -0.0011250592725143478 0 -0.041517179182163626 -0.0010056637333775188 0 -0.041145474392577729 -0.0005310578734516433 0 -0.040446271990888037 -0.00070032660761990061 0 -0.040831638195110674 -0.0011250592725143478 0 -0.040831638195110674 -0.0011250592725143478 0 -0.04064894647234267 -0.001988981527896097 0 -0.041517179182163626 -0.0010056637333775188 0 -0.040446271990888037 -0.00070032660761990061 0 -0.040436157632587191 -0.0014146786830937818 0 -0.03980860298897871 -0.0018922659053506883 0 -0.029760644997793208 -0.00024147666234228423 0 -0.029854157507578548 0.00020077700324521867 0 -0.040436157632587191 -0.0014146786830937818 0 -0.03980860298897871 -0.0018922659053506883 0 -0.04064894647234267 -0.001988981527896097 0 -0.040831638195110674 -0.0011250592725143478 0 -0.040436157632587191 -0.0014146786830937818 0 -0.04064894647234267 -0.001988981527896097 0 -0.040446271990888037 -0.00070032660761990061 0 -0.040831638195110674 -0.0011250592725143478 0 -0.040436157632587191 -0.0014146786830937818 0 -0.037191463373120959 0.00011908464707585679 0 -0.035494057541216602 -0.00075936229490839433 0 -0.032467584524156975 -0.0008632961283373575 0 -0.033049754728881636 0.00060249928759281571 0 -0.033289328157508721 -0.00032980213571080389 0 -0.033783833631505479 0.0010065387570269647 0 -0.033049754728881636 0.00060249928759281571 0 -0.033352035355611785 -0.0001623757798521959 0 -0.033049754728881636 0.00060249928759281571 0 -0.033352035355611785 -0.0001623757798521959 0 -0.033289328157508721 -0.00032980213571080389 0 -0.031525177863399145 -0.00015048499452045131 0 -0.03207761183722449 0.0011714376194682909 0 -0.0324958074580931 -8.4850375489045634e-05 0 -0.031929447497763219 -0.0020800513446080355 0 -0.031343426291378505 -0.0025248152481885003 0 -0.032467584524156975 -0.0008632961283373575 0 -0.033289328157508721 -0.00032980213571080389 0 -0.032734721346534108 -0.0012531868355163706 0 -0.03971463707176285 -0.0021106966944373388 0 -0.039349306072035371 -0.0031465505061988677 0 -0.04064894647234267 -0.001988981527896097 0 -0.03980860298897871 -0.0018922659053506883 0 -0.03971463707176285 -0.0021106966944373388 0 -0.04064894647234267 -0.001988981527896097 0 -0.034718716362541931 -0.00076883858415768976 0 -0.030275153863803701 -0.0015580039288465247 0 -0.029260463561706862 -0.0015806881164823869 0 -0.029760644997793208 -0.00024147666234228423 0 -0.035494057541216602 -0.00075936229490839433 0 -0.034718716362541931 -0.00076883858415768976 0 -0.034718716362541931 -0.00076883858415768976 0 -0.029260463561706862 -0.0015806881164823869 0 -0.018440453470296523 0.0009211067127374282 0 -0.018709420019391763 0.00096436064224162483 0 -0.018773832947058398 0.0013240365176299222 0 -0.018709420019391763 0.00096436064224162483 0 -0.018916334298043267 0.0011044667403309928 0 -0.018847909933251413 0.00081606151731989621 0 -0.018709420019391763 0.00096436064224162483 0 -0.018916334298043267 0.0011044667403309928 0 -0.018773832947058398 0.0013240365176299222 0 -0.018916334298043267 0.0011044667403309928 0 -0.018773832947058398 0.0013240365176299222 0 -0.019134262336463113 0.001343516036184882 0 -0.019134262336463113 0.001343516036184882 0 -0.019125814648523403 0.0010244012239665873 0 -0.019449004775833886 0.0012413209596749417 0 -0.018916334298043267 0.0011044667403309928 0 -0.019134262336463113 0.001343516036184882 0 -0.019125814648523403 0.0010244012239665873 0 -0.018916334298043267 0.0011044667403309928 0 -0.019125814648523403 0.0010244012239665873 0 -0.018847909933251413 0.00081606151731989621 0 -0.019125814648523403 0.0010244012239665873 0 -0.019449004775833886 0.0012413209596749417 0 -0.019346026192527229 0.00095179550704232476 0 -0.01961018781413866 0.0010328082906183571 0 -0.019449004775833886 0.0012413209596749417 0 -0.019346026192527229 0.00095179550704232476 0 -0.01961018781413866 0.0010328082906183571 0 -0.019449004775833886 0.0012413209596749417 0 -0.019858690405792107 0.0012447422165229301 0 -0.019449004775833886 0.0012413209596749417 0 -0.019729236066864535 0.0015673432591055464 0 -0.019858690405792107 0.0012447422165229301 0 -0.019449004775833886 0.0012413209596749417 0 -0.019729236066864535 0.0015673432591055464 0 -0.019372123250623922 0.0015649979468590064 0 -0.019729236066864535 0.0015673432591055464 0 -0.01956878656207681 0.0017907667169901633 0 -0.019878859092652985 0.0018633126812067082 0 -0.019729236066864535 0.0015673432591055464 0 -0.01956878656207681 0.0017907667169901633 0 -0.019372123250623922 0.0015649979468590064 0 -0.01956878656207681 0.0017907667169901633 0 -0.019372123250623922 0.0015649979468590064 0 -0.019187703940556518 0.0017646381527439527 0 -0.019134262336463113 0.001343516036184882 0 -0.019449004775833886 0.0012413209596749417 0 -0.019372123250623922 0.0015649979468590064 0 -0.019134262336463113 0.001343516036184882 0 -0.019372123250623922 0.0015649979468590064 0 -0.019187703940556518 0.0017646381527439527 0 -0.018773832947058398 0.0013240365176299222 0 -0.019134262336463113 0.001343516036184882 0 -0.019187703940556518 0.0017646381527439527 0 -0.041517179182163626 -0.0010056637333775188 0 -0.041529150408167917 -0.00021619070110980465 0 -0.042039080412633108 -0.00038485045079518824 0 -0.041145474392577729 -0.0005310578734516433 0 -0.041517179182163626 -0.0010056637333775188 0 -0.041529150408167917 -0.00021619070110980465 0 -0.029854157507578548 0.00020077700324521867 0 -0.034967522961193744 -5.1708191089948851e-05 0 -0.042917356323098656 -0.00043752708552018604 0 -0.034967522961193744 -5.1708191089948851e-05 0 -0.040928780257110338 0.0001216804301367718 0 -0.042917356323098656 -0.00043752708552018604 0 -0.04117718829201944 4.8984647753215721e-05 0 -0.042270427404679276 -1.2903655155293498e-05 0 -0.041875392868578283 0.00036026368781994471 0 -0.042270427404679276 -1.2903655155293498e-05 0 -0.042373858591015619 0.00048203238246548335 0 -0.042745935094231489 0.00045250002092175158 0 -0.042709421565300658 0.00075367095670736937 0 -0.042373858591015619 0.00048203238246548335 0 -0.042745935094231489 0.00045250002092175158 0 -0.042270427404679276 -1.2903655155293498e-05 0 -0.042373858591015619 0.00048203238246548335 0 -0.041875392868578283 0.00036026368781994471 0 -0.042150069934407432 0.00075250617397951472 0 -0.042373858591015619 0.00048203238246548335 0 -0.041875392868578283 0.00036026368781994471 0 -0.043035855528076754 0.00051289669947925337 0 -0.043025597471037381 0.00055022626460175816 0 -0.043037797083320922 0.00067440041755550376 0 -0.043049710611484583 0.00067847404851087195 0 -0.042745935094231489 0.00045250002092175158 0 -0.043035855528076754 0.00051289669947925337 0 -0.042270427404679276 -1.2903655155293498e-05 0 -0.042745935094231489 0.00045250002092175158 0 -0.042822314300577896 0.00011791455305320002 0 -0.042745935094231489 0.00045250002092175158 0 -0.043035855528076754 0.00051289669947925337 0 -0.042822314300577896 0.00011791455305320002 0 -0.041632991029410961 0.0023219716391876311 0 -0.034967522961193744 -5.1708191089948851e-05 0 -0.01956878656207681 0.0017907667169901633 0 -0.019187703940556518 0.0017646381527439527 0 -0.019678449336079804 0.002191755765809501 0 -0.01956878656207681 0.0017907667169901633 0 -0.019678449336079804 0.002191755765809501 0 -0.019878859092652985 0.0018633126812067082 0 -0.034967522961193744 -5.1708191089948851e-05 0 -0.030892956482280666 0.0015964144077226839 0 -0.019678449336079804 0.002191755765809501 0 -0.019878859092652985 0.0018633126812067082 0 -0.020332032583946676 0.0020873330581771335 0 -0.043025597471037381 0.00055022626460175816 0 -0.043037797083320922 0.00067440041755550376 0 -0.042985052881209525 0.0008114799005163062 0 -0.019878859092652985 0.0018633126812067082 0 -0.020332032583946676 0.0020873330581771335 0 -0.020110456688954587 0.0016242792875749447 0 -0.043037797083320922 0.00067440041755550376 0 -0.043111717890213265 0.0007141636156598306 0 -0.043026175975335541 0.00079566771636907095 0 -0.043035855528076754 0.00051289669947925337 0 -0.043037797083320922 0.00067440041755550376 0 -0.043111717890213265 0.0007141636156598306 0 -0.043049710611484583 0.00067847404851087195 0 -0.043035855528076754 0.00051289669947925337 0 -0.043111717890213265 0.0007141636156598306 0 -0.043171409782688394 0.00084774161762043304 0 -0.043111717890213265 0.0007141636156598306 0 -0.043026175975335541 0.00079566771636907095 0 -0.043026175975335541 0.00079566771636907095 0 -0.042985052881209525 0.0008114799005163062 0 -0.042761264728223058 0.0010202971666514163 0 -0.043037797083320922 0.00067440041755550376 0 -0.043026175975335541 0.00079566771636907095 0 -0.042985052881209525 0.0008114799005163062 0 -0.030892956482280666 0.0015964144077226839 0 -0.032127382599220912 0.0024268924199607861 0 -0.020529974956212792 0.0016124224630713029 0 -0.020754987401482714 0.0011065602941276885 0 -0.021274240516550691 0.0019451753316641676 0 -0.020332032583946676 0.0020873330581771335 0 -0.020529974956212792 0.0016124224630713029 0 -0.021274240516550691 0.0019451753316641676 0 -0.020529974956212792 0.0016124224630713029 0 -0.020110456688954587 0.0016242792875749447 0 -0.020249851762682979 0.0012256299520208877 0 -0.020332032583946676 0.0020873330581771335 0 -0.020529974956212792 0.0016124224630713029 0 -0.020110456688954587 0.0016242792875749447 0 -0.019729236066864535 0.0015673432591055464 0 -0.019878859092652985 0.0018633126812067082 0 -0.020110456688954587 0.0016242792875749447 0 -0.019729236066864535 0.0015673432591055464 0 -0.020110456688954587 0.0016242792875749447 0 -0.019858690405792107 0.0012447422165229301 0 -0.019858690405792107 0.0012447422165229301 0 -0.020083636351804067 0.0010828230084725735 0 -0.020249851762682979 0.0012256299520208877 0 -0.020110456688954587 0.0016242792875749447 0 -0.019858690405792107 0.0012447422165229301 0 -0.020249851762682979 0.0012256299520208877 0 -0.01961018781413866 0.0010328082906183571 0 -0.019858690405792107 0.0012447422165229301 0 -0.01983845786943399 0.00094581169294242226 0 -0.019858690405792107 0.0012447422165229301 0 -0.020083636351804067 0.0010828230084725735 0 -0.01983845786943399 0.00094581169294242226 0 -0.020083636351804067 0.0010828230084725735 0 -0.020240211587045774 0.0011137885967181522 0 -0.020249851762682979 0.0012256299520208877 0 -0.020083636351804067 0.0010828230084725735 0 -0.020240211587045774 0.0011137885967181522 0 -0.020105579347129289 0.00095123720961016566 0 -0.020240211587045774 0.0011137885967181522 0 -0.020336595274658739 0.0013335652712843529 0 -0.020550428662896272 0.0010884687039502399 0 -0.021438263295972156 0.00057858883148541426 0 -0.022481645047084997 2.0524880926083604e-05 0 -0.022481645047084997 2.0524880926083604e-05 0 -0.020025282036170274 0.00096627415273850114 0 -0.020240211587045774 0.0011137885967181522 0 -0.020296255216635747 0.0011814823862822202 0 -0.020249851762682979 0.0012256299520208877 0 -0.020529974956212792 0.0016124224630713029 0 -0.020754987401482714 0.0011065602941276885 0 -0.020249851762682979 0.0012256299520208877 0 -0.020205610561823649 0.00076287046608701286 0 -0.020105579347129289 0.00095123720961016566 0 -0.019879333103251611 0.00063982953381397378 0 -0.020205610561823649 0.00076287046608701286 0 -0.020344023838662954 0.00093784243295440977 0 -0.020492660865665601 0.00076581670599174282 0 -0.020205610561823649 0.00076287046608701286 0 -0.020282371801209054 0.00051996609373317353 0 -0.020492660865665601 0.00076581670599174282 0 -0.020205610561823649 0.00076287046608701286 0 -0.020344023838662954 0.00093784243295440977 0 -0.020105579347129289 0.00095123720961016566 0 -0.020240211587045774 0.0011137885967181522 0 -0.020344023838662954 0.00093784243295440977 0 -0.020550428662896272 0.0010884687039502399 0 -0.020240211587045774 0.0011137885967181522 0 -0.020344023838662954 0.00093784243295440977 0 -0.020105579347129289 0.00095123720961016566 0 -0.020083636351804067 0.0010828230084725735 0 -0.020105579347129289 0.00095123720961016566 0 -0.01983845786943399 0.00094581169294242226 0 -0.01983845786943399 0.00094581169294242226 0 -0.019879333103251611 0.00063982953381397378 0 -0.01944701318653029 0.00072580352106121231 0 -0.01961018781413866 0.0010328082906183571 0 -0.01983845786943399 0.00094581169294242226 0 -0.01944701318653029 0.00072580352106121231 0 -0.020105579347129289 0.00095123720961016566 0 -0.01983845786943399 0.00094581169294242226 0 -0.019879333103251611 0.00063982953381397378 0 -0.019345687586847796 0.0003444099870434485 0 -0.019879333103251611 0.00063982953381397378 0 -0.020102307652312256 0.00018470053515962581 0 -0.019345687586847796 0.0003444099870434485 0 -0.019879333103251611 0.00063982953381397378 0 -0.01944701318653029 0.00072580352106121231 0 -0.019879333103251611 0.00063982953381397378 0 -0.020282371801209054 0.00051996609373317353 0 -0.020102307652312256 0.00018470053515962581 0 -0.020205610561823649 0.00076287046608701286 0 -0.019879333103251611 0.00063982953381397378 0 -0.020282371801209054 0.00051996609373317353 0 -0.019345687586847796 0.0003444099870434485 0 -0.020102307652312256 0.00018470053515962581 0 -0.018995556946647826 -6.7971948084350655e-05 0 -0.020102307652312256 0.00018470053515962581 0 -0.019786266246542929 -0.00022603774987540448 0 -0.018995556946647826 -6.7971948084350655e-05 0 -0.019786266246542929 -0.00022603774987540448 0 -0.020208072047586838 7.7214746435601801e-05 0 -0.020172650022819975 -0.00020183146088815994 0 -0.020102307652312256 0.00018470053515962581 0 -0.019786266246542929 -0.00022603774987540448 0 -0.020208072047586838 7.7214746435601801e-05 0 -0.018949944103988224 -0.00021113200807538159 0 -0.018939729852967914 -6.5775043857046439e-05 0 -0.018161090869273856 -0.00027299289956363279 0 -0.018995556946647826 -6.7971948084350655e-05 0 -0.018496859246416714 -0.00015288745892814756 0 -0.018995556946647826 -6.7971948084350655e-05 0 -0.018688844219660026 -0.00010098760251735833 0 -0.018827957526935842 0.00011897026613603212 0 -0.019345687586847796 0.0003444099870434485 0 -0.018995556946647826 -6.7971948084350655e-05 0 -0.018827957526935842 0.00011897026613603212 0 -0.018995556946647826 -6.7971948084350655e-05 0 -0.018688844219660026 -0.00010098760251735833 0 -0.018496859246416714 -0.00015288745892814756 0 -0.018688844219660026 -0.00010098760251735833 0 -0.018827957526935842 0.00011897026613603212 0 -0.018596192516896912 -5.3578603917104883e-05 0 -0.018688844219660026 -0.00010098760251735833 0 -0.018596192516896912 -5.3578603917104883e-05 0 -0.018538560968025124 -0.00014214486540713888 0 -0.018827957526935842 0.00011897026613603212 0 -0.018667104233282307 0.00014227887033822922 0 -0.018596192516896912 -5.3578603917104883e-05 0 -0.018827957526935842 0.00011897026613603212 0 -0.018739299797718868 0.00042371771589325542 0 -0.018667104233282307 0.00014227887033822922 0 -0.019081314984637197 0.00044915831556568151 0 -0.019091018781547699 0.00072722286021734031 0 -0.018739299797718868 0.00042371771589325542 0 -0.018827957526935842 0.00011897026613603212 0 -0.019081314984637197 0.00044915831556568151 0 -0.018739299797718868 0.00042371771589325542 0 -0.019345687586847796 0.0003444099870434485 0 -0.019081314984637197 0.00044915831556568151 0 -0.01944701318653029 0.00072580352106121231 0 -0.019345687586847796 0.0003444099870434485 0 -0.018827957526935842 0.00011897026613603212 0 -0.019081314984637197 0.00044915831556568151 0 -0.01944701318653029 0.00072580352106121231 0 -0.019346026192527229 0.00095179550704232476 0 -0.019091018781547699 0.00072722286021734031 0 -0.019081314984637197 0.00044915831556568151 0 -0.01944701318653029 0.00072580352106121231 0 -0.019091018781547699 0.00072722286021734031 0 -0.01961018781413866 0.0010328082906183571 0 -0.01944701318653029 0.00072580352106121231 0 -0.019346026192527229 0.00095179550704232476 0 -0.019125814648523403 0.0010244012239665873 0 -0.019346026192527229 0.00095179550704232476 0 -0.019091018781547699 0.00072722286021734031 0 -0.019091018781547699 0.00072722286021734031 0 -0.018847909933251413 0.00081606151731989621 0 -0.018739299797718868 0.00042371771589325542 0 -0.019125814648523403 0.0010244012239665873 0 -0.019091018781547699 0.00072722286021734031 0 -0.018847909933251413 0.00081606151731989621 0 -0.018609786407931192 0.00071283125976378257 0 -0.018847909933251413 0.00081606151731989621 0 -0.018739299797718868 0.00042371771589325542 0 -0.018709420019391763 0.00096436064224162483 0 -0.018609786407931192 0.00071283125976378257 0 -0.018847909933251413 0.00081606151731989621 0 -0.025866951715713949 -0.0005713731624969223 0 -0.02579638097365004 -0.00061461408982545944 0 -0.025723846327940312 -0.00086433711074137382 0 -0.02579638097365004 -0.00061461408982545944 0 -0.025759057437613041 -0.00066925024392301561 0 -0.025723846327940312 -0.00086433711074137382 0 -0.018440453470296523 0.0009211067127374282 0 -0.018609786407931192 0.00071283125976378257 0 -0.01835394141318742 0.00047564889400765394 0 -0.018440453470296523 0.0009211067127374282 0 -0.018709420019391763 0.00096436064224162483 0 -0.018609786407931192 0.00071283125976378257 0 -0.029260463561706862 -0.0015806881164823869 0 -0.021687533623535447 -0.00011536511665120216 0 -0.032467584524156975 -0.0008632961283373575 0 -0.032734721346534108 -0.0012531868355163706 0 -0.032609473608671551 -0.0014519942195881945 0 -0.030275153863803701 -0.0015580039288465247 0 -0.029720659011276327 -0.0013254628308508247 0 -0.029260463561706862 -0.0015806881164823869 0 -0.030275153863803701 -0.0015580039288465247 0 -0.01835394141318742 0.00047564889400765394 0 -0.018739299797718868 0.00042371771589325542 0 -0.018514662513324544 0.00014146667000827147 0 -0.01835394141318742 0.00047564889400765394 0 -0.018514662513324544 0.00014146667000827147 0 -0.018343778511503865 0.00012063972912472106 0 -0.018609786407931192 0.00071283125976378257 0 -0.01835394141318742 0.00047564889400765394 0 -0.018739299797718868 0.00042371771589325542 0 -0.018596192516896912 -5.3578603917104883e-05 0 -0.018495441321389514 -2.1842035617331433e-05 0 -0.018514662513324544 0.00014146667000827147 0 -0.018739299797718868 0.00042371771589325542 0 -0.018667104233282307 0.00014227887033822922 0 -0.018514662513324544 0.00014146667000827147 0 -0.018667104233282307 0.00014227887033822922 0 -0.018596192516896912 -5.3578603917104883e-05 0 -0.018514662513324544 0.00014146667000827147 0 -0.018596192516896912 -5.3578603917104883e-05 0 -0.018538560968025124 -0.00014214486540713888 0 -0.018513756959053846 -0.00013285272509366651 0 -0.018596192516896912 -5.3578603917104883e-05 0 -0.018495441321389514 -2.1842035617331433e-05 0 -0.018513756959053846 -0.00013285272509366651 0 -0.018458388908545734 -7.7039243130716642e-05 0 -0.018495441321389514 -2.1842035617331433e-05 0 -0.018343778511503865 0.00012063972912472106 0 -0.018458388908545734 -7.7039243130716642e-05 0 -0.018518043893641988 -0.00018695214278504846 0 -0.018513756959053846 -0.00013285272509366651 0 -0.018458388908545734 -7.7039243130716642e-05 0 -0.018495441321389514 -2.1842035617331433e-05 0 -0.018513756959053846 -0.00013285272509366651 0 -0.018495441321389514 -2.1842035617331433e-05 0 -0.018514662513324544 0.00014146667000827147 0 -0.018343778511503865 0.00012063972912472106 0 -0.025595686978601512 -0.0011315156340596108 0 -0.025424332536378862 -0.0012275174999534112 0 -0.025572776676613295 -0.00095927504446881534 0 -0.027754026062434416 -0.0019738423254151202 0 -0.031388436655078372 -0.0017644018446871033 0 -0.027754026062434416 -0.0019738423254151202 0 -0.028772166356677398 -0.0017647042313364153 0 -0.025595686978601512 -0.0011315156340596108 0 -0.025493021638246693 -0.0013656046799969356 0 -0.025424332536378862 -0.0012275174999534112 0 -0.022004366518695279 -0.00052032708405470157 0 -0.021638777307511327 -0.00052205829436214484 0 -0.02328006869807173 -0.0010634497786780025 0 -0.023880771540334755 -0.0019493863871422083 0 -0.024274343198719298 -0.00051348423575073884 0 -0.018458388908545734 -7.7039243130716642e-05 0 -0.018343778511503865 0.00012063972912472106 0 -0.018388981524657684 -0.0001033970723087153 0 -0.021638777307511327 -0.00052205829436214484 0 -0.027754026062434416 -0.0019738423254151202 0 -0.021638777307511327 -0.00052205829436214484 0 -0.018955298030311454 0.00048892798466266879 0 -0.018458388908545734 -7.7039243130716642e-05 0 -0.018388981524657684 -0.0001033970723087153 0 -0.018518043893641988 -0.00018695214278504846 0 -0.027754026062434416 -0.0019738423254151202 0 -0.026674289900075122 -0.0015045556715597434 0 -0.027754026062434416 -0.0019738423254151202 0 -0.023823958688344825 -0.0010926944015001779 0 -0.02866309546698155 -0.0011046460102771226 0 -0.028397114634733569 -0.0016573734529703051 0 -0.028162312946953327 -0.0010340423335492659 0 -0.026403465118528986 -0.0012917878878703345 0 -0.026028784734835039 -0.0020180237441168097 0 -0.026137520749658843 -0.002076913667964927 0 -0.027754026062434416 -0.0019738423254151202 0 -0.028767460376497439 -0.00076296999736359737 0 -0.02866309546698155 -0.0011046460102771226 0 -0.028212927322147328 -0.00037295574152971562 0 -0.028162312946953327 -0.0010340423335492659 0 -0.029763171027993335 -0.0024892257592697784 0 -0.028872735972165872 -0.001120980437709288 0 -0.030236753239606506 -0.00095326056604624551 0 -0.031239747071915448 -0.0036019003480635401 0 -0.031881731928893653 -0.0022363635170997479 0 -0.03194244985463679 -0.0025176128395815404 0 -0.025723846327940312 -0.00086433711074137382 0 -0.025595686978601512 -0.0011315156340596108 0 -0.025572776676613295 -0.00095927504446881534 0 -0.025759057437613041 -0.00066925024392301561 0 -0.025723846327940312 -0.00086433711074137382 0 -0.025572776676613295 -0.00095927504446881534 0 -0.032609473608671551 -0.0014519942195881945 0 -0.031881731928893653 -0.0022363635170997479 0 -0.03194244985463679 -0.0025176128395815404 0 -0.021687533623535447 -0.00011536511665120216 0 -0.022004366518695279 -0.00052032708405470157 0 -0.031525177863399145 -0.00015048499452045131 0 -0.031388436655078372 -0.0017644018446871033 0 -0.030666167620515657 0.0005181090166501744 0 -0.030236753239606506 -0.00095326056604624551 0 -0.02930127978033286 0.00014674906403231333 0 -0.032467584524156975 -0.0008632961283373575 0 -0.032609473608671551 -0.0014519942195881945 0 -0.031881731928893653 -0.0022363635170997479 0 -0.029720659011276327 -0.0013254628308508247 0 -0.028772166356677398 -0.0017647042313364153 0 -0.028872735972165872 -0.001120980437709288 0 -0.030236753239606506 -0.00095326056604624551 0 -0.02930127978033286 0.00014674906403231333 0 -0.031975223419192712 -0.00012494015090946641 0 -0.032369673435396824 -0.0001526825452594659 0 -0.030361190774804137 -4.961021896089895e-06 0 -0.031975223419192712 -0.00012494015090946641 0 -0.032369673435396824 -0.0001526825452594659 0 -0.032844926826366257 -0.00018631576093897082 0 -0.031975223419192712 -0.00012494015090946641 0 -0.032844926826366257 -0.00018631576093897082 0 -0.032750423782878353 -0.00018292972606098059 0 -0.032750423782878353 -0.00018292972606098059 0 -0.033110607122991915 -0.0001400839402419884 0 -0.032873135671725603 -0.00015846761143692862 0 -0.032750423782878353 -0.00018292972606098059 0 -0.0325243747704042 1.4741309056364178e-05 0 -0.032798244748914303 3.7883331037395219e-05 0 -0.031975223419192712 -0.00012494015090946641 0 -0.032750423782878353 -0.00018292972606098059 0 -0.0325243747704042 1.4741309056364178e-05 0 -0.031975223419192712 -0.00012494015090946641 0 -0.0325243747704042 1.4741309056364178e-05 0 -0.031942832449504278 0.00019041957589388664 0 -0.032645480969791828 0.00021760663201545499 0 -0.032506584466478236 0.00042155723365301694 0 -0.032678407233611859 0.00042709613098630776 0 -0.0325243747704042 1.4741309056364178e-05 0 -0.032645480969791828 0.00021760663201545499 0 -0.032506584466478236 0.00042155723365301694 0 -0.032069163840655647 0.00094551413438093894 0 -0.030863666940542742 0.00071273442276320316 0 -0.0325243747704042 1.4741309056364178e-05 0 -0.032506584466478236 0.00042155723365301694 0 -0.031942832449504278 0.00019041957589388664 0 -0.032506584466478236 0.00042155723365301694 0 -0.031942832449504278 0.00019041957589388664 0 -0.031670750579865695 0.00097355653297289822 0 -0.031975223419192712 -0.00012494015090946641 0 -0.030766014203540491 0.00016615126804585102 0 -0.030361190774804137 -4.961021896089895e-06 0 -0.031942832449504278 0.00019041957589388664 0 -0.030766014203540491 0.00016615126804585102 0 -0.031670750579865695 0.00097355653297289822 0 -0.031975223419192712 -0.00012494015090946641 0 -0.031942832449504278 0.00019041957589388664 0 -0.030766014203540491 0.00016615126804585102 0 -0.030766014203540491 0.00016615126804585102 0 -0.030361190774804137 -4.961021896089895e-06 0 -0.028863372473975323 0.00044584618067173637 0 -0.030361190774804137 -4.961021896089895e-06 0 -0.028620355239456181 0.00013718446441565591 0 -0.028863372473975323 0.00044584618067173637 0 -0.030361190774804137 -4.961021896089895e-06 0 -0.029645923585744093 3.2873361329745855e-08 0 -0.028620355239456181 0.00013718446441565591 0 -0.029645923585744093 3.2873361329745855e-08 0 -0.027032873596381925 -3.4825641664003644e-08 0 -0.028620355239456181 0.00013718446441565591 0 -0.029645923585744093 3.2873361329745855e-08 0 -0.03160663947012636 -4.2987571053365226e-05 0 -0.032259473987674342 2.0326727017361932e-08 0 -0.030361190774804137 -4.961021896089895e-06 0 -0.029645923585744093 3.2873361329745855e-08 0 -0.03160663947012636 -4.2987571053365226e-05 0 -0.032369673435396824 -0.0001526825452594659 0 -0.030361190774804137 -4.961021896089895e-06 0 -0.03160663947012636 -4.2987571053365226e-05 0 -0.032369673435396824 -0.0001526825452594659 0 -0.03160663947012636 -4.2987571053365226e-05 0 -0.033585924998943834 0.0001289840388465917 0 -0.03160663947012636 -4.2987571053365226e-05 0 -0.032259473987674342 2.0326727017361932e-08 0 -0.033585924998943834 0.0001289840388465917 0 -0.034669885715284947 0.0002507633716461824 0 -0.034872601638353505 4.7416854148120589e-07 0 -0.032259473987674342 2.0326727017361932e-08 0 -0.034669885715284947 0.0002507633716461824 0 -0.032259473987674342 2.0326727017361932e-08 0 -0.033585924998943834 0.0001289840388465917 0 -0.035479850351863018 0.0010027061988903134 0 -0.034669885715284947 0.0002507633716461824 0 -0.033585924998943834 0.0001289840388465917 0 -0.035479850351863018 0.0010027061988903134 0 -0.033585924998943834 0.0001289840388465917 0 -0.033813353341558161 3.5787311097313364e-05 0 -0.032369673435396824 -0.0001526825452594659 0 -0.032844926826366257 -0.00018631576093897082 0 -0.033813353341558161 3.5787311097313364e-05 0 -0.032369673435396824 -0.0001526825452594659 0 -0.033585924998943834 0.0001289840388465917 0 -0.033813353341558161 3.5787311097313364e-05 0 -0.032844926826366257 -0.00018631576093897082 0 -0.032750423782878353 -0.00018292972606098059 0 -0.033110607122991915 -0.0001400839402419884 0 -0.032844926826366257 -0.00018631576093897082 0 -0.033813353341558161 3.5787311097313364e-05 0 -0.033110607122991915 -0.0001400839402419884 0 -0.033813353341558161 3.5787311097313364e-05 0 -0.033110607122991915 -0.0001400839402419884 0 -0.033402699692481136 0.00080387325908483158 0 -0.035016945694921545 0.00098087455801140646 0 -0.036323765901723926 0.0024781589864469561 0 -0.035479850351863018 0.0010027061988903134 0 -0.033813353341558161 3.5787311097313364e-05 0 -0.033402699692481136 0.00080387325908483158 0 -0.035453307507611352 0.0044435029678130877 0 -0.033602648395820937 0.0042556794894033374 0 -0.034634945811716084 0.0027280381621760962 0 -0.036323765901723926 0.0024781589864469561 0 -0.033568932801679115 0.0012603318212143408 0 -0.033110607122991915 -0.0001400839402419884 0 -0.033402699692481136 0.00080387325908483158 0 -0.03282350283623002 -3.5635287959269277e-05 0 -0.036323765901723926 0.0024781589864469561 0 -0.037208176984309657 0.0041271426846665607 0 -0.033602648395820937 0.0042556794894033374 0 -0.03310923101869976 0.0027191269299743207 0 -0.031754920939593013 0.0040482181155777654 0 -0.033602648395820937 0.0042556794894033374 0 -0.03310923101869976 0.0027191269299743207 0 -0.034634945811716084 0.0027280381621760962 0 -0.03310923101869976 0.0027191269299743207 0 -0.034634945811716084 0.0027280381621760962 0 -0.033816146974111172 0.00096554141034978377 0 -0.033568932801679115 0.0012603318212143408 0 -0.033715977274801544 0.00047456265949724933 0 -0.033110607122991915 -0.0001400839402419884 0 -0.03282350283623002 -3.5635287959269277e-05 0 -0.032873135671725603 -0.00015846761143692862 0 -0.043077899097555369 0.00094652866516788689 0 -0.043026175975335541 0.00079566771636907095 0 -0.042950777612065928 0.0010444583390662287 0 -0.043026175975335541 0.00079566771636907095 0 -0.042594345615192257 0.00072914925055202228 0 -0.042761264728223058 0.0010202971666514163 0 -0.043999751918822459 0.00065614726375849946 0 -0.040271046434524879 0.0019018945323702105 0 -0.037208176984309657 0.0041271426846665607 0 -0.040271046434524879 0.0019018945323702105 0 -0.03310923101869976 0.0027191269299743207 0 -0.031754920939593013 0.0040482181155777654 0 -0.031769611082397516 0.0015295263794612591 0 -0.031754920939593013 0.0040482181155777654 0 -0.030595296249536583 0.0018570355928056767 0 -0.031769611082397516 0.0015295263794612591 0 -0.040271046434524879 0.0019018945323702105 0 -0.032127382599220912 0.0024268924199607861 0 -0.02910847455425249 -0.00029590786076987317 0 -0.030299663182488425 0.0019565159494706391 0 -0.030915808325889964 0.00055839147420130711 0 -0.022481645047084997 2.0524880926083604e-05 0 -0.032127382599220912 0.0024268924199607861 0 -0.032127382599220912 0.0024268924199607861 0 -0.031212294069556529 0.0018208243168382808 0 -0.030299663182488425 0.0019565159494706391 0 -0.030915808325889964 0.00055839147420130711 0 -0.031769611082397516 0.0015295263794612591 0 -0.030915808325889964 0.00055839147420130711 0 -0.031769611082397516 0.0015295263794612591 0 -0.032236122076170826 0.00024778997026818551 0 -0.026136292210228809 0.00032252047344791794 0 -0.028778921363133422 0.00085459763832197678 0 -0.020874503303547835 0.0013235964075029544 0 -0.02175227378109405 0.0012417394748429149 0 -0.021045455435398083 0.0010208407339106511 0 -0.032236122076170826 0.00024778997026818551 0 -0.031086725591087463 -0.00061960163177835837 0 -0.032947039663492592 -0.00090792280724621207 0 -0.020874503303547835 0.0013235964075029544 0 -0.020796020979327055 0.0010815057539786063 0 -0.021045455435398083 0.0010208407339106511 0 -0.030915808325889964 0.00055839147420130711 0 -0.032236122076170826 0.00024778997026818551 0 -0.031086725591087463 -0.00061960163177835837 0 -0.020336595274658739 0.0013335652712843529 0 -0.020874503303547835 0.0013235964075029544 0 -0.020550428662896272 0.0010884687039502399 0 -0.022481645047084997 2.0524880926083604e-05 0 -0.026136292210228809 0.00032252047344791794 0 -0.02910847455425249 -0.00029590786076987317 0 -0.030915808325889964 0.00055839147420130711 0 -0.031086725591087463 -0.00061960163177835837 0 -0.020874503303547835 0.0013235964075029544 0 -0.020550428662896272 0.0010884687039502399 0 -0.020796020979327055 0.0010815057539786063 0 -0.03282350283623002 -3.5635287959269277e-05 0 -0.032873135671725603 -0.00015846761143692862 0 -0.032962441330589211 -0.00011175203905400035 0 -0.032873135671725603 -0.00015846761143692862 0 -0.032962441330589211 -0.00011175203905400035 0 -0.032798244748914303 3.7883331037395219e-05 0 -0.032750423782878353 -0.00018292972606098059 0 -0.032873135671725603 -0.00015846761143692862 0 -0.032798244748914303 3.7883331037395219e-05 0 -0.03310923101869976 0.0027191269299743207 0 -0.031769611082397516 0.0015295263794612591 0 -0.033816146974111172 0.00096554141034978377 0 -0.031769611082397516 0.0015295263794612591 0 -0.032236122076170826 0.00024778997026818551 0 -0.033816146974111172 0.00096554141034978377 0 -0.033715977274801544 0.00047456265949724933 0 -0.028778921363133422 0.00085459763832197678 0 -0.032962441330589211 -0.00011175203905400035 0 -0.03314946449694807 0.0002480587789887445 0 -0.032798244748914303 3.7883331037395219e-05 0 -0.032236122076170826 0.00024778997026818551 0 -0.033816146974111172 0.00096554141034978377 0 -0.032947039663492592 -0.00090792280724621207 0 -0.03314946449694807 0.0002480587789887445 0 -0.032798244748914303 3.7883331037395219e-05 0 -0.032678407233611859 0.00042709613098630776 0 -0.028778921363133422 0.00085459763832197678 0 -0.030863666940542742 0.00071273442276320316 0 -0.0325243747704042 1.4741309056364178e-05 0 -0.032645480969791828 0.00021760663201545499 0 -0.032798244748914303 3.7883331037395219e-05 0 -0.032645480969791828 0.00021760663201545499 0 -0.032798244748914303 3.7883331037395219e-05 0 -0.032678407233611859 0.00042709613098630776 0 -0.029869477243372692 0.0011071084480642807 0 -0.026996347139897337 0.00065158016873561274 0 -0.026818951234357846 -0.00060224821463636445 0 -0.030863666940542742 0.00071273442276320316 0 -0.023904720998859506 0.0003286444808536316 0 -0.027838795855396409 0.00051862447240369339 0 -0.027516457584832558 0.00035058549764856791 0 -0.027903630911615546 0.00034299098611644734 0 -0.026009314252565068 0.0018106261884787778 0 -0.029869477243372692 0.0011071084480642807 0 -0.026996347139897337 0.00065158016873561274 0 -0.021734541292052472 0.00078841607454102213 0 -0.021346723254710254 0.0010201962562105548 0 -0.021082955237254061 0.00052088547748609885 0 -0.028778921363133422 0.00085459763832197678 0 -0.022519830364057407 0.00036747817293893533 0 -0.026009314252565068 0.0018106261884787778 0 -0.026996347139897337 0.00065158016873561274 0 -0.025287438310537317 0.00029085138969343075 0 -0.023904720998859506 0.0003286444808536316 0 -0.022519830364057407 0.00036747817293893533 0 -0.026996347139897337 0.00065158016873561274 0 -0.026818951234357846 -0.00060224821463636445 0 -0.025287438310537317 0.00029085138969343075 0 -0.020669502629487323 0.00071330251622652341 0 -0.020561257399454441 0.00053524012652670391 0 -0.020715901504939224 0.00056687852496901394 0 -0.020561257399454441 0.00053524012652670391 0 -0.020715901504939224 0.00056687852496901394 0 -0.020620545089042295 0.00044514929397228303 0 -0.023904720998859506 0.0003286444808536316 0 -0.024482551517667185 0.00046739130080922974 0 -0.020669502629487323 0.00071330251622652341 0 -0.020715901504939224 0.00056687852496901394 0 -0.02094816290475322 0.00064050711437690629 0 -0.020715901504939224 0.00056687852496901394 0 -0.020764607620761003 0.00046497982558223433 0 -0.02094816290475322 0.00064050711437690629 0 -0.027516457584832558 0.00035058549764856791 0 -0.027956641927700102 0.00019756397736711388 0 -0.027903630911615546 0.00034299098611644734 0 -0.020492660865665601 0.00076581670599174282 0 -0.020510003684453458 0.00092281747728440897 0 -0.020741031274533906 0.00090337194797037769 0 -0.020344023838662954 0.00093784243295440977 0 -0.020492660865665601 0.00076581670599174282 0 -0.020510003684453458 0.00092281747728440897 0 -0.020344023838662954 0.00093784243295440977 0 -0.020550428662896272 0.0010884687039502399 0 -0.020510003684453458 0.00092281747728440897 0 -0.020550428662896272 0.0010884687039502399 0 -0.020510003684453458 0.00092281747728440897 0 -0.020741031274533906 0.00090337194797037769 0 -0.020550428662896272 0.0010884687039502399 0 -0.020796020979327055 0.0010815057539786063 0 -0.020741031274533906 0.00090337194797037769 0 -0.020741031274533906 0.00090337194797037769 0 -0.020704607882023423 0.00072009696352629416 0 -0.020867833695831919 0.00074926648115951973 0 -0.020492660865665601 0.00076581670599174282 0 -0.020741031274533906 0.00090337194797037769 0 -0.020704607882023423 0.00072009696352629416 0 -0.020492660865665601 0.00076581670599174282 0 -0.020704607882023423 0.00072009696352629416 0 -0.020621553320090649 0.00058246451015927993 0 -0.020704607882023423 0.00072009696352629416 0 -0.020867833695831919 0.00074926648115951973 0 -0.020859903618807372 0.00059627457776441871 0 -0.020741031274533906 0.00090337194797037769 0 -0.020867833695831919 0.00074926648115951973 0 -0.021001062556128464 0.00085846692068630584 0 -0.020867833695831919 0.00074926648115951973 0 -0.021031472319060843 0.00072673099014451258 0 -0.020859903618807372 0.00059627457776441871 0 -0.020867833695831919 0.00074926648115951973 0 -0.021031472319060843 0.00072673099014451258 0 -0.021001062556128464 0.00085846692068630584 0 -0.020741031274533906 0.00090337194797037769 0 -0.021001062556128464 0.00085846692068630584 0 -0.021045455435398083 0.0010208407339106511 0 -0.020796020979327055 0.0010815057539786063 0 -0.020741031274533906 0.00090337194797037769 0 -0.021045455435398083 0.0010208407339106511 0 -0.02175227378109405 0.0012417394748429149 0 -0.021045455435398083 0.0010208407339106511 0 -0.02151991788721953 0.00074372364927110819 0 -0.021003582580073916 0.0011126020647354603 0 -0.022519830364057407 0.00036747817293893533 0 -0.021001062556128464 0.00085846692068630584 0 -0.021045455435398083 0.0010208407339106511 0 -0.021251562105971261 0.00088992380641190636 0 -0.021031472319060843 0.00072673099014451258 0 -0.021001062556128464 0.00085846692068630584 0 -0.021251562105971261 0.00088992380641190636 0 -0.022519830364057407 0.00036747817293893533 0 -0.021211771613489017 0.00053526413182251203 0 -0.021031472319060843 0.00072673099014451258 0 -0.021251562105971261 0.00088992380641190636 0 -0.021082955237254061 0.00052088547748609885 0 -0.020669502629487323 0.00071330251622652341 0 -0.020561257399454441 0.00053524012652670391 0 -0.020351612072993457 0.0005080863991377201 0 -0.021734541292052472 0.00078841607454102213 0 -0.021082955237254061 0.00052088547748609885 0 -0.020869038858491444 0.00036475436974242018 0 -0.023904720998859506 0.0003286444808536316 0 -0.020091458295930023 0.00036734111536269209 0 -0.020561257399454441 0.00053524012652670391 0 -0.020351612072993457 0.0005080863991377201 0 -0.020472216630577723 0.00039092901771292188 0 -0.021082955237254061 0.00052088547748609885 0 -0.020869038858491444 0.00036475436974242018 0 -0.020859903618807372 0.00059627457776441871 0 -0.021031472319060843 0.00072673099014451258 0 -0.021082955237254061 0.00052088547748609885 0 -0.020859903618807372 0.00059627457776441871 0 -0.020282371801209054 0.00051996609373317353 0 -0.020869038858491444 0.00036475436974242018 0 -0.020621553320090649 0.00058246451015927993 0 -0.020282371801209054 0.00051996609373317353 0 -0.020102307652312256 0.00018470053515962581 0 -0.020869038858491444 0.00036475436974242018 0 -0.020869038858491444 0.00036475436974242018 0 -0.020859903618807372 0.00059627457776441871 0 -0.020621553320090649 0.00058246451015927993 0 -0.020704607882023423 0.00072009696352629416 0 -0.020859903618807372 0.00059627457776441871 0 -0.020621553320090649 0.00058246451015927993 0 -0.020282371801209054 0.00051996609373317353 0 -0.020492660865665601 0.00076581670599174282 0 -0.020621553320090649 0.00058246451015927993 0 -0.020102307652312256 0.00018470053515962581 0 -0.020351612072993457 0.0005080863991377201 0 -0.020303663744728501 0.00029643264958927127 0 -0.020102307652312256 0.00018470053515962581 0 -0.020303663744728501 0.00029643264958927127 0 -0.020208072047586838 7.7214746435601801e-05 0 -0.020353073394534144 0.00027008585936233112 0 -0.020091458295930023 0.00036734111536269209 0 -0.020303663744728501 0.00029643264958927127 0 -0.020398280470488004 0.00024977970859757948 0 -0.020208072047586838 7.7214746435601801e-05 0 -0.020303663744728501 0.00029643264958927127 0 -0.020398280470488004 0.00024977970859757948 0 -0.020472216630577723 0.00039092901771292188 0 -0.020351612072993457 0.0005080863991377201 0 -0.020303663744728501 0.00029643264958927127 0 -0.020472216630577723 0.00039092901771292188 0 -0.020398280470488004 0.00024977970859757948 0 -0.020472216630577723 0.00039092901771292188 0 -0.020539123249397665 0.00028230039258254712 0 -0.020398280470488004 0.00024977970859757948 0 -0.020329661913745935 2.4186027396065978e-05 0 -0.020208072047586838 7.7214746435601801e-05 0 -0.020398280470488004 0.00024977970859757948 0 -0.02045348781508062 0.00014621465541742165 0 -0.020329661913745935 2.4186027396065978e-05 0 -0.020398280470488004 0.00024977970859757948 0 -0.02045348781508062 0.00014621465541742165 0 -0.020539123249397665 0.00028230039258254712 0 -0.02045348781508062 0.00014621465541742165 0 -0.020329661913745935 2.4186027396065978e-05 0 -0.020463405400403079 -3.148397444872141e-05 0 -0.02045348781508062 0.00014621465541742165 0 -0.020564542988129056 0.00013596184935358785 0 -0.020463405400403079 -3.148397444872141e-05 0 -0.020329661913745935 2.4186027396065978e-05 0 -0.020208072047586838 7.7214746435601801e-05 0 -0.020172650022819975 -0.00020183146088815994 0 -0.020764607620761003 0.00046497982558223433 0 -0.02085432463374744 0.00036049695147779464 0 -0.02094816290475322 0.00064050711437690629 0 -0.020764607620761003 0.00046497982558223433 0 -0.020677915917212356 0.00030963376130475824 0 -0.02085432463374744 0.00036049695147779464 0 -0.020715901504939224 0.00056687852496901394 0 -0.020764607620761003 0.00046497982558223433 0 -0.020620545089042295 0.00044514929397228303 0 -0.020561257399454441 0.00053524012652670391 0 -0.020472216630577723 0.00039092901771292188 0 -0.020620545089042295 0.00044514929397228303 0 -0.020472216630577723 0.00039092901771292188 0 -0.020620545089042295 0.00044514929397228303 0 -0.020539123249397665 0.00028230039258254712 0 -0.020620545089042295 0.00044514929397228303 0 -0.020539123249397665 0.00028230039258254712 0 -0.020677915917212356 0.00030963376130475824 0 -0.020764607620761003 0.00046497982558223433 0 -0.020620545089042295 0.00044514929397228303 0 -0.020677915917212356 0.00030963376130475824 0 -0.020677915917212356 0.00030963376130475824 0 -0.020564542988129056 0.00013596184935358785 0 -0.02074258123881002 0.00012379959311165049 0 -0.020539123249397665 0.00028230039258254712 0 -0.020677915917212356 0.00030963376130475824 0 -0.020564542988129056 0.00013596184935358785 0 -0.02045348781508062 0.00014621465541742165 0 -0.020539123249397665 0.00028230039258254712 0 -0.020564542988129056 0.00013596184935358785 0 -0.020677915917212356 0.00030963376130475824 0 -0.02085432463374744 0.00036049695147779464 0 -0.02074258123881002 0.00012379959311165049 0 -0.02085432463374744 0.00036049695147779464 0 -0.020922940355450146 0.00012099516767170661 0 -0.02074258123881002 0.00012379959311165049 0 -0.02085432463374744 0.00036049695147779464 0 -0.021066820400132961 0.00039820968314614226 0 -0.020922940355450146 0.00012099516767170661 0 -0.021066820400132961 0.00039820968314614226 0 -0.021364239787686541 0.00078946023393736879 0 -0.021568606246572249 0.00010811021618071163 0 -0.021066820400132961 0.00039820968314614226 0 -0.021568606246572249 0.00010811021618071163 0 -0.021143691123614101 4.1183174793166996e-05 0 -0.021066820400132961 0.00039820968314614226 0 -0.021364239787686541 0.00078946023393736879 0 -0.02094816290475322 0.00064050711437690629 0 -0.024373295164105708 0.00055250573998341516 0 -0.024482551517667185 0.00046739130080922974 0 -0.02085432463374744 0.00036049695147779464 0 -0.021066820400132961 0.00039820968314614226 0 -0.02094816290475322 0.00064050711437690629 0 -0.027956641927700102 0.00019756397736711388 0 -0.027989947649526857 0.00013545179996746472 0 -0.027903630911615546 0.00034299098611644734 0 -0.027410460472554639 0.00053265825278825732 0 -0.027956641927700102 0.00019756397736711388 0 -0.027989947649526857 0.00013545179996746472 0 -0.027989947649526857 0.00013545179996746472 0 -0.028025094401045274 0.00051582888670128745 0 -0.028863372473975323 0.00044584618067173637 0 -0.030766014203540491 0.00016615126804585102 0 -0.031670750579865695 0.00097355653297289822 0 -0.028863372473975323 0.00044584618067173637 0 -0.029752814589907233 0.00067365145318997138 0 -0.029120419152312511 0.00055704878029226774 0 -0.032506584466478236 0.00042155723365301694 0 -0.032954016126692118 0.00066705202656437462 0 -0.031670750579865695 0.00097355653297289822 0 -0.030863666940542742 0.00071273442276320316 0 -0.029752814589907233 0.00067365145318997138 0 -0.027989947649526857 0.00013545179996746472 0 -0.028025094401045274 0.00051582888670128745 0 -0.027903630911615546 0.00034299098611644734 0 -0.027838795855396409 0.00051862447240369339 0 -0.028025094401045274 0.00051582888670128745 0 -0.027903630911615546 0.00034299098611644734 0 -0.027032873596381925 -3.4825641664003644e-08 0 -0.028620355239456181 0.00013718446441565591 0 -0.026767001673804865 2.4765232023699452e-05 0 -0.028620355239456181 0.00013718446441565591 0 -0.028863372473975323 0.00044584618067173637 0 -0.026767001673804865 2.4765232023699452e-05 0 -0.027989947649526857 0.00013545179996746472 0 -0.028863372473975323 0.00044584618067173637 0 -0.026767001673804865 2.4765232023699452e-05 0 -0.027410460472554639 0.00053265825278825732 0 -0.027989947649526857 0.00013545179996746472 0 -0.026767001673804865 2.4765232023699452e-05 0 -0.027032873596381925 -3.4825641664003644e-08 0 -0.026767001673804865 2.4765232023699452e-05 0 -0.0244194686768642 9.4346516382517526e-07 0 -0.026767001673804865 2.4765232023699452e-05 0 -0.0244194686768642 9.4346516382517526e-07 0 -0.025359299906742273 0.00020840300752123479 0 -0.0244194686768642 9.4346516382517526e-07 0 -0.025359299906742273 0.00020840300752123479 0 -0.023303771177168617 0.0003957598643556865 0 -0.027410460472554639 0.00053265825278825732 0 -0.025359299906742273 0.00020840300752123479 0 -0.023303771177168617 0.0003957598643556865 0 -0.027410460472554639 0.00053265825278825732 0 -0.026767001673804865 2.4765232023699452e-05 0 -0.025359299906742273 0.00020840300752123479 0 -0.024373295164105708 0.00055250573998341516 0 -0.023544812836318704 0.00042503795206429282 0 -0.021364239787686541 0.00078946023393736879 0 -0.021568606246572249 0.00010811021618071163 0 -0.023303771177168617 0.0003957598643556865 0 -0.0244194686768642 9.4346516382517526e-07 0 -0.023303771177168617 0.0003957598643556865 0 -0.021804775804118971 -2.2137237709866425e-07 0 -0.023303771177168617 0.0003957598643556865 0 -0.021804775804118971 -2.2137237709866425e-07 0 -0.021903361641242482 -9.5159513585632195e-05 0 -0.021804775804118971 -2.2137237709866425e-07 0 -0.021903361641242482 -9.5159513585632195e-05 0 -0.021054982052173318 -0.00017514528557511204 0 -0.021568606246572249 0.00010811021618071163 0 -0.023303771177168617 0.0003957598643556865 0 -0.021903361641242482 -9.5159513585632195e-05 0 -0.021568606246572249 0.00010811021618071163 0 -0.021903361641242482 -9.5159513585632195e-05 0 -0.021327911308782987 -0.00011699560383588472 0 -0.021903361641242482 -9.5159513585632195e-05 0 -0.021327911308782987 -0.00011699560383588472 0 -0.021054982052173318 -0.00017514528557511204 0 -0.021327911308782987 -0.00011699560383588472 0 -0.021079783051906869 1.8790955713128538e-05 0 -0.021069049208134627 1.0186123353973197e-05 0 -0.021327911308782987 -0.00011699560383588472 0 -0.021054982052173318 -0.00017514528557511204 0 -0.021069049208134627 1.0186123353973197e-05 0 -0.021054982052173318 -0.00017514528557511204 0 -0.019196322742384999 6.1190389472940195e-07 0 -0.021069049208134627 1.0186123353973197e-05 0 -0.021804775804118971 -2.2137237709866425e-07 0 -0.021054982052173318 -0.00017514528557511204 0 -0.019196322742384999 6.1190389472940195e-07 0 -0.021066820400132961 0.00039820968314614226 0 -0.020922940355450146 0.00012099516767170661 0 -0.021143691123614101 4.1183174793166996e-05 0 -0.020922940355450146 0.00012099516767170661 0 -0.020956193545705291 1.2988398319057857e-05 0 -0.020873847677979739 -6.8209618136819315e-05 0 -0.020922940355450146 0.00012099516767170661 0 -0.021143691123614101 4.1183174793166996e-05 0 -0.020956193545705291 1.2988398319057857e-05 0 -0.021568606246572249 0.00010811021618071163 0 -0.021327911308782987 -0.00011699560383588472 0 -0.021143691123614101 4.1183174793166996e-05 0 -0.021143691123614101 4.1183174793166996e-05 0 -0.021079783051906869 1.8790955713128538e-05 0 -0.020956193545705291 1.2988398319057857e-05 0 -0.021327911308782987 -0.00011699560383588472 0 -0.021143691123614101 4.1183174793166996e-05 0 -0.021079783051906869 1.8790955713128538e-05 0 -0.020743298871387667 0.00019107482055169531 0 -0.020603333490416428 0.00069720381744788128 0 -0.020873847677979739 -6.8209618136819315e-05 0 -0.021079783051906869 1.8790955713128538e-05 0 -0.020956193545705291 1.2988398319057857e-05 0 -0.020743298871387667 0.00019107482055169531 0 -0.021079783051906869 1.8790955713128538e-05 0 -0.020743298871387667 0.00019107482055169531 0 -0.021002362179134731 0.00015603386029434501 0 -0.020956193545705291 1.2988398319057857e-05 0 -0.020743298871387667 0.00019107482055169531 0 -0.020873847677979739 -6.8209618136819315e-05 0 -0.020682213074672436 0.00030162323113069048 0 -0.020580320208044643 0.00077718753380557433 0 -0.020743298871387667 0.00019107482055169531 0 -0.021002362179134731 0.00015603386029434501 0 -0.0210703120891234 0.0002428009210541437 0 -0.020743298871387667 0.00019107482055169531 0 -0.019954562157368041 0.0012868032754909679 0 -0.020603333490416428 0.00069720381744788128 0 -0.021079783051906869 1.8790955713128538e-05 0 -0.021041412525100011 0.00014026055244561008 0 -0.021069049208134627 1.0186123353973197e-05 0 -0.021002362179134731 0.00015603386029434501 0 -0.021018461786573999 0.00026738299163364096 0 -0.0210703120891234 0.0002428009210541437 0 -0.021002362179134731 0.00015603386029434501 0 -0.021041412525100011 0.00014026055244561008 0 -0.021018461786573999 0.00026738299163364096 0 -0.021079783051906869 1.8790955713128538e-05 0 -0.021002362179134731 0.00015603386029434501 0 -0.021041412525100011 0.00014026055244561008 0 -0.021041412525100011 0.00014026055244561008 0 -0.021018461786573999 0.00026738299163364096 0 -0.020970244350844446 0.00030671204614476412 0 -0.020968783169434142 0.00040744997508124355 0 -0.021018461786573999 0.00026738299163364096 0 -0.020970244350844446 0.00030671204614476412 0 -0.020968783169434142 0.00040744997508124355 0 -0.021032166780937788 0.00034085081542252845 0 -0.021018461786573999 0.00026738299163364096 0 -0.021032166780937788 0.00034085081542252845 0 -0.021018461786573999 0.00026738299163364096 0 -0.0210703120891234 0.0002428009210541437 0 -0.019954562157368041 0.0012868032754909679 0 -0.019898932793509676 0.0014027523365852078 0 -0.020603333490416428 0.00069720381744788128 0 -0.021032166780937788 0.00034085081542252845 0 -0.0210703120891234 0.0002428009210541437 0 -0.021066842377810622 0.00044875557030883679 0 -0.020580320208044643 0.00077718753380557433 0 -0.01992375486785913 0.00046619753065732652 0 -0.019954562157368041 0.0012868032754909679 0 -0.019898932793509676 0.0014027523365852078 0 -0.019808896756972741 0.0010715938460557687 0 -0.019191807314715717 -2.7237266360374422e-08 0 -0.019237200975315009 0.00015711684836905513 0 -0.019196322742384999 6.1190389472940195e-07 0 -0.021069049208134627 1.0186123353973197e-05 0 -0.020606392637363781 0.00058446681691280309 0 -0.021069049208134627 1.0186123353973197e-05 0 -0.020970244350844446 0.00030671204614476412 0 -0.020606392637363781 0.00058446681691280309 0 -0.021041412525100011 0.00014026055244561008 0 -0.021069049208134627 1.0186123353973197e-05 0 -0.020970244350844446 0.00030671204614476412 0 -0.018366239326470375 0.00021699843165933118 0 -0.017896210360959595 -0.00014556837201784548 0 -0.018105956454812541 0.00049054115623429649 0 -0.019650912470143646 0.00032956713295225691 0 -0.019237200975315009 0.00015711684836905513 0 -0.020968783169434142 0.00040744997508124355 0 -0.020970244350844446 0.00030671204614476412 0 -0.020606392637363781 0.00058446681691280309 0 -0.017896210360959595 -0.00014556837201784548 0 -0.017245782195579103 -7.1782685118671325e-08 0 -0.018105956454812541 0.00049054115623429649 0 -0.019187346475429311 6.9087549180201596e-08 0 -0.017896210360959595 -0.00014556837201784548 0 -0.017245782195579103 -7.1782685118671325e-08 0 -0.01724100428472208 1.1728698757901035e-07 0 -0.016521762348852883 0.0002429451114773822 0 -0.017237806036895904 1.5181981757421215e-06 0 -0.015392696308106893 -1.5511190120696473e-06 0 -0.01520680348526318 5.8475734008937051e-05 0 -0.015392696308106893 -1.5511190120696473e-06 0 -0.013548936291158019 1.5926464171770775e-06 0 -0.014893676511060593 -7.5311673549499864e-05 0 -0.015392696308106893 -1.5511190120696473e-06 0 -0.01520680348526318 5.8475734008937051e-05 0 -0.014893676511060593 -7.5311673549499864e-05 0 -0.01520680348526318 5.8475734008937051e-05 0 -0.014995469397112014 -4.3087361206199217e-05 0 -0.014893676511060593 -7.5311673549499864e-05 0 -0.016521762348852883 0.0002429451114773822 0 -0.01760917597068867 0.00011705889341728434 0 -0.018366239326470375 0.00021699843165933118 0 -0.018105956454812541 0.00049054115623429649 0 -0.018821351098153215 0.0005496728997407478 0 -0.020968783169434142 0.00040744997508124355 0 -0.021032166780937788 0.00034085081542252845 0 -0.021066842377810622 0.00044875557030883679 0 -0.019650912470143646 0.00032956713295225691 0 -0.01992375486785913 0.00046619753065732652 0 -0.018105956454812541 0.00049054115623429649 0 -0.018821351098153215 0.0005496728997407478 0 -0.018777115534545245 0.00080869983025562561 0 -0.019954562157368041 0.0012868032754909679 0 -0.019808896756972741 0.0010715938460557687 0 -0.020040437618909831 0.00081545308187366925 0 -0.019808896756972741 0.0010715938460557687 0 -0.019328118473383962 0.00064523964161141356 0 -0.019267011551481885 0.0011039205466939356 0 -0.019898932793509676 0.0014027523365852078 0 -0.019808896756972741 0.0010715938460557687 0 -0.019267011551481885 0.0011039205466939356 0 -0.020193283099640299 0.0007826372391616656 0 -0.019898741776076971 0.00056807516569464282 0 -0.020302501807868727 -1.743783703589562e-06 0 -0.01992375486785913 0.00046619753065732652 0 -0.01760917597068867 0.00011705889341728434 0 -0.01992375486785913 0.00046619753065732652 0 -0.019958609762568694 0.00051699004349197515 0 -0.020040437618909831 0.00081545308187366925 0 -0.019898741776076971 0.00056807516569464282 0 -0.019724810812334147 0.00073451132569388189 0 -0.019808896756972741 0.0010715938460557687 0 -0.020040437618909831 0.00081545308187366925 0 -0.019724810812334147 0.00073451132569388189 0 -0.019898741776076971 0.00056807516569464282 0 -0.019724810812334147 0.00073451132569388189 0 -0.019592164383083473 0.00033863775242130438 0 -0.019724810812334147 0.00073451132569388189 0 -0.019328118473383962 0.00064523964161141356 0 -0.019592164383083473 0.00033863775242130438 0 -0.019808896756972741 0.0010715938460557687 0 -0.019724810812334147 0.00073451132569388189 0 -0.019328118473383962 0.00064523964161141356 0 -0.01760917597068867 0.00011705889341728434 0 -0.016844476080527335 -0.00080674406534919749 0 -0.020302501807868727 -1.743783703589562e-06 0 -0.018210837889858434 -0.00078880325846240906 0 -0.019024243774155215 -9.3198239700162535e-05 0 -0.019592164383083473 0.00033863775242130438 0 -0.020302501807868727 -1.743783703589562e-06 0 -0.019024243774155215 -9.3198239700162535e-05 0 -0.016113986807544792 -0.00065020451627970251 0 -0.016065645629210062 -0.0003764476314400338 0 -0.016605512478312469 -0.00041453068043769521 0 -0.019328118473383962 0.00064523964161141356 0 -0.019592164383083473 0.00033863775242130438 0 -0.019024243774155215 -9.3198239700162535e-05 0 -0.019898741776076971 0.00056807516569464282 0 -0.019592164383083473 0.00033863775242130438 0 -0.020302501807868727 -1.743783703589562e-06 0 -0.01760917597068867 0.00011705889341728434 0 -0.014211012836384993 -0.00055897194892514865 0 -0.01520680348526318 5.8475734008937051e-05 0 -0.014924629647622679 -7.0127408939273221e-06 0 -0.014995469397112014 -4.3087361206199217e-05 0 -0.014924629647622679 -7.0127408939273221e-06 0 -0.014995469397112014 -4.3087361206199217e-05 0 -0.014973594530111328 -5.1777486318361194e-05 0 -0.014211012836384993 -0.00055897194892514865 0 -0.013555192588081006 -0.00018001263565134868 0 -0.012929395426701117 -0.00074664744370632626 0 -0.012913764929288299 -0.00056412224904877923 0 -0.012237851735025678 -0.00031403393598229532 0 -0.012913764929288299 -0.00056412224904877923 0 -0.012444822818903059 -0.00031700566982374441 0 -0.012237851735025678 -0.00031403393598229532 0 -0.014995469397112014 -4.3087361206199217e-05 0 -0.014973594530111328 -5.1777486318361194e-05 0 -0.014893676511060593 -7.5311673549499864e-05 0 -0.014211012836384993 -0.00055897194892514865 0 -0.01333264514693149 -0.00067979027333618387 0 -0.014211012836384993 -0.00055897194892514865 0 -0.016844476080527335 -0.00080674406534919749 0 -0.013037334581545134 -0.0014382658855585252 0 -0.013851203596937003 -0.00089893316745989229 0 -0.015049010339443251 -0.0015830457223287631 0 -0.013037334581545134 -0.0014382658855585252 0 -0.012913764929288299 -0.00056412224904877923 0 -0.013851203596937003 -0.00089893316745989229 0 -0.012913764929288299 -0.00056412224904877923 0 -0.013851203596937003 -0.00089893316745989229 0 -0.013598974167525349 -0.000281689769846134 0 -0.013598974167525349 -0.000281689769846134 0 -0.013068217586823099 2.9805553261976977e-06 0 -0.014097291090835126 0.00024357031496885541 0 -0.013851203596937003 -0.00089893316745989229 0 -0.013598974167525349 -0.000281689769846134 0 -0.014471982863136971 -0.00028637430014817692 0 -0.012913764929288299 -0.00056412224904877923 0 -0.013598974167525349 -0.000281689769846134 0 -0.013068217586823099 2.9805553261976977e-06 0 -0.013598974167525349 -0.000281689769846134 0 -0.014471982863136971 -0.00028637430014817692 0 -0.014097291090835126 0.00024357031496885541 0 -0.012913764929288299 -0.00056412224904877923 0 -0.012444822818903059 -0.00031700566982374441 0 -0.013068217586823099 2.9805553261976977e-06 0 -0.012444822818903059 -0.00031700566982374441 0 -0.013068217586823099 2.9805553261976977e-06 0 -0.01234676935679198 3.1857449683111159e-05 0 -0.012444822818903059 -0.00031700566982374441 0 -0.012072585432989126 -0.00035608253324508586 0 -0.01234676935679198 3.1857449683111159e-05 0 -0.012072585432989126 -0.00035608253324508586 0 -0.011610659349238947 -3.3862932033216687e-05 0 -0.01234676935679198 3.1857449683111159e-05 0 -0.012072585432989126 -0.00035608253324508586 0 -0.011365513393835942 -1.6338237327023716e-06 0 -0.013541254206412374 4.6239270536878551e-07 0 -0.012072585432989126 -0.00035608253324508586 0 -0.011365513393835942 -1.6338237327023716e-06 0 -0.011610659349238947 -3.3862932033216687e-05 0 -0.013545018960954351 -9.3343110476609471e-08 0 -0.013555192588081006 -0.00018001263565134868 0 -0.012072585432989126 -0.00035608253324508586 0 -0.013541254206412374 4.6239270536878551e-07 0 -0.012237851735025678 -0.00031403393598229532 0 -0.012444822818903059 -0.00031700566982374441 0 -0.012072585432989126 -0.00035608253324508586 0 -0.012237851735025678 -0.00031403393598229532 0 -0.016876324245355998 -0.00015306928636955563 0 -0.01683682010875524 -0.00046295688731550031 0 -0.016772142110147523 -0.00022587551987661547 0 -0.016895584060909241 -0.00014019608081747924 0 -0.01702011849749464 1.6666401179758167e-06 0 -0.016876324245355998 -0.00015306928636955563 0 -0.016556798887922948 9.04578671547379e-05 0 -0.016581913382155453 -0.00060041937302530198 0 -0.016876324245355998 -0.00015306928636955563 0 -0.016581913382155453 -0.00060041937302530198 0 -0.01683682010875524 -0.00046295688731550031 0 -0.016876324245355998 -0.00015306928636955563 0 -0.016951886314755853 0.00020367986246797514 0 -0.017065340405984737 0.00028822963611347232 0 -0.016876324245355998 -0.00015306928636955563 0 -0.017064093742945183 0.00015316630035336039 0 -0.017065340405984737 0.00028822963611347232 0 -0.016951886314755853 0.00020367986246797514 0 -0.017065340405984737 0.00028822963611347232 0 -0.016962918174919652 0.00046835014927051254 0 -0.016951886314755853 0.00020367986246797514 0 -0.016962918174919652 0.00046835014927051254 0 -0.016810470171508687 0.00037288991630178396 0 -0.016876324245355998 -0.00015306928636955563 0 -0.016951886314755853 0.00020367986246797514 0 -0.016556798887922948 9.04578671547379e-05 0 -0.016951886314755853 0.00020367986246797514 0 -0.016556798887922948 9.04578671547379e-05 0 -0.016810470171508687 0.00037288991630178396 0 -0.016556798887922948 9.04578671547379e-05 0 -0.0154807784333759 -0.00040867173980453674 0 -0.015415386958492481 0.00047875628443395653 0 -0.016556798887922948 9.04578671547379e-05 0 -0.0154807784333759 -0.00040867173980453674 0 -0.016581913382155453 -0.00060041937302530198 0 -0.0154807784333759 -0.00040867173980453674 0 -0.014471982863136971 -0.00028637430014817692 0 -0.015415386958492481 0.00047875628443395653 0 -0.014471982863136971 -0.00028637430014817692 0 -0.014097291090835126 0.00024357031496885541 0 -0.015415386958492481 0.00047875628443395653 0 -0.0154807784333759 -0.00040867173980453674 0 -0.014471982863136971 -0.00028637430014817692 0 -0.014698417210489733 -0.00078859549375890009 0 -0.013851203596937003 -0.00089893316745989229 0 -0.014698417210489733 -0.00078859549375890009 0 -0.015049010339443251 -0.0015830457223287631 0 -0.013851203596937003 -0.00089893316745989229 0 -0.014471982863136971 -0.00028637430014817692 0 -0.014698417210489733 -0.00078859549375890009 0 -0.0154807784333759 -0.00040867173980453674 0 -0.014698417210489733 -0.00078859549375890009 0 -0.015049010339443251 -0.0015830457223287631 0 -0.016844476080527335 -0.00080674406534919749 0 -0.017526426781613424 -0.00080379162284931367 0 -0.0154807784333759 -0.00040867173980453674 0 -0.015049010339443251 -0.0015830457223287631 0 -0.016581913382155453 -0.00060041937302530198 0 -0.016844476080527335 -0.00080674406534919749 0 -0.016542053138459294 -0.00080772726481042462 0 -0.018070430572953308 -0.00083742170375674361 0 -0.016581913382155453 -0.00060041937302530198 0 -0.017635499965018949 -0.00065794737157661798 0 -0.016581913382155453 -0.00060041937302530198 0 -0.017635499965018949 -0.00065794737157661798 0 -0.01683682010875524 -0.00046295688731550031 0 -0.017323022252160116 -0.00019608447118988305 0 -0.017477226327031758 0.0011031360028659098 0 -0.016772142110147523 -0.00022587551987661547 0 -0.01683682010875524 -0.00046295688731550031 0 -0.017323022252160116 -0.00019608447118988305 0 -0.016772142110147523 -0.00022587551987661547 0 -0.017635499965018949 -0.00065794737157661798 0 -0.01683682010875524 -0.00046295688731550031 0 -0.017323022252160116 -0.00019608447118988305 0 -0.017635499965018949 -0.00065794737157661798 0 -0.017323022252160116 -0.00019608447118988305 0 -0.018056396691032643 1.5831924624951709e-05 0 -0.018210837889858434 -0.00078880325846240906 0 -0.018056396691032643 1.5831924624951709e-05 0 -0.019024243774155215 -9.3198239700162535e-05 0 -0.018210837889858434 -0.00078880325846240906 0 -0.017635499965018949 -0.00065794737157661798 0 -0.018056396691032643 1.5831924624951709e-05 0 -0.018056396691032643 1.5831924624951709e-05 0 -0.019024243774155215 -9.3198239700162535e-05 0 -0.018687276008136289 0.00070702359161062441 0 -0.018687276008136289 0.00070702359161062441 0 -0.017477226327031758 0.0011031360028659098 0 -0.018595634861464344 0.0015870314304477888 0 -0.018056396691032643 1.5831924624951709e-05 0 -0.018687276008136289 0.00070702359161062441 0 -0.017477226327031758 0.0011031360028659098 0 -0.019328118473383962 0.00064523964161141356 0 -0.019024243774155215 -9.3198239700162535e-05 0 -0.018687276008136289 0.00070702359161062441 0 -0.019328118473383962 0.00064523964161141356 0 -0.018687276008136289 0.00070702359161062441 0 -0.019267011551481885 0.0011039205466939356 0 -0.018687276008136289 0.00070702359161062441 0 -0.019267011551481885 0.0011039205466939356 0 -0.018595634861464344 0.0015870314304477888 0 -0.017323022252160116 -0.00019608447118988305 0 -0.018056396691032643 1.5831924624951709e-05 0 -0.017477226327031758 0.0011031360028659098 0 -0.017227536953711712 0.00070339007171705192 0 -0.01702011849749464 1.6666401179758167e-06 0 -0.017248875973118069 0.00020957077446153471 0 -0.017231502048132983 0.00018629409490055569 0 -0.017243598488635856 0.00022539498693098753 0 -0.017231502048132983 0.00018629409490055569 0 -0.017064093742945183 0.00015316630035336039 0 -0.017243598488635856 0.00022539498693098753 0 -0.016876324245355998 -0.00015306928636955563 0 -0.017231502048132983 0.00018629409490055569 0 -0.017064093742945183 0.00015316630035336039 0 -0.017064093742945183 0.00015316630035336039 0 -0.017213248037782628 0.00026671447541202196 0 -0.017065340405984737 0.00028822963611347232 0 -0.017064093742945183 0.00015316630035336039 0 -0.017243598488635856 0.00022539498693098753 0 -0.017213248037782628 0.00026671447541202196 0 -0.017243598488635856 0.00022539498693098753 0 -0.017399564750223258 0.00016561535103814466 0 -0.017385284670804805 0.00022497296933782186 0 -0.017243598488635856 0.00022539498693098753 0 -0.017213248037782628 0.00026671447541202196 0 -0.017385284670804805 0.00022497296933782186 0 -0.017243598488635856 0.00022539498693098753 0 -0.017399564750223258 0.00016561535103814466 0 -0.017313399183407567 0.00015018459094505654 0 -0.017248875973118069 0.00020957077446153471 0 -0.017243598488635856 0.00022539498693098753 0 -0.017313399183407567 0.00015018459094505654 0 -0.017313399183407567 0.00015018459094505654 0 -0.017516426095030013 4.4006981139649653e-05 0 -0.0173223300414268 -1.0135729734747242e-05 0 -0.017399564750223258 0.00016561535103814466 0 -0.017313399183407567 0.00015018459094505654 0 -0.017516426095030013 4.4006981139649653e-05 0 -0.019864547603067755 0.0016666440978755069 0 -0.019416702997898262 0.00069102364349904856 0 -0.019898932793509676 0.0014027523365852078 0 -0.021115239894792994 0.00084439377817994955 0 -0.020603333490416428 0.00069720381744788128 0 -0.019898932793509676 0.0014027523365852078 0 -0.018595634861464344 0.0015870314304477888 0 -0.01827366465887599 0.0027448533571180016 0 -0.019898932793509676 0.0014027523365852078 0 -0.019267011551481885 0.0011039205466939356 0 -0.018595634861464344 0.0015870314304477888 0 -0.017477226327031758 0.0011031360028659098 0 -0.018595634861464344 0.0015870314304477888 0 -0.01827366465887599 0.0027448533571180016 0 -0.017227536953711712 0.00070339007171705192 0 -0.019416702997898262 0.00069102364349904856 0 -0.017248875973118069 0.00020957077446153471 0 -0.017313399183407567 0.00015018459094505654 0 -0.017203089362344534 0.00011806416957350088 0 -0.020680640949697463 -0.00046089507851758432 0 -0.020640182447659052 -0.00021850281022828109 0 -0.02042011825796914 -0.00027195930177270541 0 -0.017313399183407567 0.00015018459094505654 0 -0.017203089362344534 0.00011806416957350088 0 -0.0173223300414268 -1.0135729734747242e-05 0 -0.019416702997898262 0.00069102364349904856 0 -0.01882754661262686 -0.00025366317517089065 0 -0.021115239894792994 0.00084439377817994955 0 -0.020603333490416428 0.00069720381744788128 0 -0.020873847677979739 -6.8209618136819315e-05 0 -0.019416702997898262 0.00069102364349904856 0 -0.021302186729007508 -0.00018094873021176438 0 -0.020680640949697463 -0.00046089507851758432 0 -0.020873847677979739 -6.8209618136819315e-05 0 -0.020640182447659052 -0.00021850281022828109 0 -0.020873847677979739 -6.8209618136819315e-05 0 -0.020640182447659052 -0.00021850281022828109 0 -0.020601184666318901 -7.664655821600006e-05 0 -0.020601184666318901 -7.664655821600006e-05 0 -0.02042011825796914 -0.00027195930177270541 0 -0.020463405400403079 -3.148397444872141e-05 0 -0.020640182447659052 -0.00021850281022828109 0 -0.020601184666318901 -7.664655821600006e-05 0 -0.02042011825796914 -0.00027195930177270541 0 -0.020564542988129056 0.00013596184935358785 0 -0.020601184666318901 -7.664655821600006e-05 0 -0.02074258123881002 0.00012379959311165049 0 -0.020564542988129056 0.00013596184935358785 0 -0.020601184666318901 -7.664655821600006e-05 0 -0.020463405400403079 -3.148397444872141e-05 0 -0.020873847677979739 -6.8209618136819315e-05 0 -0.020601184666318901 -7.664655821600006e-05 0 -0.02074258123881002 0.00012379959311165049 0 -0.020922940355450146 0.00012099516767170661 0 -0.020873847677979739 -6.8209618136819315e-05 0 -0.02074258123881002 0.00012379959311165049 0 -0.017516426095030013 4.4006981139649653e-05 0 -0.017628930015837697 -0.00018094324725480626 0 -0.017812549578792761 9.0718875400460865e-07 0 -0.017516426095030013 4.4006981139649653e-05 0 -0.0173223300414268 -1.0135729734747242e-05 0 -0.017628930015837697 -0.00018094324725480626 0 -0.01882754661262686 -0.00025366317517089065 0 -0.018894041800314263 -0.00016944626789642885 0 -0.02042011825796914 -0.00027195930177270541 0 -0.020463405400403079 -3.148397444872141e-05 0 -0.020172650022819975 -0.00020183146088815994 0 -0.020329661913745935 2.4186027396065978e-05 0 -0.020463405400403079 -3.148397444872141e-05 0 -0.020172650022819975 -0.00020183146088815994 0 -0.018949944103988224 -0.00021113200807538159 0 -0.018894041800314263 -0.00016944626789642885 0 -0.018161090869273856 -0.00027299289956363279 0 -0.017628930015837697 -0.00018094324725480626 0 -0.018087662522427828 -0.00012119753463507762 0 -0.017628930015837697 -0.00018094324725480626 0 -0.017812549578792761 9.0718875400460865e-07 0 -0.018087662522427828 -0.00012119753463507762 0 -0.017812549578792761 9.0718875400460865e-07 0 -0.018087662522427828 -0.00012119753463507762 0 -0.01817218275322794 -4.8998787151765943e-05 0 -0.018161090869273856 -0.00027299289956363279 0 -0.018087662522427828 -0.00012119753463507762 0 -0.018496859246416714 -0.00015288745892814756 0 -0.018496859246416714 -0.00015288745892814756 0 -0.018538560968025124 -0.00014214486540713888 0 -0.018375182892200047 -0.00010164605901453238 0 -0.018688844219660026 -0.00010098760251735833 0 -0.018496859246416714 -0.00015288745892814756 0 -0.018538560968025124 -0.00014214486540713888 0 -0.018538560968025124 -0.00014214486540713888 0 -0.018375182892200047 -0.00010164605901453238 0 -0.018467889542017227 -0.00012862444483242072 0 -0.018375182892200047 -0.00010164605901453238 0 -0.01817218275322794 -4.8998787151765943e-05 0 -0.01816558516378515 3.2282265691396225e-05 0 -0.018496859246416714 -0.00015288745892814756 0 -0.018375182892200047 -0.00010164605901453238 0 -0.01817218275322794 -4.8998787151765943e-05 0 -0.018087662522427828 -0.00012119753463507762 0 -0.018496859246416714 -0.00015288745892814756 0 -0.01817218275322794 -4.8998787151765943e-05 0 -0.01817218275322794 -4.8998787151765943e-05 0 -0.017951488150908784 6.8979530975318243e-05 0 -0.01816558516378515 3.2282265691396225e-05 0 -0.018375182892200047 -0.00010164605901453238 0 -0.01816558516378515 3.2282265691396225e-05 0 -0.018348492555792257 1.6123512923454908e-05 0 -0.01816558516378515 3.2282265691396225e-05 0 -0.018215404020242538 0.00013061862907100735 0 -0.018348492555792257 1.6123512923454908e-05 0 -0.018215404020242538 0.00013061862907100735 0 -0.017924605496126896 0.00017845499836455881 0 -0.018207207825406021 0.00031721039087453788 0 -0.01816558516378515 3.2282265691396225e-05 0 -0.018215404020242538 0.00013061862907100735 0 -0.017924605496126896 0.00017845499836455881 0 -0.017951488150908784 6.8979530975318243e-05 0 -0.017924605496126896 0.00017845499836455881 0 -0.017647209004391071 0.00014817494872843164 0 -0.017951488150908784 6.8979530975318243e-05 0 -0.01816558516378515 3.2282265691396225e-05 0 -0.017924605496126896 0.00017845499836455881 0 -0.017399564750223258 0.00016561535103814466 0 -0.017516426095030013 4.4006981139649653e-05 0 -0.017647209004391071 0.00014817494872843164 0 -0.017399564750223258 0.00016561535103814466 0 -0.017647209004391071 0.00014817494872843164 0 -0.017385284670804805 0.00022497296933782186 0 -0.017516426095030013 4.4006981139649653e-05 0 -0.017812549578792761 9.0718875400460865e-07 0 -0.017647209004391071 0.00014817494872843164 0 -0.017812549578792761 9.0718875400460865e-07 0 -0.017951488150908784 6.8979530975318243e-05 0 -0.017647209004391071 0.00014817494872843164 0 -0.017812549578792761 9.0718875400460865e-07 0 -0.01817218275322794 -4.8998787151765943e-05 0 -0.017951488150908784 6.8979530975318243e-05 0 -0.018926308551978924 -0.0001250576178173929 0 -0.018743760842379682 -0.00015498824035326697 0 -0.018827406697756625 -4.939583530131121e-05 0 -0.022841386193370901 -0.00070948596058852034 0 -0.023823958688344825 -0.0010926944015001779 0 -0.018882451602919695 -0.00040676650662892444 0 -0.018725116025226817 -0.00032811949967759052 0 -0.018743760842379682 -0.00015498824035326697 0 -0.018926308551978924 -0.0001250576178173929 0 -0.018882451602919695 -0.00040676650662892444 0 -0.018743760842379682 -0.00015498824035326697 0 -0.026885496636582705 -0.0013744784857357519 0 -0.026870498764516474 -0.0011979436441348465 0 -0.026969092393536318 -0.001110663092476361 0 -0.026870498764516474 -0.0011979436441348465 0 -0.026928793738274236 -0.0011195809297997997 0 -0.026823655848078925 -0.0011243274207479717 0 -0.026928793738274236 -0.0011195809297997997 0 -0.02693994657262893 -0.0010980525287419163 0 -0.026823655848078925 -0.0011243274207479717 0 -0.026870498764516474 -0.0011979436441348465 0 -0.026928793738274236 -0.0011195809297997997 0 -0.026969092393536318 -0.001110663092476361 0 -0.026928793738274236 -0.0011195809297997997 0 -0.026938911814236521 -0.0010935921765812498 0 -0.026969092393536318 -0.001110663092476361 0 -0.026712792468476031 -0.0014288592240608426 0 -0.026674289900075122 -0.0015045556715597434 0 -0.023823958688344825 -0.0010926944015001779 0 -0.020397199634254969 8.5545924954886997e-05 0 -0.026674289900075122 -0.0015045556715597434 0 -0.023823958688344825 -0.0010926944015001779 0 -0.020397199634254969 8.5545924954886997e-05 0 -0.019038988031136142 -0.00041212953635336592 0 -0.018648536899142889 -0.00018628460370120957 0 -0.018637170138065953 -0.00017804204232776621 0 -0.01865209642899707 -0.00015673633301353291 0 -0.018648536899142889 -0.00018628460370120957 0 -0.01865209642899707 -0.00015673633301353291 0 -0.018743760842379682 -0.00015498824035326697 0 -0.020397199634254969 8.5545924954886997e-05 0 -0.020129501874715058 0.00016460933381779702 0 -0.021638777307511327 -0.00052205829436214484 0 -0.020397199634254969 8.5545924954886997e-05 0 -0.018633113780687473 -0.00033186409653754902 0 -0.018656793529230258 -0.00017341045652514026 0 -0.018596567965266365 -0.00019713962487257752 0 -0.02328006869807173 -0.0010634497786780025 0 -0.024274343198719298 -0.00051348423575073884 0 -0.02352167491058085 -0.00011398985329102148 0 -0.018656793529230258 -0.00017341045652514026 0 -0.018637170138065953 -0.00017804204232776621 0 -0.018596567965266365 -0.00019713962487257752 0 -0.018633113780687473 -0.00033186409653754902 0 -0.018596567965266365 -0.00019713962487257752 0 -0.018518043893641988 -0.00018695214278504846 0 -0.018596567965266365 -0.00019713962487257752 0 -0.018518043893641988 -0.00018695214278504846 0 -0.018574558569453337 -0.00016904444083368857 0 -0.018518043893641988 -0.00018695214278504846 0 -0.018574558569453337 -0.00016904444083368857 0 -0.018527669724954537 -0.00016406305420314956 0 -0.018574558569453337 -0.00016904444083368857 0 -0.018572389816953441 -0.00015478708869298596 0 -0.01865209642899707 -0.00015673633301353291 0 -0.018637170138065953 -0.00017804204232776621 0 -0.018596567965266365 -0.00019713962487257752 0 -0.018574558569453337 -0.00016904444083368857 0 -0.018637170138065953 -0.00017804204232776621 0 -0.018574558569453337 -0.00016904444083368857 0 -0.01865209642899707 -0.00015673633301353291 0 -0.01865209642899707 -0.00015673633301353291 0 -0.018685469544965069 -7.8304571761797035e-05 0 -0.018550791449240659 -0.00011217922375957669 0 -0.018572389816953441 -0.00015478708869298596 0 -0.01865209642899707 -0.00015673633301353291 0 -0.018550791449240659 -0.00011217922375957669 0 -0.01865209642899707 -0.00015673633301353291 0 -0.018743760842379682 -0.00015498824035326697 0 -0.018685469544965069 -7.8304571761797035e-05 0 -0.018743760842379682 -0.00015498824035326697 0 -0.018685469544965069 -7.8304571761797035e-05 0 -0.018827406697756625 -4.939583530131121e-05 0 -0.018685469544965069 -7.8304571761797035e-05 0 -0.018550791449240659 -0.00011217922375957669 0 -0.018624723567606381 -3.3322571319361885e-06 0 -0.018550791449240659 -0.00011217922375957669 0 -0.01849956071681744 -0.00014999267012621377 0 -0.018453784826350909 -8.8700984680060134e-05 0 -0.018550791449240659 -0.00011217922375957669 0 -0.018453784826350909 -8.8700984680060134e-05 0 -0.018505568030972589 4.3091939871357071e-07 0 -0.018572389816953441 -0.00015478708869298596 0 -0.018550791449240659 -0.00011217922375957669 0 -0.018527669724954537 -0.00016406305420314956 0 -0.018574558569453337 -0.00016904444083368857 0 -0.018572389816953441 -0.00015478708869298596 0 -0.018527669724954537 -0.00016406305420314956 0 -0.018518043893641988 -0.00018695214278504846 0 -0.018527669724954537 -0.00016406305420314956 0 -0.018513756959053846 -0.00013285272509366651 0 -0.018527669724954537 -0.00016406305420314956 0 -0.018513756959053846 -0.00013285272509366651 0 -0.01849956071681744 -0.00014999267012621377 0 -0.018550791449240659 -0.00011217922375957669 0 -0.018527669724954537 -0.00016406305420314956 0 -0.01849956071681744 -0.00014999267012621377 0 -0.018538560968025124 -0.00014214486540713888 0 -0.018513756959053846 -0.00013285272509366651 0 -0.01849956071681744 -0.00014999267012621377 0 -0.018538560968025124 -0.00014214486540713888 0 -0.01849956071681744 -0.00014999267012621377 0 -0.018467889542017227 -0.00012862444483242072 0 -0.018375182892200047 -0.00010164605901453238 0 -0.018467889542017227 -0.00012862444483242072 0 -0.018453784826350909 -8.8700984680060134e-05 0 -0.018375182892200047 -0.00010164605901453238 0 -0.018453784826350909 -8.8700984680060134e-05 0 -0.018348492555792257 1.6123512923454908e-05 0 -0.01849956071681744 -0.00014999267012621377 0 -0.018467889542017227 -0.00012862444483242072 0 -0.018453784826350909 -8.8700984680060134e-05 0 -0.018348492555792257 1.6123512923454908e-05 0 -0.018422506529867082 0.00015948640530190911 0 -0.018505568030972589 4.3091939871357071e-07 0 -0.018453784826350909 -8.8700984680060134e-05 0 -0.018348492555792257 1.6123512923454908e-05 0 -0.018505568030972589 4.3091939871357071e-07 0 -0.018215404020242538 0.00013061862907100735 0 -0.018422506529867082 0.00015948640530190911 0 -0.018207207825406021 0.00031721039087453788 0 -0.018215404020242538 0.00013061862907100735 0 -0.018348492555792257 1.6123512923454908e-05 0 -0.018422506529867082 0.00015948640530190911 0 -0.018422506529867082 0.00015948640530190911 0 -0.018505568030972589 4.3091939871357071e-07 0 -0.018642670491626552 0.00012175747403807692 0 -0.018422506529867082 0.00015948640530190911 0 -0.018642670491626552 0.00012175747403807692 0 -0.018560553702319554 0.00026932495095687839 0 -0.018550791449240659 -0.00011217922375957669 0 -0.018505568030972589 4.3091939871357071e-07 0 -0.018624723567606381 -3.3322571319361885e-06 0 -0.018505568030972589 4.3091939871357071e-07 0 -0.018624723567606381 -3.3322571319361885e-06 0 -0.018642670491626552 0.00012175747403807692 0 -0.018685469544965069 -7.8304571761797035e-05 0 -0.018766669177007686 3.6305897613128667e-05 0 -0.018827406697756625 -4.939583530131121e-05 0 -0.018685469544965069 -7.8304571761797035e-05 0 -0.018624723567606381 -3.3322571319361885e-06 0 -0.018766669177007686 3.6305897613128667e-05 0 -0.018624723567606381 -3.3322571319361885e-06 0 -0.018766669177007686 3.6305897613128667e-05 0 -0.018642670491626552 0.00012175747403807692 0 -0.018766669177007686 3.6305897613128667e-05 0 -0.018642670491626552 0.00012175747403807692 0 -0.018862599588507802 0.0001847918617273848 0 -0.018642670491626552 0.00012175747403807692 0 -0.018862599588507802 0.0001847918617273848 0 -0.018727754174881477 0.00030176793967100576 0 -0.018642670491626552 0.00012175747403807692 0 -0.018727754174881477 0.00030176793967100576 0 -0.018560553702319554 0.00026932495095687839 0 -0.018766669177007686 3.6305897613128667e-05 0 -0.018862599588507802 0.0001847918617273848 0 -0.019007606915866899 6.5549697836050493e-05 0 -0.018766669177007686 3.6305897613128667e-05 0 -0.018827406697756625 -4.939583530131121e-05 0 -0.019007606915866899 6.5549697836050493e-05 0 -0.022841386193370901 -0.00070948596058852034 0 -0.022955883770962738 -0.00084885382370980219 0 -0.018926308551978924 -0.0001250576178173929 0 -0.018827406697756625 -4.939583530131121e-05 0 -0.019007606915866899 6.5549697836050493e-05 0 -0.018777389216078695 0.00050589599359821609 0 -0.018752262042144231 0.00071920296785202233 0 -0.019058395647998026 0.00071848082710756654 0 -0.01893207946492239 0.00037438698484638016 0 -0.019058395647998026 0.00071848082710756654 0 -0.019258689677436769 0.00021087070047130565 0 -0.01893207946492239 0.00037438698484638016 0 -0.018777389216078695 0.00050589599359821609 0 -0.019058395647998026 0.00071848082710756654 0 -0.018862599588507802 0.0001847918617273848 0 -0.01893207946492239 0.00037438698484638016 0 -0.019102998734778911 0.00028405981677204521 0 -0.018862599588507802 0.0001847918617273848 0 -0.01893207946492239 0.00037438698484638016 0 -0.018727754174881477 0.00030176793967100576 0 -0.01893207946492239 0.00037438698484638016 0 -0.018727754174881477 0.00030176793967100576 0 -0.018777389216078695 0.00050589599359821609 0 -0.018727754174881477 0.00030176793967100576 0 -0.018591837412363466 0.00048147691624432373 0 -0.018777389216078695 0.00050589599359821609 0 -0.018727754174881477 0.00030176793967100576 0 -0.018591837412363466 0.00048147691624432373 0 -0.018560553702319554 0.00026932495095687839 0 -0.018591837412363466 0.00048147691624432373 0 -0.018777389216078695 0.00050589599359821609 0 -0.018752262042144231 0.00071920296785202233 0 -0.01873445635792954 0.00066341648376608904 0 -0.018372552386706615 0.00025112054900863512 0 -0.018591837412363466 0.00048147691624432373 0 -0.018411217789153056 0.00070702976123321424 0 -0.018740876907377642 0.00067126846678072576 0 -0.018591837412363466 0.00048147691624432373 0 -0.018402829424332062 0.00039616800146684728 0 -0.018411217789153056 0.00070702976123321424 0 -0.018591837412363466 0.00048147691624432373 0 -0.018560553702319554 0.00026932495095687839 0 -0.018402829424332062 0.00039616800146684728 0 -0.018422506529867082 0.00015948640530190911 0 -0.018560553702319554 0.00026932495095687839 0 -0.018402829424332062 0.00039616800146684728 0 -0.018422506529867082 0.00015948640530190911 0 -0.018402829424332062 0.00039616800146684728 0 -0.018207207825406021 0.00031721039087453788 0 -0.018402829424332062 0.00039616800146684728 0 -0.018193579794265481 0.00053378307423082984 0 -0.018411217789153056 0.00070702976123321424 0 -0.018402829424332062 0.00039616800146684728 0 -0.018207207825406021 0.00031721039087453788 0 -0.018193579794265481 0.00053378307423082984 0 -0.016480155903903494 0.00071634684028178987 0 -0.016297190930027711 0.00087798913550608251 0 -0.016589586926995806 0.00087057402199698533 0 -0.01714684811227021 0.00085770953876650147 0 -0.017331356400967415 0.00078465415950088057 0 -0.018193579794265481 0.00053378307423082984 0 -0.018411217789153056 0.00070702976123321424 0 -0.017982912051313513 0.00075866818715356792 0 -0.016480155903903494 0.00071634684028178987 0 -0.016332782265844895 0.00068817083256226934 0 -0.016297190930027711 0.00087798913550608251 0 -0.016480155903903494 0.00071634684028178987 0 -0.016332782265844895 0.00068817083256226934 0 -0.01645455847335632 0.00058163615852422485 0 -0.016332782265844895 0.00068817083256226934 0 -0.016216334926087584 0.00071759443394112294 0 -0.016297190930027711 0.00087798913550608251 0 -0.016332782265844895 0.00068817083256226934 0 -0.016216334926087584 0.00071759443394112294 0 -0.016220473630960231 0.00062561793031149122 0 -0.016216334926087584 0.00071759443394112294 0 -0.016297190930027711 0.00087798913550608251 0 -0.016183965270078846 0.00080415709611606477 0 -0.01714684811227021 0.00085770953876650147 0 -0.018372552386706615 0.00025112054900863512 0 -0.016120594767862966 0.00087810933371750509 0 -0.016183965270078846 0.00080415709611606477 0 -0.016115004015018298 0.00073016747530525055 0 -0.016297190930027711 0.00087798913550608251 0 -0.016120594767862966 0.00087810933371750509 0 -0.016183965270078846 0.00080415709611606477 0 -0.016216334926087584 0.00071759443394112294 0 -0.016115004015018298 0.00073016747530525055 0 -0.01613017046081977 0.00062272790152497241 0 -0.016216334926087584 0.00071759443394112294 0 -0.016183965270078846 0.00080415709611606477 0 -0.016115004015018298 0.00073016747530525055 0 -0.016115004015018298 0.00073016747530525055 0 -0.015973943073347822 0.00071648156080648322 0 -0.016039242535143921 0.00063092140346009248 0 -0.016120594767862966 0.00087810933371750509 0 -0.016115004015018298 0.00073016747530525055 0 -0.015973943073347822 0.00071648156080648322 0 -0.020456391023552196 -0.00044623238966920339 0 -0.020534996839169192 -0.00042105838365156248 0 -0.020616192405064043 -0.0005776420156462953 0 -0.018372552386706615 0.00025112054900863512 0 -0.018161759696652489 0.00014054546415985425 0 -0.018372552386706615 0.00025112054900863512 0 -0.020012077300158072 5.8910239866819607e-05 0 -0.020456391023552196 -0.00044623238966920339 0 -0.0204783031431723 -0.00039786859975154233 0 -0.020534996839169192 -0.00042105838365156248 0 -0.020534996839169192 -0.00042105838365156248 0 -0.020616192405064043 -0.0005776420156462953 0 -0.020784520361583892 -0.00044974665180640654 0 -0.017213178273728792 0.00041788208477093778 0 -0.017470714059205004 0.00030449443807213623 0 -0.017216988987771353 0.00065824851841158227 0 -0.017213178273728792 0.00041788208477093778 0 -0.017213248037782628 0.00026671447541202196 0 -0.017470714059205004 0.00030449443807213623 0 -0.017213178273728792 0.00041788208477093778 0 -0.017213248037782628 0.00026671447541202196 0 -0.017065340405984737 0.00028822963611347232 0 -0.017213248037782628 0.00026671447541202196 0 -0.017385284670804805 0.00022497296933782186 0 -0.017470714059205004 0.00030449443807213623 0 -0.017647209004391071 0.00014817494872843164 0 -0.017385284670804805 0.00022497296933782186 0 -0.017470714059205004 0.00030449443807213623 0 -0.017924605496126896 0.00017845499836455881 0 -0.017647209004391071 0.00014817494872843164 0 -0.017470714059205004 0.00030449443807213623 0 -0.017924605496126896 0.00017845499836455881 0 -0.017470714059205004 0.00030449443807213623 0 -0.017839622505223522 0.00039483431164836244 0 -0.017924605496126896 0.00017845499836455881 0 -0.018207207825406021 0.00031721039087453788 0 -0.017839622505223522 0.00039483431164836244 0 -0.018193579794265481 0.00053378307423082984 0 -0.017839622505223522 0.00039483431164836244 0 -0.017982912051313513 0.00075866818715356792 0 -0.018207207825406021 0.00031721039087453788 0 -0.018193579794265481 0.00053378307423082984 0 -0.017839622505223522 0.00039483431164836244 0 -0.017470714059205004 0.00030449443807213623 0 -0.017839622505223522 0.00039483431164836244 0 -0.017216988987771353 0.00065824851841158227 0 -0.017203514829299448 0.00069666389372501081 0 -0.017331356400967415 0.00078465415950088057 0 -0.017216988987771353 0.00065824851841158227 0 -0.016589586926995806 0.00087057402199698533 0 -0.016776569959371494 0.00058024958192176991 0 -0.017839622505223522 0.00039483431164836244 0 -0.017216988987771353 0.00065824851841158227 0 -0.017982912051313513 0.00075866818715356792 0 -0.016480155903903494 0.00071634684028178987 0 -0.016776569959371494 0.00058024958192176991 0 -0.01645455847335632 0.00058163615852422485 0 -0.016480155903903494 0.00071634684028178987 0 -0.016589586926995806 0.00087057402199698533 0 -0.016776569959371494 0.00058024958192176991 0 -0.017216988987771353 0.00065824851841158227 0 -0.016776569959371494 0.00058024958192176991 0 -0.016965672346803046 0.00055334033932688813 0 -0.016776569959371494 0.00058024958192176991 0 -0.016965672346803046 0.00055334033932688813 0 -0.016697599754286974 0.00053807491154013313 0 -0.017216988987771353 0.00065824851841158227 0 -0.017074117145203287 0.0004944392112698567 0 -0.016965672346803046 0.00055334033932688813 0 -0.017074117145203287 0.0004944392112698567 0 -0.016965672346803046 0.00055334033932688813 0 -0.01689981177228482 0.00053607115496418932 0 -0.017213178273728792 0.00041788208477093778 0 -0.017216988987771353 0.00065824851841158227 0 -0.017074117145203287 0.0004944392112698567 0 -0.017213178273728792 0.00041788208477093778 0 -0.017074117145203287 0.0004944392112698567 0 -0.017065340405984737 0.00028822963611347232 0 -0.017074117145203287 0.0004944392112698567 0 -0.017065340405984737 0.00028822963611347232 0 -0.016962918174919652 0.00046835014927051254 0 -0.017074117145203287 0.0004944392112698567 0 -0.016962918174919652 0.00046835014927051254 0 -0.01689981177228482 0.00053607115496418932 0 -0.016962918174919652 0.00046835014927051254 0 -0.016887040791578628 0.00053743525683686586 0 -0.01689981177228482 0.00053607115496418932 0 -0.016887040791578628 0.00053743525683686586 0 -0.016849513040749661 0.00058785785547239399 0 -0.016789750501433363 0.00056283032444167649 0 -0.016962918174919652 0.00046835014927051254 0 -0.016887040791578628 0.00053743525683686586 0 -0.016849513040749661 0.00058785785547239399 0 -0.016849513040749661 0.00058785785547239399 0 -0.016778031637660246 0.00058564705659146904 0 -0.016789750501433363 0.00056283032444167649 0 -0.0167224179333668 0.00055757945275895131 0 -0.016778031637660246 0.00058564705659146904 0 -0.016789750501433363 0.00056283032444167649 0 -0.016680847073460476 0.00054395278972390129 0 -0.016476492713920019 0.00051324622774507321 0 -0.016637874633731294 0.00053844604663773809 0 -0.016789750501433363 0.00056283032444167649 0 -0.016680847073460476 0.00054395278972390129 0 -0.016637874633731294 0.00053844604663773809 0 -0.0167224179333668 0.00055757945275895131 0 -0.016789750501433363 0.00056283032444167649 0 -0.016637874633731294 0.00053844604663773809 0 -0.016680847073460476 0.00054395278972390129 0 -0.01689981177228482 0.00053607115496418932 0 -0.016697599754286974 0.00053807491154013313 0 -0.016965672346803046 0.00055334033932688813 0 -0.01689981177228482 0.00053607115496418932 0 -0.016697599754286974 0.00053807491154013313 0 -0.016789750501433363 0.00056283032444167649 0 -0.016680847073460476 0.00054395278972390129 0 -0.01689981177228482 0.00053607115496418932 0 -0.016887040791578628 0.00053743525683686586 0 -0.016789750501433363 0.00056283032444167649 0 -0.01689981177228482 0.00053607115496418932 0 -0.016697599754286974 0.00053807491154013313 0 -0.016605229016756415 0.0005555093680857337 0 -0.016450532750892092 0.00051788053957700544 0 -0.016776569959371494 0.00058024958192176991 0 -0.016697599754286974 0.00053807491154013313 0 -0.016605229016756415 0.0005555093680857337 0 -0.016605229016756415 0.0005555093680857337 0 -0.01645455847335632 0.00058163615852422485 0 -0.016450532750892092 0.00051788053957700544 0 -0.01645455847335632 0.00058163615852422485 0 -0.016450532750892092 0.00051788053957700544 0 -0.016337735643701622 0.00053251343318128823 0 -0.016776569959371494 0.00058024958192176991 0 -0.016605229016756415 0.0005555093680857337 0 -0.01645455847335632 0.00058163615852422485 0 -0.016450532750892092 0.00051788053957700544 0 -0.016290838290407936 0.00049148593243324493 0 -0.016250755946373846 0.00048498106374748732 0 -0.016450532750892092 0.00051788053957700544 0 -0.016524566681170475 0.00052213069275238886 0 -0.016290838290407936 0.00049148593243324493 0 -0.016697599754286974 0.00053807491154013313 0 -0.016450532750892092 0.00051788053957700544 0 -0.016524566681170475 0.00052213069275238886 0 -0.016680847073460476 0.00054395278972390129 0 -0.016697599754286974 0.00053807491154013313 0 -0.016524566681170475 0.00052213069275238886 0 -0.016680847073460476 0.00054395278972390129 0 -0.016524566681170475 0.00052213069275238886 0 -0.016476492713920019 0.00051324622774507321 0 -0.016476492713920019 0.00051324622774507321 0 -0.016290838290407936 0.00049148593243324493 0 -0.016207165407281759 0.0004773991410486498 0 -0.016524566681170475 0.00052213069275238886 0 -0.016476492713920019 0.00051324622774507321 0 -0.016290838290407936 0.00049148593243324493 0 -0.016476492713920019 0.00051324622774507321 0 -0.016207165407281759 0.0004773991410486498 0 -0.01651269619233733 0.00048430300503925482 0 -0.016290838290407936 0.00049148593243324493 0 -0.016250755946373846 0.00048498106374748732 0 -0.016157797063421336 0.00047084455184012936 0 -0.016290838290407936 0.00049148593243324493 0 -0.016027663984271284 0.00048689679210845853 0 -0.016157797063421336 0.00047084455184012936 0 -0.016027663984271284 0.00048689679210845853 0 -0.016207165407281759 0.0004773991410486498 0 -0.015780009109825317 0.00056111689446391912 0 -0.016290838290407936 0.00049148593243324493 0 -0.016027663984271284 0.00048689679210845853 0 -0.016207165407281759 0.0004773991410486498 0 -0.016207165407281759 0.0004773991410486498 0 -0.01645986669232059 0.00037718128682034453 0 -0.016007803962393794 0.00043194868907763158 0 -0.016207165407281759 0.0004773991410486498 0 -0.01645986669232059 0.00037718128682034453 0 -0.01651269619233733 0.00048430300503925482 0 -0.01645986669232059 0.00037718128682034453 0 -0.016686587304247429 0.00050666031762577836 0 -0.01651269619233733 0.00048430300503925482 0 -0.013559191672580215 -0.001041655972145165 0 -0.014115560613498104 9.3829876718926809e-06 0 -0.0095225445013641975 -0.0018479963731768217 0 -0.0093830273991371092 -0.0032963088056675908 0 -0.0084835178561248389 -0.0020890376881229564 0 -0.011153815830358373 -0.0019514284977991715 0 -0.0095225445013641975 -0.0018479963731768217 0 -0.009874606246167688 -0.00067938054555195478 0 -0.011153815830358373 -0.0019514284977991715 0 -0.0095225445013641975 -0.0018479963731768217 0 -0.0093830273991371092 -0.0032963088056675908 0 -0.01645986669232059 0.00037718128682034453 0 -0.016686587304247429 0.00050666031762577836 0 -0.016764427351265394 0.00047982005569530394 0 -0.016244116152420666 -7.009651547886985e-05 0 -0.014115560613498104 9.3829876718926809e-06 0 -0.016778031637660246 0.00058564705659146904 0 -0.016686587304247429 0.00050666031762577836 0 -0.016759344620504418 0.00051334278923457924 0 -0.0167224179333668 0.00055757945275895131 0 -0.016778031637660246 0.00058564705659146904 0 -0.016686587304247429 0.00050666031762577836 0 -0.0167224179333668 0.00055757945275895131 0 -0.016686587304247429 0.00050666031762577836 0 -0.016637874633731294 0.00053844604663773809 0 -0.016686587304247429 0.00050666031762577836 0 -0.016637874633731294 0.00053844604663773809 0 -0.01651269619233733 0.00048430300503925482 0 -0.016476492713920019 0.00051324622774507321 0 -0.016637874633731294 0.00053844604663773809 0 -0.01651269619233733 0.00048430300503925482 0 -0.015899233599053403 0.00053215149596160785 0 -0.01601578849601654 0.00057897669902163965 0 -0.015995026048916106 0.00058216107752300482 0 -0.015862826945748618 0.00046660907916722989 0 -0.015899233599053403 0.00053215149596160785 0 -0.01601578849601654 0.00057897669902163965 0 -0.016082127039626162 0.00055376158399814916 0 -0.01601578849601654 0.00057897669902163965 0 -0.016075862544325789 0.00057782450593644704 0 -0.016082127039626162 0.00055376158399814916 0 -0.01601578849601654 0.00057897669902163965 0 -0.016110932011508507 0.00052364149386095119 0 -0.01601578849601654 0.00057897669902163965 0 -0.015995026048916106 0.00058216107752300482 0 -0.016075862544325789 0.00057782450593644704 0 -0.015995026048916106 0.00058216107752300482 0 -0.016039242535143921 0.00063092140346009248 0 -0.016075862544325789 0.00057782450593644704 0 -0.015899233599053403 0.00053215149596160785 0 -0.015995026048916106 0.00058216107752300482 0 -0.015926660833698206 0.00058002318008263417 0 -0.015995026048916106 0.00058216107752300482 0 -0.016039242535143921 0.00063092140346009248 0 -0.015926660833698206 0.00058002318008263417 0 -0.015973943073347822 0.00071648156080648322 0 -0.016039242535143921 0.00063092140346009248 0 -0.015926660833698206 0.00058002318008263417 0 -0.016039242535143921 0.00063092140346009248 0 -0.01613017046081977 0.00062272790152497241 0 -0.016075862544325789 0.00057782450593644704 0 -0.016115004015018298 0.00073016747530525055 0 -0.016039242535143921 0.00063092140346009248 0 -0.01613017046081977 0.00062272790152497241 0 -0.01613017046081977 0.00062272790152497241 0 -0.016145374154653086 0.00055986389508974014 0 -0.016202039978509195 0.00055401300902302973 0 -0.016145374154653086 0.00055986389508974014 0 -0.016173812130967472 0.000516038656291554 0 -0.016202039978509195 0.00055401300902302973 0 -0.01613017046081977 0.00062272790152497241 0 -0.016145374154653086 0.00055986389508974014 0 -0.016075862544325789 0.00057782450593644704 0 -0.016145374154653086 0.00055986389508974014 0 -0.016075862544325789 0.00057782450593644704 0 -0.016130171754873836 0.00053136998538819689 0 -0.016082127039626162 0.00055376158399814916 0 -0.016075862544325789 0.00057782450593644704 0 -0.016130171754873836 0.00053136998538819689 0 -0.016082127039626162 0.00055376158399814916 0 -0.016130171754873836 0.00053136998538819689 0 -0.016110932011508507 0.00052364149386095119 0 -0.016130171754873836 0.00053136998538819689 0 -0.016173812130967472 0.000516038656291554 0 -0.01617448263301393 0.00049612489163894304 0 -0.016145374154653086 0.00055986389508974014 0 -0.016130171754873836 0.00053136998538819689 0 -0.016173812130967472 0.000516038656291554 0 -0.016173812130967472 0.000516038656291554 0 -0.016204509492879385 0.00050484550426639792 0 -0.016202039978509195 0.00055401300902302973 0 -0.016173812130967472 0.000516038656291554 0 -0.016204509492879385 0.00050484550426639792 0 -0.016193918738232931 0.00048018493765503135 0 -0.016204509492879385 0.00050484550426639792 0 -0.016249635814699435 0.00051716170360160431 0 -0.016203576068911301 0.00047884998137280994 0 -0.016249635814699435 0.00051716170360160431 0 -0.016202039978509195 0.00055401300902302973 0 -0.016300724465479553 0.00057697541795250819 0 -0.016204509492879385 0.00050484550426639792 0 -0.016249635814699435 0.00051716170360160431 0 -0.016202039978509195 0.00055401300902302973 0 -0.016332782265844895 0.00068817083256226934 0 -0.016220473630960231 0.00062561793031149122 0 -0.016300724465479553 0.00057697541795250819 0 -0.016216334926087584 0.00071759443394112294 0 -0.01613017046081977 0.00062272790152497241 0 -0.016220473630960231 0.00062561793031149122 0 -0.01613017046081977 0.00062272790152497241 0 -0.016202039978509195 0.00055401300902302973 0 -0.016220473630960231 0.00062561793031149122 0 -0.016202039978509195 0.00055401300902302973 0 -0.016220473630960231 0.00062561793031149122 0 -0.016300724465479553 0.00057697541795250819 0 -0.016332782265844895 0.00068817083256226934 0 -0.01645455847335632 0.00058163615852422485 0 -0.016300724465479553 0.00057697541795250819 0 -0.01645455847335632 0.00058163615852422485 0 -0.016300724465479553 0.00057697541795250819 0 -0.016337735643701622 0.00053251343318128823 0 -0.016450532750892092 0.00051788053957700544 0 -0.016337735643701622 0.00053251343318128823 0 -0.016250755946373846 0.00048498106374748732 0 -0.016249635814699435 0.00051716170360160431 0 -0.016300724465479553 0.00057697541795250819 0 -0.016337735643701622 0.00053251343318128823 0 -0.016249635814699435 0.00051716170360160431 0 -0.016337735643701622 0.00053251343318128823 0 -0.016250755946373846 0.00048498106374748732 0 -0.016249635814699435 0.00051716170360160431 0 -0.016250755946373846 0.00048498106374748732 0 -0.016203576068911301 0.00047884998137280994 0 -0.016250755946373846 0.00048498106374748732 0 -0.016149498251693629 0.00046243888173620474 0 -0.016203576068911301 0.00047884998137280994 0 -0.016250755946373846 0.00048498106374748732 0 -0.016149498251693629 0.00046243888173620474 0 -0.016157797063421336 0.00047084455184012936 0 -0.016027663984271284 0.00048689679210845853 0 -0.016157797063421336 0.00047084455184012936 0 -0.01605108020878894 0.00049474100421717699 0 -0.016027663984271284 0.00048689679210845853 0 -0.01605108020878894 0.00049474100421717699 0 -0.015891896321622641 0.00057528468009002348 0 -0.01605108020878894 0.00049474100421717699 0 -0.01616254806922263 0.0005043541252837474 0 -0.015891896321622641 0.00057528468009002348 0 -0.016149498251693629 0.00046243888173620474 0 -0.016157797063421336 0.00047084455184012936 0 -0.01605108020878894 0.00049474100421717699 0 -0.016149498251693629 0.00046243888173620474 0 -0.01605108020878894 0.00049474100421717699 0 -0.01616254806922263 0.0005043541252837474 0 -0.016149498251693629 0.00046243888173620474 0 -0.01616254806922263 0.0005043541252837474 0 -0.016188354137777052 0.00046521960904893916 0 -0.01616254806922263 0.0005043541252837474 0 -0.016226602878313321 0.00046288535325643681 0 -0.01630906565330454 0.00053937088369533854 0 -0.01616254806922263 0.0005043541252837474 0 -0.016188354137777052 0.00046521960904893916 0 -0.016226602878313321 0.00046288535325643681 0 -0.016188354137777052 0.00046521960904893916 0 -0.016193918738232931 0.00048018493765503135 0 -0.016226602878313321 0.00046288535325643681 0 -0.016149498251693629 0.00046243888173620474 0 -0.016188354137777052 0.00046521960904893916 0 -0.016203576068911301 0.00047884998137280994 0 -0.016188354137777052 0.00046521960904893916 0 -0.016203576068911301 0.00047884998137280994 0 -0.016193918738232931 0.00048018493765503135 0 -0.016204509492879385 0.00050484550426639792 0 -0.016203576068911301 0.00047884998137280994 0 -0.016193918738232931 0.00048018493765503135 0 -0.016173812130967472 0.000516038656291554 0 -0.016193918738232931 0.00048018493765503135 0 -0.01617448263301393 0.00049612489163894304 0 -0.016130171754873836 0.00053136998538819689 0 -0.01617448263301393 0.00049612489163894304 0 -0.016171580529160241 0.00048540695938172626 0 -0.016130171754873836 0.00053136998538819689 0 -0.016171580529160241 0.00048540695938172626 0 -0.016110932011508507 0.00052364149386095119 0 -0.016193918738232931 0.00048018493765503135 0 -0.01617448263301393 0.00049612489163894304 0 -0.016226602878313321 0.00046288535325643681 0 -0.01617448263301393 0.00049612489163894304 0 -0.016171580529160241 0.00048540695938172626 0 -0.016226602878313321 0.00046288535325643681 0 -0.016226602878313321 0.00046288535325643681 0 -0.01630906565330454 0.00053937088369533854 0 -0.016247901797364867 0.00044650973880722871 0 -0.016171580529160241 0.00048540695938172626 0 -0.016226602878313321 0.00046288535325643681 0 -0.016247901797364867 0.00044650973880722871 0 -0.016247901797364867 0.00044650973880722871 0 -0.016110231118798283 0.00044720416952692183 0 -0.016134635792415218 0.0004915036611271654 0 -0.016247901797364867 0.00044650973880722871 0 -0.016110231118798283 0.00044720416952692183 0 -0.016147137150970915 0.00030467363260409198 0 -0.015862826945748618 0.00046660907916722989 0 -0.01601578849601654 0.00057897669902163965 0 -0.015295558591995499 -0.00017723840800320406 0 -0.015941852764310718 0.0005245404399191934 0 -0.015864661373955136 0.00030293726183386799 0 -0.015862826945748618 0.00046660907916722989 0 -0.015295558591995499 -0.00017723840800320406 0 -0.015229117974796237 0.00015244551204820101 0 -0.01601578849601654 0.00057897669902163965 0 -0.016110231118798283 0.00044720416952692183 0 -0.016134635792415218 0.0004915036611271654 0 -0.016171580529160241 0.00048540695938172626 0 -0.016247901797364867 0.00044650973880722871 0 -0.016134635792415218 0.0004915036611271654 0 -0.01601578849601654 0.00057897669902163965 0 -0.016134635792415218 0.0004915036611271654 0 -0.016110932011508507 0.00052364149386095119 0 -0.016171580529160241 0.00048540695938172626 0 -0.016134635792415218 0.0004915036611271654 0 -0.016110932011508507 0.00052364149386095119 0 -0.012569999775609379 -0.0019080332250018745 0 -0.012052941916005895 -0.0016071640436600503 0 -0.01246601751045715 -0.0013272707647242236 0 -0.012569999775609379 -0.0019080332250018745 0 -0.012833404912256374 -0.0015179198417478127 0 -0.012940403533364172 -0.0017472393774037739 0 -0.014328864850032019 -0.00083628503815284306 0 -0.014373652017094301 -0.00087021502240800745 0 -0.016153973223566789 0.00011820367907907714 0 -0.016135777193197663 0.00021055357029103257 0 -0.016008821748573109 0.00020124843291797323 0 -0.012569999775609379 -0.0019080332250018745 0 -0.013058413314651445 -0.0021909269318796764 0 -0.012940403533364172 -0.0017472393774037739 0 -0.016135777193197663 0.00021055357029103257 0 -0.016147137150970915 0.00030467363260409198 0 -0.016008821748573109 0.00020124843291797323 0 -0.016247901797364867 0.00044650973880722871 0 -0.016147137150970915 0.00030467363260409198 0 -0.016262725469441273 0.00022614494861223158 0 -0.016110231118798283 0.00044720416952692183 0 -0.016147137150970915 0.00030467363260409198 0 -0.016008821748573109 0.00020124843291797323 0 -0.016135777193197663 0.00021055357029103257 0 -0.016147137150970915 0.00030467363260409198 0 -0.016262725469441273 0.00022614494861223158 0 -0.016153973223566789 0.00011820367907907714 0 -0.016135777193197663 0.00021055357029103257 0 -0.016262725469441273 0.00022614494861223158 0 -0.016282612992948895 0.00047848367074046044 0 -0.016432257069345091 0.00049861288076382814 0 -0.01630906565330454 0.00053937088369533854 0 -0.016247901797364867 0.00044650973880722871 0 -0.016545869364272939 0.00072471593398779088 0 -0.01630906565330454 0.00053937088369533854 0 -0.016545869364272939 0.00072471593398779088 0 -0.016356686633210521 0.00080695319332408212 0 -0.016545869364272939 0.00072471593398779088 0 -0.016356686633210521 0.00080695319332408212 0 -0.016707746590995658 0.0013418942233902431 0 -0.016432257069345091 0.00049861288076382814 0 -0.015695064889470336 0.00061828619597541646 0 -0.016153973223566789 0.00011820367907907714 0 -0.016262725469441273 0.00022614494861223158 0 -0.016282354815784394 4.1371949455554699e-05 0 -0.016356686633210521 0.00080695319332408212 0 -0.016707746590995658 0.0013418942233902431 0 -0.016379541467976294 0.0012832361066442742 0 -0.014328864850032019 -0.00083628503815284306 0 -0.015695064889470336 0.00061828619597541646 0 -0.016379541467976294 0.0012832361066442742 0 -0.016120216818570517 0.00086553970059509585 0 -0.015811755867914678 0.0016579906637375448 0 -0.016356686633210521 0.00080695319332408212 0 -0.016379541467976294 0.0012832361066442742 0 -0.016120216818570517 0.00086553970059509585 0 -0.01616254806922263 0.0005043541252837474 0 -0.01630906565330454 0.00053937088369533854 0 -0.016356686633210521 0.00080695319332408212 0 -0.01616254806922263 0.0005043541252837474 0 -0.016120216818570517 0.00086553970059509585 0 -0.015891896321622641 0.00057528468009002348 0 -0.01616254806922263 0.0005043541252837474 0 -0.016356686633210521 0.00080695319332408212 0 -0.016120216818570517 0.00086553970059509585 0 -0.015891896321622641 0.00057528468009002348 0 -0.015780009109825317 0.00056111689446391912 0 -0.015227473763519321 0.00089296841580570102 0 -0.016027663984271284 0.00048689679210845853 0 -0.015891896321622641 0.00057528468009002348 0 -0.015780009109825317 0.00056111689446391912 0 -0.016120216818570517 0.00086553970059509585 0 -0.015891896321622641 0.00057528468009002348 0 -0.015227473763519321 0.00089296841580570102 0 -0.016120216818570517 0.00086553970059509585 0 -0.015811755867914678 0.0016579906637375448 0 -0.015227473763519321 0.00089296841580570102 0 -0.015811755867914678 0.0016579906637375448 0 -0.015227473763519321 0.00089296841580570102 0 -0.014911569461794604 0.0021104130832413953 0 -0.015811755867914678 0.0016579906637375448 0 -0.01519700986769491 0.0027008935830959186 0 -0.015755945549689239 0.0027167595160730983 0 -0.015811755867914678 0.0016579906637375448 0 -0.01519700986769491 0.0027008935830959186 0 -0.014911569461794604 0.0021104130832413953 0 -0.01519700986769491 0.0027008935830959186 0 -0.015430583857356336 0.0033177412829183089 0 -0.015755945549689239 0.0027167595160730983 0 -0.01519700986769491 0.0027008935830959186 0 -0.015430583857356336 0.0033177412829183089 0 -0.014522283271267585 0.0031897591470992255 0 -0.016461995521425216 0.0037698771899678817 0 -0.013886727246956167 0.0032594795543120581 0 -0.015430583857356336 0.0033177412829183089 0 -0.014522283271267585 0.0031897591470992255 0 -0.014882953945151952 0.0042274115579314826 0 -0.015430583857356336 0.0033177412829183089 0 -0.015755945549689239 0.0027167595160730983 0 -0.016241186827302578 0.0029873800666964556 0 -0.015430583857356336 0.0033177412829183089 0 -0.016241186827302578 0.0029873800666964556 0 -0.0163346795719106 0.0035622132911263074 0 -0.016241186827302578 0.0029873800666964556 0 -0.016442681514238857 0.0032416110234041659 0 -0.0163346795719106 0.0035622132911263074 0 -0.016646701250091756 0.0033819232642386967 0 -0.016442681514238857 0.0032416110234041659 0 -0.016900349887916607 0.0028408893384029785 0 -0.016092917130968543 0.0028763540749553534 0 -0.013886727246956167 0.0032594795543120581 0 -0.016646701250091756 0.0033819232642386967 0 -0.016442681514238857 0.0032416110234041659 0 -0.0163346795719106 0.0035622132911263074 0 -0.016241186827302578 0.0029873800666964556 0 -0.016426664064786215 0.0023461019688568461 0 -0.016900349887916607 0.0028408893384029785 0 -0.016241186827302578 0.0029873800666964556 0 -0.016442681514238857 0.0032416110234041659 0 -0.016900349887916607 0.0028408893384029785 0 -0.015811755867914678 0.0016579906637375448 0 -0.015755945549689239 0.0027167595160730983 0 -0.016406309717022331 0.0018315258493120619 0 -0.01577307702627757 0.0026272537551494863 0 -0.016413504988552406 0.0020589329347534997 0 -0.015755945549689239 0.0027167595160730983 0 -0.016241186827302578 0.0029873800666964556 0 -0.016426664064786215 0.0023461019688568461 0 -0.016379541467976294 0.0012832361066442742 0 -0.015811755867914678 0.0016579906637375448 0 -0.016406309717022331 0.0018315258493120619 0 -0.016707746590995658 0.0013418942233902431 0 -0.016379541467976294 0.0012832361066442742 0 -0.016406309717022331 0.0018315258493120619 0 -0.017066169087236051 0.0019236953835110825 0 -0.016426664064786215 0.0023461019688568461 0 -0.016900349887916607 0.0028408893384029785 0 -0.015695064889470336 0.00061828619597541646 0 -0.014438777380904613 0.00096748582442958495 0 -0.012052941916005895 -0.0016071640436600503 0 -0.011868553181872273 -0.00091064957241679032 0 -0.01246601751045715 -0.0013272707647242236 0 -0.015695064889470336 0.00061828619597541646 0 -0.016413504988552406 0.0020589329347534997 0 -0.011868553181872273 -0.00091064957241679032 0 -0.012435297754879164 -0.00086601379734081057 0 -0.01246601751045715 -0.0013272707647242236 0 -0.011868553181872273 -0.00091064957241679032 0 -0.011901257204222462 -0.00043443785687518737 0 -0.011692714097793745 -0.00018771311094477444 0 -0.014438777380904613 0.00096748582442958495 0 -0.01138652960470616 0.0010615437954666152 0 -0.016646701250091756 0.0033819232642386967 0 -0.016900349887916607 0.0028408893384029785 0 -0.016695605815291441 0.0037386907786045595 0 -0.011868553181872273 -0.00091064957241679032 0 -0.011901257204222462 -0.00043443785687518737 0 -0.01219247795099037 -0.0005303627248349214 0 -0.011868553181872273 -0.00091064957241679032 0 -0.01219247795099037 -0.0005303627248349214 0 -0.012435297754879164 -0.00086601379734081057 0 -0.01219247795099037 -0.0005303627248349214 0 -0.012435297754879164 -0.00086601379734081057 0 -0.012619741813857398 -0.00050417280782534568 0 -0.012435297754879164 -0.00086601379734081057 0 -0.012619741813857398 -0.00050417280782534568 0 -0.012895342864744658 -0.0010961013313855168 0 -0.01246601751045715 -0.0013272707647242236 0 -0.012833404912256374 -0.0015179198417478127 0 -0.012895342864744658 -0.0010961013313855168 0 -0.012569999775609379 -0.0019080332250018745 0 -0.01246601751045715 -0.0013272707647242236 0 -0.012833404912256374 -0.0015179198417478127 0 -0.012435297754879164 -0.00086601379734081057 0 -0.01246601751045715 -0.0013272707647242236 0 -0.012895342864744658 -0.0010961013313855168 0 -0.010651896969393775 0.00060179715978329385 0 -0.012350996238333313 0.0011611577921576759 0 -0.010892620337447126 0.0019531666405389627 0 -0.010651896969393775 0.00060179715978329385 0 -0.011362508560331323 -0.00051860442386471219 0 -0.012350996238333313 0.0011611577921576759 0 -0.010651896969393775 0.00060179715978329385 0 -0.0091611475408214967 0.0012919354133433365 0 -0.0097103455465439373 0.0021553692670809709 0 -0.0091611475408214967 0.0012919354133433365 0 -0.009237801585184743 0.00035120706591722152 0 -0.0082639268277628145 0.0012888170397689909 0 -0.010651896969393775 0.00060179715978329385 0 -0.0091611475408214967 0.0012919354133433365 0 -0.009237801585184743 0.00035120706591722152 0 -0.010651896969393775 0.00060179715978329385 0 -0.009237801585184743 0.00035120706591722152 0 -0.009874606246167688 -0.00067938054555195478 0 -0.009237801585184743 0.00035120706591722152 0 -0.009874606246167688 -0.00067938054555195478 0 -0.008628193066089293 -0.00023796578413593856 0 -0.009874606246167688 -0.00067938054555195478 0 -0.0086480910105850364 -0.001150501475829388 0 -0.008628193066089293 -0.00023796578413593856 0 -0.0095225445013641975 -0.0018479963731768217 0 -0.009874606246167688 -0.00067938054555195478 0 -0.0086480910105850364 -0.001150501475829388 0 -0.011153815830358373 -0.0019514284977991715 0 -0.011362508560331323 -0.00051860442386471219 0 -0.013053683002139686 -0.00065873960959886388 0 -0.011153815830358373 -0.0019514284977991715 0 -0.009874606246167688 -0.00067938054555195478 0 -0.011362508560331323 -0.00051860442386471219 0 -0.010651896969393775 0.00060179715978329385 0 -0.009874606246167688 -0.00067938054555195478 0 -0.011362508560331323 -0.00051860442386471219 0 -0.013559191672580215 -0.001041655972145165 0 -0.014618302677219442 8.3167281075560855e-06 0 -0.016007803962393794 0.00043194868907763158 0 -0.015780009109825317 0.00056111689446391912 0 -0.015227473763519321 0.00089296841580570102 0 -0.016207165407281759 0.0004773991410486498 0 -0.016007803962393794 0.00043194868907763158 0 -0.015780009109825317 0.00056111689446391912 0 -0.014618302677219442 8.3167281075560855e-06 0 -0.015232388624538339 0.00079620362677882165 0 -0.011362508560331323 -0.00051860442386471219 0 -0.013053683002139686 -0.00065873960959886388 0 -0.012350996238333313 0.0011611577921576759 0 -0.013053683002139686 -0.00065873960959886388 0 -0.015227473763519321 0.00089296841580570102 0 -0.012350996238333313 0.0011611577921576759 0 -0.012350996238333313 0.0011611577921576759 0 -0.013486679224003545 0.0023795973197170668 0 -0.011810077322631634 0.0027471714567134892 0 -0.015227473763519321 0.00089296841580570102 0 -0.012350996238333313 0.0011611577921576759 0 -0.013486679224003545 0.0023795973197170668 0 -0.015227473763519321 0.00089296841580570102 0 -0.013486679224003545 0.0023795973197170668 0 -0.014911569461794604 0.0021104130832413953 0 -0.013486679224003545 0.0023795973197170668 0 -0.014911569461794604 0.0021104130832413953 0 -0.014522283271267585 0.0031897591470992255 0 -0.01519700986769491 0.0027008935830959186 0 -0.014911569461794604 0.0021104130832413953 0 -0.014522283271267585 0.0031897591470992255 0 -0.013486679224003545 0.0023795973197170668 0 -0.014522283271267585 0.0031897591470992255 0 -0.012912294112782136 0.0036161230419018194 0 -0.014522283271267585 0.0031897591470992255 0 -0.012912294112782136 0.0036161230419018194 0 -0.0139491847331911 0.0043070064124822302 0 -0.014522283271267585 0.0031897591470992255 0 -0.0139491847331911 0.0043070064124822302 0 -0.014882953945151952 0.0042274115579314826 0 -0.013486679224003545 0.0023795973197170668 0 -0.012912294112782136 0.0036161230419018194 0 -0.011810077322631634 0.0027471714567134892 0 -0.012912294112782136 0.0036161230419018194 0 -0.011342175415769476 0.0040051032379717121 0 -0.011922056352211682 0.0048013814431805916 0 -0.012912294112782136 0.0036161230419018194 0 -0.011342175415769476 0.0040051032379717121 0 -0.011810077322631634 0.0027471714567134892 0 -0.011342175415769476 0.0040051032379717121 0 -0.0100247384251793 0.0035169388962216614 0 -0.010226832319392207 0.005098906304244092 0 -0.011342175415769476 0.0040051032379717121 0 -0.011810077322631634 0.0027471714567134892 0 -0.0100247384251793 0.0035169388962216614 0 -0.010651896969393775 0.00060179715978329385 0 -0.010892620337447126 0.0019531666405389627 0 -0.0097103455465439373 0.0021553692670809709 0 -0.012350996238333313 0.0011611577921576759 0 -0.011810077322631634 0.0027471714567134892 0 -0.010892620337447126 0.0019531666405389627 0 -0.011810077322631634 0.0027471714567134892 0 -0.010892620337447126 0.0019531666405389627 0 -0.0100247384251793 0.0035169388962216614 0 -0.010892620337447126 0.0019531666405389627 0 -0.0097103455465439373 0.0021553692670809709 0 -0.0100247384251793 0.0035169388962216614 0 -0.0091611475408214967 0.0012919354133433365 0 -0.0097103455465439373 0.0021553692670809709 0 -0.0086599711237989162 0.002214048242180106 0 -0.0097103455465439373 0.0021553692670809709 0 -0.0089257773377611743 0.0031415038828501822 0 -0.0100247384251793 0.0035169388962216614 0 -0.0097103455465439373 0.0021553692670809709 0 -0.0089257773377611743 0.0031415038828501822 0 -0.0086599711237989162 0.002214048242180106 0 -0.0100247384251793 0.0035169388962216614 0 -0.0088991051971774419 0.0042653139366308733 0 -0.010226832319392207 0.005098906304244092 0 -0.0089257773377611743 0.0031415038828501822 0 -0.0100247384251793 0.0035169388962216614 0 -0.0088991051971774419 0.0042653139366308733 0 -0.0089257773377611743 0.0031415038828501822 0 -0.0088991051971774419 0.0042653139366308733 0 -0.0080701233139029993 0.0037145446773496076 0 -0.0088991051971774419 0.0042653139366308733 0 -0.0080701233139029993 0.0037145446773496076 0 -0.0076572361489621399 0.0045349276091612226 0 -0.0080701233139029993 0.0037145446773496076 0 -0.0072489541951626605 0.0038303125626249143 0 -0.0076572361489621399 0.0045349276091612226 0 -0.0069412544299646273 0.0042432292945157992 0 -0.0072489541951626605 0.0038303125626249143 0 -0.0076572361489621399 0.0045349276091612226 0 -0.0080701233139029993 0.0037145446773496076 0 -0.0074906926291421656 0.0030983385794032901 0 -0.0072489541951626605 0.0038303125626249143 0 -0.0080701233139029993 0.0037145446773496076 0 -0.0074906926291421656 0.0030983385794032901 0 -0.0081986957124632782 0.0029844959589381639 0 -0.0089257773377611743 0.0031415038828501822 0 -0.0080701233139029993 0.0037145446773496076 0 -0.0081986957124632782 0.0029844959589381639 0 -0.0060818071036850083 0.0038460913287453077 0 -0.006091654279175138 0.0044173743482245117 0 -0.005630967296812386 0.004197537184748446 0 -0.0060818071036850083 0.0038460913287453077 0 -0.006091654279175138 0.0044173743482245117 0 -0.0065884651572652268 0.0040304993951671038 0 -0.006091654279175138 0.0044173743482245117 0 -0.0065884651572652268 0.0040304993951671038 0 -0.006550917140123784 0.0045972237247938934 0 -0.0065884651572652268 0.0040304993951671038 0 -0.0069412544299646273 0.0042432292945157992 0 -0.006550917140123784 0.0045972237247938934 0 -0.0065884651572652268 0.0040304993951671038 0 -0.0069412544299646273 0.0042432292945157992 0 -0.0072489541951626605 0.0038303125626249143 0 -0.0065884651572652268 0.0040304993951671038 0 -0.0072489541951626605 0.0038303125626249143 0 -0.0065851747650682024 0.0032347529846680667 0 -0.0074906926291421656 0.0030983385794032901 0 -0.0072489541951626605 0.0038303125626249143 0 -0.0065851747650682024 0.0032347529846680667 0 -0.0060818071036850083 0.0038460913287453077 0 -0.0065851747650682024 0.0032347529846680667 0 -0.0056237494963004148 0.0033156762008474156 0 -0.0060818071036850083 0.0038460913287453077 0 -0.0065884651572652268 0.0040304993951671038 0 -0.0065851747650682024 0.0032347529846680667 0 -0.0065851747650682024 0.0032347529846680667 0 -0.0061337106456576971 0.0021849225884321842 0 -0.0056237494963004148 0.0033156762008474156 0 -0.0074906926291421656 0.0030983385794032901 0 -0.0065851747650682024 0.0032347529846680667 0 -0.0070080414286469188 0.0024984661967495324 0 -0.0065851747650682024 0.0032347529846680667 0 -0.0070080414286469188 0.0024984661967495324 0 -0.0061337106456576971 0.0021849225884321842 0 -0.0070080414286469188 0.0024984661967495324 0 -0.0061337106456576971 0.0021849225884321842 0 -0.0070399700668274719 0.0013936379316709161 0 -0.0070080414286469188 0.0024984661967495324 0 -0.0077754812361927909 0.002246430374026743 0 -0.0070399700668274719 0.0013936379316709161 0 -0.0089257773377611743 0.0031415038828501822 0 -0.0081986957124632782 0.0029844959589381639 0 -0.0086599711237989162 0.002214048242180106 0 -0.0081986957124632782 0.0029844959589381639 0 -0.0077754812361927909 0.002246430374026743 0 -0.0086599711237989162 0.002214048242180106 0 -0.0074906926291421656 0.0030983385794032901 0 -0.0081986957124632782 0.0029844959589381639 0 -0.0077754812361927909 0.002246430374026743 0 -0.0074906926291421656 0.0030983385794032901 0 -0.0070080414286469188 0.0024984661967495324 0 -0.0077754812361927909 0.002246430374026743 0 -0.0077754812361927909 0.002246430374026743 0 -0.0082639268277628145 0.0012888170397689909 0 -0.0070399700668274719 0.0013936379316709161 0 -0.0077754812361927909 0.002246430374026743 0 -0.0086599711237989162 0.002214048242180106 0 -0.0082639268277628145 0.0012888170397689909 0 -0.0091611475408214967 0.0012919354133433365 0 -0.0086599711237989162 0.002214048242180106 0 -0.0082639268277628145 0.0012888170397689909 0 -0.009237801585184743 0.00035120706591722152 0 -0.0078569549548327469 0.00044421102927102535 0 -0.008628193066089293 -0.00023796578413593856 0 -0.009237801585184743 0.00035120706591722152 0 -0.0082639268277628145 0.0012888170397689909 0 -0.0078569549548327469 0.00044421102927102535 0 -0.0082639268277628145 0.0012888170397689909 0 -0.0078569549548327469 0.00044421102927102535 0 -0.0070399700668274719 0.0013936379316709161 0 -0.0061337106456576971 0.0021849225884321842 0 -0.0070399700668274719 0.0013936379316709161 0 -0.0056638086750553434 0.0008543923196547194 0 -0.0066298889147810699 0.00029162393055977406 0 -0.0055329662065824649 -0.000415743707673186 0 -0.0056638086750553434 0.0008543923196547194 0 -0.0070399700668274719 0.0013936379316709161 0 -0.0066298889147810699 0.00029162393055977406 0 -0.0056638086750553434 0.0008543923196547194 0 -0.0078569549548327469 0.00044421102927102535 0 -0.0070399700668274719 0.0013936379316709161 0 -0.0066298889147810699 0.00029162393055977406 0 -0.0066298889147810699 0.00029162393055977406 0 -0.0067688285439474515 -0.0006659733988892408 0 -0.0076536664204922807 -0.00047379944322010987 0 -0.0066298889147810699 0.00029162393055977406 0 -0.0067688285439474515 -0.0006659733988892408 0 -0.0055329662065824649 -0.000415743707673186 0 -0.0061261291019850221 -0.0012055588463318137 0 -0.0067688285439474515 -0.0006659733988892408 0 -0.0069010262094768285 -0.0013669762924262258 0 -0.0061261291019850221 -0.0012055588463318137 0 -0.0067688285439474515 -0.0006659733988892408 0 -0.0055329662065824649 -0.000415743707673186 0 -0.0067688285439474515 -0.0006659733988892408 0 -0.0076759430149844808 -0.0013397001930336341 0 -0.0069010262094768285 -0.0013669762924262258 0 -0.0067688285439474515 -0.0006659733988892408 0 -0.0076536664204922807 -0.00047379944322010987 0 -0.0076759430149844808 -0.0013397001930336341 0 -0.0086480910105850364 -0.001150501475829388 0 -0.0076536664204922807 -0.00047379944322010987 0 -0.0076759430149844808 -0.0013397001930336341 0 -0.0086480910105850364 -0.001150501475829388 0 -0.008628193066089293 -0.00023796578413593856 0 -0.0076536664204922807 -0.00047379944322010987 0 -0.0078569549548327469 0.00044421102927102535 0 -0.0066298889147810699 0.00029162393055977406 0 -0.0076536664204922807 -0.00047379944322010987 0 -0.0078569549548327469 0.00044421102927102535 0 -0.008628193066089293 -0.00023796578413593856 0 -0.0076536664204922807 -0.00047379944322010987 0 -0.0042094177725461989 -7.3542473222431328e-05 0 -0.003817245490326463 -0.00084136624677283466 0 -0.0029155182365345283 -7.0562527789504964e-05 0 -0.003817245490326463 -0.00084136624677283466 0 -0.0029155182365345283 -7.0562527789504964e-05 0 -0.00290037889425406 -0.0011605047655530538 0 -0.0042094177725461989 -7.3542473222431328e-05 0 -0.003817245490326463 -0.00084136624677283466 0 -0.0046763177369094702 -0.00097123905384117895 0 -0.0042094177725461989 -7.3542473222431328e-05 0 -0.0046763177369094702 -0.00097123905384117895 0 -0.0055329662065824649 -0.000415743707673186 0 -0.0046763177369094702 -0.00097123905384117895 0 -0.0055329662065824649 -0.000415743707673186 0 -0.0053669630833835507 -0.0016790240925087479 0 -0.0061261291019850221 -0.0012055588463318137 0 -0.0055329662065824649 -0.000415743707673186 0 -0.0053669630833835507 -0.0016790240925087479 0 -0.0042094177725461989 -7.3542473222431328e-05 0 -0.0055329662065824649 -0.000415743707673186 0 -0.0049982557570847005 0.00030855445257299948 0 -0.0042094177725461989 -7.3542473222431328e-05 0 -0.0049982557570847005 0.00030855445257299948 0 -0.0043483857337392141 0.0011936299699383897 0 -0.0049982557570847005 0.00030855445257299948 0 -0.0056638086750553434 0.0008543923196547194 0 -0.0043483857337392141 0.0011936299699383897 0 -0.0056638086750553434 0.0008543923196547194 0 -0.0043483857337392141 0.0011936299699383897 0 -0.0049710865707050227 0.0022895939312436251 0 -0.0055329662065824649 -0.000415743707673186 0 -0.0049982557570847005 0.00030855445257299948 0 -0.0056638086750553434 0.0008543923196547194 0 -0.0042094177725461989 -7.3542473222431328e-05 0 -0.0043483857337392141 0.0011936299699383897 0 -0.0031081908051515381 0.0011323849011506024 0 -0.0042094177725461989 -7.3542473222431328e-05 0 -0.0031081908051515381 0.0011323849011506024 0 -0.0029155182365345283 -7.0562527789504964e-05 0 -0.0043483857337392141 0.0011936299699383897 0 -0.0033308886949513766 0.0029331846772135059 0 -0.0049710865707050227 0.0022895939312436251 0 -0.0033308886949513766 0.0029331846772135059 0 -0.0049710865707050227 0.0022895939312436251 0 -0.0048311874175048768 0.0035435846754339139 0 -0.0043483857337392141 0.0011936299699383897 0 -0.0031081908051515381 0.0011323849011506024 0 -0.0033308886949513766 0.0029331846772135059 0 -0.0061337106456576971 0.0021849225884321842 0 -0.0056638086750553434 0.0008543923196547194 0 -0.0049710865707050227 0.0022895939312436251 0 -0.0061337106456576971 0.0021849225884321842 0 -0.0049710865707050227 0.0022895939312436251 0 -0.0056237494963004148 0.0033156762008474156 0 -0.0049710865707050227 0.0022895939312436251 0 -0.0056237494963004148 0.0033156762008474156 0 -0.0048311874175048768 0.0035435846754339139 0 -0.0056237494963004148 0.0033156762008474156 0 -0.0048311874175048768 0.0035435846754339139 0 -0.0051634941539981964 0.0040556169028843321 0 -0.0048311874175048768 0.0035435846754339139 0 -0.0051634941539981964 0.0040556169028843321 0 -0.0048258865327331082 0.0045242864780086827 0 -0.0056237494963004148 0.0033156762008474156 0 -0.0051634941539981964 0.0040556169028843321 0 -0.005630967296812386 0.004197537184748446 0 -0.0060818071036850083 0.0038460913287453077 0 -0.0056237494963004148 0.0033156762008474156 0 -0.005630967296812386 0.004197537184748446 0 -0.0051634941539981964 0.0040556169028843321 0 -0.0048258865327331082 0.0045242864780086827 0 -0.0053001209233046196 0.0045218671045361477 0 -0.0051634941539981964 0.0040556169028843321 0 -0.005630967296812386 0.004197537184748446 0 -0.0053001209233046196 0.0045218671045361477 0 -0.005630967296812386 0.004197537184748446 0 -0.0053001209233046196 0.0045218671045361477 0 -0.0055429645780110254 0.00452083647103943 0 -0.0014450324242072307 0.0020614895333373987 0 -0.00051839942665847679 0.0020828344300082065 0 0.00027526344311469493 0.0014621448262334671 0 -0.00022348520660589398 0.00026407392182078716 0 0.0017644458892489747 -0.0011709856418204059 0 0.00027526344311469493 0.0014621448262334671 0 0.0038181560458688943 -0.00045785438519049506 0 0.0017644458892489747 -0.0011709856418204059 0 -0.0033308886949513766 0.0029331846772135059 0 -0.0048311874175048768 0.0035435846754339139 0 -0.0048258865327331082 0.0045242864780086827 0 0.00027526344311469493 0.0014621448262334671 0 -0.00061203386868613377 0.0007377263956916644 0 -0.0012203339008295528 0.0010083272616626471 0 0.00027526344311469493 0.0014621448262334671 0 -0.00022348520660589398 0.00026407392182078716 0 -0.00061203386868613377 0.0007377263956916644 0 -0.00061203386868613377 0.0007377263956916644 0 -0.0012203574659717721 0.00026488728321040717 0 -0.0012203339008295528 0.0010083272616626471 0 -0.00022348520660589398 0.00026407392182078716 0 -0.0012203574659717721 0.00026488728321040717 0 -0.00069368944608667687 -0.00021864006906375719 0 -0.00022348520660589398 0.00026407392182078716 0 -0.00061203386868613377 0.0007377263956916644 0 -0.0012203574659717721 0.00026488728321040717 0 -0.0012203574659717721 0.00026488728321040717 0 -0.00069368944608667687 -0.00021864006906375719 0 -0.0016173542168952347 -0.00015657577531786904 0 -0.0012203574659717721 0.00026488728321040717 0 -0.0019671128648188641 0.00011732922495159312 0 -0.0012203339008295528 0.0010083272616626471 0 -0.0012203574659717721 0.00026488728321040717 0 -0.0019671128648188641 0.00011732922495159312 0 -0.0016173542168952347 -0.00015657577531786904 0 -0.0019622532531135264 3.5653989384509398e-05 0 -0.0023052118407172698 0.00051412842990927906 0 -0.0019671128648188641 0.00011732922495159312 0 -0.0013117716625990605 0.0013990977617618996 0 -0.0012203339008295528 0.0010083272616626471 0 -0.0013117716625990605 0.0013990977617618996 0 -0.0012203339008295528 0.0010083272616626471 0 -0.0017191088417676367 0.0012661680827238185 0 -0.0031081908051515381 0.0011323849011506024 0 -0.0033308886949513766 0.0029331846772135059 0 -0.0017191088417676367 0.0012661680827238185 0 -0.0014450324242072307 0.0020614895333373987 0 -0.0015846783078124209 0.0013533003472391435 0 0.00027526344311469493 0.0014621448262334671 0 -0.0012203339008295528 0.0010083272616626471 0 -0.0017191088417676367 0.0012661680827238185 0 -0.0010401000808653001 -0.00010859759949655264 0 -0.0019643094492324646 -0.00014244956124958606 0 -0.0016127399793036254 -1.265958956889618e-06 0 -0.0010401000808653001 -0.00010859759949655264 0 -0.0016127399793036254 -1.265958956889618e-06 0 0.00090679831599117713 2.2124373831362444e-06 0 -0.0019671128648188641 0.00011732922495159312 0 -0.0019643094492324646 -0.00014244956124958606 0 -0.0020298452148263444 0.00030566538469502155 0 -0.0019671128648188641 0.00011732922495159312 0 -0.0030868445653401337 -0.00029726012379338292 0 -0.0019643094492324646 -0.00014244956124958606 0 -0.0010401000808653001 -0.00010859759949655264 0 -0.0019643094492324646 -0.00014244956124958606 0 -0.0020298452148263444 0.00030566538469502155 0 -0.0030868445653401337 -0.00029726012379338292 0 -0.0019643094492324646 -0.00014244956124958606 0 -0.0029508150976190212 -0.00022454308873317381 0 -0.0019643094492324646 -0.00014244956124958606 0 -0.0029508150976190212 -0.00022454308873317381 0 -0.0016127399793036254 -1.265958956889618e-06 0 -0.0029508150976190212 -0.00022454308873317381 0 -0.0016127399793036254 -1.265958956889618e-06 0 -0.0041366319893895572 -1.89955256731949e-07 0 -0.0029508150976190212 -0.00022454308873317381 0 -0.0041366319893895572 -1.89955256731949e-07 0 -0.003943946617578179 -0.00022506691347591164 0 -0.0030868445653401337 -0.00029726012379338292 0 -0.003943946617578179 -0.00022506691347591164 0 -0.004555780328177471 -0.00023357046548186272 0 -0.0030868445653401337 -0.00029726012379338292 0 -0.0029508150976190212 -0.00022454308873317381 0 -0.003943946617578179 -0.00022506691347591164 0 -0.003943946617578179 -0.00022506691347591164 0 -0.0049889569982349826 -0.00017773368501584861 0 -0.004555780328177471 -0.00023357046548186272 0 -0.0041366319893895572 -1.89955256731949e-07 0 -0.003943946617578179 -0.00022506691347591164 0 -0.0049889569982349826 -0.00017773368501584861 0 -0.0041366319893895572 -1.89955256731949e-07 0 -0.0049889569982349826 -0.00017773368501584861 0 -0.0066607725665387895 -1.1994759761735503e-06 0 -0.0031081908051515381 0.0011323849011506024 0 -0.0017191088417676367 0.0012661680827238185 0 -0.0029155182365345283 -7.0562527789504964e-05 0 -0.0023052118407172698 0.00051412842990927906 0 -0.0021587952004972692 -0.00078444938734117215 0 -0.0013117716625990605 0.0013990977617618996 0 -0.0017191088417676367 0.0012661680827238185 0 -0.0018858369718468863 -0.00033910386413674778 0 -0.0013117716625990605 0.0013990977617618996 0 -0.00093316047812702478 -0.0005917223489617996 0 -0.0018858369718468863 -0.00033910386413674778 0 -0.0017191088417676367 0.0012661680827238185 0 -0.0018858369718468863 -0.00033910386413674778 0 -0.0029155182365345283 -7.0562527789504964e-05 0 -0.0018858369718468863 -0.00033910386413674778 0 -0.0029155182365345283 -7.0562527789504964e-05 0 -0.00290037889425406 -0.0011605047655530538 0 -0.0018858369718468863 -0.00033910386413674778 0 -0.0015428839614731642 -0.0014250315034049735 0 -0.0025154990032349336 -0.002055708834599919 0 -0.0018858369718468863 -0.00033910386413674778 0 -0.00290037889425406 -0.0011605047655530538 0 -0.0025154990032349336 -0.002055708834599919 0 -0.00093316047812702478 -0.0005917223489617996 0 -0.0015428839614731642 -0.0014250315034049735 0 -0.00087062104996494486 -0.002594639769528373 0 -0.0021587952004972692 -0.00078444938734117215 0 -0.0071765705151563908 0.00020098791078465502 0 -0.00093316047812702478 -0.0005917223489617996 0 -0.0018858369718468863 -0.00033910386413674778 0 -0.0015428839614731642 -0.0014250315034049735 0 -0.0015428839614731642 -0.0014250315034049735 0 -0.0025154990032349336 -0.002055708834599919 0 -0.00087062104996494486 -0.002594639769528373 0 -0.012872720381476582 0.0016116539905524075 0 -0.013707318596224044 0.0023088901059432217 0 -0.012266471666798701 0.0018135019178306456 0 -0.0083201299382397783 0.00022242309705408831 0 -0.0071765705151563908 0.00020098791078465502 0 -0.012872720381476582 0.0016116539905524075 0 -0.013707318596224044 0.0023088901059432217 0 -0.013436156698125371 0.0015197960835632417 0 -0.014059225676006577 0.0017992052644739819 0 -0.013707318596224044 0.0023088901059432217 0 -0.013436156698125371 0.0015197960835632417 0 -0.014059225676006577 0.0017992052644739819 0 -0.013707318596224044 0.0023088901059432217 0 -0.014472676358571846 0.0021014250692907807 0 -0.0049889569982349826 -0.00017773368501584861 0 -0.0066607725665387895 -1.1994759761735503e-06 0 -0.0056909913374848702 2.6065914946061188e-05 0 -0.0049889569982349826 -0.00017773368501584861 0 -0.004555780328177471 -0.00023357046548186272 0 -0.0056909913374848702 2.6065914946061188e-05 0 -0.004555780328177471 -0.00023357046548186272 0 -0.0056909913374848702 2.6065914946061188e-05 0 -0.0055931882669769482 0.00038264019504444431 0 -0.0056909913374848702 2.6065914946061188e-05 0 -0.0055931882669769482 0.00038264019504444431 0 -0.0067772437012925627 0.00039308718986237639 0 -0.0071765705151563908 0.00020098791078465502 0 -0.0092500873831238197 0.00084728129585368267 0 -0.0066607725665387895 -1.1994759761735503e-06 0 -0.0056909913374848702 2.6065914946061188e-05 0 -0.0067772437012925627 0.00039308718986237639 0 -0.0066607725665387895 -1.1994759761735503e-06 0 -0.0091805957069729348 2.8512569163468927e-06 0 -0.0067772437012925627 0.00039308718986237639 0 -0.0091841747982195684 3.7389540991320581e-07 0 -0.0092500873831238197 0.00084728129585368267 0 -0.0091875736695789349 3.1574883345478479e-06 0 -0.011166819564970365 0.0013364059242645242 0 -0.010838750717919038 4.6040146893837615e-05 0 -0.011166819564970365 0.0013364059242645242 0 -0.012236997139073611 0.001242418927345763 0 -0.011683222791422634 0.00037169668383988541 0 -0.011166819564970365 0.0013364059242645242 0 -0.011683222791422634 0.00037169668383988541 0 -0.010838750717919038 4.6040146893837615e-05 0 -0.0071765705151563908 0.00020098791078465502 0 -0.0098163026943718073 0.0015942883757420893 0 -0.01225062172602645 0.0018427500698508556 0 -0.011166819564970365 0.0013364059242645242 0 -0.012236997139073611 0.001242418927345763 0 -0.012236997139073611 0.001242418927345763 0 -0.011683222791422634 0.00037169668383988541 0 -0.012389182674054824 0.00059119926176247827 0 -0.011683222791422634 0.00037169668383988541 0 -0.012389182674054824 0.00059119926176247827 0 -0.01234676935679198 3.1857449683111159e-05 0 -0.011610659349238947 -3.3862932033216687e-05 0 -0.011683222791422634 0.00037169668383988541 0 -0.01234676935679198 3.1857449683111159e-05 0 -0.011610659349238947 -3.3862932033216687e-05 0 -0.011683222791422634 0.00037169668383988541 0 -0.010838750717919038 4.6040146893837615e-05 0 -0.011365513393835942 -1.6338237327023716e-06 0 -0.0091875736695789349 3.1574883345478479e-06 0 -0.010838750717919038 4.6040146893837615e-05 0 -0.011365513393835942 -1.6338237327023716e-06 0 -0.011610659349238947 -3.3862932033216687e-05 0 -0.010838750717919038 4.6040146893837615e-05 0 -0.01336159043741794 0.0010188355279904075 0 -0.013969976927667689 0.0012320277801860927 0 -0.013568713716866715 0.00061774782968451454 0 -0.014059225676006577 0.0017992052644739819 0 -0.013969976927667689 0.0012320277801860927 0 -0.013436156698125371 0.0015197960835632417 0 -0.01336159043741794 0.0010188355279904075 0 -0.013969976927667689 0.0012320277801860927 0 -0.013436156698125371 0.0015197960835632417 0 -0.01336159043741794 0.0010188355279904075 0 -0.013436156698125371 0.0015197960835632417 0 -0.012818370319217317 0.0011051837054010497 0 -0.012872720381476582 0.0016116539905524075 0 -0.013436156698125371 0.0015197960835632417 0 -0.012818370319217317 0.0011051837054010497 0 -0.012872720381476582 0.0016116539905524075 0 -0.012266471666798701 0.0018135019178306456 0 -0.012236997139073611 0.001242418927345763 0 -0.012872720381476582 0.0016116539905524075 0 -0.012236997139073611 0.001242418927345763 0 -0.012818370319217317 0.0011051837054010497 0 -0.012818370319217317 0.0011051837054010497 0 -0.012928897396574988 0.00071291453174872549 0 -0.012389182674054824 0.00059119926176247827 0 -0.012236997139073611 0.001242418927345763 0 -0.012818370319217317 0.0011051837054010497 0 -0.012389182674054824 0.00059119926176247827 0 -0.01336159043741794 0.0010188355279904075 0 -0.012818370319217317 0.0011051837054010497 0 -0.012928897396574988 0.00071291453174872549 0 -0.012928897396574988 0.00071291453174872549 0 -0.012824356474432929 0.00029509338721626352 0 -0.013568713716866715 0.00061774782968451454 0 -0.012928897396574988 0.00071291453174872549 0 -0.012389182674054824 0.00059119926176247827 0 -0.012824356474432929 0.00029509338721626352 0 -0.013068217586823099 2.9805553261976977e-06 0 -0.01234676935679198 3.1857449683111159e-05 0 -0.012824356474432929 0.00029509338721626352 0 -0.012389182674054824 0.00059119926176247827 0 -0.01234676935679198 3.1857449683111159e-05 0 -0.012824356474432929 0.00029509338721626352 0 -0.013068217586823099 2.9805553261976977e-06 0 -0.012824356474432929 0.00029509338721626352 0 -0.013568713716866715 0.00061774782968451454 0 -0.013068217586823099 2.9805553261976977e-06 0 -0.013568713716866715 0.00061774782968451454 0 -0.014097291090835126 0.00024357031496885541 0 -0.01336159043741794 0.0010188355279904075 0 -0.012928897396574988 0.00071291453174872549 0 -0.013568713716866715 0.00061774782968451454 0 -0.013969976927667689 0.0012320277801860927 0 -0.013568713716866715 0.00061774782968451454 0 -0.014507015266167725 0.00085605006258025979 0 -0.013568713716866715 0.00061774782968451454 0 -0.014097291090835126 0.00024357031496885541 0 -0.014507015266167725 0.00085605006258025979 0 -0.014097291090835126 0.00024357031496885541 0 -0.014507015266167725 0.00085605006258025979 0 -0.015415386958492481 0.00047875628443395653 0 -0.013969976927667689 0.0012320277801860927 0 -0.014507015266167725 0.00085605006258025979 0 -0.014748895204308794 0.00156668559128914 0 -0.014507015266167725 0.00085605006258025979 0 -0.014748895204308794 0.00156668559128914 0 -0.015288408745309338 0.0012602128765047858 0 -0.014059225676006577 0.0017992052644739819 0 -0.013969976927667689 0.0012320277801860927 0 -0.014748895204308794 0.00156668559128914 0 -0.015288408745309338 0.0012602128765047858 0 -0.01574604214304055 0.0016059893615132748 0 -0.015346775845697337 0.0019728356355383772 0 -0.014748895204308794 0.00156668559128914 0 -0.015288408745309338 0.0012602128765047858 0 -0.015346775845697337 0.0019728356355383772 0 -0.016556798887922948 9.04578671547379e-05 0 -0.015415386958492481 0.00047875628443395653 0 -0.016479199015247969 0.00081263738240866718 0 -0.015288408745309338 0.0012602128765047858 0 -0.015415386958492481 0.00047875628443395653 0 -0.01572974983847417 0.0010682554293136876 0 -0.015487552227973263 0.00051315074932100594 0 -0.015968475503084899 0.00082763800918953141 0 -0.014507015266167725 0.00085605006258025979 0 -0.015288408745309338 0.0012602128765047858 0 -0.015415386958492481 0.00047875628443395653 0 -0.016810470171508687 0.00037288991630178396 0 -0.016817685812575481 0.00059934554785326529 0 -0.016479199015247969 0.00081263738240866718 0 -0.016556798887922948 9.04578671547379e-05 0 -0.016810470171508687 0.00037288991630178396 0 -0.016479199015247969 0.00081263738240866718 0 -0.016962918174919652 0.00046835014927051254 0 -0.016810470171508687 0.00037288991630178396 0 -0.016817685812575481 0.00059934554785326529 0 -0.016962918174919652 0.00046835014927051254 0 -0.016849513040749661 0.00058785785547239399 0 -0.016817685812575481 0.00059934554785326529 0 -0.016849513040749661 0.00058785785547239399 0 -0.016817685812575481 0.00059934554785326529 0 -0.016799624005562796 0.00068362314110468302 0 -0.016849513040749661 0.00058785785547239399 0 -0.016778031637660246 0.00058564705659146904 0 -0.016799624005562796 0.00068362314110468302 0 -0.016238250414599854 0.0015745283396331625 0 -0.01572974983847417 0.0010682554293136876 0 -0.01574604214304055 0.0016059893615132748 0 -0.016817685812575481 0.00059934554785326529 0 -0.016799624005562796 0.00068362314110468302 0 -0.016479199015247969 0.00081263738240866718 0 -0.016959600709195333 0.0014466503981069325 0 -0.015968475503084899 0.00082763800918953141 0 -0.015288408745309338 0.0012602128765047858 0 -0.01572974983847417 0.0010682554293136876 0 -0.01574604214304055 0.0016059893615132748 0 -0.016238250414599854 0.0015745283396331625 0 -0.01574604214304055 0.0016059893615132748 0 -0.015919486684734252 0.0022561509496543232 0 -0.01574604214304055 0.0016059893615132748 0 -0.015919486684734252 0.0022561509496543232 0 -0.015346775845697337 0.0019728356355383772 0 -0.014115560613498104 9.3829876718926809e-06 0 -0.011573933633358726 -0.00019909938452993101 0 -0.016737047173623225 0.0019978902213703838 0 -0.016238250414599854 0.0015745283396331625 0 -0.015919486684734252 0.0022561509496543232 0 -0.014115560613498104 9.3829876718926809e-06 0 -0.016959600709195333 0.0014466503981069325 0 -0.016778031637660246 0.00058564705659146904 0 -0.016759344620504418 0.00051334278923457924 0 -0.016799624005562796 0.00068362314110468302 0 -0.0093830273991371092 -0.0032963088056675908 0 -0.0084835178561248389 -0.0020890376881229564 0 -0.0069662616000573958 -0.0026848732854694423 0 -0.0084835178561248389 -0.0020890376881229564 0 -0.0076759430149844808 -0.0013397001930336341 0 -0.0069662616000573958 -0.0026848732854694423 0 -0.0095225445013641975 -0.0018479963731768217 0 -0.0086480910105850364 -0.001150501475829388 0 -0.0084835178561248389 -0.0020890376881229564 0 -0.0086480910105850364 -0.001150501475829388 0 -0.0084835178561248389 -0.0020890376881229564 0 -0.0076759430149844808 -0.0013397001930336341 0 -0.0061261291019850221 -0.0012055588463318137 0 -0.0069662616000573958 -0.0026848732854694423 0 -0.0053669630833835507 -0.0016790240925087479 0 -0.0076759430149844808 -0.0013397001930336341 0 -0.0069662616000573958 -0.0026848732854694423 0 -0.0069010262094768285 -0.0013669762924262258 0 -0.0061261291019850221 -0.0012055588463318137 0 -0.0069662616000573958 -0.0026848732854694423 0 -0.0069010262094768285 -0.0013669762924262258 0 -0.0069662616000573958 -0.0026848732854694423 0 -0.0053669630833835507 -0.0016790240925087479 0 -0.0045129711711632487 -0.0019874548971355946 0 -0.015919486684734252 0.0022561509496543232 0 -0.014897121750692839 0.0026188683415585209 0 -0.015346775845697337 0.0019728356355383772 0 -0.011573933633358726 -0.00019909938452993101 0 -0.0079731824551247023 -0.00053996392324245066 0 -0.0046763177369094702 -0.00097123905384117895 0 -0.0053669630833835507 -0.0016790240925087479 0 -0.0045054886606534913 -0.0018819485230551908 0 -0.0049018192721810502 -0.001790156589426227 0 -0.0079731824551247023 -0.00053996392324245066 0 -0.003817245490326463 -0.00084136624677283466 0 -0.00290037889425406 -0.0011605047655530538 0 -0.0045054886606534913 -0.0018819485230551908 0 -0.0083201299382397783 0.00022242309705408831 0 -0.0079731824551247023 -0.00053996392324245066 0 -0.0019004951147145123 -0.0010891195879691657 0 -0.0079731824551247023 -0.00053996392324245066 0 -0.00290037889425406 -0.0011605047655530538 0 -0.0025154990032349336 -0.002055708834599919 0 -0.0042281360934935622 -0.0014562204539205791 0 -0.003817245490326463 -0.00084136624677283466 0 -0.0046763177369094702 -0.00097123905384117895 0 -0.0045054886606534913 -0.0018819485230551908 0 -0.014897121750692839 0.0026188683415585209 0 -0.014472676358571846 0.0021014250692907807 0 -0.014899965049769657 0.0021212729425445663 0 -0.013707318596224044 0.0023088901059432217 0 -0.014897121750692839 0.0026188683415585209 0 -0.014472676358571846 0.0021014250692907807 0 -0.014059225676006577 0.0017992052644739819 0 -0.014748895204308794 0.00156668559128914 0 -0.014472676358571846 0.0021014250692907807 0 -0.014748895204308794 0.00156668559128914 0 -0.014472676358571846 0.0021014250692907807 0 -0.014899965049769657 0.0021212729425445663 0 -0.014748895204308794 0.00156668559128914 0 -0.015346775845697337 0.0019728356355383772 0 -0.014899965049769657 0.0021212729425445663 0 -0.014897121750692839 0.0026188683415585209 0 -0.015346775845697337 0.0019728356355383772 0 -0.014899965049769657 0.0021212729425445663 0 -0.021525631566137324 0.00096078893916194653 0 -0.021588321538891529 0.0010002545366232999 0 -0.021505435381592695 0.001033501924593764 0 -0.021525631566137324 0.00096078893916194653 0 -0.021575740527914535 0.00091996010399593138 0 -0.021588321538891529 0.0010002545366232999 0 -0.021455911311973584 0.00096391595384791794 0 -0.021525631566137324 0.00096078893916194653 0 -0.021505435381592695 0.001033501924593764 0 -0.021455911311973584 0.00096391595384791794 0 -0.021505435381592695 0.001033501924593764 0 -0.021394049937440665 0.0010291057856348228 0 -0.021455911311973584 0.00096391595384791794 0 -0.021416648228537605 0.0009150923545413513 0 -0.021495664751271279 0.00088028795252260885 0 -0.021455911311973584 0.00096391595384791794 0 -0.021525631566137324 0.00096078893916194653 0 -0.021495664751271279 0.00088028795252260885 0 -0.020753946299493845 0.00096310177766384701 0 -0.020876466046311704 0.0010300805352120377 0 -0.021525631566137324 0.00096078893916194653 0 -0.021575740527914535 0.00091996010399593138 0 -0.021495664751271279 0.00088028795252260885 0 -0.020753946299493845 0.00096310177766384701 0 -0.02135269919620026 0.00098218643193753339 0 -0.020094456677601895 0.0010768470678779226 0 -0.020059595240786796 0.0010487539647105251 0 -0.020039287993568425 0.0011151915471412182 0 -0.021828087792734683 0.00082490226406751381 0 -0.021731946038946619 0.00054990412384148897 0 -0.022060944203837685 0.00068696577433582451 0 -0.02135269919620026 0.00098218643193753339 0 -0.020827167924674289 0.00082750039671478873 0 -0.02135269919620026 0.00098218643193753339 0 -0.021863548066517993 0.0010399492312444963 0 -0.022139871097411296 0.0009486963658965874 0 -0.022148817178304202 0.0010096886465346669 0 -0.022181986229010544 0.00096766328926616713 0 -0.02135269919620026 0.00098218643193753339 0 -0.022311252895499237 0.0010358803432051463 0 -0.021658460664623364 0.00096450190642952995 0 -0.021588321538891529 0.0010002545366232999 0 -0.02166529296690093 0.0010484671980663519 0 -0.021575740527914535 0.00091996010399593138 0 -0.021658460664623364 0.00096450190642952995 0 -0.021588321538891529 0.0010002545366232999 0 -0.021588321538891529 0.0010002545366232999 0 -0.021599756744781755 0.0010695878151732372 0 -0.02166529296690093 0.0010484671980663519 0 -0.021599756744781755 0.0010695878151732372 0 -0.02166529296690093 0.0010484671980663519 0 -0.021677220006250539 0.0011357827230440739 0 -0.021863548066517993 0.0010399492312444963 0 -0.023603507401464646 0.0011507368326646628 0 -0.022148817178304202 0.0010096886465346669 0 -0.022241360566488805 0.0010686523333956089 0 -0.022135365568747366 0.0012039970290528637 0 -0.022148817178304202 0.0010096886465346669 0 -0.022241360566488805 0.0010686523333956089 0 -0.022181986229010544 0.00096766328926616713 0 -0.022241360566488805 0.0010686523333956089 0 -0.022135365568747366 0.0012039970290528637 0 -0.022316672804106704 0.001217319276257255 0 -0.024327233759877803 0.0012826305688004704 0 -0.023623479527885266 0.0012836540785653835 0 -0.023804069615050907 0.00063111350635979187 0 -0.023603507401464646 0.0011507368326646628 0 -0.022915136871526375 0.0012262294344891241 0 -0.026200714819606827 0.00058515825268070135 0 -0.025052344290630801 0.00054118476310671064 0 -0.025634632435838144 0.0011031151371425215 0 -0.023603507401464646 0.0011507368326646628 0 -0.023374249726815146 0.00081217476737855266 0 -0.021599756744781755 0.0010695878151732372 0 -0.021677220006250539 0.0011357827230440739 0 -0.021563534263276861 0.0011339164234475433 0 -0.021588321538891529 0.0010002545366232999 0 -0.021599756744781755 0.0010695878151732372 0 -0.021505435381592695 0.001033501924593764 0 -0.021599756744781755 0.0010695878151732372 0 -0.021563534263276861 0.0011339164234475433 0 -0.021505435381592695 0.001033501924593764 0 -0.021505435381592695 0.001033501924593764 0 -0.021457915700839544 0.0010759787998336462 0 -0.021394049937440665 0.0010291057856348228 0 -0.021563534263276861 0.0011339164234475433 0 -0.021505435381592695 0.001033501924593764 0 -0.021457915700839544 0.0010759787998336462 0 -0.023374249726815146 0.00081217476737855266 0 -0.022583783829088776 0.00083645464672289587 0 -0.021563534263276861 0.0011339164234475433 0 -0.021457915700839544 0.0010759787998336462 0 -0.021448591162529906 0.0011237169151068326 0 -0.023754103946597736 0.00053292654387359652 0 -0.022398660470056488 0.00054724499033516479 0 -0.023441822091181917 0.0010997212256272718 0 -0.021892156653174222 0.00075570123649627385 0 -0.022770023795836869 0.00091766049657803677 0 -0.021448591162529906 0.0011237169151068326 0 -0.021350594265663634 0.001093277768195384 0 -0.021391603120403387 0.0010699267372724093 0 -0.022583783829088776 0.00083645464672289587 0 -0.021892156653174222 0.00075570123649627385 0 -0.021457915700839544 0.0010759787998336462 0 -0.021448591162529906 0.0011237169151068326 0 -0.021391603120403387 0.0010699267372724093 0 -0.021350594265663634 0.001093277768195384 0 -0.021342534397196699 0.0010429110329719603 0 -0.021391603120403387 0.0010699267372724093 0 -0.021350594265663634 0.001093277768195384 0 -0.021342534397196699 0.0010429110329719603 0 -0.021310393420223599 0.0010058113259504365 0 -0.021824943001164644 0.0006772284982488508 0 -0.021797803686434195 0.00069304781136948323 0 -0.021595287011200736 0.00076517625093111259 0 -0.021892156653174222 0.00075570123649627385 0 -0.021871756558861619 0.00075125758775412149 0 -0.021342534397196699 0.0010429110329719603 0 -0.021394049937440665 0.0010291057856348228 0 -0.021312534999591039 0.0010318195278030873 0 -0.021342534397196699 0.0010429110329719603 0 -0.021310393420223599 0.0010058113259504365 0 -0.021312534999591039 0.0010318195278030873 0 -0.021457915700839544 0.0010759787998336462 0 -0.021394049937440665 0.0010291057856348228 0 -0.021391603120403387 0.0010699267372724093 0 -0.021342534397196699 0.0010429110329719603 0 -0.021394049937440665 0.0010291057856348228 0 -0.021391603120403387 0.0010699267372724093 0 -0.021892156653174222 0.00075570123649627385 0 -0.021430950685006694 0.00089868876653069539 0 -0.021797803686434195 0.00069304781136948323 0 -0.021629834636931321 0.00074867336964363237 0 -0.021595287011200736 0.00076517625093111259 0 -0.02164344766926992 0.00074347085726857317 0 -0.021629834636931321 0.00074867336964363237 0 -0.021595287011200736 0.00076517625093111259 0 -0.02164344766926992 0.00074347085726857317 0 -0.021629834636931321 0.00074867336964363237 0 -0.021595505736111867 0.00079651117185919264 0 -0.021797803686434195 0.00069304781136948323 0 -0.021629834636931321 0.00074867336964363237 0 -0.021595505736111867 0.00079651117185919264 0 -0.02164344766926992 0.00074347085726857317 0 -0.021595287011200736 0.00076517625093111259 0 -0.021594756829158655 0.001018555250661351 0 -0.021310393420223599 0.0010058113259504365 0 -0.021594756829158655 0.001018555250661351 0 -0.021247072656842982 0.0010724445027872919 0 -0.021430950685006694 0.00089868876653069539 0 -0.021618603179596185 0.0010148016655091685 0 -0.021594756829158655 0.001018555250661351 0 -0.021247072656842982 0.0010724445027872919 0 -0.021303200113826439 0.0011399616699676897 0 -0.021310393420223599 0.0010058113259504365 0 -0.021247072656842982 0.0010724445027872919 0 -0.021312534999591039 0.0010318195278030873 0 -0.021247072656842982 0.0010724445027872919 0 -0.020925158385914688 0.0010869775784450098 0 -0.021054471780109954 0.0011355126228415463 0 -0.021179728246656395 0.0010753967860756891 0 -0.021251415726030232 0.0010013937575065149 0 -0.021247072656842982 0.0010724445027872919 0 -0.021312534999591039 0.0010318195278030873 0 -0.02132485700475463 0.00092711792415556651 0 -0.021303200113826439 0.0011399616699676897 0 -0.021054471780109954 0.0011355126228415463 0 -0.021102120667158438 0.001175456751829428 0 -0.021247072656842982 0.0010724445027872919 0 -0.021303200113826439 0.0011399616699676897 0 -0.021054471780109954 0.0011355126228415463 0 -0.021394049937440665 0.0010291057856348228 0 -0.021312534999591039 0.0010318195278030873 0 -0.021382175083816145 0.00097496821889859813 0 -0.021455911311973584 0.00096391595384791794 0 -0.021394049937440665 0.0010291057856348228 0 -0.021382175083816145 0.00097496821889859813 0 -0.021312534999591039 0.0010318195278030873 0 -0.02132485700475463 0.00092711792415556651 0 -0.021382175083816145 0.00097496821889859813 0 -0.02132485700475463 0.00092711792415556651 0 -0.021382175083816145 0.00097496821889859813 0 -0.021416648228537605 0.0009150923545413513 0 -0.021455911311973584 0.00096391595384791794 0 -0.021382175083816145 0.00097496821889859813 0 -0.021416648228537605 0.0009150923545413513 0 -0.021251415726030232 0.0010013937575065149 0 -0.020576263015028285 0.00083790825531645824 0 -0.02132485700475463 0.00092711792415556651 0 -0.021416648228537605 0.0009150923545413513 0 -0.021417760424849868 0.0008365042157282332 0 -0.020925158385914688 0.0010869775784450098 0 -0.020895975293286601 0.0010700774869219871 0 -0.020953015363529795 0.0010183063934819294 0 -0.020895975293286601 0.0010700774869219871 0 -0.020881529246842626 0.0010297484461736701 0 -0.020890767144315054 0.0010759981537433426 0 -0.020895975293286601 0.0010700774869219871 0 -0.020881529246842626 0.0010297484461736701 0 -0.020861198312758657 0.00092557381751577085 0 -0.020881529246842626 0.0010297484461736701 0 -0.020863871753298242 0.0010592493930091981 0 -0.020890767144315054 0.0010759981537433426 0 -0.020881529246842626 0.0010297484461736701 0 -0.020875855265731814 0.0010609598219136552 0 -0.020863871753298242 0.0010592493930091981 0 -0.020881529246842626 0.0010297484461736701 0 -0.020875855265731814 0.0010609598219136552 0 -0.020861198312758657 0.00092557381751577085 0 -0.020875855265731814 0.0010609598219136552 0 -0.020861198312758657 0.00092557381751577085 0 -0.020827222114246636 0.001148313967746697 0 -0.020674267658481724 0.00076936924343365832 0 -0.020576263015028285 0.00083790825531645824 0 -0.020861198312758657 0.00092557381751577085 0 -0.019614107464551733 -6.2108696871881932e-05 0 -0.019611812475072488 0.0008555897711991445 0 -0.020861198312758657 0.00092557381751577085 0 -0.019923479075747548 0.0012029481174280156 0 -0.020363107563331713 0.0012845420231116023 0 -0.020895975293286601 0.0010700774869219871 0 -0.020861198312758657 0.00092557381751577085 0 -0.020953015363529795 0.0010183063934819294 0 -0.020861198312758657 0.00092557381751577085 0 -0.019611812475072488 0.0008555897711991445 0 -0.019923479075747548 0.0012029481174280156 0 -0.020944951864131978 0.0011320253958151062 0 -0.021054471780109954 0.0011355126228415463 0 -0.021102120667158438 0.001175456751829428 0 -0.020944951864131978 0.0011320253958151062 0 -0.020940568582300929 0.0011060718560103944 0 -0.021054471780109954 0.0011355126228415463 0 -0.020895975293286601 0.0010700774869219871 0 -0.020940568582300929 0.0011060718560103944 0 -0.021054471780109954 0.0011355126228415463 0 -0.020925158385914688 0.0010869775784450098 0 -0.020895975293286601 0.0010700774869219871 0 -0.021054471780109954 0.0011355126228415463 0 -0.020895975293286601 0.0010700774869219871 0 -0.020940568582300929 0.0011060718560103944 0 -0.020890767144315054 0.0010759981537433426 0 -0.020863871753298242 0.0010592493930091981 0 -0.020890767144315054 0.0010759981537433426 0 -0.020850973074662188 0.0010718718578052531 0 -0.020850973074662188 0.0010718718578052531 0 -0.020878206368685922 0.0010954424450422319 0 -0.020790495435269063 0.001060357995787314 0 -0.020890767144315054 0.0010759981537433426 0 -0.020850973074662188 0.0010718718578052531 0 -0.020878206368685922 0.0010954424450422319 0 -0.020940568582300929 0.0011060718560103944 0 -0.020890767144315054 0.0010759981537433426 0 -0.020878206368685922 0.0010954424450422319 0 -0.020944951864131978 0.0011320253958151062 0 -0.020940568582300929 0.0011060718560103944 0 -0.020878206368685922 0.0010954424450422319 0 -0.020944951864131978 0.0011320253958151062 0 -0.020878206368685922 0.0010954424450422319 0 -0.020810610444418884 0.0010906227088762291 0 -0.020878206368685922 0.0010954424450422319 0 -0.020810610444418884 0.0010906227088762291 0 -0.020790495435269063 0.001060357995787314 0 -0.020944951864131978 0.0011320253958151062 0 -0.020810610444418884 0.0010906227088762291 0 -0.020864017591205725 0.0011186109167635008 0 -0.020561863408904629 0.00097899165728385367 0 -0.020699665010307722 0.001041172034043869 0 -0.020702069618440053 0.0010197367889070699 0 -0.020810610444418884 0.0010906227088762291 0 -0.020699665010307722 0.001041172034043869 0 -0.020662393004282645 0.0010514181775781793 0 -0.020699665010307722 0.001041172034043869 0 -0.020702069618440053 0.0010197367889070699 0 -0.020790495435269063 0.001060357995787314 0 -0.020810610444418884 0.0010906227088762291 0 -0.020699665010307722 0.001041172034043869 0 -0.020790495435269063 0.001060357995787314 0 -0.020561863408904629 0.00097899165728385367 0 -0.020702069618440053 0.0010197367889070699 0 -0.020648088047375605 0.00097082682505148063 0 -0.020702069618440053 0.0010197367889070699 0 -0.020741806118719053 0.0010139862762580138 0 -0.020790495435269063 0.001060357995787314 0 -0.020702069618440053 0.0010197367889070699 0 -0.020741806118719053 0.0010139862762580138 0 -0.020648088047375605 0.00097082682505148063 0 -0.020741806118719053 0.0010139862762580138 0 -0.020790495435269063 0.001060357995787314 0 -0.020816848801893318 0.0010477578737295118 0 -0.020850973074662188 0.0010718718578052531 0 -0.020790495435269063 0.001060357995787314 0 -0.020816848801893318 0.0010477578737295118 0 -0.020863871753298242 0.0010592493930091981 0 -0.020850973074662188 0.0010718718578052531 0 -0.020816848801893318 0.0010477578737295118 0 -0.020816848801893318 0.0010477578737295118 0 -0.020777652083872611 0.00099288928991699975 0 -0.02083122546895921 0.0010558414778515158 0 -0.020741806118719053 0.0010139862762580138 0 -0.020816848801893318 0.0010477578737295118 0 -0.020777652083872611 0.00099288928991699975 0 -0.020777652083872611 0.00099288928991699975 0 -0.020663185874582702 0.00086238685315724562 0 -0.020842503355390275 0.0008928787692286189 0 -0.020663185874582702 0.00086238685315724562 0 -0.020703295811754306 0.0009600947413949438 0 -0.020630032193838122 0.00091848223288699352 0 -0.020663185874582702 0.00086238685315724562 0 -0.020630032193838122 0.00091848223288699352 0 -0.020543827371642332 0.00084619697371721635 0 -0.020777652083872611 0.00099288928991699975 0 -0.020663185874582702 0.00086238685315724562 0 -0.020703295811754306 0.0009600947413949438 0 -0.020741806118719053 0.0010139862762580138 0 -0.020777652083872611 0.00099288928991699975 0 -0.020703295811754306 0.0009600947413949438 0 -0.020703295811754306 0.0009600947413949438 0 -0.020648088047375605 0.00097082682505148063 0 -0.020630032193838122 0.00091848223288699352 0 -0.020741806118719053 0.0010139862762580138 0 -0.020703295811754306 0.0009600947413949438 0 -0.020648088047375605 0.00097082682505148063 0 -0.020648088047375605 0.00097082682505148063 0 -0.020553411780891286 0.00091607760923142307 0 -0.020630032193838122 0.00091848223288699352 0 -0.020553411780891286 0.00091607760923142307 0 -0.020630032193838122 0.00091848223288699352 0 -0.020543827371642332 0.00084619697371721635 0 -0.020553411780891286 0.00091607760923142307 0 -0.020543827371642332 0.00084619697371721635 0 -0.020438763997183612 0.00084707485332437781 0 -0.020553411780891286 0.00091607760923142307 0 -0.020438763997183612 0.00084707485332437781 0 -0.020467002765192886 0.00090441877754765705 0 -0.020438763997183612 0.00084707485332437781 0 -0.020356371442377393 0.00085187415437550931 0 -0.020318184087663404 0.00077867411357069639 0 -0.020438763997183612 0.00084707485332437781 0 -0.020467002765192886 0.00090441877754765705 0 -0.020356371442377393 0.00085187415437550931 0 -0.020561863408904629 0.00097899165728385367 0 -0.020553411780891286 0.00091607760923142307 0 -0.020467002765192886 0.00090441877754765705 0 -0.020561863408904629 0.00097899165728385367 0 -0.020648088047375605 0.00097082682505148063 0 -0.020553411780891286 0.00091607760923142307 0 -0.019531015412605848 0.0020126727734628442 0 -0.020056747294021422 0.0017476907677758454 0 -0.019102008324725857 0.0023233068135632834 0 -0.017578301509706084 -0.00027247026011624031 0 -0.016869096176544664 -0.00093827492241762005 0 -0.019652561749492137 0.0017946573548159007 0 -0.019614080131903956 0.0014630884406179451 0 -0.019359247849195956 0.0017908052482298116 0 -0.019531015412605848 0.0020126727734628442 0 -0.01983619678827854 0.0017785050791199373 0 -0.020056747294021422 0.0017476907677758454 0 -0.019531015412605848 0.0020126727734628442 0 -0.019652561749492137 0.0017946573548159007 0 -0.01983619678827854 0.0017785050791199373 0 -0.019652561749492137 0.0017946573548159007 0 -0.01983619678827854 0.0017785050791199373 0 -0.019771272638471296 0.0016313848355658017 0 -0.01983619678827854 0.0017785050791199373 0 -0.020056747294021422 0.0017476907677758454 0 -0.019771272638471296 0.0016313848355658017 0 -0.019611812475072488 0.0008555897711991445 0 -0.019614080131903956 0.0014630884406179451 0 -0.019923479075747548 0.0012029481174280156 0 -0.019866263395860461 0.0015210729026031054 0 -0.020044624250393769 0.0014741663582918257 0 -0.019923479075747548 0.0012029481174280156 0 -0.020056747294021422 0.0017476907677758454 0 -0.019866263395860461 0.0015210729026031054 0 -0.019771272638471296 0.0016313848355658017 0 -0.020056747294021422 0.0017476907677758454 0 -0.019866263395860461 0.0015210729026031054 0 -0.020044624250393769 0.0014741663582918257 0 -0.019866263395860461 0.0015210729026031054 0 -0.019614080131903956 0.0014630884406179451 0 -0.019923479075747548 0.0012029481174280156 0 -0.019652561749492137 0.0017946573548159007 0 -0.019771272638471296 0.0016313848355658017 0 -0.019614080131903956 0.0014630884406179451 0 -0.019866263395860461 0.0015210729026031054 0 -0.019771272638471296 0.0016313848355658017 0 -0.019614080131903956 0.0014630884406179451 0 -0.020044624250393769 0.0014741663582918257 0 -0.019923479075747548 0.0012029481174280156 0 -0.020363107563331713 0.0012845420231116023 0 -0.020056747294021422 0.0017476907677758454 0 -0.020363107563331713 0.0012845420231116023 0 -0.020827222114246636 0.001148313967746697 0 -0.017578301509706084 -0.00027247026011624031 0 -0.020697024607485234 0.0004783388061248339 0 -0.020056747294021422 0.0017476907677758454 0 -0.020044624250393769 0.0014741663582918257 0 -0.020363107563331713 0.0012845420231116023 0 -0.020861198312758657 0.00092557381751577085 0 -0.020363107563331713 0.0012845420231116023 0 -0.020827222114246636 0.001148313967746697 0 -0.020900880088562543 0.0010728049662548026 0 -0.020827222114246636 0.001148313967746697 0 -0.02083122546895921 0.0010558414778515158 0 -0.020900880088562543 0.0010728049662548026 0 -0.02083122546895921 0.0010558414778515158 0 -0.020842503355390275 0.0008928787692286189 0 -0.020875855265731814 0.0010609598219136552 0 -0.020827222114246636 0.001148313967746697 0 -0.02083122546895921 0.0010558414778515158 0 -0.020875855265731814 0.0010609598219136552 0 -0.020863871753298242 0.0010592493930091981 0 -0.02083122546895921 0.0010558414778515158 0 -0.020863871753298242 0.0010592493930091981 0 -0.020816848801893318 0.0010477578737295118 0 -0.02083122546895921 0.0010558414778515158 0 -0.017578301509706084 -0.00027247026011624031 0 -0.017810800393342631 -0.0013766247783918886 0 -0.020777652083872611 0.00099288928991699975 0 -0.02083122546895921 0.0010558414778515158 0 -0.020842503355390275 0.0008928787692286189 0 -0.014323212629971365 -0.0037189830819736648 0 -0.014241159809398838 -0.0031134060992107854 0 -0.013969063679683707 -0.0035094801889616477 0 -0.014323212629971365 -0.0037189830819736648 0 -0.014871404629459727 -0.0032553577349481774 0 -0.014241159809398838 -0.0031134060992107854 0 -0.014241159809398838 -0.0031134060992107854 0 -0.013969063679683707 -0.0035094801889616477 0 -0.013582014226129419 -0.0032726182676295866 0 -0.018259443029817943 0.0027254554166197325 0 -0.019102008324725857 0.0023233068135632834 0 -0.018070319064609142 0.0029200838735268381 0 -0.016869096176544664 -0.00093827492241762005 0 -0.011347146303932736 -0.0014088233261648016 0 -0.018259443029817943 0.0027254554166197325 0 -0.018338011517989403 0.0025955782890298589 0 -0.019102008324725857 0.0023233068135632834 0 -0.018338011517989403 0.0025955782890298589 0 -0.01865877415593193 0.0023847954712712784 0 -0.019102008324725857 0.0023233068135632834 0 -0.018338011517989403 0.0025955782890298589 0 -0.018379843606626093 0.0024213374406945941 0 -0.01865877415593193 0.0023847954712712784 0 -0.018379843606626093 0.0024213374406945941 0 -0.01865877415593193 0.0023847954712712784 0 -0.018286162374995359 0.0022277841350937049 0 -0.018338011517989403 0.0025955782890298589 0 -0.018379843606626093 0.0024213374406945941 0 -0.018236810961427756 0.002476659704722794 0 -0.018379843606626093 0.0024213374406945941 0 -0.018236810961427756 0.002476659704722794 0 -0.018286162374995359 0.0022277841350937049 0 -0.01865877415593193 0.0023847954712712784 0 -0.019102008324725857 0.0023233068135632834 0 -0.018867557905586321 0.0021938907623947055 0 -0.017242409270049365 0.0028932064298294075 0 -0.018070319064609142 0.0029200838735268381 0 -0.016111726675320542 0.0040223944817055412 0 -0.017242409270049365 0.0028932064298294075 0 -0.018070319064609142 0.0029200838735268381 0 -0.017815818746327431 0.0027752425727760517 0 -0.018338011517989403 0.0025955782890298589 0 -0.017996594051915869 0.0027219728201077183 0 -0.0181386664692001 0.0026097019939859507 0 -0.018259443029817943 0.0027254554166197325 0 -0.018338011517989403 0.0025955782890298589 0 -0.017996594051915869 0.0027219728201077183 0 -0.018259443029817943 0.0027254554166197325 0 -0.018070319064609142 0.0029200838735268381 0 -0.017996594051915869 0.0027219728201077183 0 -0.018070319064609142 0.0029200838735268381 0 -0.017996594051915869 0.0027219728201077183 0 -0.017815818746327431 0.0027752425727760517 0 -0.017996594051915869 0.0027219728201077183 0 -0.0181386664692001 0.0026097019939859507 0 -0.017963436606141022 0.0024910126041363624 0 -0.018338011517989403 0.0025955782890298589 0 -0.0181386664692001 0.0026097019939859507 0 -0.018236810961427756 0.002476659704722794 0 -0.017963436606141022 0.0024910126041363624 0 -0.017711185108755766 0.0020853702335588732 0 -0.018286162374995359 0.0022277841350937049 0 -0.018236810961427756 0.002476659704722794 0 -0.017963436606141022 0.0024910126041363624 0 -0.018286162374995359 0.0022277841350937049 0 -0.0181386664692001 0.0026097019939859507 0 -0.018236810961427756 0.002476659704722794 0 -0.017963436606141022 0.0024910126041363624 0 -0.017963436606141022 0.0024910126041363624 0 -0.017574921498786214 0.0025407560424310256 0 -0.017711185108755766 0.0020853702335588732 0 -0.017963436606141022 0.0024910126041363624 0 -0.017815818746327431 0.0027752425727760517 0 -0.017574921498786214 0.0025407560424310256 0 -0.017996594051915869 0.0027219728201077183 0 -0.017963436606141022 0.0024910126041363624 0 -0.017815818746327431 0.0027752425727760517 0 -0.017242409270049365 0.0028932064298294075 0 -0.017815818746327431 0.0027752425727760517 0 -0.017574921498786214 0.0025407560424310256 0 -0.017574921498786214 0.0025407560424310256 0 -0.017192897134793484 0.002437746714095078 0 -0.017711185108755766 0.0020853702335588732 0 -0.017242409270049365 0.0028932064298294075 0 -0.017574921498786214 0.0025407560424310256 0 -0.017192897134793484 0.002437746714095078 0 -0.017242409270049365 0.0028932064298294075 0 -0.017192897134793484 0.002437746714095078 0 -0.016710551304961206 0.002773028899200264 0 -0.020129019008532388 0.0011876712511105657 0 -0.02008023225023077 0.001150523940332177 0 -0.020061609892109592 0.001237354097324258 0 -0.017711185108755766 0.0020853702335588732 0 -0.018154437537377225 0.00098791144078273318 0 -0.016701304675331756 0.0020614118888513601 0 -0.019057698053526879 0.0010952767784717643 0 -0.018299042602966154 0.0015730314396540696 0 -0.017192897134793484 0.002437746714095078 0 -0.017711185108755766 0.0020853702335588732 0 -0.016701304675331756 0.0020614118888513601 0 -0.017711185108755766 0.0020853702335588732 0 -0.018286162374995359 0.0022277841350937049 0 -0.018402396005251898 0.0017568470138557108 0 -0.017711185108755766 0.0020853702335588732 0 -0.018402396005251898 0.0017568470138557108 0 -0.018154437537377225 0.00098791144078273318 0 -0.019611812475072488 0.0008555897711991445 0 -0.019074177566833495 0.0015050806017888614 0 -0.018154437537377225 0.00098791144078273318 0 -0.01912246510836605 0.0019519244264705176 0 -0.018792548594018549 0.001975010192996941 0 -0.019074177566833495 0.0015050806017888614 0 -0.01912246510836605 0.0019519244264705176 0 -0.019359247849195956 0.0017908052482298116 0 -0.019074177566833495 0.0015050806017888614 0 -0.019531015412605848 0.0020126727734628442 0 -0.019359247849195956 0.0017908052482298116 0 -0.019331607479670547 0.0019766251385516503 0 -0.019531015412605848 0.0020126727734628442 0 -0.019652561749492137 0.0017946573548159007 0 -0.019359247849195956 0.0017908052482298116 0 -0.01912246510836605 0.0019519244264705176 0 -0.019359247849195956 0.0017908052482298116 0 -0.019331607479670547 0.0019766251385516503 0 -0.019331607479670547 0.0019766251385516503 0 -0.019350772724615509 0.0021035818001402507 0 -0.019161451041657559 0.0020955751118052154 0 -0.019531015412605848 0.0020126727734628442 0 -0.019102008324725857 0.0023233068135632834 0 -0.019350772724615509 0.0021035818001402507 0 -0.019531015412605848 0.0020126727734628442 0 -0.019331607479670547 0.0019766251385516503 0 -0.019350772724615509 0.0021035818001402507 0 -0.019102008324725857 0.0023233068135632834 0 -0.019350772724615509 0.0021035818001402507 0 -0.019161451041657559 0.0020955751118052154 0 -0.01912246510836605 0.0019519244264705176 0 -0.019001006538418588 0.002107715713036285 0 -0.018792548594018549 0.001975010192996941 0 -0.019102008324725857 0.0023233068135632834 0 -0.019161451041657559 0.0020955751118052154 0 -0.019001006538418588 0.002107715713036285 0 -0.01912246510836605 0.0019519244264705176 0 -0.019161451041657559 0.0020955751118052154 0 -0.019001006538418588 0.002107715713036285 0 -0.01912246510836605 0.0019519244264705176 0 -0.019331607479670547 0.0019766251385516503 0 -0.019161451041657559 0.0020955751118052154 0 -0.019102008324725857 0.0023233068135632834 0 -0.019001006538418588 0.002107715713036285 0 -0.018867557905586321 0.0021938907623947055 0 -0.01865877415593193 0.0023847954712712784 0 -0.018867557905586321 0.0021938907623947055 0 -0.018792548594018549 0.001975010192996941 0 -0.018792548594018549 0.001975010192996941 0 -0.018402396005251898 0.0017568470138557108 0 -0.019074177566833495 0.0015050806017888614 0 -0.019001006538418588 0.002107715713036285 0 -0.018867557905586321 0.0021938907623947055 0 -0.018792548594018549 0.001975010192996941 0 -0.018792548594018549 0.001975010192996941 0 -0.018286162374995359 0.0022277841350937049 0 -0.018402396005251898 0.0017568470138557108 0 -0.01865877415593193 0.0023847954712712784 0 -0.018792548594018549 0.001975010192996941 0 -0.018286162374995359 0.0022277841350937049 0 -0.018402396005251898 0.0017568470138557108 0 -0.019074177566833495 0.0015050806017888614 0 -0.018154437537377225 0.00098791144078273318 0 -0.019611812475072488 0.0008555897711991445 0 -0.019614080131903956 0.0014630884406179451 0 -0.019074177566833495 0.0015050806017888614 0 -0.019614080131903956 0.0014630884406179451 0 -0.019359247849195956 0.0017908052482298116 0 -0.019074177566833495 0.0015050806017888614 0 -0.020194686268214114 0.0011400158430769894 0 -0.020129019008532388 0.0011876712511105657 0 -0.020140528577161011 0.001106946733201486 0 -0.020576263015028285 0.00083790825531645824 0 -0.019057698053526879 0.0010952767784717643 0 -0.019614107464551733 -6.2108696871881932e-05 0 -0.019611812475072488 0.0008555897711991445 0 -0.018154437537377225 0.00098791144078273318 0 -0.020129019008532388 0.0011876712511105657 0 -0.020140528577161011 0.001106946733201486 0 -0.02008023225023077 0.001150523940332177 0 -0.020094456677601895 0.0010768470678779226 0 -0.020140528577161011 0.001106946733201486 0 -0.02008023225023077 0.001150523940332177 0 -0.021416648228537605 0.0009150923545413513 0 -0.021417760424849868 0.0008365042157282332 0 -0.021495664751271279 0.00088028795252260885 0 -0.020576263015028285 0.00083790825531645824 0 -0.020876466046311704 0.0010300805352120377 0 -0.020094456677601895 0.0010768470678779226 0 -0.020039287993568425 0.0011151915471412182 0 -0.02008023225023077 0.001150523940332177 0 -0.020039287993568425 0.0011151915471412182 0 -0.02008023225023077 0.001150523940332177 0 -0.020015720954499237 0.0011966818475137491 0 -0.020827167924674289 0.00082750039671478873 0 -0.020914698359723718 0.00070970375390545315 0 -0.021595201095368419 0.00030882258322702472 0 -0.021647557183006975 0.00029096674677564824 0 -0.021812816458758523 0.00047092496582226597 0 -0.021731946038946619 0.00054990412384148897 0 -0.021595201095368419 0.00030882258322702472 0 -0.021812816458758523 0.00047092496582226597 0 -0.020914698359723718 0.00070970375390545315 0 -0.019876836164465252 0.00094786382860637325 0 -0.021595201095368419 0.00030882258322702472 0 -0.021538242899614465 0.00023222988374286632 0 -0.021647557183006975 0.00029096674677564824 0 -0.020015720954499237 0.0011966818475137491 0 -0.020061609892109592 0.001237354097324258 0 -0.020041057990880354 0.0012531644263669274 0 -0.02008023225023077 0.001150523940332177 0 -0.020015720954499237 0.0011966818475137491 0 -0.020061609892109592 0.001237354097324258 0 -0.018299042602966154 0.0015730314396540696 0 -0.017260587636725642 0.0020243843560750563 0 -0.017260587636725642 0.0020243843560750563 0 -0.011582673517091626 0.00085611622745012273 0 -0.015447372873798448 0.0014397252911568269 0 -0.016006191264273984 0.00099100862571918462 0 -0.015484390265454904 0.00045814425917488897 0 -0.017242409270049365 0.0028932064298294075 0 -0.016710551304961206 0.002773028899200264 0 -0.016111726675320542 0.0040223944817055412 0 -0.016710551304961206 0.002773028899200264 0 -0.016267119019259209 0.0023970135338667619 0 -0.016111726675320542 0.0040223944817055412 0 -0.016701304675331756 0.0020614118888513601 0 -0.016710551304961206 0.002773028899200264 0 -0.016267119019259209 0.0023970135338667619 0 -0.017192897134793484 0.002437746714095078 0 -0.016701304675331756 0.0020614118888513601 0 -0.016710551304961206 0.002773028899200264 0 -0.021595201095368419 0.00030882258322702472 0 -0.021533605015891882 0.00026371992952690514 0 -0.021538242899614465 0.00023222988374286632 0 -0.020015720954499237 0.0011966818475137491 0 -0.020041057990880354 0.0012531644263669274 0 -0.019998230041334292 0.0012853685075752616 0 -0.017260587636725642 0.0020243843560750563 0 -0.019876836164465252 0.00094786382860637325 0 -0.021533605015891882 0.00026371992952690514 0 -0.021538242899614465 0.00023222988374286632 0 -0.021400295056212146 0.00029609323534555445 0 -0.021426706902492303 0.00028148166890609299 0 -0.021156831612755486 5.7012941652745615e-05 0 -0.021353274389048226 0.00039857596870864832 0 -0.021426706902492303 0.00028148166890609299 0 -0.021538242899614465 0.00023222988374286632 0 -0.021400295056212146 0.00029609323534555445 0 -0.021426706902492303 0.00028148166890609299 0 -0.021353274389048226 0.00039857596870864832 0 -0.021400295056212146 0.00029609323534555445 0 -0.021426706902492303 0.00028148166890609299 0 -0.021510912775677394 0.00019777109054250938 0 -0.021156831612755486 5.7012941652745615e-05 0 -0.021426706902492303 0.00028148166890609299 0 -0.021510912775677394 0.00019777109054250938 0 -0.021538242899614465 0.00023222988374286632 0 -0.021510912775677394 0.00019777109054250938 0 -0.021538242899614465 0.00023222988374286632 0 -0.021647557183006975 0.00029096674677564824 0 -0.021510912775677394 0.00019777109054250938 0 -0.021647557183006975 0.00029096674677564824 0 -0.021830426784968639 0.00028989121228480206 0 -0.021505499578981981 0.00013540842461957987 0 -0.021597159957566316 0.00025974711268210719 0 -0.021510912775677394 0.00019777109054250938 0 -0.021231873305073028 -0.00016721089995251729 0 -0.021156831612755486 5.7012941652745615e-05 0 -0.021647557183006975 0.00029096674677564824 0 -0.021830426784968639 0.00028989121228480206 0 -0.021864656181941118 0.00041263228343964639 0 -0.011566099801722072 -0.0023306403605956503 0 -0.011863381460039355 -0.0013426025507880274 0 -0.01052075011307234 -0.0015631813763267242 0 -0.015483426895543091 -0.00059655580017802998 0 -0.013298323702592459 -0.00062663395806558469 0 -0.015483426895543091 -0.00059655580017802998 0 -0.016593657597115268 -0.00050208545340750825 0 -0.020957012512587705 -0.00032839857965059476 0 -0.021231873305073028 -0.00016721089995251729 0 -0.020830903828092995 -0.00062181717229778757 0 -0.020957012512587705 -0.00032839857965059476 0 -0.021231873305073028 -0.00016721089995251729 0 -0.021156831612755486 5.7012941652745615e-05 0 -0.011863381460039355 -0.0013426025507880274 0 -0.010998015469431448 -0.00048377330487567804 0 -0.012379492763804146 0.00033092007775932633 0 -0.011863381460039355 -0.0013426025507880274 0 -0.010998015469431448 -0.00048377330487567804 0 -0.01052075011307234 -0.0015631813763267242 0 -0.016593657597115268 -0.00050208545340750825 0 -0.014935971136119207 8.667220717457851e-07 0 -0.010998015469431448 -0.00048377330487567804 0 -0.0095212473901684341 -0.00080162995899061684 0 -0.010713467307616473 0.0008162095842203014 0 -0.010998015469431448 -0.00048377330487567804 0 -0.0095212473901684341 -0.00080162995899061684 0 -0.01052075011307234 -0.0015631813763267242 0 -0.0088846206174809442 -0.00019419171236512657 0 -0.0033003094696144558 -0.00069744191478508159 0 -0.0088846206174809442 -0.00019419171236512657 0 -0.013298323702592459 -0.00062663395806558469 0 -0.0088846206174809442 -0.00019419171236512657 0 -0.0056101331329536782 -0.00067044439540802573 0 -0.010416426357157706 0.00065728990134566307 0 -0.0110544804189282 0.00073160369060227518 0 -0.010806700538958797 0.0012018050970621066 0 -0.015591372905619318 0.00080166680525805656 0 -0.015667060823951116 0.00058271621737929268 0 -0.015423611736658866 0.00054002903055577495 0 -0.0088846206174809442 -0.00019419171236512657 0 -0.013743604628764781 0.0013975570637339012 0 -0.015591372905619318 0.00080166680525805656 0 -0.015800660972773814 0.00066826970750655679 0 -0.015667060823951116 0.00058271621737929268 0 -0.015800660972773814 0.00066826970750655679 0 -0.015667060823951116 0.00058271621737929268 0 -0.015832520897394706 0.00050133643640957548 0 -0.01600746651599548 0.00052321036479676406 0 -0.015800660972773814 0.00066826970750655679 0 -0.015832520897394706 0.00050133643640957548 0 -0.015832520897394706 0.00050133643640957548 0 -0.015828436158666439 0.00038800908693662183 0 -0.015972910931747592 0.00040224208649430675 0 -0.015832520897394706 0.00050133643640957548 0 -0.015693652146545958 0.00040181671945572838 0 -0.015828436158666439 0.00038800908693662183 0 -0.015667060823951116 0.00058271621737929268 0 -0.015832520897394706 0.00050133643640957548 0 -0.015693652146545958 0.00040181671945572838 0 -0.015693652146545958 0.00040181671945572838 0 -0.015805703742907188 0.00028914605874241881 0 -0.01570629170001913 0.0002094618846846174 0 -0.015693652146545958 0.00040181671945572838 0 -0.015805703742907188 0.00028914605874241881 0 -0.015828436158666439 0.00038800908693662183 0 -0.015805703742907188 0.00028914605874241881 0 -0.015828436158666439 0.00038800908693662183 0 -0.015972910931747592 0.00040224208649430675 0 -0.015667060823951116 0.00058271621737929268 0 -0.015693652146545958 0.00040181671945572838 0 -0.015423611736658866 0.00054002903055577495 0 -0.015693652146545958 0.00040181671945572838 0 -0.015534475382208184 0.00020206528411724668 0 -0.015423611736658866 0.00054002903055577495 0 -0.015693652146545958 0.00040181671945572838 0 -0.015534475382208184 0.00020206528411724668 0 -0.01570629170001913 0.0002094618846846174 0 -0.015534475382208184 0.00020206528411724668 0 -0.01570629170001913 0.0002094618846846174 0 -0.015663647139087741 6.4188826558094771e-05 0 -0.015534475382208184 0.00020206528411724668 0 -0.015663647139087741 6.4188826558094771e-05 0 -0.015540746642173931 -4.9547677137291007e-05 0 -0.01581474877135379 0.00023101116112268837 0 -0.018582266134809275 0.00055901025476529391 0 -0.016670658765172684 0.00052406040379256158 0 -0.016327209991662591 0.00052707654256182676 0 -0.016973279300465747 0.001346045949066992 0 -0.015805703742907188 0.00028914605874241881 0 -0.015811787339223431 0.00013267324605495338 0 -0.015972910931747592 0.00040224208649430675 0 -0.015805703742907188 0.00028914605874241881 0 -0.01570629170001913 0.0002094618846846174 0 -0.015811787339223431 0.00013267324605495338 0 -0.01570629170001913 0.0002094618846846174 0 -0.015663647139087741 6.4188826558094771e-05 0 -0.015811787339223431 0.00013267324605495338 0 -0.019337259819187057 0.00059384785014296177 0 -0.018582266134809275 0.00055901025476529391 0 -0.022038087158821974 0.00060230404121001621 0 -0.021968442806760084 0.00054746737920855122 0 -0.022060944203837685 0.00068696577433582451 0 -0.022038087158821974 0.00060230404121001621 0 -0.021968442806760084 0.00054746737920855122 0 -0.021998160655799244 0.00044222332204874346 0 -0.021731946038946619 0.00054990412384148897 0 -0.021812816458758523 0.00047092496582226597 0 -0.022060944203837685 0.00068696577433582451 0 -0.021968442806760084 0.00054746737920855122 0 -0.021812816458758523 0.00047092496582226597 0 -0.022060944203837685 0.00068696577433582451 0 -0.021647557183006975 0.00029096674677564824 0 -0.021812816458758523 0.00047092496582226597 0 -0.021864656181941118 0.00041263228343964639 0 -0.021968442806760084 0.00054746737920855122 0 -0.021812816458758523 0.00047092496582226597 0 -0.021864656181941118 0.00041263228343964639 0 -0.021597159957566316 0.00025974711268210719 0 -0.018582266134809275 0.00055901025476529391 0 -0.021830426784968639 0.00028989121228480206 0 -0.021864656181941118 0.00041263228343964639 0 -0.021998160655799244 0.00044222332204874346 0 -0.01600746651599548 0.00052321036479676406 0 -0.015832520897394706 0.00050133643640957548 0 -0.015972910931747592 0.00040224208649430675 0 -0.015483426895543091 -0.00059655580017802998 0 -0.018582266134809275 0.00055901025476529391 0 -0.021968442806760084 0.00054746737920855122 0 -0.021864656181941118 0.00041263228343964639 0 -0.021998160655799244 0.00044222332204874346 0 -0.013288342401160523 -0.0013769539651774703 0 -0.012895342864744658 -0.0010961013313855168 0 -0.013260755865104537 -0.00081870327852881367 0 -0.012833404912256374 -0.0015179198417478127 0 -0.013288342401160523 -0.0013769539651774703 0 -0.012940403533364172 -0.0017472393774037739 0 -0.012833404912256374 -0.0015179198417478127 0 -0.013288342401160523 -0.0013769539651774703 0 -0.012895342864744658 -0.0010961013313855168 0 -0.012895342864744658 -0.0010961013313855168 0 -0.013260755865104537 -0.00081870327852881367 0 -0.013192671575560134 -0.00049325797585207784 0 -0.012619741813857398 -0.00050417280782534568 0 -0.012895342864744658 -0.0010961013313855168 0 -0.013170878492506121 -6.835793906577727e-05 0 -0.013288342401160523 -0.0013769539651774703 0 -0.013260755865104537 -0.00081870327852881367 0 -0.013531116263098292 -0.00071214897468744752 0 -0.013326897026857713 -0.00080771317452841987 0 -0.011636300052103584 -0.00071367486237870715 0 -0.013588679831165573 -0.001277710820674428 0 -0.013620502034579691 -0.00065385813514777069 0 -0.014094992763104939 -0.00095052791674796915 0 -0.013531116263098292 -0.00071214897468744752 0 -0.013902010659699069 -0.00088852149223820796 0 -0.013291945657045192 -0.00033044736471869377 0 -0.013363612009549946 -0.00053824311204999655 0 -0.013531116263098292 -0.00071214897468744752 0 -0.013934375758462396 -0.00084191674923461972 0 -0.013337782618377831 -0.00053512201347688515 0 -0.013531116263098292 -0.00071214897468744752 0 -0.013934375758462396 -0.00084191674923461972 0 -0.013902010659699069 -0.00088852149223820796 0 -0.01397889415172217 -0.00091336433582542265 0 -0.013902010659699069 -0.00088852149223820796 0 -0.014016374400594658 -0.00092169442066469831 0 -0.013934375758462396 -0.00084191674923461972 0 -0.01397889415172217 -0.00091336433582542265 0 -0.013902010659699069 -0.00088852149223820796 0 -0.014094992763104939 -0.00095052791674796915 0 -0.013902010659699069 -0.00088852149223820796 0 -0.014016374400594658 -0.00092169442066469831 0 -0.014094992763104939 -0.00095052791674796915 0 -0.014016374400594658 -0.00092169442066469831 0 -0.014064974356490184 -0.00089747710501807316 0 -0.01397889415172217 -0.00091336433582542265 0 -0.014016374400594658 -0.00092169442066469831 0 -0.014064974356490184 -0.00089747710501807316 0 -0.01397889415172217 -0.00091336433582542265 0 -0.014002764907729566 -0.00093163873210500394 0 -0.014064974356490184 -0.00089747710501807316 0 -0.012658964751202628 0.00031636286455516264 0 -0.011864343209200198 0.0011505283100026456 0 -0.012112831685126718 0.00064945391082084185 0 -0.01176914865896884 0.00082353468464010937 0 -0.011543928562571103 0.0014383294151068444 0 -0.013291945657045192 -0.00033044736471869377 0 -0.012855551331980221 0.00022144974798519871 0 -0.013934375758462396 -0.00084191674923461972 0 -0.01397889415172217 -0.00091336433582542265 0 -0.014002764907729566 -0.00093163873210500394 0 -0.011478597402184125 0.00083752933280662194 0 -0.011221695270544263 0.0010495589771300938 0 -0.011516911247393553 0.0014833161209534536 0 -0.011864343209200198 0.0011505283100026456 0 -0.012112831685126718 0.00064945391082084185 0 -0.011516911247393553 0.0014833161209534536 0 -0.011478597402184125 0.00083752933280662194 0 -0.0110544804189282 0.00073160369060227518 0 -0.011221695270544263 0.0010495589771300938 0 -0.01176914865896884 0.00082353468464010937 0 -0.012287461425623463 -2.8364697710041968e-05 0 -0.011478597402184125 0.00083752933280662194 0 -0.01128242794330641 0.00048497459438688335 0 -0.011471442360590473 0.00036433800187100879 0 -0.012658964751202628 0.00031636286455516264 0 -0.012112831685126718 0.00064945391082084185 0 -0.012733224224108297 -0.00021655065322235661 0 -0.011478597402184125 0.00083752933280662194 0 -0.01128242794330641 0.00048497459438688335 0 -0.0110544804189282 0.00073160369060227518 0 -0.01128242794330641 0.00048497459438688335 0 -0.0110544804189282 0.00073160369060227518 0 -0.01100794372205857 0.00024099240099377458 0 -0.010416426357157706 0.00065728990134566307 0 -0.0110544804189282 0.00073160369060227518 0 -0.01100794372205857 0.00024099240099377458 0 -0.0110544804189282 0.00073160369060227518 0 -0.010806700538958797 0.0012018050970621066 0 -0.011221695270544263 0.0010495589771300938 0 -0.010806700538958797 0.0012018050970621066 0 -0.011221695270544263 0.0010495589771300938 0 -0.011516911247393553 0.0014833161209534536 0 -0.013743604628764781 0.0013975570637339012 0 -0.013339500486496774 0.00018706867770156414 0 -0.010806700538958797 0.0012018050970621066 0 -0.01128355546085527 0.0019869807282139437 0 -0.011516911247393553 0.0014833161209534536 0 -0.015534475382208184 0.00020206528411724668 0 -0.015423611736658866 0.00054002903055577495 0 -0.015196856450939643 0.00025490300659523348 0 -0.015534475382208184 0.00020206528411724668 0 -0.015196856450939643 0.00025490300659523348 0 -0.015309325620253321 -9.7864340063035308e-06 0 -0.013339500486496774 0.00018706867770156414 0 -0.014651242804136565 -5.0649891484557178e-05 0 -0.014070006690155155 -0.00025461567636410039 0 -0.01410608745355338 -0.00018825019799229589 0 -0.014050926261829392 -0.00018397337576207725 0 -0.015534475382208184 0.00020206528411724668 0 -0.015309325620253321 -9.7864340063035308e-06 0 -0.015540746642173931 -4.9547677137291007e-05 0 -0.013818188074075439 -0.00073485898150633033 0 -0.014074715942668776 -0.00063571943561629258 0 -0.013994727597749036 -0.00079963373471871697 0 -0.013339500486496774 0.00018706867770156414 0 -0.014337375479840155 -0.00041358079793066705 0 -0.013818188074075439 -0.00073485898150633033 0 -0.014074715942668776 -0.00063571943561629258 0 -0.014200026044269251 -0.0001967234095497009 0 -0.014070006690155155 -0.00025461567636410039 0 -0.014200026044269251 -0.0001967234095497009 0 -0.01410608745355338 -0.00018825019799229589 0 -0.014074715942668776 -0.00063571943561629258 0 -0.013994727597749036 -0.00079963373471871697 0 -0.014125412279304989 -0.00078117259033106529 0 -0.012855551331980221 0.00022144974798519871 0 -0.013339500486496774 0.00018706867770156414 0 -0.014002764907729566 -0.00093163873210500394 0 -0.013818188074075439 -0.00073485898150633033 0 -0.013994727597749036 -0.00079963373471871697 0 -0.013994727597749036 -0.00079963373471871697 0 -0.014039625157914133 -0.00086546424949865625 0 -0.014125412279304989 -0.00078117259033106529 0 -0.011864343209200198 0.0011505283100026456 0 -0.01128355546085527 0.0019869807282139437 0 -0.011516911247393553 0.0014833161209534536 0 -0.014002764907729566 -0.00093163873210500394 0 -0.014039625157914133 -0.00086546424949865625 0 -0.014064974356490184 -0.00089747710501807316 0 -0.014002764907729566 -0.00093163873210500394 0 -0.013994727597749036 -0.00079963373471871697 0 -0.014039625157914133 -0.00086546424949865625 0 -0.014094992763104939 -0.00095052791674796915 0 -0.014064974356490184 -0.00089747710501807316 0 -0.014253951332060215 -0.00080462824128156346 0 -0.014039625157914133 -0.00086546424949865625 0 -0.014064974356490184 -0.00089747710501807316 0 -0.014125412279304989 -0.00078117259033106529 0 -0.014253951332060215 -0.00080462824128156346 0 -0.014125412279304989 -0.00078117259033106529 0 -0.014278305730991184 -0.0007230151135985439 0 -0.014064974356490184 -0.00089747710501807316 0 -0.014253951332060215 -0.00080462824128156346 0 -0.014125412279304989 -0.00078117259033106529 0 -0.014074715942668776 -0.00063571943561629258 0 -0.014125412279304989 -0.00078117259033106529 0 -0.0142490376411092 -0.00058323985784238701 0 -0.014125412279304989 -0.00078117259033106529 0 -0.0142490376411092 -0.00058323985784238701 0 -0.014278305730991184 -0.0007230151135985439 0 -0.014074715942668776 -0.00063571943561629258 0 -0.0142490376411092 -0.00058323985784238701 0 -0.014200026044269251 -0.0001967234095497009 0 -0.0142490376411092 -0.00058323985784238701 0 -0.014481509400707571 -0.00069162722332134676 0 -0.014444981916888385 -0.00044428117690067389 0 -0.014253951332060215 -0.00080462824128156346 0 -0.014278305730991184 -0.0007230151135985439 0 -0.014481509400707571 -0.00069162722332134676 0 -0.0142490376411092 -0.00058323985784238701 0 -0.014278305730991184 -0.0007230151135985439 0 -0.014481509400707571 -0.00069162722332134676 0 -0.015864661373955136 0.00030293726183386799 0 -0.014373652017094301 -0.00087021502240800745 0 -0.014504733895143193 -0.00079597857287297597 0 -0.014373652017094301 -0.00087021502240800745 0 -0.014253951332060215 -0.00080462824128156346 0 -0.014481509400707571 -0.00069162722332134676 0 -0.014450889154727458 -0.00074533749516024603 0 -0.015295558591995499 -0.00017723840800320406 0 -0.014854665169374606 -0.0009227805224843082 0 -0.014749196351126806 -0.00044063280682927385 0 -0.014481509400707571 -0.00069162722332134676 0 -0.014854665169374606 -0.0009227805224843082 0 -0.014749196351126806 -0.00044063280682927385 0 -0.014481509400707571 -0.00069162722332134676 0 -0.014749196351126806 -0.00044063280682927385 0 -0.014444981916888385 -0.00044428117690067389 0 -0.014094992763104939 -0.00095052791674796915 0 -0.014253951332060215 -0.00080462824128156346 0 -0.014450889154727458 -0.00074533749516024603 0 -0.013588679831165573 -0.001277710820674428 0 -0.014373652017094301 -0.00087021502240800745 0 -0.013288342401160523 -0.0013769539651774703 0 -0.013058413314651445 -0.0021909269318796764 0 -0.012940403533364172 -0.0017472393774037739 0 -0.015913536757525361 0.00049618390576331264 0 -0.015018203527426392 0.00040077493417350294 0 -0.015862826945748618 0.00046660907916722989 0 -0.014665914046271654 0.00036674070026391684 0 -0.015229117974796237 0.00015244551204820101 0 -0.014665914046271654 0.00036674070026391684 0 -0.015229117974796237 0.00015244551204820101 0 -0.014917240608182163 -7.3528202513451028e-05 0 -0.014665914046271654 0.00036674070026391684 0 -0.014917240608182163 -7.3528202513451028e-05 0 -0.014477927916893726 3.5597415644636664e-07 0 -0.015295558591995499 -0.00017723840800320406 0 -0.015229117974796237 0.00015244551204820101 0 -0.014917240608182163 -7.3528202513451028e-05 0 -0.015295558591995499 -0.00017723840800320406 0 -0.014749196351126806 -0.00044063280682927385 0 -0.014917240608182163 -7.3528202513451028e-05 0 -0.014749196351126806 -0.00044063280682927385 0 -0.014635319157906401 -0.00023255737568032687 0 -0.014444981916888385 -0.00044428117690067389 0 -0.014749196351126806 -0.00044063280682927385 0 -0.014635319157906401 -0.00023255737568032687 0 -0.014917240608182163 -7.3528202513451028e-05 0 -0.014635319157906401 -0.00023255737568032687 0 -0.014917240608182163 -7.3528202513451028e-05 0 -0.014477927916893726 3.5597415644636664e-07 0 -0.014635319157906401 -0.00023255737568032687 0 -0.014200026044269251 -0.0001967234095497009 0 -0.014477927916893726 3.5597415644636664e-07 0 -0.014635319157906401 -0.00023255737568032687 0 -0.014444981916888385 -0.00044428117690067389 0 -0.014200026044269251 -0.0001967234095497009 0 -0.0142490376411092 -0.00058323985784238701 0 -0.014444981916888385 -0.00044428117690067389 0 -0.014200026044269251 -0.0001967234095497009 0 -0.014200026044269251 -0.0001967234095497009 0 -0.014477927916893726 3.5597415644636664e-07 0 -0.014105785551384108 7.3839267115388303e-05 0 -0.015018203527426392 0.00040077493417350294 0 -0.016304342992940743 0.00016778751723488209 0 -0.014665914046271654 0.00036674070026391684 0 -0.014477927916893726 3.5597415644636664e-07 0 -0.014105785551384108 7.3839267115388303e-05 0 -0.019780858607319669 -0.00081426110446067084 0 -0.01983769537383985 -0.00080948485145274172 0 -0.020086247054046231 -0.00055741130823576065 0 -0.021434232777042411 0.00026745237521065134 0 -0.021408356061120685 0.0003002568543466603 0 -0.021479168905107177 0.00026398307921584062 0 -0.021434232777042411 0.00026745237521065134 0 -0.021408356061120685 0.0003002568543466603 0 -0.021415982342868796 0.00024372900711530776 0 -0.014102331934838671 -7.3901839252247473e-05 0 -0.014105785551384108 7.3839267115388303e-05 0 -0.014127274544257832 -0.00014588674756645963 0 -0.014146565134911488 -2.8432685966747233e-05 0 -0.014102331934838671 -7.3901839252247473e-05 0 -0.014189066511823924 -2.3347896954567425e-05 0 -0.014788544722119058 -0.00051468447935976614 0 -0.016304342992940743 0.00016778751723488209 0 -0.017957525367942689 0.00013601053750146469 0 -0.017074002317230618 -0.00043231259220119533 0 -0.014102331934838671 -7.3901839252247473e-05 0 -0.014113823765742373 -5.8219281283588584e-05 0 -0.014079427561481837 -0.00011302076920153535 0 -0.014146565134911488 -2.8432685966747233e-05 0 -0.014102331934838671 -7.3901839252247473e-05 0 -0.014113823765742373 -5.8219281283588584e-05 0 -0.017957525367942689 0.00013601053750146469 0 -0.016304342992940743 0.00016778751723488209 0 -0.014200026044269251 -0.0001967234095497009 0 -0.014127274544257832 -0.00014588674756645963 0 -0.01410608745355338 -0.00018825019799229589 0 -0.014200026044269251 -0.0001967234095497009 0 -0.014105785551384108 7.3839267115388303e-05 0 -0.014127274544257832 -0.00014588674756645963 0 -0.014127274544257832 -0.00014588674756645963 0 -0.01410608745355338 -0.00018825019799229589 0 -0.0140937598221037 -0.00014613116314338186 0 -0.014102331934838671 -7.3901839252247473e-05 0 -0.014127274544257832 -0.00014588674756645963 0 -0.0140937598221037 -0.00014613116314338186 0 -0.014102331934838671 -7.3901839252247473e-05 0 -0.0140937598221037 -0.00014613116314338186 0 -0.014079427561481837 -0.00011302076920153535 0 -0.0140937598221037 -0.00014613116314338186 0 -0.014079427561481837 -0.00011302076920153535 0 -0.014050926261829392 -0.00018397337576207725 0 -0.014651242804136565 -5.0649891484557178e-05 0 -0.017853739163897354 -3.2515090700907013e-05 0 -0.014079427561481837 -0.00011302076920153535 0 -0.014050926261829392 -0.00018397337576207725 0 -0.014037698034044463 -9.221156373150393e-05 0 -0.015309325620253321 -9.7864340063035308e-06 0 -0.015399095973328798 -0.00041563872761175082 0 -0.015540746642173931 -4.9547677137291007e-05 0 -0.01410608745355338 -0.00018825019799229589 0 -0.0140937598221037 -0.00014613116314338186 0 -0.014050926261829392 -0.00018397337576207725 0 -0.017957525367942689 0.00013601053750146469 0 -0.017853739163897354 -3.2515090700907013e-05 0 -0.014127724561834297 -4.112277603031434e-05 0 -0.014113823765742373 -5.8219281283588584e-05 0 -0.014037698034044463 -9.221156373150393e-05 0 -0.014113823765742373 -5.8219281283588584e-05 0 -0.014079427561481837 -0.00011302076920153535 0 -0.014037698034044463 -9.221156373150393e-05 0 -0.021408356061120685 0.0003002568543466603 0 -0.021506956712851924 0.0003182235149805419 0 -0.021479168905107177 0.00026398307921584062 0 -0.021506956712851924 0.0003182235149805419 0 -0.021479168905107177 0.00026398307921584062 0 -0.021553831761300019 0.00025712268067129806 0 -0.021479168905107177 0.00026398307921584062 0 -0.021545178850133299 0.000189905137192392 0 -0.021553831761300019 0.00025712268067129806 0 -0.021434232777042411 0.00026745237521065134 0 -0.021479168905107177 0.00026398307921584062 0 -0.021462910031404377 0.0002037740881101236 0 -0.021479168905107177 0.00026398307921584062 0 -0.021545178850133299 0.000189905137192392 0 -0.021462910031404377 0.0002037740881101236 0 -0.021545178850133299 0.000189905137192392 0 -0.021547835920424942 7.7257159671418756e-05 0 -0.021637328416579338 9.8103179715475648e-05 0 -0.021545178850133299 0.000189905137192392 0 -0.021547835920424942 7.7257159671418756e-05 0 -0.021462910031404377 0.0002037740881101236 0 -0.021547835920424942 7.7257159671418756e-05 0 -0.02142408338698791 0.00010899493971327538 0 -0.021462910031404377 0.0002037740881101236 0 -0.02142408338698791 0.00010899493971327538 0 -0.021398871232296755 0.00019628969681164554 0 -0.021363744694425826 0.0001687730356588623 0 -0.02142408338698791 0.00010899493971327538 0 -0.021398871232296755 0.00019628969681164554 0 -0.021462910031404377 0.0002037740881101236 0 -0.021398871232296755 0.00019628969681164554 0 -0.021415982342868796 0.00024372900711530776 0 -0.021390047086624491 0.00024629968635929861 0 -0.021398871232296755 0.00019628969681164554 0 -0.021390047086624491 0.00024629968635929861 0 -0.021338689764440661 0.00023402760991624562 0 -0.021408356061120685 0.0003002568543466603 0 -0.021390047086624491 0.00024629968635929861 0 -0.021338689764440661 0.00023402760991624562 0 -0.017957525367942689 0.00013601053750146469 0 -0.021075411559752601 -0.00010652579689379263 0 -0.021398871232296755 0.00019628969681164554 0 -0.021462910031404377 0.0002037740881101236 0 -0.021415982342868796 0.00024372900711530776 0 -0.021434232777042411 0.00026745237521065134 0 -0.021462910031404377 0.0002037740881101236 0 -0.021415982342868796 0.00024372900711530776 0 -0.021408356061120685 0.0003002568543466603 0 -0.021415982342868796 0.00024372900711530776 0 -0.021390047086624491 0.00024629968635929861 0 -0.01983769537383985 -0.00080948485145274172 0 -0.020200775588365794 -0.00053606429304805289 0 -0.020086247054046231 -0.00055741130823576065 0 -0.016304342992940743 0.00016778751723488209 0 -0.018302462418589661 2.8536177233366383e-05 0 -0.015875303547529675 0.00051770250834182456 0 -0.015828806812280098 0.00050175261753161509 0 -0.015867675254267313 0.00057492038471645371 0 -0.021398871232296755 0.00019628969681164554 0 -0.021338689764440661 0.00023402760991624562 0 -0.021363744694425826 0.0001687730356588623 0 -0.021075411559752601 -0.00010652579689379263 0 -0.020627407699036024 -0.00021665164564739866 0 -0.021338689764440661 0.00023402760991624562 0 -0.021363744694425826 0.0001687730356588623 0 -0.021294665899103532 0.0001217891538310886 0 -0.020200775588365794 -0.00053606429304805289 0 -0.020086247054046231 -0.00055741130823576065 0 -0.020360765186571001 -0.00040399530834876952 0 -0.021338689764440661 0.00023402760991624562 0 -0.021294665899103532 0.0001217891538310886 0 -0.021041256487335895 8.2765001199170589e-05 0 -0.02142408338698791 0.00010899493971327538 0 -0.021363744694425826 0.0001687730356588623 0 -0.021294665899103532 0.0001217891538310886 0 -0.02142408338698791 0.00010899493971327538 0 -0.021294665899103532 0.0001217891538310886 0 -0.021340687015278689 -3.6519954493086173e-05 0 -0.018161759696652489 0.00014054546415985425 0 -0.018302462418589661 2.8536177233366383e-05 0 -0.015973943073347822 0.00071648156080648322 0 -0.015867675254267313 0.00057492038471645371 0 -0.015926660833698206 0.00058002318008263417 0 -0.0204783031431723 -0.00039786859975154233 0 -0.020200775588365794 -0.00053606429304805289 0 -0.020360765186571001 -0.00040399530834876952 0 -0.015875303547529675 0.00051770250834182456 0 -0.015867675254267313 0.00057492038471645371 0 -0.015926660833698206 0.00058002318008263417 0 -0.015862826945748618 0.00046660907916722989 0 -0.015899233599053403 0.00053215149596160785 0 -0.015875303547529675 0.00051770250834182456 0 -0.015899233599053403 0.00053215149596160785 0 -0.015875303547529675 0.00051770250834182456 0 -0.015926660833698206 0.00058002318008263417 0 -0.022336271379616197 0.00092737451340922758 0 -0.022541027690734822 0.00084804760141620231 0 -0.022452238816568364 0.0010239515024442641 0 -0.022336271379616197 0.00092737451340922758 0 -0.022181986229010544 0.00096766328926616713 0 -0.02242923906108691 0.0010373546106774766 0 -0.022336271379616197 0.00092737451340922758 0 -0.022452238816568364 0.0010239515024442641 0 -0.02242923906108691 0.0010373546106774766 0 -0.022336271379616197 0.00092737451340922758 0 -0.022181986229010544 0.00096766328926616713 0 -0.022060944203837685 0.00068696577433582451 0 -0.021828087792734683 0.00082490226406751381 0 -0.022181986229010544 0.00096766328926616713 0 -0.022060944203837685 0.00068696577433582451 0 -0.022773260941806716 0.00089155546792864249 0 -0.02068574636619417 0.00019304232396881858 0 -0.022336271379616197 0.00092737451340922758 0 -0.022060944203837685 0.00068696577433582451 0 -0.022541027690734822 0.00084804760141620231 0 -0.022038087158821974 0.00060230404121001621 0 -0.022060944203837685 0.00068696577433582451 0 -0.022032532590228721 0.00061670671794682315 0 -0.016327209991662591 0.00052707654256182676 0 -0.016366510040363252 -0.00026194971174383909 0 -0.015745561619188983 -0.00024544216381436069 0 -0.019337259819187057 0.00059384785014296177 0 -0.02068574636619417 0.00019304232396881858 0 -0.016670658765172684 0.00052406040379256158 0 -0.016327209991662591 0.00052707654256182676 0 -0.016366510040363252 -0.00026194971174383909 0 -0.017853739163897354 -3.2515090700907013e-05 0 -0.02068574636619417 0.00019304232396881858 0 -0.01581474877135379 0.00023101116112268837 0 -0.015823114436917775 -0.00015181526344058491 0 -0.015399095973328798 -0.00041563872761175082 0 -0.016366510040363252 -0.00026194971174383909 0 -0.015745561619188983 -0.00024544216381436069 0 -0.015663647139087741 6.4188826558094771e-05 0 -0.015811787339223431 0.00013267324605495338 0 -0.015745561619188983 -0.00024544216381436069 0 -0.015663647139087741 6.4188826558094771e-05 0 -0.015540746642173931 -4.9547677137291007e-05 0 -0.015745561619188983 -0.00024544216381436069 0 -0.015399095973328798 -0.00041563872761175082 0 -0.015540746642173931 -4.9547677137291007e-05 0 -0.015745561619188983 -0.00024544216381436069 0 -0.021616077626153491 0.00032161303916903835 0 -0.021553831761300019 0.00025712268067129806 0 -0.021615398722788656 0.00023097831964418084 0 -0.021512733288966957 0.00030353587451923981 0 -0.021616077626153491 0.00032161303916903835 0 -0.021553831761300019 0.00025712268067129806 0 -0.017853739163897354 -3.2515090700907013e-05 0 -0.021010754714164751 -0.00026638197890292324 0 -0.022541027690734822 0.00084804760141620231 0 -0.022452238816568364 0.0010239515024442641 0 -0.022426302352394165 0.0011119966361855661 0 -0.02068574636619417 0.00019304232396881858 0 -0.022175029218316083 0.00077522690673255206 0 -0.022452238816568364 0.0010239515024442641 0 -0.022426302352394165 0.0011119966361855661 0 -0.022472937648902725 0.0010814061002184306 0 -0.022426302352394165 0.0011119966361855661 0 -0.022472937648902725 0.0010814061002184306 0 -0.022461286203662934 0.0010423672629585525 0 -0.021615398722788656 0.00023097831964418084 0 -0.021587096522211868 0.00019655063435799751 0 -0.021637328416579338 9.8103179715475648e-05 0 -0.021545178850133299 0.000189905137192392 0 -0.021553831761300019 0.00025712268067129806 0 -0.021587096522211868 0.00019655063435799751 0 -0.021553831761300019 0.00025712268067129806 0 -0.021615398722788656 0.00023097831964418084 0 -0.021587096522211868 0.00019655063435799751 0 -0.021545178850133299 0.000189905137192392 0 -0.021587096522211868 0.00019655063435799751 0 -0.021637328416579338 9.8103179715475648e-05 0 -0.022175029218316083 0.00077522690673255206 0 -0.021849017632587505 0.00044244702823747952 0 -0.022098049424089224 0.00088397479911837416 0 -0.022461286203662934 0.0010423672629585525 0 -0.022623028372842736 0.00061291854229104372 0 -0.022426302352394165 0.0011119966361855661 0 -0.022098049424089224 0.00088397479911837416 0 -0.022461286203662934 0.0010423672629585525 0 -0.022461286203662934 0.0010423672629585525 0 -0.022738818689876473 0.0011379103860244101 0 -0.022623028372842736 0.00061291854229104372 0 -0.022461286203662934 0.0010423672629585525 0 -0.022738818689876473 0.0011379103860244101 0 -0.022549617265334738 0.0010962022031321477 0 -0.022738818689876473 0.0011379103860244101 0 -0.022549617265334738 0.0010962022031321477 0 -0.022402272512354326 0.001053454660618725 0 -0.022472937648902725 0.0010814061002184306 0 -0.022461286203662934 0.0010423672629585525 0 -0.022549617265334738 0.0010962022031321477 0 -0.022472937648902725 0.0010814061002184306 0 -0.022549617265334738 0.0010962022031321477 0 -0.02242923906108691 0.0010373546106774766 0 -0.022549617265334738 0.0010962022031321477 0 -0.02242923906108691 0.0010373546106774766 0 -0.022402272512354326 0.001053454660618725 0 -0.022452238816568364 0.0010239515024442641 0 -0.022472937648902725 0.0010814061002184306 0 -0.02242923906108691 0.0010373546106774766 0 -0.022181986229010544 0.00096766328926616713 0 -0.02242923906108691 0.0010373546106774766 0 -0.022402272512354326 0.001053454660618725 0 -0.022241360566488805 0.0010686523333956089 0 -0.022181986229010544 0.00096766328926616713 0 -0.022402272512354326 0.001053454660618725 0 -0.022241360566488805 0.0010686523333956089 0 -0.022402272512354326 0.001053454660618725 0 -0.022316672804106704 0.001217319276257255 0 -0.022738818689876473 0.0011379103860244101 0 -0.022402272512354326 0.001053454660618725 0 -0.022316672804106704 0.001217319276257255 0 -0.022738818689876473 0.0011379103860244101 0 -0.023623479527885266 0.0012836540785653835 0 -0.023239635648171657 0.00078760017524243228 0 -0.022796706043635314 0.0011803699853031257 0 -0.022915136871526375 0.0012262294344891241 0 -0.023623479527885266 0.0012836540785653835 0 -0.023239635648171657 0.00078760017524243228 0 -0.023804069615050907 0.00063111350635979187 0 -0.023239635648171657 0.00078760017524243228 0 -0.023295027762326961 0.00035450055170012048 0 -0.023804069615050907 0.00063111350635979187 0 -0.023295027762326961 0.00035450055170012048 0 -0.023804069615050907 0.00063111350635979187 0 -0.023853133703503136 7.7829198283089563e-05 0 -0.023295027762326961 0.00035450055170012048 0 -0.02288290095417676 -0.00040168573085227691 0 -0.023853133703503136 7.7829198283089563e-05 0 -0.023295027762326961 0.00035450055170012048 0 -0.022623028372842736 0.00061291854229104372 0 -0.02288290095417676 -0.00040168573085227691 0 -0.022623028372842736 0.00061291854229104372 0 -0.022253782280819884 0.00021136043132787317 0 -0.02288290095417676 -0.00040168573085227691 0 -0.023239635648171657 0.00078760017524243228 0 -0.023295027762326961 0.00035450055170012048 0 -0.022623028372842736 0.00061291854229104372 0 -0.022738818689876473 0.0011379103860244101 0 -0.023239635648171657 0.00078760017524243228 0 -0.022623028372842736 0.00061291854229104372 0 -0.022098049424089224 0.00088397479911837416 0 -0.022623028372842736 0.00061291854229104372 0 -0.022253782280819884 0.00021136043132787317 0 -0.022098049424089224 0.00088397479911837416 0 -0.02182989060757369 0.00026593996938009153 0 -0.022253782280819884 0.00021136043132787317 0 -0.021547835920424942 7.7257159671418756e-05 0 -0.021637328416579338 9.8103179715475648e-05 0 -0.021653257045102729 -5.9617700806048543e-05 0 -0.021849017632587505 0.00044244702823747952 0 -0.021752808777625133 0.00010221102259562631 0 -0.02182989060757369 0.00026593996938009153 0 -0.022253782280819884 0.00021136043132787317 0 -0.022027695364607244 -0.00029755702450925508 0 -0.023769725162315892 -0.00021365547746668532 0 -0.023980187456882331 -0.00057241488866765502 0 -0.024278147018151487 -0.00039393986417130293 0 -0.022893085805407824 -0.00025909101288689178 0 -0.023590115475964096 -0.00038652485965631766 0 -0.022253782280819884 0.00021136043132787317 0 -0.022027695364607244 -0.00029755702450925508 0 -0.02288290095417676 -0.00040168573085227691 0 -0.02182989060757369 0.00026593996938009153 0 -0.022027695364607244 -0.00029755702450925508 0 -0.021719227746675691 -0.00024305599208264504 0 -0.023769725162315892 -0.00021365547746668532 0 -0.023980187456882331 -0.00057241488866765502 0 -0.023429148657694594 -0.00064220608199156196 0 -0.023980187456882331 -0.00057241488866765502 0 -0.024278147018151487 -0.00039393986417130293 0 -0.024284350527217967 -0.00077527085813370027 0 -0.024432615388750488 -0.00066346938637553787 0 -0.024278147018151487 -0.00039393986417130293 0 -0.024284350527217967 -0.00077527085813370027 0 -0.02288290095417676 -0.00040168573085227691 0 -0.024285039338618898 -0.00039265188868819995 0 -0.023853133703503136 7.7829198283089563e-05 0 -0.024432615388750488 -0.00066346938637553787 0 -0.024278147018151487 -0.00039393986417130293 0 -0.024285039338618898 -0.00039265188868819995 0 -0.023590115475964096 -0.00038652485965631766 0 -0.024258370294946423 -0.00038812542344530677 0 -0.020616192405064043 -0.0005776420156462953 0 -0.020784520361583892 -0.00044974665180640654 0 -0.021121969725645142 -0.00066313165451904006 0 -0.020784520361583892 -0.00044974665180640654 0 -0.020965606426899989 -0.00028759756084254559 0 -0.021121969725645142 -0.00066313165451904006 0 -0.020534996839169192 -0.00042105838365156248 0 -0.020784520361583892 -0.00044974665180640654 0 -0.020965606426899989 -0.00028759756084254559 0 -0.020557817102783638 -0.00039416227900584337 0 -0.020627407699036024 -0.00021665164564739866 0 -0.020534996839169192 -0.00042105838365156248 0 -0.020965606426899989 -0.00028759756084254559 0 -0.021041256487335895 8.2765001199170589e-05 0 -0.020965606426899989 -0.00028759756084254559 0 -0.021041256487335895 8.2765001199170589e-05 0 -0.021340687015278689 -3.6519954493086173e-05 0 -0.0204783031431723 -0.00039786859975154233 0 -0.020534996839169192 -0.00042105838365156248 0 -0.020360765186571001 -0.00040399530834876952 0 -0.021294665899103532 0.0001217891538310886 0 -0.021041256487335895 8.2765001199170589e-05 0 -0.021340687015278689 -3.6519954493086173e-05 0 -0.021340687015278689 -3.6519954493086173e-05 0 -0.021454025249245525 -0.00010782781366323287 0 -0.021467751592943549 -2.1771555913877159e-05 0 -0.021340687015278689 -3.6519954493086173e-05 0 -0.021454025249245525 -0.00010782781366323287 0 -0.021480789014166491 -0.00014502809909794039 0 -0.020965606426899989 -0.00028759756084254559 0 -0.021340687015278689 -3.6519954493086173e-05 0 -0.021121969725645142 -0.00066313165451904006 0 -0.021488597040796455 -0.00021056954930275202 0 -0.020605256724771051 9.7060469175117128e-05 0 -0.021454025249245525 -0.00010782781366323287 0 -0.021506661207381272 -0.00014359615003356699 0 -0.021480789014166491 -0.00014502809909794039 0 -0.021454025249245525 -0.00010782781366323287 0 -0.021496314648060146 -0.00014435185377603961 0 -0.021506661207381272 -0.00014359615003356699 0 -0.021496314648060146 -0.00014435185377603961 0 -0.021508380163229875 -0.00010395545173486705 0 -0.021521957582382015 -0.00016787012372065577 0 -0.021454025249245525 -0.00010782781366323287 0 -0.021496314648060146 -0.00014435185377603961 0 -0.021508380163229875 -0.00010395545173486705 0 -0.021508380163229875 -0.00010395545173486705 0 -0.021580330539201158 -0.00012944283251159635 0 -0.021521957582382015 -0.00016787012372065577 0 -0.021508380163229875 -0.00010395545173486705 0 -0.021467751592943549 -2.1771555913877159e-05 0 -0.021552727115832924 -4.2530522657976022e-05 0 -0.021508380163229875 -0.00010395545173486705 0 -0.021552727115832924 -4.2530522657976022e-05 0 -0.021580330539201158 -0.00012944283251159635 0 -0.021454025249245525 -0.00010782781366323287 0 -0.021508380163229875 -0.00010395545173486705 0 -0.021467751592943549 -2.1771555913877159e-05 0 -0.021547835920424942 7.7257159671418756e-05 0 -0.02142408338698791 0.00010899493971327538 0 -0.021467751592943549 -2.1771555913877159e-05 0 -0.02142408338698791 0.00010899493971327538 0 -0.021340687015278689 -3.6519954493086173e-05 0 -0.021467751592943549 -2.1771555913877159e-05 0 -0.021547835920424942 7.7257159671418756e-05 0 -0.021467751592943549 -2.1771555913877159e-05 0 -0.021552727115832924 -4.2530522657976022e-05 0 -0.021547835920424942 7.7257159671418756e-05 0 -0.021653257045102729 -5.9617700806048543e-05 0 -0.021552727115832924 -4.2530522657976022e-05 0 -0.021653257045102729 -5.9617700806048543e-05 0 -0.021580330539201158 -0.00012944283251159635 0 -0.021719227746675691 -0.00024305599208264504 0 -0.021752808777625133 0.00010221102259562631 0 -0.021705259477318935 -0.00022368475173094313 0 -0.021653257045102729 -5.9617700806048543e-05 0 -0.021552727115832924 -4.2530522657976022e-05 0 -0.021580330539201158 -0.00012944283251159635 0 -0.022893085805407824 -0.00025909101288689178 0 -0.022180483172559249 -0.00018317604391691544 0 -0.022027695364607244 -0.00029755702450925508 0 -0.021719227746675691 -0.00024305599208264504 0 -0.021517694671418799 -0.00023207623095241619 0 -0.021580330539201158 -0.00012944283251159635 0 -0.021719227746675691 -0.00024305599208264504 0 -0.021517694671418799 -0.00023207623095241619 0 -0.023769725162315892 -0.00021365547746668532 0 -0.023429148657694594 -0.00064220608199156196 0 -0.022850628859534705 -0.00010084585891855077 0 -0.023429148657694594 -0.00064220608199156196 0 -0.022867402682457405 -0.00064140279949610811 0 -0.022850628859534705 -0.00010084585891855077 0 -0.022867402682457405 -0.00064140279949610811 0 -0.022850628859534705 -0.00010084585891855077 0 -0.022195378003654641 -0.00052915619301070152 0 -0.021517694671418799 -0.00023207623095241619 0 -0.021526690148493035 -0.0001843181653020985 0 -0.021552767601436599 -0.00019783117659521584 0 -0.021580330539201158 -0.00012944283251159635 0 -0.021517694671418799 -0.00023207623095241619 0 -0.021521957582382015 -0.00016787012372065577 0 -0.021517694671418799 -0.00023207623095241619 0 -0.021521957582382015 -0.00016787012372065577 0 -0.021526690148493035 -0.0001843181653020985 0 -0.021496314648060146 -0.00014435185377603961 0 -0.021521957582382015 -0.00016787012372065577 0 -0.021526690148493035 -0.0001843181653020985 0 -0.021517694671418799 -0.00023207623095241619 0 -0.021552767601436599 -0.00019783117659521584 0 -0.02159385723364551 -0.0002678442394546236 0 -0.022180483172559249 -0.00018317604391691544 0 -0.021619949399660551 -0.0002545470586477551 0 -0.021496314648060146 -0.00014435185377603961 0 -0.021526690148493035 -0.0001843181653020985 0 -0.021506661207381272 -0.00014359615003356699 0 -0.021526690148493035 -0.0001843181653020985 0 -0.021506661207381272 -0.00014359615003356699 0 -0.021552767601436599 -0.00019783117659521584 0 -0.021506661207381272 -0.00014359615003356699 0 -0.021543995942282235 -6.2526576936167491e-05 0 -0.021552767601436599 -0.00019783117659521584 0 -0.021261528592066321 1.1132227458801765e-07 0 -0.020605256724771051 9.7060469175117128e-05 0 -0.021543995942282235 -6.2526576936167491e-05 0 -0.021552767601436599 -0.00019783117659521584 0 -0.02159385723364551 -0.0002678442394546236 0 -0.022195378003654641 -0.00052915619301070152 0 -0.021460952969927585 -0.00050233709369396269 0 -0.022356085059606432 -0.0010248772774385704 0 -0.022195378003654641 -0.00052915619301070152 0 -0.02159385723364551 -0.0002678442394546236 0 -0.021460952969927585 -0.00050233709369396269 0 -0.022850628859534705 -0.00010084585891855077 0 -0.022195378003654641 -0.00052915619301070152 0 -0.02159385723364551 -0.0002678442394546236 0 -0.018102985649146398 0.00076561188382939826 0 -0.021947852989001794 -0.00029075695222948654 0 -0.020605256724771051 9.7060469175117128e-05 0 -0.021947852989001794 -0.00029075695222948654 0 -0.021543995942282235 -6.2526576936167491e-05 0 -0.02159385723364551 -0.0002678442394546236 0 -0.021460952969927585 -0.00050233709369396269 0 -0.019058395647998026 0.00071848082710756654 0 -0.019407716066257279 0.00069297277397004737 0 -0.019258689677436769 0.00021087070047130565 0 -0.020012077300158072 5.8910239866819607e-05 0 -0.020605256724771051 9.7060469175117128e-05 0 -0.026885496636582705 -0.0013744784857357519 0 -0.026677399984715296 -0.0014832060118153089 0 -0.026772090645805581 -0.0016431667340929253 0 -0.026677399984715296 -0.0014832060118153089 0 -0.026772090645805581 -0.0016431667340929253 0 -0.026609351468077896 -0.001669743629382759 0 -0.018862599588507802 0.0001847918617273848 0 -0.019102998734778911 0.00028405981677204521 0 -0.019007606915866899 6.5549697836050493e-05 0 -0.021947852989001794 -0.00029075695222948654 0 -0.022955883770962738 -0.00084885382370980219 0 -0.026662344959816866 -0.0018570822829586527 0 -0.026772090645805581 -0.0016431667340929253 0 -0.026609351468077896 -0.001669743629382759 0 -0.026662344959816866 -0.0018570822829586527 0 -0.026609351468077896 -0.001669743629382759 0 -0.026441575873509621 -0.0017673449750038861 0 -0.021947852989001794 -0.00029075695222948654 0 -0.024859853745447719 -0.0015984465372487094 0 -0.026609351468077896 -0.001669743629382759 0 -0.026455029351790529 -0.0015561979481708101 0 -0.026441575873509621 -0.0017673449750038861 0 -0.026677399984715296 -0.0014832060118153089 0 -0.026609351468077896 -0.001669743629382759 0 -0.026455029351790529 -0.0015561979481708101 0 -0.026455029351790529 -0.0015561979481708101 0 -0.026441575873509621 -0.0017673449750038861 0 -0.026124212344793583 -0.0017145639981687945 0 -0.026455029351790529 -0.0015561979481708101 0 -0.026124212344793583 -0.0017145639981687945 0 -0.026241575081079386 -0.0013767697266954717 0 -0.024859853745447719 -0.0015984465372487094 0 -0.024580736471999175 -0.0014348246579114661 0 -0.022867402682457405 -0.00064140279949610811 0 -0.022356085059606432 -0.0010248772774385704 0 -0.023283592879022649 -0.0012668862518907308 0 -0.022867402682457405 -0.00064140279949610811 0 -0.022195378003654641 -0.00052915619301070152 0 -0.022356085059606432 -0.0010248772774385704 0 -0.023429148657694594 -0.00064220608199156196 0 -0.022867402682457405 -0.00064140279949610811 0 -0.023283592879022649 -0.0012668862518907308 0 -0.026124212344793583 -0.0017145639981687945 0 -0.026241575081079386 -0.0013767697266954717 0 -0.025639959822891942 -0.0016417197767051911 0 -0.026241575081079386 -0.0013767697266954717 0 -0.026203097471232069 -0.0010576427791218908 0 -0.025732981604405347 -0.001177346034808848 0 -0.026241575081079386 -0.0013767697266954717 0 -0.026203097471232069 -0.0010576427791218908 0 -0.026448499650694967 -0.0010676111624920142 0 -0.026241575081079386 -0.0013767697266954717 0 -0.026448499650694967 -0.0010676111624920142 0 -0.026560476788433866 -0.0012961037813523691 0 -0.026455029351790529 -0.0015561979481708101 0 -0.026241575081079386 -0.0013767697266954717 0 -0.026560476788433866 -0.0012961037813523691 0 -0.026677399984715296 -0.0014832060118153089 0 -0.026455029351790529 -0.0015561979481708101 0 -0.026560476788433866 -0.0012961037813523691 0 -0.026677399984715296 -0.0014832060118153089 0 -0.026560476788433866 -0.0012961037813523691 0 -0.026743135469405988 -0.0012621156674712656 0 -0.026448499650694967 -0.0010676111624920142 0 -0.026560476788433866 -0.0012961037813523691 0 -0.026637147265081366 -0.0010862310793826925 0 -0.026560476788433866 -0.0012961037813523691 0 -0.026637147265081366 -0.0010862310793826925 0 -0.026743135469405988 -0.0012621156674712656 0 -0.026637147265081366 -0.0010862310793826925 0 -0.026743135469405988 -0.0012621156674712656 0 -0.026823655848078925 -0.0011243274207479717 0 -0.026870498764516474 -0.0011979436441348465 0 -0.026743135469405988 -0.0012621156674712656 0 -0.026823655848078925 -0.0011243274207479717 0 -0.026885496636582705 -0.0013744784857357519 0 -0.026870498764516474 -0.0011979436441348465 0 -0.026743135469405988 -0.0012621156674712656 0 -0.026885496636582705 -0.0013744784857357519 0 -0.026677399984715296 -0.0014832060118153089 0 -0.026743135469405988 -0.0012621156674712656 0 -0.024400369348066234 -0.0010880328256612519 0 -0.024569621912051937 -0.0010475777277470296 0 -0.024782800020240012 -0.0013315581854924543 0 -0.024400369348066234 -0.0010880328256612519 0 -0.024569621912051937 -0.0010475777277470296 0 -0.024284350527217967 -0.00077527085813370027 0 -0.024432615388750488 -0.00066346938637553787 0 -0.024569621912051937 -0.0010475777277470296 0 -0.024284350527217967 -0.00077527085813370027 0 -0.024400369348066234 -0.0010880328256612519 0 -0.024284350527217967 -0.00077527085813370027 0 -0.023910660049775916 -0.00095286745985113507 0 -0.023980187456882331 -0.00057241488866765502 0 -0.024284350527217967 -0.00077527085813370027 0 -0.023910660049775916 -0.00095286745985113507 0 -0.023429148657694594 -0.00064220608199156196 0 -0.023283592879022649 -0.0012668862518907308 0 -0.023910660049775916 -0.00095286745985113507 0 -0.023980187456882331 -0.00057241488866765502 0 -0.023429148657694594 -0.00064220608199156196 0 -0.023910660049775916 -0.00095286745985113507 0 -0.024580736471999175 -0.0014348246579114661 0 -0.024817695362033192 -0.0014888966888235121 0 -0.023283592879022649 -0.0012668862518907308 0 -0.023910660049775916 -0.00095286745985113507 0 -0.02398493494560025 -0.0013583912500928824 0 -0.024400369348066234 -0.0010880328256612519 0 -0.023910660049775916 -0.00095286745985113507 0 -0.02398493494560025 -0.0013583912500928824 0 -0.024817695362033192 -0.0014888966888235121 0 -0.024745605488517012 -0.0013429119217494194 0 -0.024400369348066234 -0.0010880328256612519 0 -0.02398493494560025 -0.0013583912500928824 0 -0.024782800020240012 -0.0013315581854924543 0 -0.025639959822891942 -0.0016417197767051911 0 -0.025732981604405347 -0.001177346034808848 0 -0.024782800020240012 -0.0013315581854924543 0 -0.026241575081079386 -0.0013767697266954717 0 -0.025639959822891942 -0.0016417197767051911 0 -0.025732981604405347 -0.001177346034808848 0 -0.025732981604405347 -0.001177346034808848 0 -0.025134856018567211 -0.0010327704000295582 0 -0.024782800020240012 -0.0013315581854924543 0 -0.025732981604405347 -0.001177346034808848 0 -0.025134856018567211 -0.0010327704000295582 0 -0.025570467737164124 -0.00080970065778701908 0 -0.025134856018567211 -0.0010327704000295582 0 -0.024782800020240012 -0.0013315581854924543 0 -0.024745833049641095 -0.0010759741792871469 0 -0.024569621912051937 -0.0010475777277470296 0 -0.024782800020240012 -0.0013315581854924543 0 -0.024656264603351317 -0.0011711807033556686 0 -0.024656264603351317 -0.0011711807033556686 0 -0.024745833049641095 -0.0010759741792871469 0 -0.024622229694043873 -0.0010953079872307446 0 -0.024782800020240012 -0.0013315581854924543 0 -0.024656264603351317 -0.0011711807033556686 0 -0.024745833049641095 -0.0010759741792871469 0 -0.024622229694043873 -0.0010953079872307446 0 -0.024678190849450051 -0.0011114079766800856 0 -0.02456935159300604 -0.0010438538686447184 0 -0.024745833049641095 -0.0010759741792871469 0 -0.024622229694043873 -0.0010953079872307446 0 -0.024596907823177343 -0.0009765282641029093 0 -0.024622229694043873 -0.0010953079872307446 0 -0.024596907823177343 -0.0009765282641029093 0 -0.02456935159300604 -0.0010438538686447184 0 -0.025274039869610763 0.0013000584166009538 0 -0.024751491218527939 0.00015969077314992932 0 -0.025270679813004321 0.0029184798088829705 0 -0.025264854186615743 0.0029312062571627421 0 -0.025256429340151518 0.0028885451689070912 0 -0.025759960312394619 0.001480417056806127 0 -0.024751491218527939 0.00015969077314992932 0 -0.025270679813004321 0.0029184798088829705 0 -0.025278458572253221 0.0029137924646457916 0 -0.025256429340151518 0.0028885451689070912 0 -0.025277293405590321 0.0029333130818459049 0 -0.025265579610163763 0.0029340571754328552 0 -0.025296419816718145 0.0029389612878112834 0 -0.025270679813004321 0.0029184798088829705 0 -0.025277293405590321 0.0029333130818459049 0 -0.025281787533751463 0.0029381012050933171 0 -0.025270679813004321 0.0029184798088829705 0 -0.025277293405590321 0.0029333130818459049 0 -0.025264854186615743 0.0029312062571627421 0 -0.025277293405590321 0.0029333130818459049 0 -0.025264854186615743 0.0029312062571627421 0 -0.025265579610163763 0.0029340571754328552 0 -0.025274039869610763 0.0013000584166009538 0 -0.025437229928442464 0.0015027371645929481 0 -0.024656264603351317 -0.0011711807033556686 0 -0.024622229694043873 -0.0010953079872307446 0 -0.024678190849450051 -0.0011114079766800856 0 -0.024569621912051937 -0.0010475777277470296 0 -0.024656264603351317 -0.0011711807033556686 0 -0.024678190849450051 -0.0011114079766800856 0 -0.025279515037945101 0.0029596536791192053 0 -0.025275007632680636 0.0029633176463616201 0 -0.02525846615878705 0.002996419380269641 0 -0.025534267373963415 0.0025503624674794289 0 -0.025398867228821793 0.003023414011539553 0 -0.025323308296951702 0.0020315625867682644 0 -0.02535999635569593 0.0021670235281288277 0 -0.025689280403436973 0.0021189047884140754 0 -0.026459465316171722 -3.2287631966666562e-06 0 -0.026482076732823174 9.150595067338104e-05 0 -0.026349548723299428 3.4110113959431989e-05 0 -0.02568716114576591 -0.00016620070685122493 0 -0.025639217111323002 0.0015239554609490938 0 -0.025534267373963415 0.0025503624674794289 0 -0.025639217111323002 0.0015239554609490938 0 -0.025639217111323002 0.0015239554609490938 0 -0.025622063153226581 0.0019894613076167317 0 -0.026482076732823174 9.150595067338104e-05 0 -0.026349548723299428 3.4110113959431989e-05 0 -0.026298093878314152 0.00011722176858061753 0 -0.026459465316171722 -3.2287631966666562e-06 0 -0.026349548723299428 3.4110113959431989e-05 0 -0.026289684322537515 -3.7181351009898463e-05 0 -0.026349548723299428 3.4110113959431989e-05 0 -0.026289684322537515 -3.7181351009898463e-05 0 -0.026298093878314152 0.00011722176858061753 0 -0.026289684322537515 -3.7181351009898463e-05 0 -0.026298093878314152 0.00011722176858061753 0 -0.026147693631907241 -5.3733597657884176e-05 0 -0.025622063153226581 0.0019894613076167317 0 -0.025443974354440967 0.0021341499055014135 0 -0.025279515037945101 0.0029596536791192053 0 -0.025279144874538594 0.0029492096575652557 0 -0.025275007632680636 0.0029633176463616201 0 -0.025279144874538594 0.0029492096575652557 0 -0.025280810833696554 0.0029505879042895982 0 -0.025283711151205004 0.0029401581045791444 0 -0.025279144874538594 0.0029492096575652557 0 -0.025275007632680636 0.0029633176463616201 0 -0.025280810833696554 0.0029505879042895982 0 -0.025534267373963415 0.0025503624674794289 0 -0.025622063153226581 0.0019894613076167317 0 -0.025275007632680636 0.0029633176463616201 0 -0.025280810833696554 0.0029505879042895982 0 -0.025280551055091329 0.002958937805924087 0 -0.025281739072379999 0.0029414838481409905 0 -0.025283711151205004 0.0029401581045791444 0 -0.025278458572253221 0.0029137924646457916 0 -0.025280810833696554 0.0029505879042895982 0 -0.025281739072379999 0.0029414838481409905 0 -0.025280551055091329 0.002958937805924087 0 -0.025280810833696554 0.0029505879042895982 0 -0.025281739072379999 0.0029414838481409905 0 -0.025283711151205004 0.0029401581045791444 0 -0.025622063153226581 0.0019894613076167317 0 -0.025759960312394619 0.001480417056806127 0 -0.025286544946801683 0.0029442330133601646 0 -0.025283711151205004 0.0029401581045791444 0 -0.025278458572253221 0.0029137924646457916 0 -0.026298093878314152 0.00011722176858061753 0 -0.026147693631907241 -5.3733597657884176e-05 0 -0.025950913311400058 2.8974909689602584e-05 0 -0.025281739072379999 0.0029414838481409905 0 -0.025278458572253221 0.0029137924646457916 0 -0.025281787533751463 0.0029381012050933171 0 -0.025270679813004321 0.0029184798088829705 0 -0.025278458572253221 0.0029137924646457916 0 -0.025281787533751463 0.0029381012050933171 0 -0.025281787533751463 0.0029381012050933171 0 -0.025280551055091329 0.002958937805924087 0 -0.025296419816718145 0.0029389612878112834 0 -0.025277293405590321 0.0029333130818459049 0 -0.025281787533751463 0.0029381012050933171 0 -0.025296419816718145 0.0029389612878112834 0 -0.025281739072379999 0.0029414838481409905 0 -0.025281787533751463 0.0029381012050933171 0 -0.025280551055091329 0.002958937805924087 0 -0.025280551055091329 0.002958937805924087 0 -0.02525846615878705 0.002996419380269641 0 -0.025296419816718145 0.0029389612878112834 0 -0.02525846615878705 0.002996419380269641 0 -0.025296419816718145 0.0029389612878112834 0 -0.025205192778770175 0.002897223157147002 0 -0.025275007632680636 0.0029633176463616201 0 -0.025280551055091329 0.002958937805924087 0 -0.02525846615878705 0.002996419380269641 0 -0.025529359128815751 0.0030333393922917918 0 -0.025235415658619888 0.0028202372293852675 0 -0.025638468310845069 0.0027939321988391642 0 -0.025457485285396347 0.002534672098736182 0 -0.025326436043507084 0.0027844849407967203 0 -0.025638468310845069 0.0027939321988391642 0 -0.025692604031194766 0.0025214035624248794 0 -0.025809311342669609 0.0026725270482528913 0 -0.025437229928442464 0.0015027371645929481 0 -0.025529359128815751 0.0030333393922917918 0 -0.025692604031194766 0.0025214035624248794 0 -0.025457485285396347 0.002534672098736182 0 -0.025550547900583712 0.0022802654624237474 0 -0.025638468310845069 0.0027939321988391642 0 -0.025692604031194766 0.0025214035624248794 0 -0.025457485285396347 0.002534672098736182 0 -0.024569621912051937 -0.0010475777277470296 0 -0.024683212171471146 -0.0010931603958148953 0 -0.024691388651074304 -0.0008752233215071673 0 -0.024569621912051937 -0.0010475777277470296 0 -0.024678190849450051 -0.0011114079766800856 0 -0.024683212171471146 -0.0010931603958148953 0 -0.025940947270936744 0.0028281349080867789 0 -0.025638468310845069 0.0027939321988391642 0 -0.025809311342669609 0.0026725270482528913 0 -0.025940947270936744 0.0028281349080867789 0 -0.025809311342669609 0.0026725270482528913 0 -0.025963109374601338 0.0025417411325498575 0 -0.025437229928442464 0.0015027371645929481 0 -0.025314628088070532 0.00069707479921273202 0 -0.025692604031194766 0.0025214035624248794 0 -0.025963109374601338 0.0025417411325498575 0 -0.025738020481279492 0.0022642230161154719 0 -0.025692604031194766 0.0025214035624248794 0 -0.025809311342669609 0.0026725270482528913 0 -0.025963109374601338 0.0025417411325498575 0 -0.024432615388750488 -0.00066346938637553787 0 -0.024569621912051937 -0.0010475777277470296 0 -0.024691388651074304 -0.0008752233215071673 0 -0.024432615388750488 -0.00066346938637553787 0 -0.024691388651074304 -0.0008752233215071673 0 -0.02455371621796831 -0.00059088997096483624 0 -0.024432615388750488 -0.00066346938637553787 0 -0.024285039338618898 -0.00039265188868819995 0 -0.02455371621796831 -0.00059088997096483624 0 -0.024285039338618898 -0.00039265188868819995 0 -0.02455371621796831 -0.00059088997096483624 0 -0.024446838877792292 0.0001496778768043073 0 -0.025982647186831291 0.0022070441201099979 0 -0.025748481492754008 0.0020678305234718784 0 -0.025770381395366106 0.0018907200923534422 0 -0.025982647186831291 0.0022070441201099979 0 -0.025738020481279492 0.0022642230161154719 0 -0.025748481492754008 0.0020678305234718784 0 -0.025251327095016311 0.00084992505149593346 0 -0.025458427386107658 0.00089732007987302178 0 -0.025963109374601338 0.0025417411325498575 0 -0.025982647186831291 0.0022070441201099979 0 -0.025738020481279492 0.0022642230161154719 0 -0.025314628088070532 0.00069707479921273202 0 -0.025251327095016311 0.00084992505149593346 0 -0.025692604031194766 0.0025214035624248794 0 -0.025738020481279492 0.0022642230161154719 0 -0.025550547900583712 0.0022802654624237474 0 -0.025457485285396347 0.002534672098736182 0 -0.025550547900583712 0.0022802654624237474 0 -0.025342358497635307 0.0022692582605578983 0 -0.025445130433300663 0.0020910077466252384 0 -0.025599142048133079 0.0020248011071489426 0 -0.025422693925141515 0.0018796959920011362 0 -0.025550547900583712 0.0022802654624237474 0 -0.025445130433300663 0.0020910077466252384 0 -0.025342358497635307 0.0022692582605578983 0 -0.025550547900583712 0.0022802654624237474 0 -0.025445130433300663 0.0020910077466252384 0 -0.025599142048133079 0.0020248011071489426 0 -0.025738020481279492 0.0022642230161154719 0 -0.025550547900583712 0.0022802654624237474 0 -0.025599142048133079 0.0020248011071489426 0 -0.025738020481279492 0.0022642230161154719 0 -0.025599142048133079 0.0020248011071489426 0 -0.025748481492754008 0.0020678305234718784 0 -0.025599142048133079 0.0020248011071489426 0 -0.025748481492754008 0.0020678305234718784 0 -0.025673615745458574 0.0019353214925631474 0 -0.025673615745458574 0.0019353214925631474 0 -0.025584759790643126 0.0017764013035372814 0 -0.025770381395366106 0.0018907200923534422 0 -0.025326843320410672 0.001656888816215702 0 -0.025770381395366106 0.0018907200923534422 0 -0.025814301948043891 0.0017080235470532199 0 -0.025599142048133079 0.0020248011071489426 0 -0.025673615745458574 0.0019353214925631474 0 -0.025584759790643126 0.0017764013035372814 0 -0.025748481492754008 0.0020678305234718784 0 -0.025673615745458574 0.0019353214925631474 0 -0.025770381395366106 0.0018907200923534422 0 -0.024592136855121606 0.0015520395692476818 0 -0.026066441859195218 0.0019981486511365036 0 -0.024592136855121606 0.0015520395692476818 0 -0.025884706528867214 0.0017364671515559557 0 -0.025584759790643126 0.0017764013035372814 0 -0.025274933475904739 0.0016623077398137949 0 -0.025422693925141515 0.0018796959920011362 0 -0.025599142048133079 0.0020248011071489426 0 -0.025584759790643126 0.0017764013035372814 0 -0.025422693925141515 0.0018796959920011362 0 -0.024592136855121606 0.0015520395692476818 0 -0.022770023795836869 0.00091766049657803677 0 -0.025052344290630801 0.00054118476310671064 0 -0.023754103946597736 0.00053292654387359652 0 -0.024469239961584788 0.0016152725740081302 0 -0.023754103946597736 0.00053292654387359652 0 -0.024469239961584788 0.0016152725740081302 0 -0.023441822091181917 0.0010997212256272718 0 -0.024592136855121606 0.0015520395692476818 0 -0.023596775052469408 0.0013150734438168131 0 -0.025052344290630801 0.00054118476310671064 0 -0.024469239961584788 0.0016152725740081302 0 -0.025634632435838144 0.0011031151371425215 0 -0.024469239961584788 0.0016152725740081302 0 -0.025634632435838144 0.0011031151371425215 0 -0.025814301948043891 0.0017080235470532199 0 -0.026200714819606827 0.00058515825268070135 0 -0.025634632435838144 0.0011031151371425215 0 -0.026075301924608899 0.0017988700875434761 0 -0.025634632435838144 0.0011031151371425215 0 -0.026075301924608899 0.0017988700875434761 0 -0.025814301948043891 0.0017080235470532199 0 -0.024327233759877803 0.0012826305688004704 0 -0.023804069615050907 0.00063111350635979187 0 -0.024446838877792292 0.0001496778768043073 0 -0.023603507401464646 0.0011507368326646628 0 -0.025458427386107658 0.00089732007987302178 0 -0.024285039338618898 -0.00039265188868819995 0 -0.024446838877792292 0.0001496778768043073 0 -0.023853133703503136 7.7829198283089563e-05 0 -0.023804069615050907 0.00063111350635979187 0 -0.024446838877792292 0.0001496778768043073 0 -0.023853133703503136 7.7829198283089563e-05 0 -0.025982647186831291 0.0022070441201099979 0 -0.026075301924608899 0.0017988700875434761 0 -0.025770381395366106 0.0018907200923534422 0 -0.026075301924608899 0.0017988700875434761 0 -0.025770381395366106 0.0018907200923534422 0 -0.025814301948043891 0.0017080235470532199 0 -0.024809325435755519 0.0018293105107537837 0 -0.025095245628339615 0.001848632990659923 0 -0.025086968146654079 0.0021901236573502736 0 -0.024809325435755519 0.0018293105107537837 0 -0.024885697757354126 0.0014365870950680711 0 -0.025095245628339615 0.001848632990659923 0 -0.024809325435755519 0.0018293105107537837 0 -0.024457859668641131 0.0019060403348816356 0 -0.02429283183935824 0.0011320880047730982 0 -0.024809325435755519 0.0018293105107537837 0 -0.024885697757354126 0.0014365870950680711 0 -0.02429283183935824 0.0011320880047730982 0 -0.02164344766926992 0.00074347085726857317 0 -0.021595505736111867 0.00079651117185919264 0 -0.02185258941845386 0.00056237812642253963 0 -0.023266506097885498 0.0011110043766849893 0 -0.023061248627745147 0.00087065117160594599 0 -0.023266506097885498 0.0011110043766849893 0 -0.023596775052469408 0.0013150734438168131 0 -0.021858320507539216 0.00068460136987736383 0 -0.021797803686434195 0.00069304781136948323 0 -0.02206722946909586 0.001009394665822355 0 -0.024885697757354126 0.0014365870950680711 0 -0.025274933475904739 0.0016623077398137949 0 -0.025134134285852011 0.0016993448692841709 0 -0.021797803686434195 0.00069304781136948323 0 -0.021595505736111867 0.00079651117185919264 0 -0.02206722946909586 0.001009394665822355 0 -0.022926301642047817 0.0011796303946878634 0 -0.022334589404347495 0.00084642069689520882 0 -0.02206722946909586 0.001009394665822355 0 -0.021858320507539216 0.00068460136987736383 0 -0.022334589404347495 0.00084642069689520882 0 -0.02206722946909586 0.001009394665822355 0 -0.025274933475904739 0.0016623077398137949 0 -0.025260216177799017 0.0018305711215646082 0 -0.025422693925141515 0.0018796959920011362 0 -0.025260216177799017 0.0018305711215646082 0 -0.025422693925141515 0.0018796959920011362 0 -0.025300190411656234 0.00201042886197156 0 -0.024885697757354126 0.0014365870950680711 0 -0.025134134285852011 0.0016993448692841709 0 -0.025095245628339615 0.001848632990659923 0 -0.025274933475904739 0.0016623077398137949 0 -0.025260216177799017 0.0018305711215646082 0 -0.025134134285852011 0.0016993448692841709 0 -0.025260216177799017 0.0018305711215646082 0 -0.025134134285852011 0.0016993448692841709 0 -0.025095245628339615 0.001848632990659923 0 -0.025260216177799017 0.0018305711215646082 0 -0.025095245628339615 0.001848632990659923 0 -0.025300190411656234 0.00201042886197156 0 -0.025095245628339615 0.001848632990659923 0 -0.025086968146654079 0.0021901236573502736 0 -0.025300190411656234 0.00201042886197156 0 -0.025086968146654079 0.0021901236573502736 0 -0.025300190411656234 0.00201042886197156 0 -0.025342358497635307 0.0022692582605578983 0 -0.025445130433300663 0.0020910077466252384 0 -0.025300190411656234 0.00201042886197156 0 -0.025342358497635307 0.0022692582605578983 0 -0.025445130433300663 0.0020910077466252384 0 -0.025422693925141515 0.0018796959920011362 0 -0.025300190411656234 0.00201042886197156 0 -0.025457485285396347 0.002534672098736182 0 -0.025342358497635307 0.0022692582605578983 0 -0.025188017195086225 0.0025287928880392695 0 -0.025086968146654079 0.0021901236573502736 0 -0.025342358497635307 0.0022692582605578983 0 -0.025188017195086225 0.0025287928880392695 0 -0.025086968146654079 0.0021901236573502736 0 -0.0249433745381928 0.0025177567144637055 0 -0.025188017195086225 0.0025287928880392695 0 -0.025086968146654079 0.0021901236573502736 0 -0.0249433745381928 0.0025177567144637055 0 -0.024746046259942728 0.0022807287878056741 0 -0.0249433745381928 0.0025177567144637055 0 -0.024746046259942728 0.0022807287878056741 0 -0.02469215509668491 0.0027380358258461334 0 -0.024809325435755519 0.0018293105107537837 0 -0.025086968146654079 0.0021901236573502736 0 -0.024746046259942728 0.0022807287878056741 0 -0.024457859668641131 0.0019060403348816356 0 -0.024746046259942728 0.0022807287878056741 0 -0.024425218467501442 0.0023884515863195487 0 -0.024809325435755519 0.0018293105107537837 0 -0.024457859668641131 0.0019060403348816356 0 -0.024746046259942728 0.0022807287878056741 0 -0.024746046259942728 0.0022807287878056741 0 -0.02469215509668491 0.0027380358258461334 0 -0.024425218467501442 0.0023884515863195487 0 -0.0249433745381928 0.0025177567144637055 0 -0.02469215509668491 0.0027380358258461334 0 -0.024965470039570968 0.0028214037003521822 0 -0.024965470039570968 0.0028214037003521822 0 -0.024770207684775485 0.0029917839716511411 0 -0.025019323839536138 0.0030041611998920426 0 -0.02469215509668491 0.0027380358258461334 0 -0.024965470039570968 0.0028214037003521822 0 -0.024770207684775485 0.0029917839716511411 0 -0.02469215509668491 0.0027380358258461334 0 -0.024770207684775485 0.0029917839716511411 0 -0.024564175725217154 0.0030633296837956113 0 -0.025457485285396347 0.002534672098736182 0 -0.025188017195086225 0.0025287928880392695 0 -0.025326436043507084 0.0027844849407967203 0 -0.0249433745381928 0.0025177567144637055 0 -0.024965470039570968 0.0028214037003521822 0 -0.025188017195086225 0.0025287928880392695 0 -0.024965470039570968 0.0028214037003521822 0 -0.025188017195086225 0.0025287928880392695 0 -0.025326436043507084 0.0027844849407967203 0 -0.024986774714059558 0.0028213155635168972 0 -0.025235415658619888 0.0028202372293852675 0 -0.024965470039570968 0.0028214037003521822 0 -0.025205192778770175 0.002897223157147002 0 -0.025019323839536138 0.0030041611998920426 0 -0.02525846615878705 0.002996419380269641 0 -0.025205192778770175 0.002897223157147002 0 -0.025162325220653977 0.0030000747281158247 0 -0.025205192778770175 0.002897223157147002 0 -0.025162325220653977 0.0030000747281158247 0 -0.025019323839536138 0.0030041611998920426 0 -0.02525846615878705 0.002996419380269641 0 -0.025201781837887818 0.0030446354767298669 0 -0.025162325220653977 0.0030000747281158247 0 -0.025201781837887818 0.0030446354767298669 0 -0.025162325220653977 0.0030000747281158247 0 -0.02510414146555788 0.0030980732428240814 0 -0.025019323839536138 0.0030041611998920426 0 -0.02510414146555788 0.0030980732428240814 0 -0.024849345662614646 0.0031232336548062678 0 -0.025056258531924554 0.0031745974198934498 0 -0.024874350293590454 0.0031084110743262298 0 -0.025162325220653977 0.0030000747281158247 0 -0.025019323839536138 0.0030041611998920426 0 -0.02510414146555788 0.0030980732428240814 0 -0.024987382862171163 0.0019496759610942588 0 -0.024610001014091179 0.0020130660647549267 0 -0.025105411292680881 0.0032817660378666362 0 -0.025080134088678652 0.0031589719315711874 0 -0.024877048380675598 0.0033281475851649504 0 -0.025924875150317959 0.00060962598817570829 0 -0.02587854178922824 0.0004399341916981721 0 -0.024953858611144082 0.00057235621117291259 0 -0.025534267373963415 0.0025503624674794289 0 -0.025056258531924554 0.0031745974198934498 0 -0.025332580908203738 0.0031962564866403424 0 -0.02534287570761265 0.0032313901281243972 0 -0.025105411292680881 0.0032817660378666362 0 -0.025286012237996029 0.0030918005051829996 0 -0.025201781837887818 0.0030446354767298669 0 -0.02510414146555788 0.0030980732428240814 0 -0.025639217111323002 0.0015239554609490938 0 -0.024987382862171163 0.0019496759610942588 0 -0.025332580908203738 0.0031962564866403424 0 -0.025105411292680881 0.0032817660378666362 0 -0.025080134088678652 0.0031589719315711874 0 -0.025286012237996029 0.0030918005051829996 0 -0.02525846615878705 0.002996419380269641 0 -0.025201781837887818 0.0030446354767298669 0 -0.024770207684775485 0.0029917839716511411 0 -0.024849345662614646 0.0031232336548062678 0 -0.024649662757609183 0.0031996540172599805 0 -0.024770207684775485 0.0029917839716511411 0 -0.024649662757609183 0.0031996540172599805 0 -0.024564175725217154 0.0030633296837956113 0 -0.024770207684775485 0.0029917839716511411 0 -0.025019323839536138 0.0030041611998920426 0 -0.024849345662614646 0.0031232336548062678 0 -0.025080134088678652 0.0031589719315711874 0 -0.024849345662614646 0.0031232336548062678 0 -0.024877048380675598 0.0033281475851649504 0 -0.024849345662614646 0.0031232336548062678 0 -0.024877048380675598 0.0033281475851649504 0 -0.024649662757609183 0.0031996540172599805 0 -0.024649662757609183 0.0031996540172599805 0 -0.024644990207680656 0.0033656680360118507 0 -0.024499775194841585 0.0032799133741379782 0 -0.024877048380675598 0.0033281475851649504 0 -0.024649662757609183 0.0031996540172599805 0 -0.024644990207680656 0.0033656680360118507 0 -0.021972763644722823 0.0018311259907598499 0 -0.021394780881185835 0.00089068363973280457 0 -0.021931299077901829 0.00070931218842306787 0 -0.021972763644722823 0.0018311259907598499 0 -0.022361121354614145 0.00098347271882476533 0 -0.021931299077901829 0.00070931218842306787 0 -0.024023526551825661 0.00071007726210361099 0 -0.023102045211559698 0.00085197992452650439 0 -0.024088148419752212 0.0014071951405637429 0 -0.024610001014091179 0.0020130660647549267 0 -0.023044315705338391 0.0019067616002313476 0 -0.023044315705338391 0.0019067616002313476 0 -0.022795406192428112 -4.5400792715488147e-05 0 -0.021972763644722823 0.0018311259907598499 0 -0.021394780881185835 0.00089068363973280457 0 -0.020323186814837618 0.00083803158915995426 0 -0.022795406192428112 -4.5400792715488147e-05 0 -0.021910223605856479 2.944600505595961e-05 0 -0.023827350699842646 -0.0010512587332109707 0 -0.024856046917931477 -0.0010633285207424835 0 -0.025931227075820667 -0.0017933813610142891 0 -0.025868812671833399 -0.0018309285714291591 0 -0.025962804379357555 -0.0017975132752642469 0 -0.021771694806538362 3.5659847390820144e-05 0 -0.022268642712005047 -0.0003557919238846869 0 -0.021525347572362106 -0.00011576212774417057 0 -0.025931227075820667 -0.0017933813610142891 0 -0.025868812671833399 -0.0018309285714291591 0 -0.025910410137975706 -0.0017935175933707322 0 -0.022268642712005047 -0.0003557919238846869 0 -0.022530343974138143 -0.00025012045742870217 0 -0.023511277337457635 -0.00081688339971454328 0 -0.021394780881185835 0.00089068363973280457 0 -0.020323186814837618 0.00083803158915995426 0 -0.021982994464299951 7.9236174136132514e-05 0 -0.021771694806538362 3.5659847390820144e-05 0 -0.022268642712005047 -0.0003557919238846869 0 -0.022530343974138143 -0.00025012045742870217 0 -0.022361121354614145 0.00098347271882476533 0 -0.021931299077901829 0.00070931218842306787 0 -0.022850475454397005 0.00037248510333382471 0 -0.021931299077901829 0.00070931218842306787 0 -0.021982994464299951 7.9236174136132514e-05 0 -0.022850475454397005 0.00037248510333382471 0 -0.021394780881185835 0.00089068363973280457 0 -0.021931299077901829 0.00070931218842306787 0 -0.021982994464299951 7.9236174136132514e-05 0 -0.025868812671833399 -0.0018309285714291591 0 -0.025844710058122861 -0.001809986367330261 0 -0.025804912096890325 -0.0018195604498058666 0 -0.025844710058122861 -0.001809986367330261 0 -0.025804912096890325 -0.0018195604498058666 0 -0.025815741865507284 -0.0018030235370959569 0 -0.025827124640510239 -0.001784624876751021 0 -0.02585980026751156 -0.0017872107080871003 0 -0.025847386765212598 -0.001764080915725929 0 -0.025815741865507284 -0.0018030235370959569 0 -0.025827124640510239 -0.001784624876751021 0 -0.02585980026751156 -0.0017872107080871003 0 -0.025844710058122861 -0.001809986367330261 0 -0.025815741865507284 -0.0018030235370959569 0 -0.02585980026751156 -0.0017872107080871003 0 -0.025815741865507284 -0.0018030235370959569 0 -0.025827124640510239 -0.001784624876751021 0 -0.025787379617788837 -0.0017909892909809151 0 -0.02585980026751156 -0.0017872107080871003 0 -0.02589609794353415 -0.0017793193955828392 0 -0.025889517139232696 -0.0017549015027039799 0 -0.02585980026751156 -0.0017872107080871003 0 -0.025876905095794687 -0.0017999550307317882 0 -0.02589609794353415 -0.0017793193955828392 0 -0.025868812671833399 -0.0018309285714291591 0 -0.025844710058122861 -0.001809986367330261 0 -0.025876905095794687 -0.0017999550307317882 0 -0.025868812671833399 -0.0018309285714291591 0 -0.025876905095794687 -0.0017999550307317882 0 -0.025910410137975706 -0.0017935175933707322 0 -0.025844710058122861 -0.001809986367330261 0 -0.02585980026751156 -0.0017872107080871003 0 -0.025876905095794687 -0.0017999550307317882 0 -0.025910410137975706 -0.0017935175933707322 0 -0.025934245998178746 -0.0017683232903589979 0 -0.02589609794353415 -0.0017793193955828392 0 -0.025876905095794687 -0.0017999550307317882 0 -0.025910410137975706 -0.0017935175933707322 0 -0.02589609794353415 -0.0017793193955828392 0 -0.025910410137975706 -0.0017935175933707322 0 -0.025942052372583967 -0.0017784103503078956 0 -0.025934245998178746 -0.0017683232903589979 0 -0.025931227075820667 -0.0017933813610142891 0 -0.025942052372583967 -0.0017784103503078956 0 -0.025968153709170487 -0.0017677507935880854 0 -0.025931227075820667 -0.0017933813610142891 0 -0.025910410137975706 -0.0017935175933707322 0 -0.025942052372583967 -0.0017784103503078956 0 -0.025942052372583967 -0.0017784103503078956 0 -0.025934245998178746 -0.0017683232903589979 0 -0.025960062122032255 -0.001760125894193016 0 -0.025934245998178746 -0.0017683232903589979 0 -0.025963652193022917 -0.0017433255882033556 0 -0.025960062122032255 -0.001760125894193016 0 -0.025934245998178746 -0.0017683232903589979 0 -0.025927805008343782 -0.0017543764630832579 0 -0.025963652193022917 -0.0017433255882033556 0 -0.025934245998178746 -0.0017683232903589979 0 -0.02589609794353415 -0.0017793193955828392 0 -0.025927805008343782 -0.0017543764630832579 0 -0.025927805008343782 -0.0017543764630832579 0 -0.025963031884783622 -0.0017191783078356262 0 -0.025889517139232696 -0.0017549015027039799 0 -0.02589609794353415 -0.0017793193955828392 0 -0.025927805008343782 -0.0017543764630832579 0 -0.025889517139232696 -0.0017549015027039799 0 -0.025927805008343782 -0.0017543764630832579 0 -0.025963652193022917 -0.0017433255882033556 0 -0.025963031884783622 -0.0017191783078356262 0 -0.025963031884783622 -0.0017191783078356262 0 -0.025889517139232696 -0.0017549015027039799 0 -0.025932600386955593 -0.0017112372868914969 0 -0.025847386765212598 -0.001764080915725929 0 -0.025889517139232696 -0.0017549015027039799 0 -0.025870907145836675 -0.0017334847152401022 0 -0.025889517139232696 -0.0017549015027039799 0 -0.025870907145836675 -0.0017334847152401022 0 -0.025932600386955593 -0.0017112372868914969 0 -0.025847386765212598 -0.001764080915725929 0 -0.025870907145836675 -0.0017334847152401022 0 -0.02580284729941696 -0.0017664334596367568 0 -0.025870907145836675 -0.0017334847152401022 0 -0.02580284729941696 -0.0017664334596367568 0 -0.025821390859650316 -0.0017306432572382368 0 -0.025827124640510239 -0.001784624876751021 0 -0.025847386765212598 -0.001764080915725929 0 -0.02580284729941696 -0.0017664334596367568 0 -0.02585980026751156 -0.0017872107080871003 0 -0.025847386765212598 -0.001764080915725929 0 -0.025889517139232696 -0.0017549015027039799 0 -0.026018222543600936 -0.001705980907879633 0 -0.026028195740696432 -0.0016958655861964321 0 -0.026035143322110526 -0.0016830890050505633 0 -0.026018222543600936 -0.001705980907879633 0 -0.026035143322110526 -0.0016830890050505633 0 -0.026033591374459344 -0.0016855593061461047 0 -0.026018222543600936 -0.001705980907879633 0 -0.026003542761221608 -0.0017139727282810512 0 -0.026033591374459344 -0.0016855593061461047 0 -0.026003542761221608 -0.0017139727282810512 0 -0.026022161478624298 -0.0016878611830610784 0 -0.026033591374459344 -0.0016855593061461047 0 -0.025963031884783622 -0.0017191783078356262 0 -0.026003542761221608 -0.0017139727282810512 0 -0.026022161478624298 -0.0016878611830610784 0 -0.025963652193022917 -0.0017433255882033556 0 -0.026003542761221608 -0.0017139727282810512 0 -0.025991257717422753 -0.0017381555462224407 0 -0.025963652193022917 -0.0017433255882033556 0 -0.025963031884783622 -0.0017191783078356262 0 -0.026003542761221608 -0.0017139727282810512 0 -0.026018222543600936 -0.001705980907879633 0 -0.026003542761221608 -0.0017139727282810512 0 -0.025991257717422753 -0.0017381555462224407 0 -0.025963652193022917 -0.0017433255882033556 0 -0.025991257717422753 -0.0017381555462224407 0 -0.025960062122032255 -0.001760125894193016 0 -0.025991257717422753 -0.0017381555462224407 0 -0.025968153709170487 -0.0017677507935880854 0 -0.025960062122032255 -0.001760125894193016 0 -0.025942052372583967 -0.0017784103503078956 0 -0.025968153709170487 -0.0017677507935880854 0 -0.025960062122032255 -0.001760125894193016 0 -0.025991257717422753 -0.0017381555462224407 0 -0.025968153709170487 -0.0017677507935880854 0 -0.025993555905428456 -0.0017461991704672696 0 -0.025991257717422753 -0.0017381555462224407 0 -0.026009308332385149 -0.0017220964255163589 0 -0.025993555905428456 -0.0017461991704672696 0 -0.026018222543600936 -0.001705980907879633 0 -0.025991257717422753 -0.0017381555462224407 0 -0.026009308332385149 -0.0017220964255163589 0 -0.026018222543600936 -0.001705980907879633 0 -0.026009308332385149 -0.0017220964255163589 0 -0.026028195740696432 -0.0016958655861964321 0 -0.026009308332385149 -0.0017220964255163589 0 -0.025999185022863008 -0.0017256737462088628 0 -0.026021893326023497 -0.0017097813340791513 0 -0.024856046917931477 -0.0010633285207424835 0 -0.026361619325687986 -0.0018944142388878213 0 -0.026009308332385149 -0.0017220964255163589 0 -0.025999185022863008 -0.0017256737462088628 0 -0.025993555905428456 -0.0017461991704672696 0 -0.025993555905428456 -0.0017461991704672696 0 -0.026004110464067771 -0.0017332454307486993 0 -0.0259737022073151 -0.0017253953148943977 0 -0.025999185022863008 -0.0017256737462088628 0 -0.025993555905428456 -0.0017461991704672696 0 -0.0259737022073151 -0.0017253953148943977 0 -0.025931227075820667 -0.0017933813610142891 0 -0.025968153709170487 -0.0017677507935880854 0 -0.025962804379357555 -0.0017975132752642469 0 -0.026033218732434082 -0.0015120953975876908 0 -0.024856046917931477 -0.0010633285207424835 0 -0.025968153709170487 -0.0017677507935880854 0 -0.025993555905428456 -0.0017461991704672696 0 -0.025962804379357555 -0.0017975132752642469 0 -0.022795406192428112 -4.5400792715488147e-05 0 -0.024856046917931477 -0.0010633285207424835 0 -0.025396440566098442 -0.0016326729053701141 0 -0.025573207760973545 -0.0015432341875640436 0 -0.025798631866567237 -0.0018019852712515363 0 -0.024953858611144082 0.00057235621117291259 0 -0.024023526551825661 0.00071007726210361099 0 -0.025011216618080402 0.0010065649606177114 0 -0.022795406192428112 -4.5400792715488147e-05 0 -0.025820023205740131 -0.00054074171696441814 0 -0.024023526551825661 0.00071007726210361099 0 -0.024088148419752212 0.0014071951405637429 0 -0.025011216618080402 0.0010065649606177114 0 -0.025924875150317959 0.00060962598817570829 0 -0.024953858611144082 0.00057235621117291259 0 -0.025011216618080402 0.0010065649606177114 0 -0.026033925450916925 -0.0018304859485715858 0 -0.025798631866567237 -0.0018019852712515363 0 -0.0259737022073151 -0.0017253953148943977 0 -0.02568716114576591 -0.00016620070685122493 0 -0.025820023205740131 -0.00054074171696441814 0 -0.025573207760973545 -0.0015432341875640436 0 -0.025798631866567237 -0.0018019852712515363 0 -0.0259737022073151 -0.0017253953148943977 0 -0.026459465316171722 -3.2287631966666562e-06 0 -0.026209678600637616 -0.00020883954150638324 0 -0.026310237706854298 -0.00059064971623263923 0 -0.026033925450916925 -0.0018304859485715858 0 -0.0259737022073151 -0.0017253953148943977 0 -0.026031342874270749 -0.0017128035090068592 0 -0.02568716114576591 -0.00016620070685122493 0 -0.026214992728714522 -0.0012960746160937636 0 -0.026459465316171722 -3.2287631966666562e-06 0 -0.026289684322537515 -3.7181351009898463e-05 0 -0.026209678600637616 -0.00020883954150638324 0 -0.026209678600637616 -0.00020883954150638324 0 -0.026100628681823976 -0.00042871768001769001 0 -0.026310237706854298 -0.00059064971623263923 0 -0.026289684322537515 -3.7181351009898463e-05 0 -0.026147693631907241 -5.3733597657884176e-05 0 -0.026209678600637616 -0.00020883954150638324 0 -0.026147693631907241 -5.3733597657884176e-05 0 -0.026209678600637616 -0.00020883954150638324 0 -0.025979306773385207 -0.00018701776025663891 0 -0.026147693631907241 -5.3733597657884176e-05 0 -0.025950913311400058 2.8974909689602584e-05 0 -0.025979306773385207 -0.00018701776025663891 0 -0.025979306773385207 -0.00018701776025663891 0 -0.026100628681823976 -0.00042871768001769001 0 -0.025863375451902523 -0.00039826625243280213 0 -0.026209678600637616 -0.00020883954150638324 0 -0.025979306773385207 -0.00018701776025663891 0 -0.026100628681823976 -0.00042871768001769001 0 -0.026100628681823976 -0.00042871768001769001 0 -0.025863375451902523 -0.00039826625243280213 0 -0.025960098285452954 -0.00082400514687323747 0 -0.026100628681823976 -0.00042871768001769001 0 -0.026310237706854298 -0.00059064971623263923 0 -0.025960098285452954 -0.00082400514687323747 0 -0.025999185022863008 -0.0017256737462088628 0 -0.026031342874270749 -0.0017128035090068592 0 -0.026021893326023497 -0.0017097813340791513 0 -0.025999185022863008 -0.0017256737462088628 0 -0.0259737022073151 -0.0017253953148943977 0 -0.026031342874270749 -0.0017128035090068592 0 -0.024596907823177343 -0.0009765282641029093 0 -0.024438126300861302 -0.00070926223907898588 0 -0.024659096262463931 -0.00060832924330491334 0 -0.024596907823177343 -0.0009765282641029093 0 -0.024659096262463931 -0.00060832924330491334 0 -0.024788900751101173 -0.00083060291012564732 0 -0.024378731194020811 -0.0009383631233785848 0 -0.024751491218527939 0.00015969077314992932 0 -0.024596907823177343 -0.0009765282641029093 0 -0.024438126300861302 -0.00070926223907898588 0 -0.024236720236136433 -0.001055946641202348 0 -0.024438126300861302 -0.00070926223907898588 0 -0.024236720236136433 -0.001055946641202348 0 -0.024195715193268654 -0.00048598394955213999 0 -0.025596317616552313 -5.9581608596312117e-05 0 -0.025863375451902523 -0.00039826625243280213 0 -0.02564301326883801 -0.00065016952728627034 0 -0.025979306773385207 -0.00018701776025663891 0 -0.025596317616552313 -5.9581608596312117e-05 0 -0.025863375451902523 -0.00039826625243280213 0 -0.024751491218527939 0.00015969077314992932 0 -0.0249610926822353 -0.00067452456979160064 0 -0.025950913311400058 2.8974909689602584e-05 0 -0.025979306773385207 -0.00018701776025663891 0 -0.025596317616552313 -5.9581608596312117e-05 0 -0.025863375451902523 -0.00039826625243280213 0 -0.02564301326883801 -0.00065016952728627034 0 -0.025960098285452954 -0.00082400514687323747 0 -0.024438126300861302 -0.00070926223907898588 0 -0.024195715193268654 -0.00048598394955213999 0 -0.024490313745104613 -0.0004291863909078493 0 -0.024195715193268654 -0.00048598394955213999 0 -0.024490313745104613 -0.0004291863909078493 0 -0.024356359853527416 -0.00022392995572088255 0 -0.024490313745104613 -0.0004291863909078493 0 -0.024659096262463931 -0.00060832924330491334 0 -0.024748603642067768 -0.00037508550603838328 0 -0.024438126300861302 -0.00070926223907898588 0 -0.024490313745104613 -0.0004291863909078493 0 -0.024659096262463931 -0.00060832924330491334 0 -0.024673802932709016 6.2640691479959009e-05 0 -0.024563991929994051 -0.00015677966890680664 0 -0.024458051546965121 3.506231978534531e-05 0 -0.024490313745104613 -0.0004291863909078493 0 -0.024563991929994051 -0.00015677966890680664 0 -0.024748603642067768 -0.00037508550603838328 0 -0.024490313745104613 -0.0004291863909078493 0 -0.024563991929994051 -0.00015677966890680664 0 -0.024356359853527416 -0.00022392995572088255 0 -0.024563991929994051 -0.00015677966890680664 0 -0.024356359853527416 -0.00022392995572088255 0 -0.024388447307548355 -7.714331462060251e-05 0 -0.024458051546965121 3.506231978534531e-05 0 -0.024388447307548355 -7.714331462060251e-05 0 -0.024243373173207242 1.7600038411479534e-05 0 -0.024563991929994051 -0.00015677966890680664 0 -0.024458051546965121 3.506231978534531e-05 0 -0.024388447307548355 -7.714331462060251e-05 0 -0.025711045309088354 -0.0012058901207979789 0 -0.025960098285452954 -0.00082400514687323747 0 -0.025957725999178533 -0.0012862521049019074 0 -0.024195715193268654 -0.00048598394955213999 0 -0.024356359853527416 -0.00022392995572088255 0 -0.024243373173207242 1.7600038411479534e-05 0 -0.024195715193268654 -0.00048598394955213999 0 -0.024243373173207242 1.7600038411479534e-05 0 -0.024172057582958397 0.0001080878564664995 0 -0.0249610926822353 -0.00067452456979160064 0 -0.024738447797783586 -0.00074222527699324573 0 -0.02564301326883801 -0.00065016952728627034 0 -0.025711045309088354 -0.0012058901207979789 0 -0.025960098285452954 -0.00082400514687323747 0 -0.024356359853527416 -0.00022392995572088255 0 -0.024388447307548355 -7.714331462060251e-05 0 -0.024243373173207242 1.7600038411479534e-05 0 -0.024738447797783586 -0.00074222527699324573 0 -0.027020017531483788 0.000721672803102142 0 -0.025711045309088354 -0.0012058901207979789 0 -0.025922231703732625 -0.0015163471236579852 0 -0.025854851114326779 -0.0016411373078425526 0 -0.024243373173207242 1.7600038411479534e-05 0 -0.024172057582958397 0.0001080878564664995 0 -0.024685916750055041 0.00031986019823607289 0 -0.025711045309088354 -0.0012058901207979789 0 -0.025957725999178533 -0.0012862521049019074 0 -0.025922231703732625 -0.0015163471236579852 0 -0.024172057582958397 0.0001080878564664995 0 -0.024685916750055041 0.00031986019823607289 0 -0.024630599522063167 0.00077235142812647818 0 -0.024458051546965121 3.506231978534531e-05 0 -0.024243373173207242 1.7600038411479534e-05 0 -0.024501789294720727 0.00029071365178754202 0 -0.024324690300865117 8.5530326192362837e-05 0 -0.024490476062408565 0.00022587911499121906 0 -0.024490476062408565 0.00022587911499121906 0 -0.025605165031164195 0.0010837449690460179 0 -0.024673802932709016 6.2640691479959009e-05 0 -0.024458051546965121 3.506231978534531e-05 0 -0.024501789294720727 0.00029071365178754202 0 -0.024673802932709016 6.2640691479959009e-05 0 -0.024501789294720727 0.00029071365178754202 0 -0.02472472473162397 0.00030121938335918557 0 -0.026031342874270749 -0.0017128035090068592 0 -0.026021893326023497 -0.0017097813340791513 0 -0.026048105925169433 -0.0016917399357570886 0 -0.026021893326023497 -0.0017097813340791513 0 -0.026048105925169433 -0.0016917399357570886 0 -0.026028195740696432 -0.0016958655861964321 0 -0.026009308332385149 -0.0017220964255163589 0 -0.026021893326023497 -0.0017097813340791513 0 -0.026028195740696432 -0.0016958655861964321 0 -0.025960098285452954 -0.00082400514687323747 0 -0.026157988894770161 -0.0011482615830263544 0 -0.025957725999178533 -0.0012862521049019074 0 -0.026214992728714522 -0.0012960746160937636 0 -0.026096109953148702 -0.001389325107180755 0 -0.026310237706854298 -0.00059064971623263923 0 -0.025960098285452954 -0.00082400514687323747 0 -0.026157988894770161 -0.0011482615830263544 0 -0.026157988894770161 -0.0011482615830263544 0 -0.025957725999178533 -0.0012862521049019074 0 -0.026001125130249866 -0.0016170734209340815 0 -0.026048105925169433 -0.0016917399357570886 0 -0.026036683836919965 -0.0016640789550485572 0 -0.026001125130249866 -0.0016170734209340815 0 -0.026096109953148702 -0.001389325107180755 0 -0.026012472465802107 -0.0016219368130233306 0 -0.025957725999178533 -0.0012862521049019074 0 -0.026001125130249866 -0.0016170734209340815 0 -0.025922231703732625 -0.0015163471236579852 0 -0.026048105925169433 -0.0016917399357570886 0 -0.026036683836919965 -0.0016640789550485572 0 -0.026028195740696432 -0.0016958655861964321 0 -0.026035143322110526 -0.0016830890050505633 0 -0.026044589907484785 -0.0016737946677503172 0 -0.026033591374459344 -0.0016855593061461047 0 -0.026036683836919965 -0.0016640789550485572 0 -0.026028195740696432 -0.0016958655861964321 0 -0.026035143322110526 -0.0016830890050505633 0 -0.026036683836919965 -0.0016640789550485572 0 -0.026035143322110526 -0.0016830890050505633 0 -0.026044589907484785 -0.0016737946677503172 0 -0.026053637062291992 -0.0016774698420087173 0 -0.026046104730712477 -0.0017196236275814592 0 -0.026061360123773983 -0.0016841265244197342 0 -0.026050230840421424 -0.001675245954807045 0 -0.026053637062291992 -0.0016774698420087173 0 -0.026061360123773983 -0.0016841265244197342 0 -0.026333933698869064 -0.0017867701612678658 0 -0.026872514407535564 -0.0016974936416167075 0 -0.026044589907484785 -0.0016737946677503172 0 -0.026050230840421424 -0.001675245954807045 0 -0.026053637062291992 -0.0016774698420087173 0 -0.026053637062291992 -0.0016774698420087173 0 -0.026043542428342649 -0.0016660060582121428 0 -0.026038986945179726 -0.0016572371912748898 0 -0.026036683836919965 -0.0016640789550485572 0 -0.026043542428342649 -0.0016660060582121428 0 -0.026038986945179726 -0.0016572371912748898 0 -0.026036683836919965 -0.0016640789550485572 0 -0.026044589907484785 -0.0016737946677503172 0 -0.026043542428342649 -0.0016660060582121428 0 -0.026044589907484785 -0.0016737946677503172 0 -0.026053637062291992 -0.0016774698420087173 0 -0.026043542428342649 -0.0016660060582121428 0 -0.026036683836919965 -0.0016640789550485572 0 -0.026038986945179726 -0.0016572371912748898 0 -0.026001125130249866 -0.0016170734209340815 0 -0.025922231703732625 -0.0015163471236579852 0 -0.025997592895289117 -0.0017479414315318166 0 -0.02614261646193513 -0.0017798908774394448 0 -0.025939279688777416 -0.0015054613268335102 0 -0.027251638897619872 -0.0010632710837508959 0 -0.026001125130249866 -0.0016170734209340815 0 -0.025922231703732625 -0.0015163471236579852 0 -0.026046104730712477 -0.0017196236275814592 0 -0.027916995751787216 -0.00067531304498020682 0 -0.027251638897619872 -0.0010632710837508959 0 -0.026053637062291992 -0.0016774698420087173 0 -0.026038986945179726 -0.0016572371912748898 0 -0.026046104730712477 -0.0017196236275814592 0 -0.026038986945179726 -0.0016572371912748898 0 -0.026001125130249866 -0.0016170734209340815 0 -0.026046104730712477 -0.0017196236275814592 0 -0.030755942761538441 0.00095563572366871483 0 -0.030983064976702331 0.00096790193136667027 0 -0.03086592010804581 0.00069720620426645848 0 -0.027251638897619872 -0.0010632710837508959 0 -0.029540277812282998 -0.0002614489933526534 0 -0.027916995751787216 -0.00067531304498020682 0 -0.029540277812282998 -0.0002614489933526534 0 -0.028009447595233813 -0.00025083138413749603 0 -0.028401429174330476 -0.00034968543630262524 0 -0.028753552379975938 -0.00083479647923387953 0 -0.030746649155597463 0.0011465366328831514 0 -0.030755942761538441 0.00095563572366871483 0 -0.030983064976702331 0.00096790193136667027 0 -0.027977031111125039 -0.0008544475126428207 0 -0.028152095932644883 -0.0010942359447360518 0 -0.028440145191278122 -0.00097557843272834041 0 -0.027251638897619872 -0.0010632710837508959 0 -0.026872514407535564 -0.0016974936416167075 0 -0.028152095932644883 -0.0010942359447360518 0 -0.028360618318591255 -0.0012575417168425296 0 -0.028440145191278122 -0.00097557843272834041 0 -0.029540277812282998 -0.0002614489933526534 0 -0.032085284262868503 -0.00031048743319123985 0 -0.030173582694865149 0.00021466229109192645 0 -0.031178004303027557 -0.00057972793574713726 0 -0.031050684222173348 -0.0010032389171007541 0 -0.029540277812282998 -0.0002614489933526534 0 -0.029980578460487982 -0.00095982736733057428 0 -0.029980578460487982 -0.00095982736733057428 0 -0.026872514407535564 -0.0016974936416167075 0 -0.026931176138710895 -0.0016580999577548699 0 -0.026630889609516959 -0.0016290259026974707 0 -0.02672204317001051 -0.0017399564004304759 0 -0.026931176138710895 -0.0016580999577548699 0 -0.026857845034614438 -0.0018860135555330193 0 -0.02672204317001051 -0.0017399564004304759 0 -0.027195607568724106 0.0023942473613867278 0 -0.027212156176817232 0.0022483770223290017 0 -0.027071742844419155 0.0023083730283782896 0 -0.024685916750055041 0.00031986019823607289 0 -0.024630599522063167 0.00077235142812647818 0 -0.025113798323622604 0.00065370764437608895 0 -0.025744894472715947 0.0015783236280295992 0 -0.025605165031164195 0.0010837449690460179 0 -0.027195607568724106 0.0023942473613867278 0 -0.02734327406343395 0.0023502146974902554 0 -0.027212156176817232 0.0022483770223290017 0 -0.025711045309088354 -0.0012058901207979789 0 -0.025854851114326779 -0.0016411373078425526 0 -0.025786516656271258 -0.0016945466824280209 0 -0.024172057582958397 0.0001080878564664995 0 -0.024630599522063167 0.00077235142812647818 0 -0.024170587460030438 0.00088850992832520729 0 -0.025744894472715947 0.0015783236280295992 0 -0.027020017531483788 0.000721672803102142 0 -0.027916995751787216 -0.00067531304498020682 0 -0.027020017531483788 0.000721672803102142 0 -0.027916995751787216 -0.00067531304498020682 0 -0.026521535238778135 -0.00088982619808494724 0 -0.026007573673817879 -0.0017425611803541586 0 -0.025854851114326779 -0.0016411373078425526 0 -0.025786516656271258 -0.0016945466824280209 0 -0.025922231703732625 -0.0015163471236579852 0 -0.025997592895289117 -0.0017479414315318166 0 -0.025854851114326779 -0.0016411373078425526 0 -0.02734327406343395 0.0023502146974902554 0 -0.027212156176817232 0.0022483770223290017 0 -0.027371331764660441 0.0021339298134865447 0 -0.027020017531483788 0.000721672803102142 0 -0.029231890384657597 0.0016587092507205678 0 -0.030755942761538441 0.00095563572366871483 0 -0.030556002555609047 0.0011905320518300995 0 -0.030621972485821922 0.00078428888192038076 0 -0.030746649155597463 0.0011465366328831514 0 -0.030755942761538441 0.00095563572366871483 0 -0.030556002555609047 0.0011905320518300995 0 -0.027212156176817232 0.0022483770223290017 0 -0.027071742844419155 0.0023083730283782896 0 -0.02706088390981972 0.0021803051039046895 0 -0.027212156176817232 0.0022483770223290017 0 -0.027219567980821213 0.0020726844074869838 0 -0.02706088390981972 0.0021803051039046895 0 -0.027212156176817232 0.0022483770223290017 0 -0.027219567980821213 0.0020726844074869838 0 -0.027371331764660441 0.0021339298134865447 0 -0.027219567980821213 0.0020726844074869838 0 -0.027371331764660441 0.0021339298134865447 0 -0.027425953736509526 0.0019208583866416808 0 -0.030621972485821922 0.00078428888192038076 0 -0.030688510759983235 0.00039789164792479567 0 -0.03086592010804581 0.00069720620426645848 0 -0.029231890384657597 0.0016587092507205678 0 -0.028656964338028584 0.0011914301692663907 0 -0.027219567980821213 0.0020726844074869838 0 -0.027047857168577126 0.0020298000899326872 0 -0.027211787388978701 0.0019133041383161407 0 -0.027219567980821213 0.0020726844074869838 0 -0.027425953736509526 0.0019208583866416808 0 -0.027211787388978701 0.0019133041383161407 0 -0.032085284262868503 -0.00031048743319123985 0 -0.033663594442170833 -0.00021030412489476082 0 -0.031231103267224194 -0.00072863420025298664 0 -0.031217422524478164 -0.00078085357433380781 0 -0.03150327732771567 -0.00094984877530720113 0 -0.036143350538535089 -0.0013712027592408743 0 -0.03614390439297633 -0.0010837673401510796 0 -0.036042664331746889 -0.001186234904433551 0 -0.032085284262868503 -0.00031048743319123985 0 -0.033824961306690667 -0.0012558768119726291 0 -0.029980578460487982 -0.00095982736733057428 0 -0.032085284262868503 -0.00031048743319123985 0 -0.030983064976702331 0.00096790193136667027 0 -0.03109573729928675 0.00081907205030468512 0 -0.03086592010804581 0.00069720620426645848 0 -0.03109573729928675 0.00081907205030468512 0 -0.03086592010804581 0.00069720620426645848 0 -0.030993563597492422 0.00040322773474553604 0 -0.030755942761538441 0.00095563572366871483 0 -0.030621972485821922 0.00078428888192038076 0 -0.03086592010804581 0.00069720620426645848 0 -0.030688510759983235 0.00039789164792479567 0 -0.03086592010804581 0.00069720620426645848 0 -0.030993563597492422 0.00040322773474553604 0 -0.036333515600539566 -0.0010127367591881841 0 -0.03614390439297633 -0.0010837673401510796 0 -0.036119186404466187 -0.00093133432748166421 0 -0.036143350538535089 -0.0013712027592408743 0 -0.036333515600539566 -0.0010127367591881841 0 -0.03614390439297633 -0.0010837673401510796 0 -0.031558456098257685 -0.0012348828423933212 0 -0.031391831331396045 -0.0010166488431668497 0 -0.03150327732771567 -0.00094984877530720113 0 -0.031558456098257685 -0.0012348828423933212 0 -0.03150327732771567 -0.00094984877530720113 0 -0.031755859452871689 -0.0011577098850005787 0 -0.03614390439297633 -0.0010837673401510796 0 -0.035906941276105379 -0.00099661866871286774 0 -0.036119186404466187 -0.00093133432748166421 0 -0.03614390439297633 -0.0010837673401510796 0 -0.035906941276105379 -0.00099661866871286774 0 -0.036042664331746889 -0.001186234904433551 0 -0.034668249327099381 -0.00095609806529933685 0 -0.033824961306690667 -0.0012558768119726291 0 -0.026931176138710895 -0.0016580999577548699 0 -0.026556390322966885 -0.0014039504856923669 0 -0.026630889609516959 -0.0016290259026974707 0 -0.029980578460487982 -0.00095982736733057428 0 -0.0287254784225251 -0.001075431205994322 0 -0.031217422524478164 -0.00078085357433380781 0 -0.031391831331396045 -0.0010166488431668497 0 -0.03150327732771567 -0.00094984877530720113 0 -0.026556390322966885 -0.0014039504856923669 0 -0.026424292122144304 -0.0015637973805743938 0 -0.026630889609516959 -0.0016290259026974707 0 -0.026556390322966885 -0.0014039504856923669 0 -0.026265785862632972 -0.0014823895508422407 0 -0.026262669407548844 -0.0013730335139887561 0 -0.026265785862632972 -0.0014823895508422407 0 -0.026098309913894745 -0.0014703897354196296 0 -0.026098659048675036 -0.0016345790068188419 0 -0.026424292122144304 -0.0015637973805743938 0 -0.026265785862632972 -0.0014823895508422407 0 -0.026098659048675036 -0.0016345790068188419 0 -0.026556390322966885 -0.0014039504856923669 0 -0.026424292122144304 -0.0015637973805743938 0 -0.026265785862632972 -0.0014823895508422407 0 -0.026265785862632972 -0.0014823895508422407 0 -0.026262669407548844 -0.0013730335139887561 0 -0.026098309913894745 -0.0014703897354196296 0 -0.026556390322966885 -0.0014039504856923669 0 -0.026262669407548844 -0.0013730335139887561 0 -0.026265456407854357 -0.0012277138100194971 0 -0.026262669407548844 -0.0013730335139887561 0 -0.026173280168473787 -0.0012758032072316895 0 -0.026265456407854357 -0.0012277138100194971 0 -0.026262669407548844 -0.0013730335139887561 0 -0.026173280168473787 -0.0012758032072316895 0 -0.026098309913894745 -0.0014703897354196296 0 -0.0287254784225251 -0.001075431205994322 0 -0.030496155136209891 -0.0010168472181682838 0 -0.034668249327099381 -0.00095609806529933685 0 -0.030496155136209891 -0.0010168472181682838 0 -0.030405243123924178 -0.0013631034867716385 0 -0.030496155136209891 -0.0010168472181682838 0 -0.034770076730001494 -0.0017120804576895023 0 -0.034146312525832827 -0.0016051591145189897 0 -0.034186452504442966 -0.0010910227689706485 0 -0.030405243123924178 -0.0013631034867716385 0 -0.030024011492275546 -0.0016889861003986282 0 -0.034770076730001494 -0.0017120804576895023 0 -0.034146312525832827 -0.0016051591145189897 0 -0.033994972068162772 -0.0020890546407339615 0 -0.026173280168473787 -0.0012758032072316895 0 -0.025953113414264286 -0.0014218845089914332 0 -0.026098309913894745 -0.0014703897354196296 0 -0.033578524362574511 -0.0016937163827557106 0 -0.033994972068162772 -0.0020890546407339615 0 -0.032948504699350595 -0.0024952798663759189 0 -0.033578524362574511 -0.0016937163827557106 0 -0.034146312525832827 -0.0016051591145189897 0 -0.034186452504442966 -0.0010910227689706485 0 -0.033578524362574511 -0.0016937163827557106 0 -0.034146312525832827 -0.0016051591145189897 0 -0.033994972068162772 -0.0020890546407339615 0 -0.025953113414264286 -0.0014218845089914332 0 -0.025871835155594526 -0.0015720931718505831 0 -0.025806069397614605 -0.0015134408739347926 0 -0.030024011492275546 -0.0016889861003986282 0 -0.029315225546243068 -0.0029131356520636286 0 -0.025953113414264286 -0.0014218845089914332 0 -0.025871835155594526 -0.0015720931718505831 0 -0.02596085081699688 -0.001604930776588552 0 -0.025953113414264286 -0.0014218845089914332 0 -0.026098309913894745 -0.0014703897354196296 0 -0.02596085081699688 -0.001604930776588552 0 -0.026098309913894745 -0.0014703897354196296 0 -0.02596085081699688 -0.001604930776588552 0 -0.026098659048675036 -0.0016345790068188419 0 -0.02596085081699688 -0.001604930776588552 0 -0.025905642416670337 -0.0016893565227471298 0 -0.025987924644664619 -0.0016793429557140473 0 -0.02596085081699688 -0.001604930776588552 0 -0.025987924644664619 -0.0016793429557140473 0 -0.026098659048675036 -0.0016345790068188419 0 -0.025987924644664619 -0.0016793429557140473 0 -0.026098659048675036 -0.0016345790068188419 0 -0.026047692994841876 -0.0016617190661978544 0 -0.02596085081699688 -0.001604930776588552 0 -0.025851778384014226 -0.001660697299037015 0 -0.025905642416670337 -0.0016893565227471298 0 -0.025871835155594526 -0.0015720931718505831 0 -0.02596085081699688 -0.001604930776588552 0 -0.025851778384014226 -0.001660697299037015 0 -0.025851778384014226 -0.001660697299037015 0 -0.025905642416670337 -0.0016893565227471298 0 -0.025821390859650316 -0.0017306432572382368 0 -0.025905642416670337 -0.0016893565227471298 0 -0.025870907145836675 -0.0017334847152401022 0 -0.025932600386955593 -0.0017112372868914969 0 -0.025905642416670337 -0.0016893565227471298 0 -0.025870907145836675 -0.0017334847152401022 0 -0.025821390859650316 -0.0017306432572382368 0 -0.025963031884783622 -0.0017191783078356262 0 -0.025987924644664619 -0.0016793429557140473 0 -0.025932600386955593 -0.0017112372868914969 0 -0.025963031884783622 -0.0017191783078356262 0 -0.025987924644664619 -0.0016793429557140473 0 -0.026022161478624298 -0.0016878611830610784 0 -0.025905642416670337 -0.0016893565227471298 0 -0.025987924644664619 -0.0016793429557140473 0 -0.025932600386955593 -0.0017112372868914969 0 -0.025987924644664619 -0.0016793429557140473 0 -0.026022161478624298 -0.0016878611830610784 0 -0.026047692994841876 -0.0016617190661978544 0 -0.026022161478624298 -0.0016878611830610784 0 -0.026042005524984542 -0.0016714539757286921 0 -0.026047692994841876 -0.0016617190661978544 0 -0.026022161478624298 -0.0016878611830610784 0 -0.026033591374459344 -0.0016855593061461047 0 -0.026042005524984542 -0.0016714539757286921 0 -0.026044589907484785 -0.0016737946677503172 0 -0.026050230840421424 -0.001675245954807045 0 -0.026033591374459344 -0.0016855593061461047 0 -0.026050230840421424 -0.001675245954807045 0 -0.026055715271653363 -0.0016679104611225105 0 -0.026042005524984542 -0.0016714539757286921 0 -0.026050230840421424 -0.001675245954807045 0 -0.026033591374459344 -0.0016855593061461047 0 -0.026042005524984542 -0.0016714539757286921 0 -0.026055715271653363 -0.0016679104611225105 0 -0.026042005524984542 -0.0016714539757286921 0 -0.026047067276958897 -0.0016636761268774968 0 -0.026857845034614438 -0.0018860135555330193 0 -0.02672204317001051 -0.0017399564004304759 0 -0.026474466068171245 -0.0017826903805138565 0 -0.026872514407535564 -0.0016974936416167075 0 -0.026192823558523998 -0.0017006720117269196 0 -0.026630889609516959 -0.0016290259026974707 0 -0.02672204317001051 -0.0017399564004304759 0 -0.026474466068171245 -0.0017826903805138565 0 -0.026424292122144304 -0.0015637973805743938 0 -0.026630889609516959 -0.0016290259026974707 0 -0.026474466068171245 -0.0017826903805138565 0 -0.026424292122144304 -0.0015637973805743938 0 -0.026474466068171245 -0.0017826903805138565 0 -0.026098659048675036 -0.0016345790068188419 0 -0.026047067276958897 -0.0016636761268774968 0 -0.026098659048675036 -0.0016345790068188419 0 -0.026047692994841876 -0.0016617190661978544 0 -0.026192823558523998 -0.0017006720117269196 0 -0.026137708018441279 -0.0016596842396836384 0 -0.026042005524984542 -0.0016714539757286921 0 -0.026047067276958897 -0.0016636761268774968 0 -0.026047692994841876 -0.0016617190661978544 0 -0.028872735972165872 -0.001120980437709288 0 -0.02930127978033286 0.00014674906403231333 0 -0.027906494252175045 0.00034354604919193933 0 -0.028767460376497439 -0.00076296999736359737 0 -0.027855256776855054 0.0003197719930844279 0 -0.028212927322147328 -0.00037295574152971562 0 -0.027691621257855042 -0.00021856758826016744 0 -0.027906494252175045 0.00034354604919193933 0 -0.027352594876545726 6.1859102933602809e-05 0 -0.027357595383793624 0.0005502574353875632 0 -0.027906494252175045 0.00034354604919193933 0 -0.027352594876545726 6.1859102933602809e-05 0 -0.027691621257855042 -0.00021856758826016744 0 -0.027906494252175045 0.00034354604919193933 0 -0.027691621257855042 -0.00021856758826016744 0 -0.027200376351104467 -0.00037348120385391758 0 -0.027743702447866284 -0.00072428860938026783 0 -0.027352594876545726 6.1859102933602809e-05 0 -0.027691621257855042 -0.00021856758826016744 0 -0.027200376351104467 -0.00037348120385391758 0 -0.028212927322147328 -0.00037295574152971562 0 -0.027691621257855042 -0.00021856758826016744 0 -0.027743702447866284 -0.00072428860938026783 0 -0.027743702447866284 -0.00072428860938026783 0 -0.028162312946953327 -0.0010340423335492659 0 -0.02781488770806971 -0.0013439139897369814 0 -0.028212927322147328 -0.00037295574152971562 0 -0.027743702447866284 -0.00072428860938026783 0 -0.028162312946953327 -0.0010340423335492659 0 -0.026674289900075122 -0.0015045556715597434 0 -0.027445369680408584 -0.0011916293030382527 0 -0.02693994657262893 -0.0010980525287419163 0 -0.026823655848078925 -0.0011243274207479717 0 -0.026751503957409495 -0.00095723287796794067 0 -0.026637147265081366 -0.0010862310793826925 0 -0.026823655848078925 -0.0011243274207479717 0 -0.026751503957409495 -0.00095723287796794067 0 -0.028397114634733569 -0.0016573734529703051 0 -0.028162312946953327 -0.0010340423335492659 0 -0.02781488770806971 -0.0013439139897369814 0 -0.026637147265081366 -0.0010862310793826925 0 -0.026751503957409495 -0.00095723287796794067 0 -0.026568093910746278 -0.00077847068688264263 0 -0.027445369680408584 -0.0011916293030382527 0 -0.026834840974604757 -0.00086683637935857998 0 -0.026448499650694967 -0.0010676111624920142 0 -0.026637147265081366 -0.0010862310793826925 0 -0.026568093910746278 -0.00077847068688264263 0 -0.027200376351104467 -0.00037348120385391758 0 -0.027743702447866284 -0.00072428860938026783 0 -0.027180308251647953 -0.0010158280940784244 0 -0.027743702447866284 -0.00072428860938026783 0 -0.02781488770806971 -0.0013439139897369814 0 -0.027180308251647953 -0.0010158280940784244 0 -0.027200376351104467 -0.00037348120385391758 0 -0.027180308251647953 -0.0010158280940784244 0 -0.026473191259018175 -0.00056325836652787453 0 -0.026834840974604757 -0.00086683637935857998 0 -0.026505195175176095 -0.00061051571574391613 0 -0.026568093910746278 -0.00077847068688264263 0 -0.026381666249621644 -0.00083104950154369204 0 -0.026473191259018175 -0.00056325836652787453 0 -0.026448499650694967 -0.0010676111624920142 0 -0.026568093910746278 -0.00077847068688264263 0 -0.026381666249621644 -0.00083104950154369204 0 -0.026203097471232069 -0.0010576427791218908 0 -0.026448499650694967 -0.0010676111624920142 0 -0.026381666249621644 -0.00083104950154369204 0 -0.026203097471232069 -0.0010576427791218908 0 -0.026381666249621644 -0.00083104950154369204 0 -0.026098529364118772 -0.00076514314623420023 0 -0.026381666249621644 -0.00083104950154369204 0 -0.026473191259018175 -0.00056325836652787453 0 -0.026098529364118772 -0.00076514314623420023 0 -0.026473191259018175 -0.00056325836652787453 0 -0.026151511190425341 -0.00023338278969592326 0 -0.026098529364118772 -0.00076514314623420023 0 -0.026473191259018175 -0.00056325836652787453 0 -0.026579098081332419 6.226940178339976e-05 0 -0.026151511190425341 -0.00023338278969592326 0 -0.026955179326648298 0.00015949212314470915 0 -0.026212265848772287 -0.00021538168402281151 0 -0.027200376351104467 -0.00037348120385391758 0 -0.026473191259018175 -0.00056325836652787453 0 -0.026579098081332419 6.226940178339976e-05 0 -0.027352594876545726 6.1859102933602809e-05 0 -0.027200376351104467 -0.00037348120385391758 0 -0.026579098081332419 6.226940178339976e-05 0 -0.026955179326648298 0.00015949212314470915 0 -0.027835523747960045 0.00065440912559052594 0 -0.027352594876545726 6.1859102933602809e-05 0 -0.026579098081332419 6.226940178339976e-05 0 -0.027357595383793624 0.0005502574353875632 0 -0.027342958020588646 0.00024588097016187957 0 -0.026151511190425341 -0.00023338278969592326 0 -0.026929782512386792 0.00077072426579950586 0 -0.026151511190425341 -0.00023338278969592326 0 -0.026220968813794095 0.00075364759506888607 0 -0.026929782512386792 0.00077072426579950586 0 -0.025640391245751099 0.00042448569014329261 0 -0.026151511190425341 -0.00023338278969592326 0 -0.026220968813794095 0.00075364759506888607 0 -0.025640391245751099 0.00042448569014329261 0 -0.026151511190425341 -0.00023338278969592326 0 -0.025504941007273907 -2.7061361784636009e-05 0 -0.026151511190425341 -0.00023338278969592326 0 -0.025392063329033376 -0.00044211144539655885 0 -0.025504941007273907 -2.7061361784636009e-05 0 -0.026098529364118772 -0.00076514314623420023 0 -0.025570467737164124 -0.00080970065778701908 0 -0.025822487694469071 -0.00056315009351154833 0 -0.026151511190425341 -0.00023338278969592326 0 -0.026098529364118772 -0.00076514314623420023 0 -0.025822487694469071 -0.00056315009351154833 0 -0.025732981604405347 -0.001177346034808848 0 -0.026098529364118772 -0.00076514314623420023 0 -0.025570467737164124 -0.00080970065778701908 0 -0.026203097471232069 -0.0010576427791218908 0 -0.025732981604405347 -0.001177346034808848 0 -0.026098529364118772 -0.00076514314623420023 0 -0.025570467737164124 -0.00080970065778701908 0 -0.025822487694469071 -0.00056315009351154833 0 -0.025392063329033376 -0.00044211144539655885 0 -0.026151511190425341 -0.00023338278969592326 0 -0.025822487694469071 -0.00056315009351154833 0 -0.025392063329033376 -0.00044211144539655885 0 -0.025570467737164124 -0.00080970065778701908 0 -0.025392063329033376 -0.00044211144539655885 0 -0.025075220004485251 -0.00081990238404132745 0 -0.025392063329033376 -0.00044211144539655885 0 -0.025075220004485251 -0.00081990238404132745 0 -0.024893735732667736 -0.00061488642165977571 0 -0.025392063329033376 -0.00044211144539655885 0 -0.024893735732667736 -0.00061488642165977571 0 -0.025011258142515782 -0.00032965693492026388 0 -0.025134856018567211 -0.0010327704000295582 0 -0.024745833049641095 -0.0010759741792871469 0 -0.025075220004485251 -0.00081990238404132745 0 -0.025134856018567211 -0.0010327704000295582 0 -0.025570467737164124 -0.00080970065778701908 0 -0.025075220004485251 -0.00081990238404132745 0 -0.024745833049641095 -0.0010759741792871469 0 -0.024596907823177343 -0.0009765282641029093 0 -0.024788900751101173 -0.00083060291012564732 0 -0.024745833049641095 -0.0010759741792871469 0 -0.025075220004485251 -0.00081990238404132745 0 -0.024788900751101173 -0.00083060291012564732 0 -0.025075220004485251 -0.00081990238404132745 0 -0.024788900751101173 -0.00083060291012564732 0 -0.024893735732667736 -0.00061488642165977571 0 -0.024659096262463931 -0.00060832924330491334 0 -0.024788900751101173 -0.00083060291012564732 0 -0.024893735732667736 -0.00061488642165977571 0 -0.024659096262463931 -0.00060832924330491334 0 -0.024893735732667736 -0.00061488642165977571 0 -0.024748603642067768 -0.00037508550603838328 0 -0.024893735732667736 -0.00061488642165977571 0 -0.024748603642067768 -0.00037508550603838328 0 -0.025011258142515782 -0.00032965693492026388 0 -0.024748603642067768 -0.00037508550603838328 0 -0.024834561019686504 -0.00011907151277127566 0 -0.025011258142515782 -0.00032965693492026388 0 -0.024563991929994051 -0.00015677966890680664 0 -0.024748603642067768 -0.00037508550603838328 0 -0.024834561019686504 -0.00011907151277127566 0 -0.024673802932709016 6.2640691479959009e-05 0 -0.024834561019686504 -0.00011907151277127566 0 -0.024897886205528769 0.00014430401959109225 0 -0.024673802932709016 6.2640691479959009e-05 0 -0.024563991929994051 -0.00015677966890680664 0 -0.024834561019686504 -0.00011907151277127566 0 -0.024834561019686504 -0.00011907151277127566 0 -0.025127088569857008 -4.4230260521630116e-05 0 -0.024897886205528769 0.00014430401959109225 0 -0.024834561019686504 -0.00011907151277127566 0 -0.025011258142515782 -0.00032965693492026388 0 -0.025127088569857008 -4.4230260521630116e-05 0 -0.025392063329033376 -0.00044211144539655885 0 -0.025504941007273907 -2.7061361784636009e-05 0 -0.025127088569857008 -4.4230260521630116e-05 0 -0.025392063329033376 -0.00044211144539655885 0 -0.025011258142515782 -0.00032965693492026388 0 -0.025127088569857008 -4.4230260521630116e-05 0 -0.025504941007273907 -2.7061361784636009e-05 0 -0.025127088569857008 -4.4230260521630116e-05 0 -0.025150330903230603 0.00024559187354103977 0 -0.025640391245751099 0.00042448569014329261 0 -0.025504941007273907 -2.7061361784636009e-05 0 -0.025150330903230603 0.00024559187354103977 0 -0.025640391245751099 0.00042448569014329261 0 -0.025150330903230603 0.00024559187354103977 0 -0.025186682636738348 0.00056063547259199242 0 -0.025150330903230603 0.00024559187354103977 0 -0.02481820681429692 0.00061072064074355027 0 -0.025186682636738348 0.00056063547259199242 0 -0.025150330903230603 0.00024559187354103977 0 -0.024897886205528769 0.00014430401959109225 0 -0.02481820681429692 0.00061072064074355027 0 -0.02472472473162397 0.00030121938335918557 0 -0.024897886205528769 0.00014430401959109225 0 -0.02481820681429692 0.00061072064074355027 0 -0.024501789294720727 0.00029071365178754202 0 -0.02472472473162397 0.00030121938335918557 0 -0.02481820681429692 0.00061072064074355027 0 -0.024673802932709016 6.2640691479959009e-05 0 -0.02472472473162397 0.00030121938335918557 0 -0.024897886205528769 0.00014430401959109225 0 -0.025127088569857008 -4.4230260521630116e-05 0 -0.025150330903230603 0.00024559187354103977 0 -0.024897886205528769 0.00014430401959109225 0 -0.027042004969249789 0.0024348825648222577 0 -0.026837880339851641 0.0022825471156409896 0 -0.027071742844419155 0.0023083730283782896 0 -0.027195607568724106 0.0023942473613867278 0 -0.027042004969249789 0.0024348825648222577 0 -0.027071742844419155 0.0023083730283782896 0 -0.025605165031164195 0.0010837449690460179 0 -0.024957749996341531 0.00071385456626674344 0 -0.024641143040290553 0.00070543108843064352 0 -0.025186682636738348 0.00056063547259199242 0 -0.025436328006501318 0.0013672104342540977 0 -0.025605165031164195 0.0010837449690460179 0 -0.026222598258490139 0.0019025290768291861 0 -0.025186682636738348 0.00056063547259199242 0 -0.025436328006501318 0.0013672104342540977 0 -0.025733185091645735 0.00086690450224447707 0 -0.025640391245751099 0.00042448569014329261 0 -0.025186682636738348 0.00056063547259199242 0 -0.025733185091645735 0.00086690450224447707 0 -0.026837880339851641 0.0022825471156409896 0 -0.026875659313898927 0.0020795277296200925 0 -0.026565321909852769 0.0019867002022953524 0 -0.026837880339851641 0.0022825471156409896 0 -0.02706088390981972 0.0021803051039046895 0 -0.026875659313898927 0.0020795277296200925 0 -0.026837880339851641 0.0022825471156409896 0 -0.027071742844419155 0.0023083730283782896 0 -0.02706088390981972 0.0021803051039046895 0 -0.02706088390981972 0.0021803051039046895 0 -0.027047857168577126 0.0020298000899326872 0 -0.026875659313898927 0.0020795277296200925 0 -0.027219567980821213 0.0020726844074869838 0 -0.02706088390981972 0.0021803051039046895 0 -0.027047857168577126 0.0020298000899326872 0 -0.027047857168577126 0.0020298000899326872 0 -0.027022182782844989 0.0019167208253900356 0 -0.027211787388978701 0.0019133041383161407 0 -0.027047857168577126 0.0020298000899326872 0 -0.026831916086069451 0.0019968513135545803 0 -0.027022182782844989 0.0019167208253900356 0 -0.027047857168577126 0.0020298000899326872 0 -0.026831916086069451 0.0019968513135545803 0 -0.026875659313898927 0.0020795277296200925 0 -0.026831916086069451 0.0019968513135545803 0 -0.026875659313898927 0.0020795277296200925 0 -0.026565321909852769 0.0019867002022953524 0 -0.026831916086069451 0.0019968513135545803 0 -0.026565321909852769 0.0019867002022953524 0 -0.026809576808854416 0.0020663906186703935 0 -0.026831916086069451 0.0019968513135545803 0 -0.026809576808854416 0.0020663906186703935 0 -0.026870320942205459 0.0021273187966366494 0 -0.026809576808854416 0.0020663906186703935 0 -0.027075236978153776 0.0021084111141210803 0 -0.026870320942205459 0.0021273187966366494 0 -0.026809576808854416 0.0020663906186703935 0 -0.026860679625600039 0.0020285996659176729 0 -0.027075236978153776 0.0021084111141210803 0 -0.026565321909852769 0.0019867002022953524 0 -0.026809576808854416 0.0020663906186703935 0 -0.026860679625600039 0.0020285996659176729 0 -0.026565321909852769 0.0019867002022953524 0 -0.026860679625600039 0.0020285996659176729 0 -0.02678425125987054 0.0015326514600033491 0 -0.026860679625600039 0.0020285996659176729 0 -0.02678425125987054 0.0015326514600033491 0 -0.027166206775280803 0.0020129282050699421 0 -0.026565321909852769 0.0019867002022953524 0 -0.02678425125987054 0.0015326514600033491 0 -0.026181590281990498 0.0013176935875647774 0 -0.026222598258490139 0.0019025290768291861 0 -0.026484536205275789 0.0019544712056353175 0 -0.025436328006501318 0.0013672104342540977 0 -0.026565321909852769 0.0019867002022953524 0 -0.026181590281990498 0.0013176935875647774 0 -0.026181590281990498 0.0013176935875647774 0 -0.025733185091645735 0.00086690450224447707 0 -0.026220968813794095 0.00075364759506888607 0 -0.025436328006501318 0.0013672104342540977 0 -0.026181590281990498 0.0013176935875647774 0 -0.025733185091645735 0.00086690450224447707 0 -0.025640391245751099 0.00042448569014329261 0 -0.025733185091645735 0.00086690450224447707 0 -0.026220968813794095 0.00075364759506888607 0 -0.02678425125987054 0.0015326514600033491 0 -0.026220968813794095 0.00075364759506888607 0 -0.026929782512386792 0.00077072426579950586 0 -0.02678425125987054 0.0015326514600033491 0 -0.026181590281990498 0.0013176935875647774 0 -0.026220968813794095 0.00075364759506888607 0 -0.027342958020588646 0.00024588097016187957 0 -0.026929782512386792 0.00077072426579950586 0 -0.027601708774401934 0.00089406638043484227 0 -0.026929782512386792 0.00077072426579950586 0 -0.027601708774401934 0.00089406638043484227 0 -0.027390790616183252 0.0013466233864971168 0 -0.02678425125987054 0.0015326514600033491 0 -0.026929782512386792 0.00077072426579950586 0 -0.027390790616183252 0.0013466233864971168 0 -0.027601708774401934 0.00089406638043484227 0 -0.027982973813205428 0.0012955097408788173 0 -0.028295906766600699 0.00075031429801630486 0 -0.027342958020588646 0.00024588097016187957 0 -0.027601708774401934 0.00089406638043484227 0 -0.028295906766600699 0.00075031429801630486 0 -0.027601708774401934 0.00089406638043484227 0 -0.027982973813205428 0.0012955097408788173 0 -0.027390790616183252 0.0013466233864971168 0 -0.027982973813205428 0.0012955097408788173 0 -0.027702217596066704 0.0017294063214420578 0 -0.027390790616183252 0.0013466233864971168 0 -0.027982973813205428 0.0012955097408788173 0 -0.027702217596066704 0.0017294063214420578 0 -0.028223772651476488 0.0018285401703455142 0 -0.02678425125987054 0.0015326514600033491 0 -0.027390790616183252 0.0013466233864971168 0 -0.027166206775280803 0.0020129282050699421 0 -0.027702217596066704 0.0017294063214420578 0 -0.027390790616183252 0.0013466233864971168 0 -0.027166206775280803 0.0020129282050699421 0 -0.027126238137099419 0.0021366285891735166 0 -0.028175419341711787 0.0018909759331872512 0 -0.026860679625600039 0.0020285996659176729 0 -0.027166206775280803 0.0020129282050699421 0 -0.027075236978153776 0.0021084111141210803 0 -0.027075236978153776 0.0021084111141210803 0 -0.027277083667146901 0.0021851508413822602 0 -0.026870320942205459 0.0021273187966366494 0 -0.027166206775280803 0.0020129282050699421 0 -0.027075236978153776 0.0021084111141210803 0 -0.02726566487686707 0.0021546015513794641 0 -0.027075236978153776 0.0021084111141210803 0 -0.027277083667146901 0.0021851508413822602 0 -0.02726566487686707 0.0021546015513794641 0 -0.027166206775280803 0.0020129282050699421 0 -0.027301650183026497 0.0021627174328753586 0 -0.02726566487686707 0.0021546015513794641 0 -0.028175419341711787 0.0018909759331872512 0 -0.035054644637524897 0.0036400492722503315 0 -0.027277083667146901 0.0021851508413822602 0 -0.027245193061328294 0.0021819932634954474 0 -0.027140103169569805 0.0020614617018832669 0 -0.027277083667146901 0.0021851508413822602 0 -0.027245193061328294 0.0021819932634954474 0 -0.02726566487686707 0.0021546015513794641 0 -0.028175419341711787 0.0018909759331872512 0 -0.027849762168277146 0.0018667384619732576 0 -0.027712010260349192 0.0028146575306966085 0 -0.027792282473017387 0.0021652508807996178 0 -0.028279303475544467 0.0024722853799856357 0 -0.027792282473017387 0.0021652508807996178 0 -0.028279303475544467 0.0024722853799856357 0 -0.028223772651476488 0.0018285401703455142 0 -0.027166206775280803 0.0020129282050699421 0 -0.027712010260349192 0.0028146575306966085 0 -0.027792282473017387 0.0021652508807996178 0 -0.027702217596066704 0.0017294063214420578 0 -0.027166206775280803 0.0020129282050699421 0 -0.027792282473017387 0.0021652508807996178 0 -0.027702217596066704 0.0017294063214420578 0 -0.027792282473017387 0.0021652508807996178 0 -0.028223772651476488 0.0018285401703455142 0 -0.028630705364356763 0.0021158504174961126 0 -0.028279303475544467 0.0024722853799856357 0 -0.028223772651476488 0.0018285401703455142 0 -0.028630705364356763 0.0021158504174961126 0 -0.02869963191200935 0.0017505828271812557 0 -0.028223772651476488 0.0018285401703455142 0 -0.028630705364356763 0.0021158504174961126 0 -0.028279303475544467 0.0024722853799856357 0 -0.02888906862056009 0.002500086855558986 0 -0.028175419341711787 0.0018909759331872512 0 -0.032143284851318461 0.0031065403804012822 0 -0.027712010260349192 0.0028146575306966085 0 -0.028279303475544467 0.0024722853799856357 0 -0.028607725138339469 0.0030807599792503941 0 -0.030239663403685092 0.0021631203233293877 0 -0.033212221349220507 0.0029608207930775653 0 -0.031492655617140743 0.003699231333068894 0 -0.028279303475544467 0.0024722853799856357 0 -0.028607725138339469 0.0030807599792503941 0 -0.02888906862056009 0.002500086855558986 0 -0.028834603835064029 0.0030591546596459309 0 -0.029299955835561733 0.0028107593950645808 0 -0.029311176333716635 0.0032107867943972517 0 -0.032143284851318461 0.0031065403804012822 0 -0.028288383083262671 0.0032530637821604827 0 -0.028607725138339469 0.0030807599792503941 0 -0.029299955835561733 0.0028107593950645808 0 -0.02888906862056009 0.002500086855558986 0 -0.029618428661060833 0.0031016815515889861 0 -0.029299955835561733 0.0028107593950645808 0 -0.029311176333716635 0.0032107867943972517 0 -0.032143284851318461 0.0031065403804012822 0 -0.033570181799102351 0.0032494950547679396 0 -0.029299955835561733 0.0028107593950645808 0 -0.029420501928068724 0.0024333617360629734 0 -0.02888906862056009 0.002500086855558986 0 -0.029420501928068724 0.0024333617360629734 0 -0.02888906862056009 0.002500086855558986 0 -0.029080185846230712 0.0020229092286479593 0 -0.028630705364356763 0.0021158504174961126 0 -0.02888906862056009 0.002500086855558986 0 -0.029080185846230712 0.0020229092286479593 0 -0.028630705364356763 0.0021158504174961126 0 -0.029080185846230712 0.0020229092286479593 0 -0.02869963191200935 0.0017505828271812557 0 -0.029597456088667828 0.0020262343875950633 0 -0.029420501928068724 0.0024333617360629734 0 -0.029080185846230712 0.0020229092286479593 0 -0.029080185846230712 0.0020229092286479593 0 -0.029288957263150471 0.0013115454479551334 0 -0.02869963191200935 0.0017505828271812557 0 -0.029288957263150471 0.0013115454479551334 0 -0.02869963191200935 0.0017505828271812557 0 -0.028574669859217895 0.0013432445544526259 0 -0.029597456088667828 0.0020262343875950633 0 -0.029080185846230712 0.0020229092286479593 0 -0.029288957263150471 0.0013115454479551334 0 -0.02869963191200935 0.0017505828271812557 0 -0.028223772651476488 0.0018285401703455142 0 -0.028574669859217895 0.0013432445544526259 0 -0.027982973813205428 0.0012955097408788173 0 -0.028223772651476488 0.0018285401703455142 0 -0.028574669859217895 0.0013432445544526259 0 -0.029288957263150471 0.0013115454479551334 0 -0.028574669859217895 0.0013432445544526259 0 -0.028295906766600699 0.00075031429801630486 0 -0.027982973813205428 0.0012955097408788173 0 -0.028574669859217895 0.0013432445544526259 0 -0.028295906766600699 0.00075031429801630486 0 -0.02930127978033286 0.00014674906403231333 0 -0.028674593992667297 0.001299213921153955 0 -0.027906494252175045 0.00034354604919193933 0 -0.028674593992667297 0.001299213921153955 0 -0.027357595383793624 0.0005502574353875632 0 -0.027906494252175045 0.00034354604919193933 0 -0.028991877199756575 0.0013027272848007147 0 -0.027835523747960045 0.00065440912559052594 0 -0.038333176876295269 0.0018416630389081231 0 -0.038884383252336882 0.00257864655763647 0 -0.039239735489642789 0.001292334973880596 0 -0.03768813884081508 0.0023980511000797839 0 -0.038333176876295269 0.0018416630389081231 0 -0.038884383252336882 0.00257864655763647 0 -0.038977677149358077 0.0025290158742229348 0 -0.040013342319394435 0.0018216511748299501 0 -0.039765002458000721 0.0026484104795666519 0 -0.038884383252336882 0.00257864655763647 0 -0.039993541286876384 0.0018342761065155051 0 -0.038884383252336882 0.00257864655763647 0 -0.040081124352599702 0.0017835047723491636 0 -0.039239735489642789 0.001292334973880596 0 -0.039765002458000721 0.0026484104795666519 0 -0.038884383252336882 0.00257864655763647 0 -0.038778332359983181 0.0037414016545719783 0 -0.039765002458000721 0.0026484104795666519 0 -0.038778332359983181 0.0037414016545719783 0 -0.040053664059242752 0.0034437800801730436 0 -0.037455707380155363 0.0022919667158246117 0 -0.038957429356132361 0.0036095925756717 0 -0.037419452711438268 0.0028071398835640715 0 -0.03768813884081508 0.0023980511000797839 0 -0.037807780377073302 0.0029774861312869666 0 -0.03768813884081508 0.0023980511000797839 0 -0.038884383252336882 0.00257864655763647 0 -0.038778332359983181 0.0037414016545719783 0 -0.037419452711438268 0.0028071398835640715 0 -0.037807780377073302 0.0029774861312869666 0 -0.037581474407468292 0.0030552932883612933 0 -0.037807780377073302 0.0029774861312869666 0 -0.037581474407468292 0.0030552932883612933 0 -0.037742913758675861 0.0031618151076385774 0 -0.037581474407468292 0.0030552932883612933 0 -0.037742913758675861 0.0031618151076385774 0 -0.037613024822999726 0.0032502295602478124 0 -0.037768110087603252 0.0032706996473026218 0 -0.037742913758675861 0.0031618151076385774 0 -0.037613024822999726 0.0032502295602478124 0 -0.037768110087603252 0.0032706996473026218 0 -0.037742913758675861 0.0031618151076385774 0 -0.037866655842580491 0.0032308918937526167 0 -0.038957429356132361 0.0036095925756717 0 -0.035054644637524897 0.0036400492722503315 0 -0.037807780377073302 0.0029774861312869666 0 -0.037742913758675861 0.0031618151076385774 0 -0.037866655842580491 0.0032308918937526167 0 -0.038778332359983181 0.0037414016545719783 0 -0.039716867894956612 0.0041987200140521678 0 -0.039752303129014684 0.0049245921750586527 0 -0.032143284851318461 0.0031065403804012822 0 -0.035054644637524897 0.0036400492722503315 0 -0.038778332359983181 0.0037414016545719783 0 -0.039716867894956612 0.0041987200140521678 0 -0.040053664059242752 0.0034437800801730436 0 -0.040053664059242752 0.0034437800801730436 0 -0.040319160109901581 0.0041033915742453792 0 -0.040889392075512496 0.0034611669948573206 0 -0.039716867894956612 0.0041987200140521678 0 -0.040053664059242752 0.0034437800801730436 0 -0.040319160109901581 0.0041033915742453792 0 -0.039716867894956612 0.0041987200140521678 0 -0.039889073065703079 0.0047227495336906533 0 -0.039752303129014684 0.0049245921750586527 0 -0.039716867894956612 0.0041987200140521678 0 -0.040319160109901581 0.0041033915742453792 0 -0.039889073065703079 0.0047227495336906533 0 -0.040319160109901581 0.0041033915742453792 0 -0.040451892577148527 0.0046656194346389648 0 -0.039889073065703079 0.0047227495336906533 0 -0.040319160109901581 0.0041033915742453792 0 -0.040451892577148527 0.0046656194346389648 0 -0.040953610480620149 0.0040036372036921205 0 -0.027277083667146901 0.0021851508413822602 0 -0.027269861217221664 0.0019104513376934674 0 -0.027140103169569805 0.0020614617018832669 0 -0.035586484510077204 0.0045137832964705984 0 -0.040209754132613469 0.0043195360258212615 0 -0.035586484510077204 0.0045137832964705984 0 -0.035054644637524897 0.0036400492722503315 0 -0.040264584191007931 0.004629809898072372 0 -0.039889073065703079 0.0047227495336906533 0 -0.039752303129014684 0.0049245921750586527 0 -0.027277083667146901 0.0021851508413822602 0 -0.027269861217221664 0.0019104513376934674 0 -0.028239701699158709 0.0017789852326188344 0 -0.03601985800592615 0.0059527344448967491 0 -0.038713437499352119 0.0048164418701399665 0 -0.039870685054117283 0.005443274030437339 0 -0.035586484510077204 0.0045137832964705984 0 -0.031447600204443822 0.0026847873055801273 0 -0.040451892577148527 0.0046656194346389648 0 -0.040953610480620149 0.0040036372036921205 0 -0.04161377119309944 0.0041578411018718189 0 -0.025818124914101678 0.0022001404622503926 0 -0.031447600204443822 0.0026847873055801273 0 -0.035586484510077204 0.0045137832964705984 0 -0.040584309715165717 0.0044250156164921993 0 -0.040953610480620149 0.0040036372036921205 0 -0.041491882470018802 0.0036410216461889655 0 -0.04161377119309944 0.0041578411018718189 0 -0.040319160109901581 0.0041033915742453792 0 -0.040953610480620149 0.0040036372036921205 0 -0.040889392075512496 0.0034611669948573206 0 -0.040953610480620149 0.0040036372036921205 0 -0.040889392075512496 0.0034611669948573206 0 -0.041491882470018802 0.0036410216461889655 0 -0.040889392075512496 0.0034611669948573206 0 -0.041491882470018802 0.0036410216461889655 0 -0.04167692377148547 0.0029427742798785583 0 -0.040733459302624231 0.0025090337658289184 0 -0.041613327269464678 0.0021520724382626025 0 -0.04167692377148547 0.0029427742798785583 0 -0.040889392075512496 0.0034611669948573206 0 -0.040733459302624231 0.0025090337658289184 0 -0.04167692377148547 0.0029427742798785583 0 -0.039765002458000721 0.0026484104795666519 0 -0.040053664059242752 0.0034437800801730436 0 -0.040733459302624231 0.0025090337658289184 0 -0.040053664059242752 0.0034437800801730436 0 -0.040889392075512496 0.0034611669948573206 0 -0.040733459302624231 0.0025090337658289184 0 -0.040733459302624231 0.0025090337658289184 0 -0.039993541286876384 0.0018342761065155051 0 -0.041096795788467325 0.001124159902171103 0 -0.039765002458000721 0.0026484104795666519 0 -0.040733459302624231 0.0025090337658289184 0 -0.039993541286876384 0.0018342761065155051 0 -0.040733459302624231 0.0025090337658289184 0 -0.041613327269464678 0.0021520724382626025 0 -0.041096795788467325 0.001124159902171103 0 -0.041613327269464678 0.0021520724382626025 0 -0.04210399257822104 0.0017406821916351911 0 -0.041096795788467325 0.001124159902171103 0 -0.041613327269464678 0.0021520724382626025 0 -0.042382904173079224 0.0024005793729018087 0 -0.04210399257822104 0.0017406821916351911 0 -0.042382904173079224 0.0024005793729018087 0 -0.04210399257822104 0.0017406821916351911 0 -0.042676083577086375 0.0019107063697170314 0 -0.042676083577086375 0.0019107063697170314 0 -0.043097735768360047 0.0022020811369105205 0 -0.043328590782313263 0.0016056657589226758 0 -0.042382904173079224 0.0024005793729018087 0 -0.042676083577086375 0.0019107063697170314 0 -0.043097735768360047 0.0022020811369105205 0 -0.042382904173079224 0.0024005793729018087 0 -0.042897426017767436 0.002774666874920095 0 -0.042448446964750849 0.0030923075473152273 0 -0.042382904173079224 0.0024005793729018087 0 -0.043097735768360047 0.0022020811369105205 0 -0.042897426017767436 0.002774666874920095 0 -0.043097735768360047 0.0022020811369105205 0 -0.042897426017767436 0.002774666874920095 0 -0.043462493739808955 0.0025487952220996381 0 -0.042897426017767436 0.002774666874920095 0 -0.043102050698879749 0.0030494284674633652 0 -0.043462493739808955 0.0025487952220996381 0 -0.042897426017767436 0.002774666874920095 0 -0.043102050698879749 0.0030494284674633652 0 -0.042813598552650781 0.003130667726212412 0 -0.042897426017767436 0.002774666874920095 0 -0.042448446964750849 0.0030923075473152273 0 -0.042813598552650781 0.003130667726212412 0 -0.042448446964750849 0.0030923075473152273 0 -0.04167692377148547 0.0029427742798785583 0 -0.041989841322603569 0.0034803873656543485 0 -0.042382904173079224 0.0024005793729018087 0 -0.042448446964750849 0.0030923075473152273 0 -0.04167692377148547 0.0029427742798785583 0 -0.041613327269464678 0.0021520724382626025 0 -0.042382904173079224 0.0024005793729018087 0 -0.04167692377148547 0.0029427742798785583 0 -0.041989841322603569 0.0034803873656543485 0 -0.04161377119309944 0.0041578411018718189 0 -0.042698141218396053 0.0035963196558682731 0 -0.038713437499352119 0.0048164418701399665 0 -0.039870685054117283 0.005443274030437339 0 -0.04134166842562137 0.0038228023439404873 0 -0.040584309715165717 0.0044250156164921993 0 -0.041931485860466355 0.0037465231407006827 0 -0.041491882470018802 0.0036410216461889655 0 -0.04167692377148547 0.0029427742798785583 0 -0.041989841322603569 0.0034803873656543485 0 -0.042448446964750849 0.0030923075473152273 0 -0.041989841322603569 0.0034803873656543485 0 -0.042698141218396053 0.0035963196558682731 0 -0.041491882470018802 0.0036410216461889655 0 -0.041989841322603569 0.0034803873656543485 0 -0.04161377119309944 0.0041578411018718189 0 -0.026831916086069451 0.0019968513135545803 0 -0.026870320942205459 0.0021273187966366494 0 -0.026908748905760536 0.0019003823310918926 0 -0.031447600204443822 0.0026847873055801273 0 -0.030220060724385146 0.0018814794627030622 0 -0.041931485860466355 0.0037465231407006827 0 -0.043389091224938905 0.0031666623158228945 0 -0.043102050698879749 0.0030494284674633652 0 -0.042698141218396053 0.0035963196558682731 0 -0.043499336577928698 0.0031349516131959488 0 -0.042520396758335015 0.0039613148575406093 0 -0.04134166842562137 0.0038228023439404873 0 -0.043499336577928698 0.0031349516131959488 0 -0.032636826872792249 0.0022289754325765707 0 -0.03384891252061914 0.0015059368400970764 0 -0.034193317951512835 0.001979482123866587 0 -0.031447600204443822 0.0026847873055801273 0 -0.039010715373076946 0.002628933305792629 0 -0.039870685054117283 0.005443274030437339 0 -0.042520396758335015 0.0039613148575406093 0 -0.04134166842562137 0.0038228023439404873 0 -0.042448446964750849 0.0030923075473152273 0 -0.042813598552650781 0.003130667726212412 0 -0.042698141218396053 0.0035963196558682731 0 -0.043102050698879749 0.0030494284674633652 0 -0.042813598552650781 0.003130667726212412 0 -0.042698141218396053 0.0035963196558682731 0 -0.039010715373076946 0.002628933305792629 0 -0.039468961544519697 0.0019304735950355519 0 -0.03384891252061914 0.0015059368400970764 0 -0.034193317951512835 0.001979482123866587 0 -0.035015984439720829 0.0008349206955360302 0 -0.042520396758335015 0.0039613148575406093 0 -0.044405722648426224 0.0028806368704900678 0 -0.043499336577928698 0.0031349516131959488 0 -0.026831916086069451 0.0019968513135545803 0 -0.026908748905760536 0.0019003823310918926 0 -0.027022182782844989 0.0019167208253900356 0 -0.027022182782844989 0.0019167208253900356 0 -0.027211787388978701 0.0019133041383161407 0 -0.02717513823243007 0.0017304416066390622 0 -0.026908748905760536 0.0019003823310918926 0 -0.027022182782844989 0.0019167208253900356 0 -0.02717513823243007 0.0017304416066390622 0 -0.030220060724385146 0.0018814794627030622 0 -0.031378818831278944 0.0018812679842683244 0 -0.034193317951512835 0.001979482123866587 0 -0.035015984439720829 0.0008349206955360302 0 -0.035667937592031504 0.0017501846808841144 0 -0.044405722648426224 0.0028806368704900678 0 -0.044556437454166195 0.0020817312718941143 0 -0.045136657680987895 0.0021070341687304656 0 -0.039468961544519697 0.0019304735950355519 0 -0.04096101032290872 0.001106145385321899 0 -0.044405722648426224 0.0028806368704900678 0 -0.044110501446757537 0.0023727252217053281 0 -0.044556437454166195 0.0020817312718941143 0 -0.044405722648426224 0.0028806368704900678 0 -0.043499336577928698 0.0031349516131959488 0 -0.044110501446757537 0.0023727252217053281 0 -0.043102050698879749 0.0030494284674633652 0 -0.043499336577928698 0.0031349516131959488 0 -0.043462493739808955 0.0025487952220996381 0 -0.043499336577928698 0.0031349516131959488 0 -0.043462493739808955 0.0025487952220996381 0 -0.044110501446757537 0.0023727252217053281 0 -0.043462493739808955 0.0025487952220996381 0 -0.044110501446757537 0.0023727252217053281 0 -0.043845447657600095 0.0019511713528844123 0 -0.043097735768360047 0.0022020811369105205 0 -0.043462493739808955 0.0025487952220996381 0 -0.043845447657600095 0.0019511713528844123 0 -0.043845447657600095 0.0019511713528844123 0 -0.043884067714864236 0.0013190560351127192 0 -0.043328590782313263 0.0016056657589226758 0 -0.043097735768360047 0.0022020811369105205 0 -0.043845447657600095 0.0019511713528844123 0 -0.043328590782313263 0.0016056657589226758 0 -0.043845447657600095 0.0019511713528844123 0 -0.044556437454166195 0.0020817312718941143 0 -0.04431647559135387 0.001503351769629651 0 -0.044556437454166195 0.0020817312718941143 0 -0.044806959879211933 0.0012222862822170524 0 -0.04431647559135387 0.001503351769629651 0 -0.044110501446757537 0.0023727252217053281 0 -0.043845447657600095 0.0019511713528844123 0 -0.044556437454166195 0.0020817312718941143 0 -0.044806959879211933 0.0012222862822170524 0 -0.04431647559135387 0.001503351769629651 0 -0.044334349625529658 0.00078932327454952502 0 -0.043845447657600095 0.0019511713528844123 0 -0.04431647559135387 0.001503351769629651 0 -0.043884067714864236 0.0013190560351127192 0 -0.04431647559135387 0.001503351769629651 0 -0.043884067714864236 0.0013190560351127192 0 -0.044334349625529658 0.00078932327454952502 0 -0.043884067714864236 0.0013190560351127192 0 -0.044334349625529658 0.00078932327454952502 0 -0.043425936661744262 0.00094284923951730025 0 -0.043884067714864236 0.0013190560351127192 0 -0.043425936661744262 0.00094284923951730025 0 -0.043328590782313263 0.0016056657589226758 0 -0.043828789992229167 0.0003894849833275477 0 -0.044334349625529658 0.00078932327454952502 0 -0.043425936661744262 0.00094284923951730025 0 -0.043828789992229167 0.0003894849833275477 0 -0.044334349625529658 0.00078932327454952502 0 -0.044538824740120102 -1.9668457081319909e-05 0 -0.043828789992229167 0.0003894849833275477 0 -0.043390821342422246 0.0003411643242495837 0 -0.043425936661744262 0.00094284923951730025 0 -0.044769208653031516 0.00038938458606835319 0 -0.044334349625529658 0.00078932327454952502 0 -0.044538824740120102 -1.9668457081319909e-05 0 -0.044806959879211933 0.0012222862822170524 0 -0.044769208653031516 0.00038938458606835319 0 -0.044334349625529658 0.00078932327454952502 0 -0.044916989751757168 4.4290663462947495e-05 0 -0.044822719879813504 4.6273192098116998e-07 0 -0.044538824740120102 -1.9668457081319909e-05 0 -0.044769208653031516 0.00038938458606835319 0 -0.044916989751757168 4.4290663462947495e-05 0 -0.044538824740120102 -1.9668457081319909e-05 0 -0.044999647582173674 -8.4783681490735534e-08 0 -0.044822719879813504 4.6273192098116998e-07 0 -0.044861945520686217 2.3599118357939286e-05 0 -0.044916989751757168 4.4290663462947495e-05 0 -0.044999647582173674 -8.4783681490735534e-08 0 -0.044822719879813504 4.6273192098116998e-07 0 -0.044999647582173674 -8.4783681490735534e-08 0 -0.044861945520686217 2.3599118357939286e-05 0 -0.044999774360228451 7.3304485990576714e-08 0 -0.044861945520686217 2.3599118357939286e-05 0 -0.044927455659447876 -8.4137401746092164e-06 0 -0.044999774360228451 7.3304485990576714e-08 0 -0.044861945520686217 2.3599118357939286e-05 0 -0.044920660068640157 -2.8007826118126599e-05 0 -0.044927455659447876 -8.4137401746092164e-06 0 -0.044532599313109725 -6.8161685381319936e-05 0 -0.043999825540838505 -0.00023622852961555692 0 -0.043828789992229167 0.0003894849833275477 0 -0.044538824740120102 -1.9668457081319909e-05 0 -0.043289519440008015 -0.00019767376990042013 0 -0.044861945520686217 2.3599118357939286e-05 0 -0.044538824740120102 -1.9668457081319909e-05 0 -0.044920660068640157 -2.8007826118126599e-05 0 -0.044538824740120102 -1.9668457081319909e-05 0 -0.045023130989593069 -0.00011742701423681808 0 -0.044920660068640157 -2.8007826118126599e-05 0 -0.044822719879813504 4.6273192098116998e-07 0 -0.044861945520686217 2.3599118357939286e-05 0 -0.044538824740120102 -1.9668457081319909e-05 0 -0.044959220982852738 5.7078833990935764e-05 0 -0.044907571893051258 -5.0679876709369246e-05 0 -0.044190345434518961 0.00013502745973103199 0 -0.044959220982852738 5.7078833990935764e-05 0 -0.044920660068640157 -2.8007826118126599e-05 0 -0.044907571893051258 -5.0679876709369246e-05 0 -0.043999825540838505 -0.00023622852961555692 0 -0.044361519085589052 -0.00032552418236675245 0 -0.044907571893051258 -5.0679876709369246e-05 0 -0.04496428649731004 -4.5776248964630718e-06 0 -0.04496714390340488 -1.8185971497081962e-05 0 -0.044920660068640157 -2.8007826118126599e-05 0 -0.044907571893051258 -5.0679876709369246e-05 0 -0.044927455659447876 -8.4137401746092164e-06 0 -0.044907571893051258 -5.0679876709369246e-05 0 -0.044927455659447876 -8.4137401746092164e-06 0 -0.04496428649731004 -4.5776248964630718e-06 0 -0.04496428649731004 -4.5776248964630718e-06 0 -0.044999774360228451 7.3304485990576714e-08 0 -0.045000022053323298 -1.7299218998422803e-08 0 -0.044927455659447876 -8.4137401746092164e-06 0 -0.04496428649731004 -4.5776248964630718e-06 0 -0.044999774360228451 7.3304485990576714e-08 0 -0.044975427254779841 -9.7462509492129983e-06 0 -0.044990106378251939 -1.1903949079035909e-05 0 -0.045000022053323298 -1.7299218998422803e-08 0 -0.04496428649731004 -4.5776248964630718e-06 0 -0.044975427254779841 -9.7462509492129983e-06 0 -0.045000022053323298 -1.7299218998422803e-08 0 -0.04496428649731004 -4.5776248964630718e-06 0 -0.044975427254779841 -9.7462509492129983e-06 0 -0.04496714390340488 -1.8185971497081962e-05 0 -0.044975427254779841 -9.7462509492129983e-06 0 -0.044990106378251939 -1.1903949079035909e-05 0 -0.04496714390340488 -1.8185971497081962e-05 0 -0.043999825540838505 -0.00023622852961555692 0 -0.043061288657514296 -0.000226504799823236 0 -0.044907571893051258 -5.0679876709369246e-05 0 -0.044096888470016388 -1.1213708396353436e-05 0 -0.044190345434518961 0.00013502745973103199 0 -0.044990106378251939 -1.1903949079035909e-05 0 -0.04496714390340488 -1.8185971497081962e-05 0 -0.045004621899816813 -2.0196410203744054e-05 0 -0.044896215991748839 -5.0875533531784802e-05 0 -0.044525096311701054 -8.0477708582274133e-06 0 -0.044907571893051258 -5.0679876709369246e-05 0 -0.04496714390340488 -1.8185971497081962e-05 0 -0.045004621899816813 -2.0196410203744054e-05 0 -0.043452927894211485 -0.00066996570602349218 0 -0.042321526526900723 0.00015226657240241274 0 -0.041775638136648585 -0.00057871724418476938 0 -0.042321526526900723 0.00015226657240241274 0 -0.041642313386477552 8.8184175598594728e-05 0 -0.041775638136648585 -0.00057871724418476938 0 -0.043999825540838505 -0.00023622852961555692 0 -0.042156088902400565 0.00032554778717498934 0 -0.043289519440008015 -0.00019767376990042013 0 -0.042183664215960918 0.00046552694819022058 0 -0.043000357377340821 0.00046562254827281193 0 -0.043828789992229167 0.0003894849833275477 0 -0.043289519440008015 -0.00019767376990042013 0 -0.043390821342422246 0.0003411643242495837 0 -0.043289519440008015 -0.00019767376990042013 0 -0.043390821342422246 0.0003411643242495837 0 -0.043000357377340821 0.00046562254827281193 0 -0.043390821342422246 0.0003411643242495837 0 -0.043000357377340821 0.00046562254827281193 0 -0.043425936661744262 0.00094284923951730025 0 -0.043000357377340821 0.00046562254827281193 0 -0.042881654382319834 0.00089070962978383896 0 -0.043425936661744262 0.00094284923951730025 0 -0.042183664215960918 0.00046552694819022058 0 -0.043000357377340821 0.00046562254827281193 0 -0.042881654382319834 0.00089070962978383896 0 -0.042881654382319834 0.00089070962978383896 0 -0.043012478939716728 0.0013008466761697177 0 -0.04251699378919941 0.0012162409997545929 0 -0.042881654382319834 0.00089070962978383896 0 -0.043425936661744262 0.00094284923951730025 0 -0.043012478939716728 0.0013008466761697177 0 -0.043425936661744262 0.00094284923951730025 0 -0.043012478939716728 0.0013008466761697177 0 -0.043328590782313263 0.0016056657589226758 0 -0.042676083577086375 0.0019107063697170314 0 -0.043012478939716728 0.0013008466761697177 0 -0.043328590782313263 0.0016056657589226758 0 -0.042676083577086375 0.0019107063697170314 0 -0.043012478939716728 0.0013008466761697177 0 -0.04251699378919941 0.0012162409997545929 0 -0.04210399257822104 0.0017406821916351911 0 -0.04251699378919941 0.0012162409997545929 0 -0.041096795788467325 0.001124159902171103 0 -0.042183664215960918 0.00046552694819022058 0 -0.04251699378919941 0.0012162409997545929 0 -0.041096795788467325 0.001124159902171103 0 -0.04210399257822104 0.0017406821916351911 0 -0.042676083577086375 0.0019107063697170314 0 -0.04251699378919941 0.0012162409997545929 0 -0.042183664215960918 0.00046552694819022058 0 -0.042881654382319834 0.00089070962978383896 0 -0.04251699378919941 0.0012162409997545929 0 -0.042156088902400565 0.00032554778717498934 0 -0.04117663432487275 0.0010317717343912469 0 -0.041226806341492742 0.00094652433425409621 0 -0.040683241338680717 0.00036045608624479781 0 -0.041130671595093524 0.00033179983202082634 0 -0.040013342319394435 0.0018216511748299501 0 -0.04117663432487275 0.0010317717343912469 0 -0.041226806341492742 0.00094652433425409621 0 -0.040189513745118574 0.00088878221480706955 0 -0.040683241338680717 0.00036045608624479781 0 -0.040081124352599702 0.0017835047723491636 0 -0.041226806341492742 0.00094652433425409621 0 -0.040189513745118574 0.00088878221480706955 0 -0.040683241338680717 0.00036045608624479781 0 -0.040401222129833068 -3.7051380368381528e-05 0 -0.040973579310327857 -6.2447114764377777e-05 0 -0.04121143438363023 -0.00026440685726819026 0 -0.040973579310327857 -6.2447114764377777e-05 0 -0.040178205415251494 -0.0004096297563448753 0 -0.040189513745118574 0.00088878221480706955 0 -0.040683241338680717 0.00036045608624479781 0 -0.040104843104131233 6.8595030027453481e-05 0 -0.040683241338680717 0.00036045608624479781 0 -0.040104843104131233 6.8595030027453481e-05 0 -0.040401222129833068 -3.7051380368381528e-05 0 -0.040104843104131233 6.8595030027453481e-05 0 -0.040401222129833068 -3.7051380368381528e-05 0 -0.040100661055629185 -0.00016124318070031342 0 -0.040401222129833068 -3.7051380368381528e-05 0 -0.040100661055629185 -0.00016124318070031342 0 -0.040178205415251494 -0.0004096297563448753 0 -0.040401222129833068 -3.7051380368381528e-05 0 -0.040973579310327857 -6.2447114764377777e-05 0 -0.040178205415251494 -0.0004096297563448753 0 -0.04121143438363023 -0.00026440685726819026 0 -0.040973579310327857 -6.2447114764377777e-05 0 -0.041642313386477552 8.8184175598594728e-05 0 -0.042321526526900723 0.00015226657240241274 0 -0.041226806341492742 0.00094652433425409621 0 -0.041642313386477552 8.8184175598594728e-05 0 -0.040683241338680717 0.00036045608624479781 0 -0.040973579310327857 -6.2447114764377777e-05 0 -0.041130671595093524 0.00033179983202082634 0 -0.040973579310327857 -6.2447114764377777e-05 0 -0.041130671595093524 0.00033179983202082634 0 -0.041642313386477552 8.8184175598594728e-05 0 -0.041226806341492742 0.00094652433425409621 0 -0.041130671595093524 0.00033179983202082634 0 -0.041642313386477552 8.8184175598594728e-05 0 -0.04121143438363023 -0.00026440685726819026 0 -0.041642313386477552 8.8184175598594728e-05 0 -0.041775638136648585 -0.00057871724418476938 0 -0.04121143438363023 -0.00026440685726819026 0 -0.041775638136648585 -0.00057871724418476938 0 -0.040178205415251494 -0.0004096297563448753 0 -0.044096888470016388 -1.1213708396353436e-05 0 -0.044190345434518961 0.00013502745973103199 0 -0.043187168072600708 0.00020482796338662903 0 -0.043061288657514296 -0.000226504799823236 0 -0.041520726769752631 -0.00012896965192015321 0 -0.044990106378251939 -1.1903949079035909e-05 0 -0.045004621899816813 -2.0196410203744054e-05 0 -0.044998912148790149 -7.3554505767876343e-06 0 -0.045004621899816813 -2.0196410203744054e-05 0 -0.045000319506678807 -1.0620902851250999e-05 0 -0.044998912148790149 -7.3554505767876343e-06 0 -0.044990106378251939 -1.1903949079035909e-05 0 -0.045000022053323298 -1.7299218998422803e-08 0 -0.044998912148790149 -7.3554505767876343e-06 0 -0.045000022053323298 -1.7299218998422803e-08 0 -0.044998912148790149 -7.3554505767876343e-06 0 -0.044999738815495287 -5.7115599809132063e-06 0 -0.045000319506678807 -1.0620902851250999e-05 0 -0.044998912148790149 -7.3554505767876343e-06 0 -0.044999738815495287 -5.7115599809132063e-06 0 -0.045000022053323298 -1.7299218998422803e-08 0 -0.044999988906677175 -4.8379045340968913e-09 0 -0.044999738815495287 -5.7115599809132063e-06 0 -0.044999738815495287 -5.7115599809132063e-06 0 -0.044996100266626739 -3.4990184069203317e-06 0 -0.044997441274985166 -6.1399921026476948e-06 0 -0.044999988906677175 -4.8379045340968913e-09 0 -0.044999738815495287 -5.7115599809132063e-06 0 -0.044996100266626739 -3.4990184069203317e-06 0 -0.044096888470016388 -1.1213708396353436e-05 0 -0.043094540216056174 8.7450102994527347e-05 0 -0.043187168072600708 0.00020482796338662903 0 -0.045004621899816813 -2.0196410203744054e-05 0 -0.045000319506678807 -1.0620902851250999e-05 0 -0.04499134921343137 -6.3155208001139009e-07 0 -0.045000319506678807 -1.0620902851250999e-05 0 -0.044997441274985166 -6.1399921026476948e-06 0 -0.04499134921343137 -6.3155208001139009e-07 0 -0.044996100266626739 -3.4990184069203317e-06 0 -0.044997441274985166 -6.1399921026476948e-06 0 -0.04499134921343137 -6.3155208001139009e-07 0 -0.044525096311701054 -8.0477708582274133e-06 0 -0.044140987793922476 -6.6190627246126027e-08 0 -0.045000319506678807 -1.0620902851250999e-05 0 -0.044999738815495287 -5.7115599809132063e-06 0 -0.044997441274985166 -6.1399921026476948e-06 0 -0.043094540216056174 8.7450102994527347e-05 0 -0.043187168072600708 0.00020482796338662903 0 -0.042170497066583802 0.00027473991173637463 0 -0.04499134921343137 -6.3155208001139009e-07 0 -0.04498985583317771 -1.5753873719420749e-06 0 -0.044983713414368118 -7.4163999835327665e-07 0 -0.041520726769752631 -0.00012896965192015321 0 -0.041401034934862004 0.00025768741135275295 0 -0.04499134921343137 -6.3155208001139009e-07 0 -0.04498985583317771 -1.5753873719420749e-06 0 -0.044992457885997109 -1.9760407226428873e-06 0 -0.044140987793922476 -6.6190627246126027e-08 0 -0.043113376281195027 0.00040867477122507792 0 -0.04498985583317771 -1.5753873719420749e-06 0 -0.044992457885997109 -1.9760407226428873e-06 0 -0.044994212815948141 -1.8306722937609355e-06 0 -0.044996100266626739 -3.4990184069203317e-06 0 -0.04499134921343137 -6.3155208001139009e-07 0 -0.044992457885997109 -1.9760407226428873e-06 0 -0.044999988906677175 -4.8379045340968913e-09 0 -0.044994212815948141 -1.8306722937609355e-06 0 -0.044999985004566249 8.9152462870850366e-10 0 -0.044996100266626739 -3.4990184069203317e-06 0 -0.044992457885997109 -1.9760407226428873e-06 0 -0.044994212815948141 -1.8306722937609355e-06 0 -0.044999988906677175 -4.8379045340968913e-09 0 -0.044996100266626739 -3.4990184069203317e-06 0 -0.044994212815948141 -1.8306722937609355e-06 0 -0.044994212815948141 -1.8306722937609355e-06 0 -0.044999985004566249 8.9152462870850366e-10 0 -0.044992930306695572 -9.873916100124532e-07 0 -0.043094540216056174 8.7450102994527347e-05 0 -0.042087050285673042 0.00020180792360416889 0 -0.042170497066583802 0.00027473991173637463 0 -0.04498985583317771 -1.5753873719420749e-06 0 -0.044994212815948141 -1.8306722937609355e-06 0 -0.044992930306695572 -9.873916100124532e-07 0 -0.04498985583317771 -1.5753873719420749e-06 0 -0.044992930306695572 -9.873916100124532e-07 0 -0.044983713414368118 -7.4163999835327665e-07 0 -0.041401034934862004 0.00025768741135275295 0 -0.042394121240714525 0.00054704009721796235 0 -0.040992565194810017 0.00091027820826829588 0 -0.04103696919734471 0.00093542205101831576 0 -0.04104634680991319 0.00091027322879907644 0 -0.042358289147849219 0.0007832204941954832 0 -0.041917811287533586 0.00039337983151468069 0 -0.042743235783411195 0.00074682517262777883 0 -0.043113376281195027 0.00040867477122507792 0 -0.041401034934862004 0.00025768741135275295 0 -0.043113376281195027 0.00040867477122507792 0 -0.042394121240714525 0.00054704009721796235 0 -0.041134193259553788 0.00092165941350217772 0 -0.04103696919734471 0.00093542205101831576 0 -0.04104634680991319 0.00091027322879907644 0 -0.041101778016143897 0.00083347083985640523 0 -0.04104634680991319 0.00091027322879907644 0 -0.040990390059704118 0.00080794781095981335 0 -0.040968631715098465 0.00091690727614891028 0 -0.040990390059704118 0.00080794781095981335 0 -0.040942542345027887 0.00089688273393048236 0 -0.039155589754699342 -0.00025567468274514406 0 -0.039218894988977127 -0.00020665242215591758 0 -0.039748485756217124 -0.00016450359651367042 0 -0.040990390059704118 0.00080794781095981335 0 -0.040942542345027887 0.00089688273393048236 0 -0.04073424866948018 0.00072527762149742446 0 -0.040990390059704118 0.00080794781095981335 0 -0.04073424866948018 0.00072527762149742446 0 -0.040975084060016383 0.00060913605090087317 0 -0.040968631715098465 0.00091690727614891028 0 -0.04104634680991319 0.00091027322879907644 0 -0.040990390059704118 0.00080794781095981335 0 -0.041401034934862004 0.00025768741135275295 0 -0.041154284913799778 0.00041240603847550288 0 -0.041096778360322432 0.00071056535430943956 0 -0.041101778016143897 0.00083347083985640523 0 -0.040990390059704118 0.00080794781095981335 0 -0.041401034934862004 0.00025768741135275295 0 -0.040439277061649855 1.7984067697381574e-05 0 -0.040178205415251494 -0.0004096297563448753 0 -0.039155589754699342 -0.00025567468274514406 0 -0.039748485756217124 -0.00016450359651367042 0 -0.039218894988977127 -0.00020665242215591758 0 -0.039748485756217124 -0.00016450359651367042 0 -0.039715991303545535 4.3409944605769564e-05 0 -0.040439277061649855 1.7984067697381574e-05 0 -0.039931828180381233 0.00049995563941134229 0 -0.040439277061649855 1.7984067697381574e-05 0 -0.039382950847046461 -0.00017814718742023252 0 -0.040104843104131233 6.8595030027453481e-05 0 -0.040100661055629185 -0.00016124318070031342 0 -0.039748485756217124 -0.00016450359651367042 0 -0.040104843104131233 6.8595030027453481e-05 0 -0.039748485756217124 -0.00016450359651367042 0 -0.039715991303545535 4.3409944605769564e-05 0 -0.040100661055629185 -0.00016124318070031342 0 -0.040178205415251494 -0.0004096297563448753 0 -0.039748485756217124 -0.00016450359651367042 0 -0.039997329870216529 0.00021418928651489004 0 -0.039931828180381233 0.00049995563941134229 0 -0.040104843104131233 6.8595030027453481e-05 0 -0.039744558462535634 0.00020645415589574926 0 -0.039715991303545535 4.3409944605769564e-05 0 -0.040189513745118574 0.00088878221480706955 0 -0.040104843104131233 6.8595030027453481e-05 0 -0.039405221466179433 0.00040198385838605865 0 -0.039342490960801946 -0.0001841175019443785 0 -0.039744558462535634 0.00020645415589574926 0 -0.039715991303545535 4.3409944605769564e-05 0 -0.039405221466179433 0.00040198385838605865 0 -0.039239735489642789 0.001292334973880596 0 -0.038301941494487374 0.00099707850019029412 0 -0.040189513745118574 0.00088878221480706955 0 -0.039405221466179433 0.00040198385838605865 0 -0.039239735489642789 0.001292334973880596 0 -0.040081124352599702 0.0017835047723491636 0 -0.040189513745118574 0.00088878221480706955 0 -0.039239735489642789 0.001292334973880596 0 -0.038333176876295269 0.0018416630389081231 0 -0.039239735489642789 0.001292334973880596 0 -0.038301941494487374 0.00099707850019029412 0 -0.037320841242267762 0.0016449257327058498 0 -0.038333176876295269 0.0018416630389081231 0 -0.038301941494487374 0.00099707850019029412 0 -0.039931828180381233 0.00049995563941134229 0 -0.039674226961670701 0.00079646437458626076 0 -0.041096778360322432 0.00071056535430943956 0 -0.040990390059704118 0.00080794781095981335 0 -0.040975084060016383 0.00060913605090087317 0 -0.035653429034641047 -0.00020220788480333255 0 -0.035372952802110905 0.00022700750544196025 0 -0.034967117879300527 -0.00021437567390825295 0 -0.035653429034641047 -0.00020220788480333255 0 -0.035810195535123414 0.00044681812834242049 0 -0.035372952802110905 0.00022700750544196025 0 -0.035653429034641047 -0.00020220788480333255 0 -0.036150843363132186 -0.00044482415198306759 0 -0.036255445258412143 0.0001494491375540748 0 -0.035653429034641047 -0.00020220788480333255 0 -0.035810195535123414 0.00044681812834242049 0 -0.036255445258412143 0.0001494491375540748 0 -0.035810195535123414 0.00044681812834242049 0 -0.036255445258412143 0.0001494491375540748 0 -0.036420488740925155 0.00067237729388940981 0 -0.035810195535123414 0.00044681812834242049 0 -0.036420488740925155 0.00067237729388940981 0 -0.036154350077709833 0.00095323439443084873 0 -0.035810195535123414 0.00044681812834242049 0 -0.035129795043123982 0.00065252552364804435 0 -0.03558481933233678 0.0011251463148798787 0 -0.035810195535123414 0.00044681812834242049 0 -0.035372952802110905 0.00022700750544196025 0 -0.035129795043123982 0.00065252552364804435 0 -0.035129795043123982 0.00065252552364804435 0 -0.034958268835052014 0.00027138062925792945 0 -0.034329614100808176 0.00044011452521768723 0 -0.035372952802110905 0.00022700750544196025 0 -0.035129795043123982 0.00065252552364804435 0 -0.034958268835052014 0.00027138062925792945 0 -0.034329614100808176 0.00044011452521768723 0 -0.034006264897122648 0.00038926004980918401 0 -0.034779511116486667 0.0013140558493106133 0 -0.034329614100808176 0.00044011452521768723 0 -0.034006264897122648 0.00038926004980918401 0 -0.034187144086792708 -6.2627666732476339e-05 0 -0.034006264897122648 0.00038926004980918401 0 -0.034187144086792708 -6.2627666732476339e-05 0 -0.033349939085642051 -0.0004103387748083955 0 -0.034329614100808176 0.00044011452521768723 0 -0.034187144086792708 -6.2627666732476339e-05 0 -0.034602725549237108 -0.00018672151886759067 0 -0.034958268835052014 0.00027138062925792945 0 -0.034329614100808176 0.00044011452521768723 0 -0.034967117879300527 -0.00021437567390825295 0 -0.034362256475423181 0.00039343050234445282 0 -0.034750242379048286 -0.000148357551858675 0 -0.034187144086792708 -6.2627666732476339e-05 0 -0.034602725549237108 -0.00018672151886759067 0 -0.03442400053951427 -0.00061564115429743735 0 -0.035372952802110905 0.00022700750544196025 0 -0.034958268835052014 0.00027138062925792945 0 -0.034967117879300527 -0.00021437567390825295 0 -0.034602725549237108 -0.00018672151886759067 0 -0.03442400053951427 -0.00061564115429743735 0 -0.035010113485977643 -0.00079042479055190993 0 -0.03442400053951427 -0.00061564115429743735 0 -0.034186452504442966 -0.0010910227689706485 0 -0.035010113485977643 -0.00079042479055190993 0 -0.034187144086792708 -6.2627666732476339e-05 0 -0.03442400053951427 -0.00061564115429743735 0 -0.033952997785440898 -0.00065831122360031824 0 -0.034187144086792708 -6.2627666732476339e-05 0 -0.033952997785440898 -0.00065831122360031824 0 -0.033349939085642051 -0.0004103387748083955 0 -0.03442400053951427 -0.00061564115429743735 0 -0.033952997785440898 -0.00065831122360031824 0 -0.034186452504442966 -0.0010910227689706485 0 -0.033845743785170079 -0.0015842156620256437 0 -0.034186452504442966 -0.0010910227689706485 0 -0.033573600511670562 -0.001053793681864697 0 -0.033952997785440898 -0.00065831122360031824 0 -0.034186452504442966 -0.0010910227689706485 0 -0.033573600511670562 -0.001053793681864697 0 -0.034088443187873976 -0.0012591792822358022 0 -0.034008753365321373 -0.001297157927352926 0 -0.034770076730001494 -0.0017120804576895023 0 -0.034186452504442966 -0.0010910227689706485 0 -0.035010113485977643 -0.00079042479055190993 0 -0.034668249327099381 -0.00095609806529933685 0 -0.035365554666442388 -0.00085324837070101115 0 -0.034770076730001494 -0.0017120804576895023 0 -0.034971805417777356 -0.0016298861233716719 0 -0.035010113485977643 -0.00079042479055190993 0 -0.035449452821035572 -0.0014463774441335524 0 -0.034971805417777356 -0.0016298861233716719 0 -0.035010113485977643 -0.00079042479055190993 0 -0.034750242379048286 -0.000148357551858675 0 -0.035365554666442388 -0.00085324837070101115 0 -0.035653429034641047 -0.00020220788480333255 0 -0.034967117879300527 -0.00021437567390825295 0 -0.035456924293765298 -0.00070249614746676107 0 -0.035653429034641047 -0.00020220788480333255 0 -0.035456924293765298 -0.00070249614746676107 0 -0.035874366286379494 -0.00073495656144469254 0 -0.035653429034641047 -0.00020220788480333255 0 -0.035874366286379494 -0.00073495656144469254 0 -0.036150843363132186 -0.00044482415198306759 0 -0.035820974288986972 -0.0010868001672944834 0 -0.035456924293765298 -0.00070249614746676107 0 -0.035874366286379494 -0.00073495656144469254 0 -0.035820974288986972 -0.0010868001672944834 0 -0.035874366286379494 -0.00073495656144469254 0 -0.036119186404466187 -0.00093133432748166421 0 -0.035874366286379494 -0.00073495656144469254 0 -0.036119186404466187 -0.00093133432748166421 0 -0.036150843363132186 -0.00044482415198306759 0 -0.034668249327099381 -0.00095609806529933685 0 -0.036353830533618584 -0.00079919490074084631 0 -0.036333515600539566 -0.0010127367591881841 0 -0.036303352798677926 -0.0007446435478500466 0 -0.036119186404466187 -0.00093133432748166421 0 -0.036303352798677926 -0.0007446435478500466 0 -0.036119186404466187 -0.00093133432748166421 0 -0.036150843363132186 -0.00044482415198306759 0 -0.036333515600539566 -0.0010127367591881841 0 -0.036303352798677926 -0.0007446435478500466 0 -0.036513518684907494 -0.00055723605178332743 0 -0.030688510759983235 0.00039789164792479567 0 -0.030993563597492422 0.00040322773474553604 0 -0.030837120893413266 0.00021330066108216783 0 -0.030993563597492422 0.00040322773474553604 0 -0.030837120893413266 0.00021330066108216783 0 -0.030910517713360799 -3.452492421388286e-07 0 -0.033663594442170833 -0.00021030412489476082 0 -0.035324826518788308 -0.00069193319285556468 0 -0.035324826518788308 -0.00069193319285556468 0 -0.032795644186876576 0.00057754307017376624 0 -0.030837120893413266 0.00021330066108216783 0 -0.030910517713360799 -3.452492421388286e-07 0 -0.030755011152080784 2.1783256699077984e-05 0 -0.037030848874415205 -0.00050783000671295942 0 -0.037327463993315872 -0.00054751926647076559 0 -0.037160452763571612 -0.00016479866167487764 0 -0.035324826518788308 -0.00069193319285556468 0 -0.036731899448446167 -5.1237404251925443e-06 0 -0.037049980995342291 -0.0005616357400276326 0 -0.036150843363132186 -0.00044482415198306759 0 -0.036743822303125222 -6.8418969213550029e-05 0 -0.035324826518788308 -0.00069193319285556468 0 -0.036777528610688691 -0.00046577098684872736 0 -0.036303352798677926 -0.0007446435478500466 0 -0.036513518684907494 -0.00055723605178332743 0 -0.036150843363132186 -0.00044482415198306759 0 -0.027211787388978701 0.0019133041383161407 0 -0.027496923655944399 0.0016586790745946767 0 -0.02717513823243007 0.0017304416066390622 0 -0.028656964338028584 0.0011914301692663907 0 -0.032795644186876576 0.00057754307017376624 0 -0.027425953736509526 0.0019208583866416808 0 -0.027211787388978701 0.0019133041383161407 0 -0.027496923655944399 0.0016586790745946767 0 -0.030688510759983235 0.00039789164792479567 0 -0.030837120893413266 0.00021330066108216783 0 -0.030755011152080784 2.1783256699077984e-05 0 -0.032795644186876576 0.00057754307017376624 0 -0.031378818831278944 0.0018812679842683244 0 -0.035015984439720829 0.0008349206955360302 0 -0.035667937592031504 0.0017501846808841144 0 -0.036280481013561149 0.0010253509694216727 0 -0.037110312976512613 0.0015360123421427256 0 -0.035667937592031504 0.0017501846808841144 0 -0.036280481013561149 0.0010253509694216727 0 -0.035015984439720829 0.0008349206955360302 0 -0.036280481013561149 0.0010253509694216727 0 -0.036147729432712057 0.00018255413707081485 0 -0.037327463993315872 -0.00054751926647076559 0 -0.037344803527401063 3.2431721997316346e-05 0 -0.037160452763571612 -0.00016479866167487764 0 -0.037110312976512613 0.0015360123421427256 0 -0.036280481013561149 0.0010253509694216727 0 -0.037194794226760267 0.00053744508390325555 0 -0.032795644186876576 0.00057754307017376624 0 -0.037318357214487251 0.00023699605746822669 0 -0.036280481013561149 0.0010253509694216727 0 -0.037194794226760267 0.00053744508390325555 0 -0.036147729432712057 0.00018255413707081485 0 -0.045682192491640794 0.0016246073700288653 0 -0.045136657680987895 0.0021070341687304656 0 -0.045338988904429327 0.0011503421936925101 0 -0.037318357214487251 0.00023699605746822669 0 -0.039740041558019336 0.00019728073987982544 0 -0.039740041558019336 0.00019728073987982544 0 -0.04096101032290872 0.001106145385321899 0 -0.037194794226760267 0.00053744508390325555 0 -0.037273432628427722 -0.00046411133754907058 0 -0.036147729432712057 0.00018255413707081485 0 -0.044556437454166195 0.0020817312718941143 0 -0.044806959879211933 0.0012222862822170524 0 -0.045136657680987895 0.0021070341687304656 0 -0.036150843363132186 -0.00044482415198306759 0 -0.036255445258412143 0.0001494491375540748 0 -0.036743822303125222 -6.8418969213550029e-05 0 -0.036255445258412143 0.0001494491375540748 0 -0.036743822303125222 -6.8418969213550029e-05 0 -0.036749999990698889 0.00041037032750544108 0 -0.037049980995342291 -0.0005616357400276326 0 -0.036743822303125222 -6.8418969213550029e-05 0 -0.037160452763571612 -0.00016479866167487764 0 -0.037344803527401063 3.2431721997316346e-05 0 -0.037160452763571612 -0.00016479866167487764 0 -0.037068852059959148 0.00017211213251777083 0 -0.036743822303125222 -6.8418969213550029e-05 0 -0.037068852059959148 0.00017211213251777083 0 -0.036749999990698889 0.00041037032750544108 0 -0.036743822303125222 -6.8418969213550029e-05 0 -0.037160452763571612 -0.00016479866167487764 0 -0.037068852059959148 0.00017211213251777083 0 -0.037337699644076107 0.00064216596626407438 0 -0.036749999990698889 0.00041037032750544108 0 -0.036708999465678439 0.0010351163940493214 0 -0.037337699644076107 0.00064216596626407438 0 -0.037068852059959148 0.00017211213251777083 0 -0.036749999990698889 0.00041037032750544108 0 -0.037344803527401063 3.2431721997316346e-05 0 -0.037337699644076107 0.00064216596626407438 0 -0.037068852059959148 0.00017211213251777083 0 -0.036749999990698889 0.00041037032750544108 0 -0.036420488740925155 0.00067237729388940981 0 -0.036708999465678439 0.0010351163940493214 0 -0.036255445258412143 0.0001494491375540748 0 -0.036749999990698889 0.00041037032750544108 0 -0.036420488740925155 0.00067237729388940981 0 -0.036996170803763107 0.000864043466101959 0 -0.036386796162342493 0.0013843499428577498 0 -0.036420488740925155 0.00067237729388940981 0 -0.036708999465678439 0.0010351163940493214 0 -0.036154350077709833 0.00095323439443084873 0 -0.039740041558019336 0.00019728073987982544 0 -0.036996170803763107 0.000864043466101959 0 -0.039365988482900231 -0.00038230207336503058 0 -0.037819351465121484 0.00051180929915714242 0 -0.039260634395275003 0.0018468021129993694 0 -0.037819351465121484 0.00051180929915714242 0 -0.037542372035797709 0.0018269143854313869 0 -0.039260634395275003 0.0018468021129993694 0 -0.037542372035797709 0.0018269143854313869 0 -0.037272465337936087 0.0030656880952074682 0 -0.036233288320584263 0.0014859359637551235 0 -0.037819351465121484 0.00051180929915714242 0 -0.037542372035797709 0.0018269143854313869 0 -0.036233288320584263 0.0014859359637551235 0 -0.044806959879211933 0.0012222862822170524 0 -0.045136657680987895 0.0021070341687304656 0 -0.045338988904429327 0.0011503421936925101 0 -0.039740041558019336 0.00019728073987982544 0 -0.042621230335863659 0.0016518943634940147 0 -0.045682192491640794 0.0016246073700288653 0 -0.045338988904429327 0.0011503421936925101 0 -0.045633162789348786 0.00079389572754699712 0 -0.045338988904429327 0.0011503421936925101 0 -0.045633162789348786 0.00079389572754699712 0 -0.045295924014813971 0.0006777628230646717 0 -0.044806959879211933 0.0012222862822170524 0 -0.044769208653031516 0.00038938458606835319 0 -0.04516960336185951 0.00019753055370138898 0 -0.044806959879211933 0.0012222862822170524 0 -0.045338988904429327 0.0011503421936925101 0 -0.045295924014813971 0.0006777628230646717 0 -0.044694557274865328 0.0013122221996802175 0 -0.045504769566596624 0.0002061363497031555 0 -0.044769208653031516 0.00038938458606835319 0 -0.044916989751757168 4.4290663462947495e-05 0 -0.04516960336185951 0.00019753055370138898 0 -0.044916989751757168 4.4290663462947495e-05 0 -0.04516960336185951 0.00019753055370138898 0 -0.045043098854466349 3.6153355386340837e-05 0 -0.045633162789348786 0.00079389572754699712 0 -0.045295924014813971 0.0006777628230646717 0 -0.045609422247695576 0.00022091497317833212 0 -0.04516960336185951 0.00019753055370138898 0 -0.045043098854466349 3.6153355386340837e-05 0 -0.045027642462575568 -3.5356186386701904e-06 0 -0.045504769566596624 0.0002061363497031555 0 -0.043916793412143544 0.0010506464275049998 0 -0.045000393618364394 6.2011235140738432e-08 0 -0.045043098854466349 3.6153355386340837e-05 0 -0.045027642462575568 -3.5356186386701904e-06 0 -0.045000393618364394 6.2011235140738432e-08 0 -0.045027642462575568 -3.5356186386701904e-06 0 -0.045023559215186332 -4.5878923715347659e-06 0 -0.044999998964429543 -4.1409224322128767e-10 0 -0.044999995666778751 3.0910965688747891e-09 0 -0.044998044694407484 1.9982398970665742e-06 0 -0.044998927396006035 1.3546894834949093e-06 0 -0.043810289979833016 0.00079533514047373766 0 -0.044916989751757168 4.4290663462947495e-05 0 -0.044999647582173674 -8.4783681490735534e-08 0 -0.045043098854466349 3.6153355386340837e-05 0 -0.044999647582173674 -8.4783681490735534e-08 0 -0.045000393618364394 6.2011235140738432e-08 0 -0.045043098854466349 3.6153355386340837e-05 0 -0.037542372035797709 0.0018269143854313869 0 -0.037272465337936087 0.0030656880952074682 0 -0.038471097170423282 0.0029833783349250704 0 -0.037542372035797709 0.0018269143854313869 0 -0.039260634395275003 0.0018468021129993694 0 -0.038471097170423282 0.0029833783349250704 0 -0.039260634395275003 0.0018468021129993694 0 -0.038471097170423282 0.0029833783349250704 0 -0.039191106357169415 0.0040341385714703134 0 -0.042621230335863659 0.0016518943634940147 0 -0.043916793412143544 0.0010506464275049998 0 -0.037272465337936087 0.0030656880952074682 0 -0.038471097170423282 0.0029833783349250704 0 -0.039187583812601977 0.0042152527268957607 0 -0.044984178288888309 -4.3676791459733939e-06 0 -0.044999967039854621 1.0375746311009398e-08 0 -0.044995921986918659 1.893088723009498e-06 0 -0.038471097170423282 0.0029833783349250704 0 -0.039191106357169415 0.0040341385714703134 0 -0.039187583812601977 0.0042152527268957607 0 -0.040866844616777552 0.0016817564313413775 0 -0.043810289979833016 0.00079533514047373766 0 -0.043916793412143544 0.0010506464275049998 0 -0.043810289979833016 0.00079533514047373766 0 -0.044999177778835234 3.1853158910479976e-07 0 -0.043810289979833016 0.00079533514047373766 0 -0.045000001081193911 -2.410620913460325e-09 0 -0.044999995500341616 3.3165506524918852e-09 0 -0.0449979702951398 1.7131255563606568e-06 0 -0.044996790473036549 8.7137641730011546e-07 0 -0.043810289979833016 0.00079533514047373766 0 -0.044984178288888309 -4.3676791459733939e-06 0 -0.044999967039854621 1.0375746311009398e-08 0 -0.044999980397848874 -2.5998125358293968e-09 0 -0.044984178288888309 -4.3676791459733939e-06 0 -0.044999980397848874 -2.5998125358293968e-09 0 -0.044977800376358415 -1.3894584423842641e-05 0 -0.044999980397848874 -2.5998125358293968e-09 0 -0.044976640144747781 -7.2830058887555142e-06 0 -0.044977800376358415 -1.3894584423842641e-05 0 -0.04499994101214471 -1.681150605180518e-08 0 -0.044976640144747781 -7.2830058887555142e-06 0 -0.04496913402308117 -1.3942490711803744e-05 0 -0.044999980397848874 -2.5998125358293968e-09 0 -0.04499994101214471 -1.681150605180518e-08 0 -0.044976640144747781 -7.2830058887555142e-06 0 -0.044976640144747781 -7.2830058887555142e-06 0 -0.044931358785054137 -1.5416777151983831e-05 0 -0.04496913402308117 -1.3942490711803744e-05 0 -0.044976640144747781 -7.2830058887555142e-06 0 -0.044931358785054137 -1.5416777151983831e-05 0 -0.044977800376358415 -1.3894584423842641e-05 0 -0.044931358785054137 -1.5416777151983831e-05 0 -0.044977800376358415 -1.3894584423842641e-05 0 -0.044967425828108545 -7.5220403609492251e-05 0 -0.040866844616777552 0.0016817564313413775 0 -0.040191994011074109 0.00090141166833433771 0 -0.044984178288888309 -4.3676791459733939e-06 0 -0.044977800376358415 -1.3894584423842641e-05 0 -0.044967425828108545 -7.5220403609492251e-05 0 -0.037272465337936087 0.0030656880952074682 0 -0.036233288320584263 0.0014859359637551235 0 -0.035667986234029968 0.0019315395467174002 0 -0.036233288320584263 0.0014859359637551235 0 -0.035667986234029968 0.0019315395467174002 0 -0.03558481933233678 0.0011251463148798787 0 -0.035667986234029968 0.0019315395467174002 0 -0.03558481933233678 0.0011251463148798787 0 -0.034779511116486667 0.0013140558493106133 0 -0.044931358785054137 -1.5416777151983831e-05 0 -0.044967425828108545 -7.5220403609492251e-05 0 -0.044618013460066677 -0.00025827031381809695 0 -0.040191994011074109 0.00090141166833433771 0 -0.040638749437729813 0.00044454098174037508 0 -0.035810195535123414 0.00044681812834242049 0 -0.03558481933233678 0.0011251463148798787 0 -0.036154350077709833 0.00095323439443084873 0 -0.036708999465678439 0.0010351163940493214 0 -0.036233288320584263 0.0014859359637551235 0 -0.036154350077709833 0.00095323439443084873 0 -0.036233288320584263 0.0014859359637551235 0 -0.03558481933233678 0.0011251463148798787 0 -0.036154350077709833 0.00095323439443084873 0 -0.041664627764111603 0.00039846619858057206 0 -0.040638749437729813 0.00044454098174037508 0 -0.038128564669985827 0.00053408525446639469 0 -0.038112748749081701 0.00086615862646288429 0 -0.038684338457776836 0.0011866773102720447 0 -0.035426588458230962 0.00046047003388088837 0 -0.040638749437729813 0.00044454098174037508 0 -0.044931536006513777 -6.6652091355922825e-05 0 -0.044955261856766578 -0.00014546953180787992 0 -0.044962203016909091 -5.3966044061852926e-05 0 -0.035129795043123982 0.00065252552364804435 0 -0.03558481933233678 0.0011251463148798787 0 -0.034779511116486667 0.0013140558493106133 0 -0.035129795043123982 0.00065252552364804435 0 -0.034329614100808176 0.00044011452521768723 0 -0.034779511116486667 0.0013140558493106133 0 -0.046158924961352786 9.7904716801605501e-05 0 -0.040638749437729813 0.00044454098174037508 0 -0.044962203016909091 -5.3966044061852926e-05 0 -0.044948018155599415 -2.969552158663007e-05 0 -0.044961711967693441 -2.3067337209932088e-05 0 -0.044931358785054137 -1.5416777151983831e-05 0 -0.044962203016909091 -5.3966044061852926e-05 0 -0.044961711967693441 -2.3067337209932088e-05 0 -0.044931536006513777 -6.6652091355922825e-05 0 -0.044962203016909091 -5.3966044061852926e-05 0 -0.044948018155599415 -2.969552158663007e-05 0 -0.044948018155599415 -2.969552158663007e-05 0 -0.044973941451797318 -1.2013312704202291e-05 0 -0.044961711967693441 -2.3067337209932088e-05 0 -0.044948018155599415 -2.969552158663007e-05 0 -0.044973941451797318 -1.2013312704202291e-05 0 -0.044945052091344265 -8.3651847013968454e-06 0 -0.044931358785054137 -1.5416777151983831e-05 0 -0.044961711967693441 -2.3067337209932088e-05 0 -0.04496913402308117 -1.3942490711803744e-05 0 -0.044973941451797318 -1.2013312704202291e-05 0 -0.044961711967693441 -2.3067337209932088e-05 0 -0.04496913402308117 -1.3942490711803744e-05 0 -0.04499994101214471 -1.681150605180518e-08 0 -0.044973941451797318 -1.2013312704202291e-05 0 -0.04496913402308117 -1.3942490711803744e-05 0 -0.04499994101214471 -1.681150605180518e-08 0 -0.044973941451797318 -1.2013312704202291e-05 0 -0.044999946975270239 2.8073995368896215e-09 0 -0.044973941451797318 -1.2013312704202291e-05 0 -0.044999946975270239 2.8073995368896215e-09 0 -0.044945052091344265 -8.3651847013968454e-06 0 -0.044999946975270239 2.8073995368896215e-09 0 -0.044999927209098893 -1.1486311678926817e-08 0 -0.044945052091344265 -8.3651847013968454e-06 0 -0.044999927209098893 -1.1486311678926817e-08 0 -0.044942073012798837 -1.4123744173099525e-05 0 -0.044945052091344265 -8.3651847013968454e-06 0 -0.044942073012798837 -1.4123744173099525e-05 0 -0.044945052091344265 -8.3651847013968454e-06 0 -0.044874367398168462 -1.7195163668458019e-05 0 -0.044999907187525737 -1.8963256943346031e-08 0 -0.044974678126053852 -1.0426211520364039e-05 0 -0.044975701450969574 -8.5778778892635571e-06 0 -0.045000356642847204 5.1691916390594952e-07 0 -0.04385238394391229 -0.00017840544511022984 0 -0.045000011672113253 -5.0655450267964185e-09 0 -0.045000082411157209 -9.733405257192726e-06 0 -0.045001372644723259 -9.547929177954673e-06 0 -0.044999927209098893 -1.1486311678926817e-08 0 -0.044999907187525737 -1.8963256943346031e-08 0 -0.044974678126053852 -1.0426211520364039e-05 0 -0.044999927209098893 -1.1486311678926817e-08 0 -0.044942073012798837 -1.4123744173099525e-05 0 -0.044974678126053852 -1.0426211520364039e-05 0 -0.044942073012798837 -1.4123744173099525e-05 0 -0.044974678126053852 -1.0426211520364039e-05 0 -0.044952734007079879 -1.1844092803596634e-05 0 -0.044942073012798837 -1.4123744173099525e-05 0 -0.044952734007079879 -1.1844092803596634e-05 0 -0.044874367398168462 -1.7195163668458019e-05 0 -0.04344521677705393 -0.00046068005750877453 0 -0.04385238394391229 -0.00017840544511022984 0 -0.041913991809131169 -0.00079852959498494529 0 -0.041934563425638817 -0.00080269023659255328 0 -0.041951187133401645 -0.00081709483252535658 0 -0.044974678126053852 -1.0426211520364039e-05 0 -0.044952734007079879 -1.1844092803596634e-05 0 -0.044975701450969574 -8.5778778892635571e-06 0 -0.041913991809131169 -0.00079852959498494529 0 -0.041934563425638817 -0.00080269023659255328 0 -0.041916243611396627 -0.00078543497181391732 0 -0.04344521677705393 -0.00046068005750877453 0 -0.043014232700826202 -0.00027460443794740519 0 -0.041913991809131169 -0.00079852959498494529 0 -0.041916243611396627 -0.00078543497181391732 0 -0.041884816082118581 -0.00077298095780965281 0 -0.044952734007079879 -1.1844092803596634e-05 0 -0.044874367398168462 -1.7195163668458019e-05 0 -0.044871632689581283 2.5156488223078482e-05 0 -0.041916243611396627 -0.00078543497181391732 0 -0.041884816082118581 -0.00077298095780965281 0 -0.041884145902064747 -0.00077001606220329232 0 -0.036979338133496374 -0.00335451017677647 0 -0.03643169772049823 -0.0026435459682563728 0 -0.035766094682668184 -0.0028724210430620721 0 -0.03643169772049823 -0.0026435459682563728 0 -0.035766094682668184 -0.0028724210430620721 0 -0.035896654046870494 -0.0022114264180359651 0 -0.038457300642446048 -0.002293594492626486 0 -0.041581044487997473 -0.00056654896473177119 0 -0.036979338133496374 -0.00335451017677647 0 -0.03643169772049823 -0.0026435459682563728 0 -0.037240816805251313 -0.0023793116161253888 0 -0.044931536006513777 -6.6652091355922825e-05 0 -0.044948018155599415 -2.969552158663007e-05 0 -0.044884036564899601 -3.5380587598477765e-05 0 -0.044948018155599415 -2.969552158663007e-05 0 -0.044945052091344265 -8.3651847013968454e-06 0 -0.044884036564899601 -3.5380587598477765e-05 0 -0.044931536006513777 -6.6652091355922825e-05 0 -0.044884036564899601 -3.5380587598477765e-05 0 -0.044825145362155899 -9.9148067442126611e-05 0 -0.044884036564899601 -3.5380587598477765e-05 0 -0.044874367398168462 -1.7195163668458019e-05 0 -0.044769866418963446 -8.5494434654532423e-05 0 -0.044945052091344265 -8.3651847013968454e-06 0 -0.044884036564899601 -3.5380587598477765e-05 0 -0.044874367398168462 -1.7195163668458019e-05 0 -0.044607498444779049 0.00018180572514320598 0 -0.043014232700826202 -0.00027460443794740519 0 -0.044763605460678667 -0.00010303882552966103 0 -0.044825145362155899 -9.9148067442126611e-05 0 -0.044680737753098422 -0.00033204634744019978 0 -0.044769866418963446 -8.5494434654532423e-05 0 -0.044763605460678667 -0.00010303882552966103 0 -0.044825145362155899 -9.9148067442126611e-05 0 -0.044884036564899601 -3.5380587598477765e-05 0 -0.044769866418963446 -8.5494434654532423e-05 0 -0.044825145362155899 -9.9148067442126611e-05 0 -0.043262654583710543 -0.00041917606221202335 0 -0.041581044487997473 -0.00056654896473177119 0 -0.043014232700826202 -0.00027460443794740519 0 -0.043262654583710543 -0.00041917606221202335 0 -0.043132940387758653 -0.00036959604409660536 0 -0.042546106007671135 0.00028241497065832855 0 -0.043248351232801109 0.00018699850966939234 0 -0.043014232700826202 -0.00027460443794740519 0 -0.041581044487997473 -0.00056654896473177119 0 -0.041581044487997473 -0.00056654896473177119 0 -0.039738369380225382 -0.001386789655974044 0 -0.044020730004706569 0.00053621975464799557 0 -0.044227614113680314 -0.00011804113417286027 0 -0.043618347019582344 -0.00026896872581155161 0 -0.044020730004706569 0.00053621975464799557 0 -0.043843638775521401 0.00055888093089285725 0 -0.043618347019582344 -0.00026896872581155161 0 -0.043262654583710543 -0.00041917606221202335 0 -0.044852282731228765 -0.0002684346819608976 0 -0.044020730004706569 0.00053621975464799557 0 -0.044680737753098422 -0.00033204634744019978 0 -0.044227614113680314 -0.00011804113417286027 0 -0.044955261856766578 -0.00014546953180787992 0 -0.044825145362155899 -9.9148067442126611e-05 0 -0.044680737753098422 -0.00033204634744019978 0 -0.044931536006513777 -6.6652091355922825e-05 0 -0.044955261856766578 -0.00014546953180787992 0 -0.044825145362155899 -9.9148067442126611e-05 0 -0.038128564669985827 0.00053408525446639469 0 -0.037608386980714587 0.00028309548583746149 0 -0.037641684219447691 0.00055393271027117091 0 -0.038128564669985827 0.00053408525446639469 0 -0.038112748749081701 0.00086615862646288429 0 -0.037641684219447691 0.00055393271027117091 0 -0.041664627764111603 0.00039846619858057206 0 -0.041410436787761629 0.00022033106041554679 0 -0.044955261856766578 -0.00014546953180787992 0 -0.044680737753098422 -0.00033204634744019978 0 -0.044571228395386554 -0.00043436521414802275 0 -0.038128564669985827 0.00053408525446639469 0 -0.037608386980714587 0.00028309548583746149 0 -0.03764587722659983 4.7679039083332845e-05 0 -0.035426588458230962 0.00046047003388088837 0 -0.035625506124572166 -0.00013694118339191411 0 -0.037374754551862212 0.00025360335527353735 0 -0.037641684219447691 0.00055393271027117091 0 -0.037265390420509789 0.00028207122283332932 0 -0.037608386980714587 0.00028309548583746149 0 -0.037374754551862212 0.00025360335527353735 0 -0.037437597920452474 7.6842840713096084e-05 0 -0.037374754551862212 0.00025360335527353735 0 -0.037274438195511676 0.00012147957724916583 0 -0.037437597920452474 7.6842840713096084e-05 0 -0.037608386980714587 0.00028309548583746149 0 -0.03764587722659983 4.7679039083332845e-05 0 -0.037437597920452474 7.6842840713096084e-05 0 -0.037608386980714587 0.00028309548583746149 0 -0.037374754551862212 0.00025360335527353735 0 -0.037641684219447691 0.00055393271027117091 0 -0.043949923753324002 -0.00050265621172702391 0 -0.044571228395386554 -0.00043436521414802275 0 -0.043355869405809107 -0.0012591050678811395 0 -0.041410436787761629 0.00022033106041554679 0 -0.038445266950082047 -0.0012201063667078502 0 -0.043949923753324002 -0.00050265621172702391 0 -0.043618347019582344 -0.00026896872581155161 0 -0.043355869405809107 -0.0012591050678811395 0 -0.043949923753324002 -0.00050265621172702391 0 -0.044571228395386554 -0.00043436521414802275 0 -0.044227614113680314 -0.00011804113417286027 0 -0.044680737753098422 -0.00033204634744019978 0 -0.044571228395386554 -0.00043436521414802275 0 -0.044227614113680314 -0.00011804113417286027 0 -0.043949923753324002 -0.00050265621172702391 0 -0.044227614113680314 -0.00011804113417286027 0 -0.043618347019582344 -0.00026896872581155161 0 -0.03643169772049823 -0.0026435459682563728 0 -0.035896654046870494 -0.0022114264180359651 0 -0.036458941908408163 -0.0020460472002005303 0 -0.035896654046870494 -0.0022114264180359651 0 -0.036458941908408163 -0.0020460472002005303 0 -0.036033741426034209 -0.0015858595385985644 0 -0.039738369380225382 -0.001386789655974044 0 -0.038445266950082047 -0.0012201063667078502 0 -0.03643169772049823 -0.0026435459682563728 0 -0.036458941908408163 -0.0020460472002005303 0 -0.037240816805251313 -0.0023793116161253888 0 -0.036458941908408163 -0.0020460472002005303 0 -0.036886850873244295 -0.0017652056555315342 0 -0.037240816805251313 -0.0023793116161253888 0 -0.036886850873244295 -0.0017652056555315342 0 -0.036730097336062945 -0.0011035065633429671 0 -0.037205558363549857 -0.0012621588627088785 0 -0.036886850873244295 -0.0017652056555315342 0 -0.036033741426034209 -0.0015858595385985644 0 -0.036730097336062945 -0.0011035065633429671 0 -0.036062779238511145 -0.0015210258048752156 0 -0.036114958332075044 -0.0012404972107538258 0 -0.036730097336062945 -0.0011035065633429671 0 -0.036458941908408163 -0.0020460472002005303 0 -0.036886850873244295 -0.0017652056555315342 0 -0.036033741426034209 -0.0015858595385985644 0 -0.038445266950082047 -0.0012201063667078502 0 -0.035824562353854138 -0.0014490618514906466 0 -0.038445266950082047 -0.0012201063667078502 0 -0.037137640819366324 -0.00034882895981465064 0 -0.037374754551862212 0.00025360335527353735 0 -0.037265390420509789 0.00028207122283332932 0 -0.037226749909820715 0.00010141977977673067 0 -0.037443437544906491 0.00016909072662129779 0 -0.037137640819366324 -0.00034882895981465064 0 -0.037137640819366324 -0.00034882895981465064 0 -0.037247275906275121 -2.5172915573112028e-05 0 -0.037225928635678709 -4.6613996624168388e-05 0 -0.037135209117003611 -0.00013142095216900709 0 -0.037200935359739805 -0.00020489562497952226 0 -0.037137640819366324 -0.00034882895981465064 0 -0.036801849990017232 -0.00045575800571658715 0 -0.036114958332075044 -0.0012404972107538258 0 -0.036730097336062945 -0.0011035065633429671 0 -0.036632532726216312 -0.00065245596216341635 0 -0.036730097336062945 -0.0011035065633429671 0 -0.036632532726216312 -0.00065245596216341635 0 -0.037022186391414309 -0.00072378455388549183 0 -0.036801849990017232 -0.00045575800571658715 0 -0.037135092467410681 -8.9705113955021752e-05 0 -0.037135209117003611 -0.00013142095216900709 0 -0.037114424204487004 -0.00020016792933215454 0 -0.037033671398679226 -0.00020799347573664017 0 -0.037114424204487004 -0.00020016792933215454 0 -0.037200935359739805 -0.00020489562497952226 0 -0.037150901366956382 -0.00025145018571287277 0 -0.037135209117003611 -0.00013142095216900709 0 -0.037114424204487004 -0.00020016792933215454 0 -0.037200935359739805 -0.00020489562497952226 0 -0.037200935359739805 -0.00020489562497952226 0 -0.037313353733694266 -0.00021373149433801322 0 -0.037150901366956382 -0.00025145018571287277 0 -0.037274438195511676 0.00012147957724916583 0 -0.037200935359739805 -0.00020489562497952226 0 -0.037313353733694266 -0.00021373149433801322 0 -0.032749591173078713 -0.0011956202416676818 0 -0.033573600511670562 -0.001053793681864697 0 -0.033248884672407122 -0.0015406752622903739 0 -0.032749591173078713 -0.0011956202416676818 0 -0.033573600511670562 -0.001053793681864697 0 -0.033349939085642051 -0.0004103387748083955 0 -0.033952997785440898 -0.00065831122360031824 0 -0.033573600511670562 -0.001053793681864697 0 -0.033349939085642051 -0.0004103387748083955 0 -0.034949813748064947 -0.00076645961022916032 0 -0.035625506124572166 -0.00013694118339191411 0 -0.037313353733694266 -0.00021373149433801322 0 -0.03764587722659983 4.7679039083332845e-05 0 -0.037437597920452474 7.6842840713096084e-05 0 -0.037274438195511676 0.00012147957724916583 0 -0.037313353733694266 -0.00021373149433801322 0 -0.037437597920452474 7.6842840713096084e-05 0 -0.039237272674538304 -0.0009135053235996756 0 -0.037962063025855149 -0.0010423555566277591 0 -0.038695447428544451 -0.0016486247148262817 0 -0.039237272674538304 -0.0009135053235996756 0 -0.038695447428544451 -0.0016486247148262817 0 -0.039947849130666596 -0.0015884066785331128 0 -0.039237272674538304 -0.0009135053235996756 0 -0.038334317443730309 -0.00036276002594879531 0 -0.037962063025855149 -0.0010423555566277591 0 -0.039237272674538304 -0.0009135053235996756 0 -0.040472874133341483 -0.00092417824144810446 0 -0.040223235120441347 0.00051373134433326548 0 -0.040472874133341483 -0.00092417824144810446 0 -0.040223235120441347 0.00051373134433326548 0 -0.04174177912893285 -0.000912987002514808 0 -0.039237272674538304 -0.0009135053235996756 0 -0.040472874133341483 -0.00092417824144810446 0 -0.039947849130666596 -0.0015884066785331128 0 -0.040472874133341483 -0.00092417824144810446 0 -0.039947849130666596 -0.0015884066785331128 0 -0.041140249259588077 -0.0015438578664432458 0 -0.040223235120441347 0.00051373134433326548 0 -0.038334317443730309 -0.00036276002594879531 0 -0.037376880082629453 0.00021334893685095625 0 -0.039237272674538304 -0.0009135053235996756 0 -0.040223235120441347 0.00051373134433326548 0 -0.038334317443730309 -0.00036276002594879531 0 -0.038181040491702407 0.00016557490640576754 0 -0.037469414383025361 0.00022881788558258464 0 -0.038334317443730309 -0.00036276002594879531 0 -0.037557115534883147 -0.00028770181104819043 0 -0.037376880082629453 0.00021334893685095625 0 -0.037557115534883147 -0.00028770181104819043 0 -0.037230496429159918 2.5990327252341308e-05 0 -0.037376880082629453 0.00021334893685095625 0 -0.037557115534883147 -0.00028770181104819043 0 -0.037230496429159918 2.5990327252341308e-05 0 -0.037353867690601554 -0.00067584832974446659 0 -0.037230496429159918 2.5990327252341308e-05 0 -0.037022186391414309 -0.00072378455388549183 0 -0.037353867690601554 -0.00067584832974446659 0 -0.036632532726216312 -0.00065245596216341635 0 -0.037230496429159918 2.5990327252341308e-05 0 -0.037022186391414309 -0.00072378455388549183 0 -0.037353867690601554 -0.00067584832974446659 0 -0.037962063025855149 -0.0010423555566277591 0 -0.037205558363549857 -0.0012621588627088785 0 -0.037022186391414309 -0.00072378455388549183 0 -0.037353867690601554 -0.00067584832974446659 0 -0.037205558363549857 -0.0012621588627088785 0 -0.036730097336062945 -0.0011035065633429671 0 -0.037022186391414309 -0.00072378455388549183 0 -0.037205558363549857 -0.0012621588627088785 0 -0.038334317443730309 -0.00036276002594879531 0 -0.037557115534883147 -0.00028770181104819043 0 -0.037962063025855149 -0.0010423555566277591 0 -0.037557115534883147 -0.00028770181104819043 0 -0.037353867690601554 -0.00067584832974446659 0 -0.037962063025855149 -0.0010423555566277591 0 -0.037962063025855149 -0.0010423555566277591 0 -0.037205558363549857 -0.0012621588627088785 0 -0.037630056471596715 -0.0021017275940546564 0 -0.037630056471596715 -0.0021017275940546564 0 -0.039021822712168273 -0.0025259407468390051 0 -0.038695447428544451 -0.0016486247148262817 0 -0.037962063025855149 -0.0010423555566277591 0 -0.037630056471596715 -0.0021017275940546564 0 -0.038695447428544451 -0.0016486247148262817 0 -0.036886850873244295 -0.0017652056555315342 0 -0.037205558363549857 -0.0012621588627088785 0 -0.037630056471596715 -0.0021017275940546564 0 -0.037240816805251313 -0.0023793116161253888 0 -0.038107611976818952 -0.0016854894644699582 0 -0.038308155577221101 -0.0027773145282515765 0 -0.036957567041616297 -0.0017848500178391658 0 -0.037948629492905533 -0.0019046285418715767 0 -0.036886850873244295 -0.0017652056555315342 0 -0.037240816805251313 -0.0023793116161253888 0 -0.038107611976818952 -0.0016854894644699582 0 -0.038107611976818952 -0.0016854894644699582 0 -0.039317326340946757 -0.0017112908506196913 0 -0.038308155577221101 -0.0027773145282515765 0 -0.037948629492905533 -0.0019046285418715767 0 -0.03891196783463928 -0.0021221191049689658 0 -0.039021822712168273 -0.0025259407468390051 0 -0.038695447428544451 -0.0016486247148262817 0 -0.039947849130666596 -0.0015884066785331128 0 -0.039021822712168273 -0.0025259407468390051 0 -0.039947849130666596 -0.0015884066785331128 0 -0.040535561765901555 -0.0021160987087151381 0 -0.039947849130666596 -0.0015884066785331128 0 -0.040535561765901555 -0.0021160987087151381 0 -0.041140249259588077 -0.0015438578664432458 0 -0.040535561765901555 -0.0021160987087151381 0 -0.041140249259588077 -0.0015438578664432458 0 -0.041244252038698935 -0.0023241198187339352 0 -0.040535561765901555 -0.0021160987087151381 0 -0.040929513985890044 -0.0026709991699560187 0 -0.041244252038698935 -0.0023241198187339352 0 -0.039317326340946757 -0.0017112908506196913 0 -0.040549949263870844 -0.0017722949141027611 0 -0.039474303705404327 -0.0028471231673127097 0 -0.039021822712168273 -0.0025259407468390051 0 -0.040535561765901555 -0.0021160987087151381 0 -0.040929513985890044 -0.0026709991699560187 0 -0.042114698900197312 -0.0018493945988467732 0 -0.042461462732551636 -0.0019738711550220467 0 -0.03891196783463928 -0.0021221191049689658 0 -0.042114698900197312 -0.0018493945988467732 0 -0.04487257019789842 -0.00096849601856853983 0 -0.045389165749591898 -0.00088250017026225724 0 -0.044961645098051083 -0.00050806446766007811 0 -0.044893488685783807 -0.0016929093495281122 0 -0.04487257019789842 -0.00096849601856853983 0 -0.045389165749591898 -0.00088250017026225724 0 -0.039317326340946757 -0.0017112908506196913 0 -0.039474303705404327 -0.0028471231673127097 0 -0.038308155577221101 -0.0027773145282515765 0 -0.042365258871581005 -0.0013606883186431109 0 -0.045676364928004309 -0.00021738000013936992 0 -0.045389165749591898 -0.00088250017026225724 0 -0.04576596984726982 -0.00040382956217982946 0 -0.045354379931237719 -0.00024418664986912653 0 -0.042461462732551636 -0.0019738711550220467 0 -0.042365258871581005 -0.0013606883186431109 0 -0.045389165749591898 -0.00088250017026225724 0 -0.044961645098051083 -0.00050806446766007811 0 -0.045354379931237719 -0.00024418664986912653 0 -0.036979338133496374 -0.00335451017677647 0 -0.037240816805251313 -0.0023793116161253888 0 -0.038308155577221101 -0.0027773145282515765 0 -0.039474303705404327 -0.0028471231673127097 0 -0.038308155577221101 -0.0027773145282515765 0 -0.038450067058390089 -0.0038539226815090212 0 -0.036979338133496374 -0.00335451017677647 0 -0.038308155577221101 -0.0027773145282515765 0 -0.038450067058390089 -0.0038539226815090212 0 -0.038457300642446048 -0.002293594492626486 0 -0.042365258871581005 -0.0013606883186431109 0 -0.041916243611396627 -0.00078543497181391732 0 -0.041966562987933782 -0.00079804324954909007 0 -0.041956746566740789 -0.00080735867731317353 0 -0.041934563425638817 -0.00080269023659255328 0 -0.041916243611396627 -0.00078543497181391732 0 -0.041956746566740789 -0.00080735867731317353 0 -0.041934563425638817 -0.00080269023659255328 0 -0.041956746566740789 -0.00080735867731317353 0 -0.041951187133401645 -0.00081709483252535658 0 -0.043584894593318012 -0.00031014940095634486 0 -0.04385238394391229 -0.00017840544511022984 0 -0.04498400130372928 -6.6839421942409101e-05 0 -0.044994700479884325 -3.1629627774296249e-05 0 -0.044978432576712066 -7.4360475710346169e-05 0 -0.04498400130372928 -6.6839421942409101e-05 0 -0.044997435305263789 -3.9907310918086446e-05 0 -0.044994700479884325 -3.1629627774296249e-05 0 -0.044997435305263789 -3.9907310918086446e-05 0 -0.044994700479884325 -3.1629627774296249e-05 0 -0.044999034360304266 -1.9000755849828274e-05 0 -0.042365258871581005 -0.0013606883186431109 0 -0.043584894593318012 -0.00031014940095634486 0 -0.044994700479884325 -3.1629627774296249e-05 0 -0.044999991375199042 -1.998791225710646e-08 0 -0.045000017865261269 -3.3912685140515873e-08 0 -0.044994700479884325 -3.1629627774296249e-05 0 -0.044999991375199042 -1.998791225710646e-08 0 -0.044999034360304266 -1.9000755849828274e-05 0 -0.045000011672113253 -5.0655450267964185e-09 0 -0.044999991375199042 -1.998791225710646e-08 0 -0.045001372644723259 -9.547929177954673e-06 0 -0.044997435305263789 -3.9907310918086446e-05 0 -0.044999034360304266 -1.9000755849828274e-05 0 -0.045003770445729764 -1.4931773413045323e-05 0 -0.044999991375199042 -1.998791225710646e-08 0 -0.044999034360304266 -1.9000755849828274e-05 0 -0.045001372644723259 -9.547929177954673e-06 0 -0.044999034360304266 -1.9000755849828274e-05 0 -0.045003770445729764 -1.4931773413045323e-05 0 -0.045001372644723259 -9.547929177954673e-06 0 -0.04385238394391229 -0.00017840544511022984 0 -0.044156890914062955 -0.00030167774148283317 0 -0.044961645098051083 -0.00050806446766007811 0 -0.044937990355218949 -9.8755398627288065e-05 0 -0.045354379931237719 -0.00024418664986912653 0 -0.044937990355218949 -9.8755398627288065e-05 0 -0.044978432576712066 -7.4360475710346169e-05 0 -0.045000017865261269 -3.3912685140515873e-08 0 -0.044770169244251784 -5.304459755940093e-05 0 -0.045676364928004309 -0.00021738000013936992 0 -0.044994700479884325 -3.1629627774296249e-05 0 -0.044978432576712066 -7.4360475710346169e-05 0 -0.045000017865261269 -3.3912685140515873e-08 0 -0.044937990355218949 -9.8755398627288065e-05 0 -0.045000017865261269 -3.3912685140515873e-08 0 -0.044999856373895447 3.4133455468702722e-09 0 -0.044937990355218949 -9.8755398627288065e-05 0 -0.044999856373895447 3.4133455468702722e-09 0 -0.044773781068035111 -8.1237925493241121e-05 0 -0.044937990355218949 -9.8755398627288065e-05 0 -0.044773781068035111 -8.1237925493241121e-05 0 -0.044644532437290108 -0.00031225740223811784 0 -0.044773781068035111 -8.1237925493241121e-05 0 -0.044363903395442772 -0.00028115258357125068 0 -0.044644532437290108 -0.00031225740223811784 0 -0.044999856373895447 3.4133455468702722e-09 0 -0.044773781068035111 -8.1237925493241121e-05 0 -0.044999521301739072 -5.4236858981978788e-08 0 -0.044773781068035111 -8.1237925493241121e-05 0 -0.044680652398031352 -9.9131528150840821e-05 0 -0.044999521301739072 -5.4236858981978788e-08 0 -0.044680652398031352 -9.9131528150840821e-05 0 -0.044999521301739072 -5.4236858981978788e-08 0 -0.044999286961613011 -5.5197532330261156e-08 0 -0.044680652398031352 -9.9131528150840821e-05 0 -0.044714835891407095 -0.00012796602335896862 0 -0.044999286961613011 -5.5197532330261156e-08 0 -0.044680652398031352 -9.9131528150840821e-05 0 -0.044714835891407095 -0.00012796602335896862 0 -0.04430152486665781 -0.00023495214306291996 0 -0.044714835891407095 -0.00012796602335896862 0 -0.04430152486665781 -0.00023495214306291996 0 -0.044612686865272998 -0.00019715921379889715 0 -0.044773781068035111 -8.1237925493241121e-05 0 -0.044680652398031352 -9.9131528150840821e-05 0 -0.044363903395442772 -0.00028115258357125068 0 -0.044680652398031352 -9.9131528150840821e-05 0 -0.04430152486665781 -0.00023495214306291996 0 -0.044363903395442772 -0.00028115258357125068 0 -0.04430152486665781 -0.00023495214306291996 0 -0.044363903395442772 -0.00028115258357125068 0 -0.043979462674274161 -0.00046400427969950944 0 -0.044363903395442772 -0.00028115258357125068 0 -0.043979462674274161 -0.00046400427969950944 0 -0.044051967839177468 -0.00074246414040024045 0 -0.04430152486665781 -0.00023495214306291996 0 -0.043716747294791039 -0.00034729139555284152 0 -0.044207318699268257 -0.00029800958673723981 0 -0.04430152486665781 -0.00023495214306291996 0 -0.043979462674274161 -0.00046400427969950944 0 -0.043716747294791039 -0.00034729139555284152 0 -0.043716747294791039 -0.00034729139555284152 0 -0.043580356155394517 -0.00092528191731841699 0 -0.043156638118498139 -0.00099337634779764509 0 -0.043979462674274161 -0.00046400427969950944 0 -0.043716747294791039 -0.00034729139555284152 0 -0.043580356155394517 -0.00092528191731841699 0 -0.043580356155394517 -0.00092528191731841699 0 -0.044051967839177468 -0.00074246414040024045 0 -0.043372928000581054 -0.0016886999211159594 0 -0.043979462674274161 -0.00046400427969950944 0 -0.043580356155394517 -0.00092528191731841699 0 -0.044051967839177468 -0.00074246414040024045 0 -0.044051967839177468 -0.00074246414040024045 0 -0.044342298508777037 -0.0011393362090535925 0 -0.043372928000581054 -0.0016886999211159594 0 -0.04487257019789842 -0.00096849601856853983 0 -0.044961645098051083 -0.00050806446766007811 0 -0.044591220811391281 -0.00074280332440452017 0 -0.044051967839177468 -0.00074246414040024045 0 -0.044342298508777037 -0.0011393362090535925 0 -0.044591220811391281 -0.00074280332440452017 0 -0.04487257019789842 -0.00096849601856853983 0 -0.044342298508777037 -0.0011393362090535925 0 -0.044591220811391281 -0.00074280332440452017 0 -0.044961645098051083 -0.00050806446766007811 0 -0.044591220811391281 -0.00074280332440452017 0 -0.044644532437290108 -0.00031225740223811784 0 -0.044961645098051083 -0.00050806446766007811 0 -0.044937990355218949 -9.8755398627288065e-05 0 -0.044644532437290108 -0.00031225740223811784 0 -0.044363903395442772 -0.00028115258357125068 0 -0.044051967839177468 -0.00074246414040024045 0 -0.044644532437290108 -0.00031225740223811784 0 -0.044051967839177468 -0.00074246414040024045 0 -0.044591220811391281 -0.00074280332440452017 0 -0.044644532437290108 -0.00031225740223811784 0 -0.044367605814245106 -0.0003871914030188081 0 -0.04479101498544525 -0.00017738943795968389 0 -0.043806767997293945 0.00024924956545167333 0 -0.044434055937984572 -0.00047199426494370537 0 -0.044629585191551038 -0.0011026244057653512 0 -0.044367605814245106 -0.0003871914030188081 0 -0.044761653339488866 -0.0018557796597654078 0 -0.043768446186290957 -0.0012292211833726588 0 -0.044682011855837082 -0.00035119206315845748 0 -0.044367605814245106 -0.0003871914030188081 0 -0.044602493424776748 -0.000422733168720893 0 -0.044682011855837082 -0.00035119206315845748 0 -0.044367605814245106 -0.0003871914030188081 0 -0.04479101498544525 -0.00017738943795968389 0 -0.044999098614687524 7.3091371854704984e-07 0 -0.04479101498544525 -0.00017738943795968389 0 -0.043806767997293945 0.00024924956545167333 0 -0.044999772005391819 6.5424594554270423e-08 0 -0.04438204814746969 6.1406663210192562e-05 0 -0.04499983285623007 1.1088304140678178e-09 0 -0.045060444670088268 -1.3675821098123375e-06 0 -0.045000298243863909 -1.3331181773173972e-09 0 -0.044999098614687524 7.3091371854704984e-07 0 -0.04479101498544525 -0.00017738943795968389 0 -0.04490206688049396 -0.00011613573393059547 0 -0.044999098614687524 7.3091371854704984e-07 0 -0.04490206688049396 -0.00011613573393059547 0 -0.044999953258940524 -4.4900075071733249e-07 0 -0.04490206688049396 -0.00011613573393059547 0 -0.044813561619519056 -0.00025125062696114127 0 -0.04484436532577122 -0.00018296991101548728 0 -0.04479101498544525 -0.00017738943795968389 0 -0.04490206688049396 -0.00011613573393059547 0 -0.044813561619519056 -0.00025125062696114127 0 -0.044682011855837082 -0.00035119206315845748 0 -0.04479101498544525 -0.00017738943795968389 0 -0.044813561619519056 -0.00025125062696114127 0 -0.044682011855837082 -0.00035119206315845748 0 -0.044813561619519056 -0.00025125062696114127 0 -0.044728534209034651 -0.00037389852927755695 0 -0.044813561619519056 -0.00025125062696114127 0 -0.04484436532577122 -0.00018296991101548728 0 -0.044811225591358944 -0.00027441104623970647 0 -0.04484436532577122 -0.00018296991101548728 0 -0.044818854284419174 -0.00022917810664005382 0 -0.044811225591358944 -0.00027441104623970647 0 -0.04484436532577122 -0.00018296991101548728 0 -0.044612686865272998 -0.00019715921379889715 0 -0.044818854284419174 -0.00022917810664005382 0 -0.04484436532577122 -0.00018296991101548728 0 -0.044999953258940524 -4.4900075071733249e-07 0 -0.044612686865272998 -0.00019715921379889715 0 -0.04490206688049396 -0.00011613573393059547 0 -0.04484436532577122 -0.00018296991101548728 0 -0.044999953258940524 -4.4900075071733249e-07 0 -0.044714835891407095 -0.00012796602335896862 0 -0.044999286961613011 -5.5197532330261156e-08 0 -0.044999953258940524 -4.4900075071733249e-07 0 -0.044714835891407095 -0.00012796602335896862 0 -0.044999953258940524 -4.4900075071733249e-07 0 -0.044612686865272998 -0.00019715921379889715 0 -0.04430152486665781 -0.00023495214306291996 0 -0.044612686865272998 -0.00019715921379889715 0 -0.044207318699268257 -0.00029800958673723981 0 -0.044612686865272998 -0.00019715921379889715 0 -0.044207318699268257 -0.00029800958673723981 0 -0.044268731967998506 -0.00035819218959282014 0 -0.044564050906863002 -0.00027617757585879143 0 -0.044583475253337307 -0.00019278979100553873 0 -0.043716747294791039 -0.00034729139555284152 0 -0.044422836489260834 -4.9996771678551178e-05 0 -0.044268731967998506 -0.00035819218959282014 0 -0.043716747294791039 -0.00034729139555284152 0 -0.044207318699268257 -0.00029800958673723981 0 -0.044268731967998506 -0.00035819218959282014 0 -0.043716747294791039 -0.00034729139555284152 0 -0.042341313674576907 -0.00034291995467747115 0 -0.042628799251611664 -0.00088431496189035749 0 -0.043716747294791039 -0.00034729139555284152 0 -0.042628799251611664 -0.00088431496189035749 0 -0.043156638118498139 -0.00099337634779764509 0 -0.043564988300453779 -0.00024813716346751979 0 -0.043718456370462164 -0.00053425150648363999 0 -0.042341313674576907 -0.00034291995467747115 0 -0.041920875288569075 -0.0011742837818996359 0 -0.042628799251611664 -0.00088431496189035749 0 -0.043718456370462164 -0.00053425150648363999 0 -0.042255676536395968 -0.0014402708080082057 0 -0.04482615399468623 -0.0003860671580618695 0 -0.044811225591358944 -0.00027441104623970647 0 -0.044728534209034651 -0.00037389852927755695 0 -0.043718456370462164 -0.00053425150648363999 0 -0.044583475253337307 -0.00019278979100553873 0 -0.04482615399468623 -0.0003860671580618695 0 -0.044818854284419174 -0.00022917810664005382 0 -0.044811225591358944 -0.00027441104623970647 0 -0.04482615399468623 -0.0003860671580618695 0 -0.044728534209034651 -0.00037389852927755695 0 -0.044641616568531023 -0.00049683193494518669 0 -0.044813561619519056 -0.00025125062696114127 0 -0.044811225591358944 -0.00027441104623970647 0 -0.044728534209034651 -0.00037389852927755695 0 -0.043425643849600654 -0.0012212700041599996 0 -0.042888677483098971 -0.0013065079165611973 0 -0.043185210847440814 -0.001675015143653272 0 -0.043718456370462164 -0.00053425150648363999 0 -0.044088651907385056 -0.0022507090139871067 0 -0.044088651907385056 -0.0022507090139871067 0 -0.041512525519062073 -0.0021551942109761233 0 -0.043637093298486439 -0.003449302799334363 0 -0.043864921766533817 -0.0043869656557470335 0 -0.042549916283702804 -0.0036188532773837379 0 -0.044682011855837082 -0.00035119206315845748 0 -0.044728534209034651 -0.00037389852927755695 0 -0.044602493424776748 -0.000422733168720893 0 -0.044728534209034651 -0.00037389852927755695 0 -0.044641616568531023 -0.00049683193494518669 0 -0.044602493424776748 -0.000422733168720893 0 -0.045122120907317348 -0.0033252621875847739 0 -0.044761653339488866 -0.0018557796597654078 0 -0.043895802624189739 -0.0026974817295437317 0 -0.044088651907385056 -0.0022507090139871067 0 -0.044629585191551038 -0.0011026244057653512 0 -0.038556901905180914 -0.0016027857467326323 0 -0.038558832843666485 -0.0016123389428154254 0 -0.038543220269013446 -0.0015879376120345322 0 -0.038567884552844683 -0.0016283334282718941 0 -0.038556901905180914 -0.0016027857467326323 0 -0.038558832843666485 -0.0016123389428154254 0 -0.042888677483098971 -0.0013065079165611973 0 -0.04296036003358851 -0.0016289788906772153 0 -0.043185210847440814 -0.001675015143653272 0 -0.041512525519062073 -0.0021551942109761233 0 -0.042255676536395968 -0.0014402708080082057 0 -0.041660974022580753 -0.0017260110789259879 0 -0.041587825660766436 -0.0017081440243245569 0 -0.041632202640587299 -0.0016142461078730221 0 -0.041512525519062073 -0.0021551942109761233 0 -0.041244457513291338 -0.0014389374296228013 0 -0.042018801140205425 -0.0013903464653017624 0 -0.042170339210891389 -0.0013630522111483506 0 -0.042106219551692962 -0.0014497562348731853 0 -0.0420888803633713 -0.001192679819517941 0 -0.042018801140205425 -0.0013903464653017624 0 -0.042170339210891389 -0.0013630522111483506 0 -0.042255676536395968 -0.0014402708080082057 0 -0.041244457513291338 -0.0014389374296228013 0 -0.042170339210891389 -0.0013630522111483506 0 -0.042437879020605827 -0.0013245677131962987 0 -0.042123986083307481 -0.0014656113632441192 0 -0.042170339210891389 -0.0013630522111483506 0 -0.042333757196587683 -0.0012168367834478986 0 -0.042437879020605827 -0.0013245677131962987 0 -0.042170339210891389 -0.0013630522111483506 0 -0.042123986083307481 -0.0014656113632441192 0 -0.042106219551692962 -0.0014497562348731853 0 -0.0420888803633713 -0.001192679819517941 0 -0.042170339210891389 -0.0013630522111483506 0 -0.042333757196587683 -0.0012168367834478986 0 -0.042255676536395968 -0.0014402708080082057 0 -0.04219471772842754 -0.0012330655227398872 0 -0.041920875288569075 -0.0011742837818996359 0 -0.042333757196587683 -0.0012168367834478986 0 -0.042628799251611664 -0.00088431496189035749 0 -0.042333757196587683 -0.0012168367834478986 0 -0.042652329318856409 -0.0011550992503445176 0 -0.042628799251611664 -0.00088431496189035749 0 -0.042652329318856409 -0.0011550992503445176 0 -0.042628799251611664 -0.00088431496189035749 0 -0.043156638118498139 -0.00099337634779764509 0 -0.042652329318856409 -0.0011550992503445176 0 -0.042868635598753167 -0.0012210867342848364 0 -0.043156638118498139 -0.00099337634779764509 0 -0.042868635598753167 -0.0012210867342848364 0 -0.042437879020605827 -0.0013245677131962987 0 -0.042769655406223871 -0.0012895867813049651 0 -0.042652329318856409 -0.0011550992503445176 0 -0.042868635598753167 -0.0012210867342848364 0 -0.042437879020605827 -0.0013245677131962987 0 -0.042437879020605827 -0.0013245677131962987 0 -0.042286397673296158 -0.0013982801529105464 0 -0.042769655406223871 -0.0012895867813049651 0 -0.042333757196587683 -0.0012168367834478986 0 -0.042652329318856409 -0.0011550992503445176 0 -0.042437879020605827 -0.0013245677131962987 0 -0.042437879020605827 -0.0013245677131962987 0 -0.042286397673296158 -0.0013982801529105464 0 -0.042123986083307481 -0.0014656113632441192 0 -0.042286397673296158 -0.0013982801529105464 0 -0.041912070008001318 -0.0015766819594579761 0 -0.042123986083307481 -0.0014656113632441192 0 -0.042286397673296158 -0.0013982801529105464 0 -0.042106468881377361 -0.0014516399019236428 0 -0.041912070008001318 -0.0015766819594579761 0 -0.042286397673296158 -0.0013982801529105464 0 -0.042106468881377361 -0.0014516399019236428 0 -0.042547370647833746 -0.0013027405050360765 0 -0.041448682372215377 -0.0018128951913488184 0 -0.041991193260611487 -0.0009057723581697173 0 -0.037872222485659357 -0.00018471016876907924 0 -0.042106468881377361 -0.0014516399019236428 0 -0.041448682372215377 -0.0018128951913488184 0 -0.041912070008001318 -0.0015766819594579761 0 -0.041994700877155011 -0.001409788335299646 0 -0.041991193260611487 -0.0009057723581697173 0 -0.042159096025155413 -0.0014807825514703862 0 -0.041994700877155011 -0.001409788335299646 0 -0.042058373020256494 -0.0014718198298242289 0 -0.042159096025155413 -0.0014807825514703862 0 -0.041994700877155011 -0.001409788335299646 0 -0.042058373020256494 -0.0014718198298242289 0 -0.041912070008001318 -0.0015766819594579761 0 -0.03928675662266435 -0.00039921465996942341 0 -0.039385537738971965 -0.00057039053730146118 0 -0.041448682372215377 -0.0018128951913488184 0 -0.041994700877155011 -0.001409788335299646 0 -0.041912070008001318 -0.0015766819594579761 0 -0.036851365960510925 0.00018184482741860869 0 -0.036478890092638459 0.00019182832952469001 0 -0.036611429583921627 2.3081347431222096e-05 0 -0.041448682372215377 -0.0018128951913488184 0 -0.041994700877155011 -0.001409788335299646 0 -0.041991193260611487 -0.0009057723581697173 0 -0.042058373020256494 -0.0014718198298242289 0 -0.042104134019566974 -0.0014917297016217158 0 -0.042159096025155413 -0.0014807825514703862 0 -0.042058373020256494 -0.0014718198298242289 0 -0.042104134019566974 -0.0014917297016217158 0 -0.041912070008001318 -0.0015766819594579761 0 -0.042104134019566974 -0.0014917297016217158 0 -0.041912070008001318 -0.0015766819594579761 0 -0.042123986083307481 -0.0014656113632441192 0 -0.042104134019566974 -0.0014917297016217158 0 -0.042123986083307481 -0.0014656113632441192 0 -0.042106219551692962 -0.0014497562348731853 0 -0.042018801140205425 -0.0013903464653017624 0 -0.042106219551692962 -0.0014497562348731853 0 -0.042108637852663069 -0.001473975083481491 0 -0.041244457513291338 -0.0014389374296228013 0 -0.042171301968870853 -0.0014843639116938717 0 -0.04205763988547926 -0.0013254663131371076 0 -0.042108637852663069 -0.001473975083481491 0 -0.041960588479666099 -0.0015159125735936245 0 -0.042104134019566974 -0.0014917297016217158 0 -0.042106219551692962 -0.0014497562348731853 0 -0.042108637852663069 -0.001473975083481491 0 -0.042108637852663069 -0.001473975083481491 0 -0.042159096025155413 -0.0014807825514703862 0 -0.041960588479666099 -0.0015159125735936245 0 -0.042104134019566974 -0.0014917297016217158 0 -0.042108637852663069 -0.001473975083481491 0 -0.042159096025155413 -0.0014807825514703862 0 -0.039385537738971965 -0.00057039053730146118 0 -0.038616819432397531 -0.0014182355595488564 0 -0.036478890092638459 0.00019182832952469001 0 -0.036193567775231791 0.00023580301853629579 0 -0.036268558710528594 -9.1543717344118895e-08 0 -0.041244457513291338 -0.0014389374296228013 0 -0.038616819432397531 -0.0014182355595488564 0 -0.038556901905180914 -0.0016027857467326323 0 -0.03854166368535273 -0.0015821117082579154 0 -0.038543220269013446 -0.0015879376120345322 0 -0.042252322304877604 -0.0014815637565999244 0 -0.043372928000581054 -0.0016886999211159594 0 -0.042788880583492381 -0.0011570126409868038 0 -0.042252322304877604 -0.0014815637565999244 0 -0.041140249259588077 -0.0015438578664432458 0 -0.04174177912893285 -0.000912987002514808 0 -0.042252322304877604 -0.0014815637565999244 0 -0.041244252038698935 -0.0023241198187339352 0 -0.043372928000581054 -0.0016886999211159594 0 -0.042252322304877604 -0.0014815637565999244 0 -0.041140249259588077 -0.0015438578664432458 0 -0.041244252038698935 -0.0023241198187339352 0 -0.042114698900197312 -0.0018493945988467732 0 -0.043622291186163682 -0.0018603657545665222 0 -0.044893488685783807 -0.0016929093495281122 0 -0.04487257019789842 -0.00096849601856853983 0 -0.044342298508777037 -0.0011393362090535925 0 -0.040988325019629311 -0.0026664229839507719 0 -0.041244252038698935 -0.0023241198187339352 0 -0.043372928000581054 -0.0016886999211159594 0 -0.044893488685783807 -0.0016929093495281122 0 -0.044342298508777037 -0.0011393362090535925 0 -0.043372928000581054 -0.0016886999211159594 0 -0.042114698900197312 -0.0018493945988467732 0 -0.041717869587003749 -0.0021952922638228609 0 -0.043580356155394517 -0.00092528191731841699 0 -0.043372928000581054 -0.0016886999211159594 0 -0.043212891659345873 -0.0012580189944661104 0 -0.043580356155394517 -0.00092528191731841699 0 -0.043156638118498139 -0.00099337634779764509 0 -0.043212891659345873 -0.0012580189944661104 0 -0.042868635598753167 -0.0012210867342848364 0 -0.043156638118498139 -0.00099337634779764509 0 -0.043212891659345873 -0.0012580189944661104 0 -0.043212891659345873 -0.0012580189944661104 0 -0.042769655406223871 -0.0012895867813049651 0 -0.043081561485530308 -0.0013254873729286465 0 -0.042868635598753167 -0.0012210867342848364 0 -0.043212891659345873 -0.0012580189944661104 0 -0.042769655406223871 -0.0012895867813049651 0 -0.043372928000581054 -0.0016886999211159594 0 -0.043081561485530308 -0.0013254873729286465 0 -0.042788880583492381 -0.0011570126409868038 0 -0.043372928000581054 -0.0016886999211159594 0 -0.043212891659345873 -0.0012580189944661104 0 -0.043081561485530308 -0.0013254873729286465 0 -0.042897690211467922 -0.001240074275840518 0 -0.042989463643314629 -0.0011977239398570478 0 -0.042788880583492381 -0.0011570126409868038 0 -0.043081561485530308 -0.0013254873729286465 0 -0.042897690211467922 -0.001240074275840518 0 -0.042788880583492381 -0.0011570126409868038 0 -0.042897690211467922 -0.001240074275840518 0 -0.042547370647833746 -0.0013027405050360765 0 -0.042989463643314629 -0.0011977239398570478 0 -0.042769655406223871 -0.0012895867813049651 0 -0.043081561485530308 -0.0013254873729286465 0 -0.042897690211467922 -0.001240074275840518 0 -0.042286397673296158 -0.0013982801529105464 0 -0.042769655406223871 -0.0012895867813049651 0 -0.042547370647833746 -0.0013027405050360765 0 -0.042769655406223871 -0.0012895867813049651 0 -0.042897690211467922 -0.001240074275840518 0 -0.042547370647833746 -0.0013027405050360765 0 -0.042106468881377361 -0.0014516399019236428 0 -0.041448682372215377 -0.0018128951913488184 0 -0.042989463643314629 -0.0011977239398570478 0 -0.041319872024282792 -0.0017313156710113144 0 -0.039809971401637889 -0.0011892372567831962 0 -0.041448682372215377 -0.0018128951913488184 0 -0.036569932169284572 -0.0012218878425955769 0 -0.037872222485659357 -0.00018471016876907924 0 -0.042106468881377361 -0.0014516399019236428 0 -0.042547370647833746 -0.0013027405050360765 0 -0.042989463643314629 -0.0011977239398570478 0 -0.036569932169284572 -0.0012218878425955769 0 -0.036579155578833289 -0.00052399984900703312 0 -0.037872222485659357 -0.00018471016876907924 0 -0.036569932169284572 -0.0012218878425955769 0 -0.036056236131537328 -0.00056375329148940451 0 -0.036579155578833289 -0.00052399984900703312 0 -0.039809971401637889 -0.0011892372567831962 0 -0.039126994694355502 -0.00038004902641150388 0 -0.042989463643314629 -0.0011977239398570478 0 -0.042265799237279522 -0.00015601678820245887 0 -0.042788880583492381 -0.0011570126409868038 0 -0.042265799237279522 -0.00015601678820245887 0 -0.042788880583492381 -0.0011570126409868038 0 -0.04174177912893285 -0.000912987002514808 0 -0.042252322304877604 -0.0014815637565999244 0 -0.042788880583492381 -0.0011570126409868038 0 -0.04174177912893285 -0.000912987002514808 0 -0.040472874133341483 -0.00092417824144810446 0 -0.041140249259588077 -0.0015438578664432458 0 -0.04174177912893285 -0.000912987002514808 0 -0.040223235120441347 0.00051373134433326548 0 -0.042265799237279522 -0.00015601678820245887 0 -0.04174177912893285 -0.000912987002514808 0 -0.038181040491702407 0.00016557490640576754 0 -0.039126994694355502 -0.00038004902641150388 0 -0.036095070825997486 -8.4723766697507248e-05 0 -0.035881574792654032 -0.00049670637893440379 0 -0.036034943299038232 -0.00044178406795410721 0 -0.036095070825997486 -8.4723766697507248e-05 0 -0.036056236131537328 -0.00056375329148940451 0 -0.036034943299038232 -0.00044178406795410721 0 -0.036034943299038232 -0.00044178406795410721 0 -0.036363533426852376 -0.00043449811358109398 0 -0.036211302281168881 -0.00038529285223747945 0 -0.035881574792654032 -0.00049670637893440379 0 -0.036034943299038232 -0.00044178406795410721 0 -0.036211302281168881 -0.00038529285223747945 0 -0.036056236131537328 -0.00056375329148940451 0 -0.036034943299038232 -0.00044178406795410721 0 -0.036363533426852376 -0.00043449811358109398 0 -0.036363533426852376 -0.00043449811358109398 0 -0.036579155578833289 -0.00052399984900703312 0 -0.036994383395863618 -0.00028192048164003565 0 -0.036056236131537328 -0.00056375329148940451 0 -0.036363533426852376 -0.00043449811358109398 0 -0.036579155578833289 -0.00052399984900703312 0 -0.037872222485659357 -0.00018471016876907924 0 -0.036994383395863618 -0.00028192048164003565 0 -0.037162740741976022 -0.00025181981288370471 0 -0.036579155578833289 -0.00052399984900703312 0 -0.037872222485659357 -0.00018471016876907924 0 -0.036994383395863618 -0.00028192048164003565 0 -0.036363533426852376 -0.00043449811358109398 0 -0.036994383395863618 -0.00028192048164003565 0 -0.036211302281168881 -0.00038529285223747945 0 -0.036211302281168881 -0.00038529285223747945 0 -0.036297835176047996 -0.00025429093697628568 0 -0.035859935692241454 -0.00026105896204551914 0 -0.036994383395863618 -0.00028192048164003565 0 -0.036211302281168881 -0.00038529285223747945 0 -0.036715742397631167 -0.00034312336953344413 0 -0.036715742397631167 -0.00034312336953344413 0 -0.036297835176047996 -0.00025429093697628568 0 -0.036524052011050002 -0.00016381831652345286 0 -0.036211302281168881 -0.00038529285223747945 0 -0.036715742397631167 -0.00034312336953344413 0 -0.036297835176047996 -0.00025429093697628568 0 -0.036211302281168881 -0.00038529285223747945 0 -0.035708032982017197 -0.00050676522633481206 0 -0.035859935692241454 -0.00026105896204551914 0 -0.035881574792654032 -0.00049670637893440379 0 -0.035708032982017197 -0.00050676522633481206 0 -0.03568380590888158 -0.00062477733563219692 0 -0.035881574792654032 -0.00049670637893440379 0 -0.036211302281168881 -0.00038529285223747945 0 -0.035708032982017197 -0.00050676522633481206 0 -0.03627818558698076 -0.00023291149965623493 0 -0.03606590884222665 -0.00030410957933926959 0 -0.036011521384207185 -5.8422320943485883e-05 0 -0.036193567775231791 0.00023580301853629579 0 -0.036268558710528594 -9.1543717344118895e-08 0 -0.036011521384207185 -5.8422320943485883e-05 0 -0.03627818558698076 -0.00023291149965623493 0 -0.036268558710528594 -9.1543717344118895e-08 0 -0.036011521384207185 -5.8422320943485883e-05 0 -0.036268558710528594 -9.1543717344118895e-08 0 -0.036457921944429442 2.1468708082209964e-05 0 -0.036550507708235529 -0.00014185614233804786 0 -0.036478890092638459 0.00019182832952469001 0 -0.036268558710528594 -9.1543717344118895e-08 0 -0.036457921944429442 2.1468708082209964e-05 0 -0.036478890092638459 0.00019182832952469001 0 -0.036457921944429442 2.1468708082209964e-05 0 -0.036611429583921627 2.3081347431222096e-05 0 -0.036457921944429442 2.1468708082209964e-05 0 -0.036550507708235529 -0.00014185614233804786 0 -0.036611429583921627 2.3081347431222096e-05 0 -0.03627818558698076 -0.00023291149965623493 0 -0.036268558710528594 -9.1543717344118895e-08 0 -0.036550507708235529 -0.00014185614233804786 0 -0.03627818558698076 -0.00023291149965623493 0 -0.036550507708235529 -0.00014185614233804786 0 -0.036578780542711145 -0.00037721651221091917 0 -0.036550507708235529 -0.00014185614233804786 0 -0.036883832935811073 -0.00028730684064570661 0 -0.036578780542711145 -0.00037721651221091917 0 -0.036550507708235529 -0.00014185614233804786 0 -0.036611429583921627 2.3081347431222096e-05 0 -0.036799268079184079 -0.00011448583716984907 0 -0.036550507708235529 -0.00014185614233804786 0 -0.036799268079184079 -0.00011448583716984907 0 -0.036883832935811073 -0.00028730684064570661 0 -0.036851365960510925 0.00018184482741860869 0 -0.036611429583921627 2.3081347431222096e-05 0 -0.036799268079184079 -0.00011448583716984907 0 -0.03928675662266435 -0.00039921465996942341 0 -0.038046889827834086 -0.00017590147162283763 0 -0.036851365960510925 0.00018184482741860869 0 -0.037872222485659357 -0.00018471016876907924 0 -0.037162740741976022 -0.00025181981288370471 0 -0.036799268079184079 -0.00011448583716984907 0 -0.037162740741976022 -0.00025181981288370471 0 -0.036883832935811073 -0.00028730684064570661 0 -0.036851365960510925 0.00018184482741860869 0 -0.036799268079184079 -0.00011448583716984907 0 -0.037162740741976022 -0.00025181981288370471 0 -0.036994383395863618 -0.00028192048164003565 0 -0.037162740741976022 -0.00025181981288370471 0 -0.036883832935811073 -0.00028730684064570661 0 -0.036994383395863618 -0.00028192048164003565 0 -0.036715742397631167 -0.00034312336953344413 0 -0.036883832935811073 -0.00028730684064570661 0 -0.036715742397631167 -0.00034312336953344413 0 -0.036883832935811073 -0.00028730684064570661 0 -0.036578780542711145 -0.00037721651221091917 0 -0.036715742397631167 -0.00034312336953344413 0 -0.03670245536396384 -0.00027313215506429288 0 -0.036578780542711145 -0.00037721651221091917 0 -0.036715742397631167 -0.00034312336953344413 0 -0.03670245536396384 -0.00027313215506429288 0 -0.036524052011050002 -0.00016381831652345286 0 -0.03640261822148759 -0.0005620051415073208 0 -0.036578780542711145 -0.00037721651221091917 0 -0.036348016742007286 -0.00052214569112782382 0 -0.037060774796020858 -0.00085163991729401305 0 -0.036378701933542486 -0.000152287091234532 0 -0.03627818558698076 -0.00023291149965623493 0 -0.036578780542711145 -0.00037721651221091917 0 -0.036190399356131421 -0.00044179931413501882 0 -0.036578780542711145 -0.00037721651221091917 0 -0.036348016742007286 -0.00052214569112782382 0 -0.036190399356131421 -0.00044179931413501882 0 -0.036348016742007286 -0.00052214569112782382 0 -0.036190399356131421 -0.00044179931413501882 0 -0.036166596912621606 -0.00058985920749264024 0 -0.036190399356131421 -0.00044179931413501882 0 -0.036037296648865569 -0.00054042317849415896 0 -0.036166596912621606 -0.00058985920749264024 0 -0.036190399356131421 -0.00044179931413501882 0 -0.036037296648865569 -0.00054042317849415896 0 -0.036007405057462916 -0.00044042203671256641 0 -0.036190399356131421 -0.00044179931413501882 0 -0.03606590884222665 -0.00030410957933926959 0 -0.036007405057462916 -0.00044042203671256641 0 -0.03627818558698076 -0.00023291149965623493 0 -0.036190399356131421 -0.00044179931413501882 0 -0.03606590884222665 -0.00030410957933926959 0 -0.036023064625671133 -0.00065385728183017864 0 -0.036108516112956124 -0.00075875078399697073 0 -0.035859387472788523 -0.00078663334586929123 0 -0.029404494603070767 0.0019724946677878862 0 -0.025945731743450051 0.0009940396948473595 0 -0.036023064625671133 -0.00065385728183017864 0 -0.035950346138611998 -0.00063286797145318261 0 -0.035859387472788523 -0.00078663334586929123 0 -0.036023064625671133 -0.00065385728183017864 0 -0.036166596912621606 -0.00058985920749264024 0 -0.036108516112956124 -0.00075875078399697073 0 -0.036037296648865569 -0.00054042317849415896 0 -0.036023064625671133 -0.00065385728183017864 0 -0.035950346138611998 -0.00063286797145318261 0 -0.036037296648865569 -0.00054042317849415896 0 -0.036023064625671133 -0.00065385728183017864 0 -0.036166596912621606 -0.00058985920749264024 0 -0.036348016742007286 -0.00052214569112782382 0 -0.036277693486660226 -0.00061422364623367096 0 -0.036166596912621606 -0.00058985920749264024 0 -0.036277693486660226 -0.00061422364623367096 0 -0.036166596912621606 -0.00058985920749264024 0 -0.036108516112956124 -0.00075875078399697073 0 -0.029404494603070767 0.0019724946677878862 0 -0.029471683707531372 0.0021104307583052315 0 -0.036277693486660226 -0.00061422364623367096 0 -0.036108516112956124 -0.00075875078399697073 0 -0.036290376410299412 -0.00068863417023586277 0 -0.03640261822148759 -0.0005620051415073208 0 -0.036348016742007286 -0.00052214569112782382 0 -0.036277693486660226 -0.00061422364623367096 0 -0.03640261822148759 -0.0005620051415073208 0 -0.036277693486660226 -0.00061422364623367096 0 -0.036290376410299412 -0.00068863417023586277 0 -0.037060774796020858 -0.00085163991729401305 0 -0.033594760675121377 0.0012560286030571077 0 -0.03670245536396384 -0.00027313215506429288 0 -0.036565123444311093 0.00010641181932829206 0 -0.036524052011050002 -0.00016381831652345286 0 -0.029471683707531372 0.0021104307583052315 0 -0.033594760675121377 0.0012560286030571077 0 -0.023765996558899362 0.0048661278026821617 0 -0.025992164375843958 0.0051170824155968185 0 -0.025485605081142958 0.0037787144835648352 0 -0.03640261822148759 -0.0005620051415073208 0 -0.036290376410299412 -0.00068863417023586277 0 -0.036364228487119503 -0.00064905607406080367 0 -0.023765996558899362 0.0048661278026821617 0 -0.025485605081142958 0.0037787144835648352 0 -0.024920018207026724 0.0023666504956562162 0 -0.025485605081142958 0.0037787144835648352 0 -0.024920018207026724 0.0023666504956562162 0 -0.027285098178862328 0.0027567357629867482 0 -0.024920018207026724 0.0023666504956562162 0 -0.022814338714101687 0.0034521663530942552 0 -0.02258338710844281 0.002090567195707666 0 -0.020695882953906529 0.0025866405092842609 0 -0.02039516541162275 0.0024115307749110765 0 -0.02065835323317132 0.0023028574427346369 0 -0.021805356413130934 0.0024231036614418243 0 -0.021727038237552856 0.0023064347896914338 0 -0.023765996558899362 0.0048661278026821617 0 -0.024920018207026724 0.0023666504956562162 0 -0.022814338714101687 0.0034521663530942552 0 -0.021692248262303492 0.0045213078142159694 0 -0.022814338714101687 0.0034521663530942552 0 -0.021350546241489 0.0030964346071191812 0 -0.021692248262303492 0.0045213078142159694 0 -0.023765996558899362 0.0048661278026821617 0 -0.022814338714101687 0.0034521663530942552 0 -0.021727038237552856 0.0023064347896914338 0 -0.020448408300801 0.0022109425864771594 0 -0.02258338710844281 0.002090567195707666 0 -0.020419917502374273 0.0022500502457887409 0 -0.021350546241489 0.0030964346071191812 0 -0.022814338714101687 0.0034521663530942552 0 -0.02258338710844281 0.002090567195707666 0 -0.021350546241489 0.0030964346071191812 0 -0.020419917502374273 0.0022500502457887409 0 -0.020239394160602373 0.0027692480889829792 0 -0.020240164224835201 0.0023516079766763543 0 -0.020419917502374273 0.0022500502457887409 0 -0.020239394160602373 0.0027692480889829792 0 -0.021350546241489 0.0030964346071191812 0 -0.020239394160602373 0.0027692480889829792 0 -0.020798632374350458 0.0036389736760886822 0 -0.019879767216791609 0.0042143797235329695 0 -0.021692248262303492 0.0045213078142159694 0 -0.020798632374350458 0.0036389736760886822 0 -0.019879767216791609 0.0042143797235329695 0 -0.021692248262303492 0.0045213078142159694 0 -0.021350546241489 0.0030964346071191812 0 -0.020798632374350458 0.0036389736760886822 0 -0.020239394160602373 0.0027692480889829792 0 -0.021350546241489 0.0030964346071191812 0 -0.020798632374350458 0.0036389736760886822 0 -0.035780410724986958 6.1909529951500319e-05 0 -0.035337630953463865 -2.7694350947255736e-05 0 -0.035859935692241454 -0.00026105896204551914 0 -0.035780410724986958 6.1909529951500319e-05 0 -0.035859935692241454 -0.00026105896204551914 0 -0.036124684615795766 5.4986168729070488e-05 0 -0.035780410724986958 6.1909529951500319e-05 0 -0.036003079030341126 0.00040081916366095486 0 -0.035647721953105706 0.00043915304270074275 0 -0.035780410724986958 6.1909529951500319e-05 0 -0.035337630953463865 -2.7694350947255736e-05 0 -0.035647721953105706 0.00043915304270074275 0 -0.035337630953463865 -2.7694350947255736e-05 0 -0.034879237795921031 0.00039850733709228652 0 -0.034674700895460528 -4.6000223117402199e-05 0 -0.035708032982017197 -0.00050676522633481206 0 -0.035428939396862077 -0.00038914484145354775 0 -0.035859935692241454 -0.00026105896204551914 0 -0.035337630953463865 -2.7694350947255736e-05 0 -0.035428939396862077 -0.00038914484145354775 0 -0.035859935692241454 -0.00026105896204551914 0 -0.035337630953463865 -2.7694350947255736e-05 0 -0.035428939396862077 -0.00038914484145354775 0 -0.034955457121802792 -0.00037103107959071842 0 -0.036297835176047996 -0.00025429093697628568 0 -0.035859935692241454 -0.00026105896204551914 0 -0.036124684615795766 5.4986168729070488e-05 0 -0.036297835176047996 -0.00025429093697628568 0 -0.036524052011050002 -0.00016381831652345286 0 -0.036124684615795766 5.4986168729070488e-05 0 -0.036565123444311093 0.00010641181932829206 0 -0.036524052011050002 -0.00016381831652345286 0 -0.036124684615795766 5.4986168729070488e-05 0 -0.036666709406101831 0.00017501537043566586 0 -0.036124684615795766 5.4986168729070488e-05 0 -0.036305749407694557 0.00039330629665891776 0 -0.033594760675121377 0.0012560286030571077 0 -0.037368689611046238 -0.00010404037581774213 0 -0.036124684615795766 5.4986168729070488e-05 0 -0.036003079030341126 0.00040081916366095486 0 -0.036305749407694557 0.00039330629665891776 0 -0.035780410724986958 6.1909529951500319e-05 0 -0.036124684615795766 5.4986168729070488e-05 0 -0.036003079030341126 0.00040081916366095486 0 -0.036003079030341126 0.00040081916366095486 0 -0.036305749407694557 0.00039330629665891776 0 -0.036103110555461705 0.00075714346930950938 0 -0.036305749407694557 0.00039330629665891776 0 -0.036103110555461705 0.00075714346930950938 0 -0.036355897611522824 0.0007850998907602925 0 -0.036973425538235578 0.0018376127172339662 0 -0.029137128891274362 0.0021904485030287894 0 -0.036003079030341126 0.00040081916366095486 0 -0.036103110555461705 0.00075714346930950938 0 -0.035857429114278028 0.00071043999685018486 0 -0.025992164375843958 0.0051170824155968185 0 -0.025485605081142958 0.0037787144835648352 0 -0.027285098178862328 0.0027567357629867482 0 -0.033594760675121377 0.0012560286030571077 0 -0.029137128891274362 0.0021904485030287894 0 -0.036666709406101831 0.00017501537043566586 0 -0.036305749407694557 0.00039330629665891776 0 -0.036355897611522824 0.0007850998907602925 0 -0.021805356413130934 0.0024231036614418243 0 -0.029137128891274362 0.0021904485030287894 0 -0.020695882953906529 0.0025866405092842609 0 -0.021126494528527502 0.0027156136584983643 0 -0.020936150264926227 0.002428670802638499 0 -0.021126494528527502 0.0027156136584983643 0 -0.021329634480249847 0.0023881873564553101 0 -0.020936150264926227 0.002428670802638499 0 -0.036461564543041301 0.00084174312649671105 0 -0.035957055509885309 0.0011013828820657344 0 -0.036050943406626929 0.0016727641920126169 0 -0.029137128891274362 0.0021904485030287894 0 -0.029062972691871209 0.0018758587390886035 0 -0.036103110555461705 0.00075714346930950938 0 -0.035957055509885309 0.0011013828820657344 0 -0.035857429114278028 0.00071043999685018486 0 -0.036103110555461705 0.00075714346930950938 0 -0.036461564543041301 0.00084174312649671105 0 -0.035957055509885309 0.0011013828820657344 0 -0.035957055509885309 0.0011013828820657344 0 -0.035541548930903451 0.0015147562354302757 0 -0.036050943406626929 0.0016727641920126169 0 -0.035957055509885309 0.0011013828820657344 0 -0.03562410875622072 0.00096221814022394816 0 -0.035541548930903451 0.0015147562354302757 0 -0.03562410875622072 0.00096221814022394816 0 -0.035104999702594022 0.00098445039262099669 0 -0.035541548930903451 0.0015147562354302757 0 -0.035957055509885309 0.0011013828820657344 0 -0.03562410875622072 0.00096221814022394816 0 -0.035857429114278028 0.00071043999685018486 0 -0.03562410875622072 0.00096221814022394816 0 -0.035857429114278028 0.00071043999685018486 0 -0.035647721953105706 0.00043915304270074275 0 -0.03562410875622072 0.00096221814022394816 0 -0.035647721953105706 0.00043915304270074275 0 -0.035272623400273824 0.00048849892864126108 0 -0.036003079030341126 0.00040081916366095486 0 -0.035857429114278028 0.00071043999685018486 0 -0.035647721953105706 0.00043915304270074275 0 -0.034879237795921031 0.00039850733709228652 0 -0.035104999702594022 0.00098445039262099669 0 -0.034379035931005615 0.00080432606893667208 0 -0.035337630953463865 -2.7694350947255736e-05 0 -0.034879237795921031 0.00039850733709228652 0 -0.035272623400273824 0.00048849892864126108 0 -0.035337630953463865 -2.7694350947255736e-05 0 -0.035647721953105706 0.00043915304270074275 0 -0.035272623400273824 0.00048849892864126108 0 -0.03562410875622072 0.00096221814022394816 0 -0.035272623400273824 0.00048849892864126108 0 -0.035104999702594022 0.00098445039262099669 0 -0.034879237795921031 0.00039850733709228652 0 -0.035272623400273824 0.00048849892864126108 0 -0.035104999702594022 0.00098445039262099669 0 -0.035104999702594022 0.00098445039262099669 0 -0.034517569312916718 0.001437663808573514 0 -0.034958717850377456 0.0018569682830727428 0 -0.035104999702594022 0.00098445039262099669 0 -0.034517569312916718 0.001437663808573514 0 -0.034379035931005615 0.00080432606893667208 0 -0.034517569312916718 0.001437663808573514 0 -0.033896286706177677 0.0014195860019039479 0 -0.034379035931005615 0.00080432606893667208 0 -0.032525462396345101 0.0022845039463215487 0 -0.030785318492886959 0.0014184560906432601 0 -0.029942816298214894 0.0029650153946563043 0 -0.032525462396345101 0.0022845039463215487 0 -0.033183725081404575 0.00024748561489185828 0 -0.030785318492886959 0.0014184560906432601 0 -0.034024227098010992 0.0017825232771250504 0 -0.033686533084902062 6.0794402427137208e-05 0 -0.032525462396345101 0.0022845039463215487 0 -0.033183725081404575 0.00024748561489185828 0 -0.033996997650239974 2.1803098389358622e-05 0 -0.033896286706177677 0.0014195860019039479 0 -0.034379035931005615 0.00080432606893667208 0 -0.033996997650239974 2.1803098389358622e-05 0 -0.034879237795921031 0.00039850733709228652 0 -0.034379035931005615 0.00080432606893667208 0 -0.034497927018505826 0.00028535544496923425 0 -0.034379035931005615 0.00080432606893667208 0 -0.033996997650239974 2.1803098389358622e-05 0 -0.034497927018505826 0.00028535544496923425 0 -0.034879237795921031 0.00039850733709228652 0 -0.034497927018505826 0.00028535544496923425 0 -0.034674700895460528 -4.6000223117402199e-05 0 -0.035337630953463865 -2.7694350947255736e-05 0 -0.034674700895460528 -4.6000223117402199e-05 0 -0.034955457121802792 -0.00037103107959071842 0 -0.034674700895460528 -4.6000223117402199e-05 0 -0.034292402253778491 -0.00024631904687389083 0 -0.034955457121802792 -0.00037103107959071842 0 -0.033996997650239974 2.1803098389358622e-05 0 -0.034674700895460528 -4.6000223117402199e-05 0 -0.034292402253778491 -0.00024631904687389083 0 -0.033996997650239974 2.1803098389358622e-05 0 -0.034497927018505826 0.00028535544496923425 0 -0.034674700895460528 -4.6000223117402199e-05 0 -0.033183725081404575 0.00024748561489185828 0 -0.033996997650239974 2.1803098389358622e-05 0 -0.034292402253778491 -0.00024631904687389083 0 -0.033204136215312957 0.00017343100992046136 0 -0.032510555280058591 -0.00098689368283050413 0 -0.033183725081404575 0.00024748561489185828 0 -0.034292402253778491 -0.00024631904687389083 0 -0.034125504624084126 -0.00025105121772737066 0 -0.034292402253778491 -0.00024631904687389083 0 -0.034323997057810175 -0.00067683759709827361 0 -0.035243149209159712 -0.00086218770876925384 0 -0.034292402253778491 -0.00024631904687389083 0 -0.034323997057810175 -0.00067683759709827361 0 -0.034125504624084126 -0.00025105121772737066 0 -0.035428939396862077 -0.00038914484145354775 0 -0.034955457121802792 -0.00037103107959071842 0 -0.035243149209159712 -0.00086218770876925384 0 -0.034292402253778491 -0.00024631904687389083 0 -0.034955457121802792 -0.00037103107959071842 0 -0.035243149209159712 -0.00086218770876925384 0 -0.028273195341885243 -0.0026859131043686711 0 -0.029104486152840531 -0.0018668367209784835 0 -0.029116309050570988 -0.0034868760743480263 0 -0.028273195341885243 -0.0026859131043686711 0 -0.027610109460112275 -0.0035335185060472226 0 -0.029116309050570988 -0.0034868760743480263 0 -0.028273195341885243 -0.0026859131043686711 0 -0.029104486152840531 -0.0018668367209784835 0 -0.02806127275692253 -0.0018169798884081257 0 -0.028273195341885243 -0.0026859131043686711 0 -0.02806127275692253 -0.0018169798884081257 0 -0.027247800341592018 -0.0025016010269631466 0 -0.032510555280058591 -0.00098689368283050413 0 -0.031089608645181174 -0.0024427030257796818 0 -0.034323997057810175 -0.00067683759709827361 0 -0.034125504624084126 -0.00025105121772737066 0 -0.033648096588539601 -0.0008386624181250681 0 -0.030782977452011969 -0.0020747612871423993 0 -0.029104486152840531 -0.0018668367209784835 0 -0.029116309050570988 -0.0034868760743480263 0 -0.030782977452011969 -0.0020747612871423993 0 -0.029104486152840531 -0.0018668367209784835 0 -0.030103564614758938 -0.00012403670186082809 0 -0.033183725081404575 0.00024748561489185828 0 -0.030782977452011969 -0.0020747612871423993 0 -0.030103564614758938 -0.00012403670186082809 0 -0.029104486152840531 -0.0018668367209784835 0 -0.028396059227690749 -0.00051678894869305251 0 -0.030103564614758938 -0.00012403670186082809 0 -0.029104486152840531 -0.0018668367209784835 0 -0.02806127275692253 -0.0018169798884081257 0 -0.028396059227690749 -0.00051678894869305251 0 -0.02806127275692253 -0.0018169798884081257 0 -0.028396059227690749 -0.00051678894869305251 0 -0.026999374236812312 -0.0013957205634803104 0 -0.028396059227690749 -0.00051678894869305251 0 -0.030103564614758938 -0.00012403670186082809 0 -0.028350194642564077 0.0013609031526769875 0 -0.028396059227690749 -0.00051678894869305251 0 -0.028350194642564077 0.0013609031526769875 0 -0.027563655731229063 0.00037869910311733469 0 -0.030103564614758938 -0.00012403670186082809 0 -0.030785318492886959 0.0014184560906432601 0 -0.028350194642564077 0.0013609031526769875 0 -0.033183725081404575 0.00024748561489185828 0 -0.030103564614758938 -0.00012403670186082809 0 -0.030785318492886959 0.0014184560906432601 0 -0.030785318492886959 0.0014184560906432601 0 -0.028350194642564077 0.0013609031526769875 0 -0.029942816298214894 0.0029650153946563043 0 -0.026421735698924757 0.00091174771944490586 0 -0.025428223030840743 0.0018135214531312318 0 -0.026112080616989591 0.0023548305029562787 0 -0.028350194642564077 0.0013609031526769875 0 -0.026421735698924757 0.00091174771944490586 0 -0.027563655731229063 0.00037869910311733469 0 -0.028350194642564077 0.0013609031526769875 0 -0.026421735698924757 0.00091174771944490586 0 -0.026112080616989591 0.0023548305029562787 0 -0.025428223030840743 0.0018135214531312318 0 -0.025216984973597565 0.0009023307445140702 0 -0.024603586471295021 0.0020012436388274243 0 -0.026421735698924757 0.00091174771944490586 0 -0.025428223030840743 0.0018135214531312318 0 -0.025216984973597565 0.0009023307445140702 0 -0.026421735698924757 0.00091174771944490586 0 -0.025216984973597565 0.0009023307445140702 0 -0.025828753938853619 -0.00010186472828510556 0 -0.025216984973597565 0.0009023307445140702 0 -0.024906974045905191 1.2076947880244528e-05 0 -0.024448532233217489 0.00097477797782716789 0 -0.025216984973597565 0.0009023307445140702 0 -0.024906974045905191 1.2076947880244528e-05 0 -0.025828753938853619 -0.00010186472828510556 0 -0.024906974045905191 1.2076947880244528e-05 0 -0.025828753938853619 -0.00010186472828510556 0 -0.025468038129301134 -0.00070208530817394206 0 -0.024906974045905191 1.2076947880244528e-05 0 -0.024809857449073699 -0.00074076693858227301 0 -0.025468038129301134 -0.00070208530817394206 0 -0.025828753938853619 -0.00010186472828510556 0 -0.026879159210980223 -0.00034351458956760346 0 -0.026149222064819063 -0.0010901543251153644 0 -0.028396059227690749 -0.00051678894869305251 0 -0.026879159210980223 -0.00034351458956760346 0 -0.027563655731229063 0.00037869910311733469 0 -0.026421735698924757 0.00091174771944490586 0 -0.026879159210980223 -0.00034351458956760346 0 -0.027563655731229063 0.00037869910311733469 0 -0.026421735698924757 0.00091174771944490586 0 -0.025828753938853619 -0.00010186472828510556 0 -0.026879159210980223 -0.00034351458956760346 0 -0.023044315705338391 0.0019067616002313476 0 -0.022897039266404611 0.0017394874773353055 0 -0.021972763644722823 0.0018311259907598499 0 -0.02302003518930169 0.0010715810820382066 0 -0.023378765653077574 0.0016819801849562869 0 -0.022057794201829618 0.0018844727167891934 0 -0.023378765653077574 0.0016819801849562869 0 -0.023182187106581199 0.0025437830764498677 0 -0.021972763644722823 0.0018311259907598499 0 -0.022361121354614145 0.00098347271882476533 0 -0.02302003518930169 0.0010715810820382066 0 -0.02302003518930169 0.0010715810820382066 0 -0.023378765653077574 0.0016819801849562869 0 -0.023770465265299516 0.00095777708214115004 0 -0.023770465265299516 0.00095777708214115004 0 -0.024026514945718079 0.0015965029238020564 0 -0.024448532233217489 0.00097477797782716789 0 -0.023378765653077574 0.0016819801849562869 0 -0.023770465265299516 0.00095777708214115004 0 -0.024026514945718079 0.0015965029238020564 0 -0.024026514945718079 0.0015965029238020564 0 -0.024603586471295021 0.0020012436388274243 0 -0.023930049080775 0.0022096238647048199 0 -0.023378765653077574 0.0016819801849562869 0 -0.024026514945718079 0.0015965029238020564 0 -0.023930049080775 0.0022096238647048199 0 -0.024026514945718079 0.0015965029238020564 0 -0.024603586471295021 0.0020012436388274243 0 -0.024448532233217489 0.00097477797782716789 0 -0.025216984973597565 0.0009023307445140702 0 -0.024603586471295021 0.0020012436388274243 0 -0.024448532233217489 0.00097477797782716789 0 -0.024906974045905191 1.2076947880244528e-05 0 -0.024448532233217489 0.00097477797782716789 0 -0.024198725452128696 0.00026118088443225634 0 -0.024906974045905191 1.2076947880244528e-05 0 -0.024245987770100202 -0.00032528056878594397 0 -0.024809857449073699 -0.00074076693858227301 0 -0.024906974045905191 1.2076947880244528e-05 0 -0.024245987770100202 -0.00032528056878594397 0 -0.024198725452128696 0.00026118088443225634 0 -0.024245987770100202 -0.00032528056878594397 0 -0.023646211747477136 9.7581439680244446e-06 0 -0.023804250382810203 -0.00082378108791239274 0 -0.024245987770100202 -0.00032528056878594397 0 -0.024198725452128696 0.00026118088443225634 0 -0.023646211747477136 9.7581439680244446e-06 0 -0.023770465265299516 0.00095777708214115004 0 -0.023714358187332626 0.00043971383359880912 0 -0.024198725452128696 0.00026118088443225634 0 -0.023770465265299516 0.00095777708214115004 0 -0.024448532233217489 0.00097477797782716789 0 -0.024198725452128696 0.00026118088443225634 0 -0.023714358187332626 0.00043971383359880912 0 -0.024198725452128696 0.00026118088443225634 0 -0.023646211747477136 9.7581439680244446e-06 0 -0.021910223605856479 2.944600505595961e-05 0 -0.023861323946538372 -0.0008295411188266389 0 -0.021982994464299951 7.9236174136132514e-05 0 -0.022850475454397005 0.00037248510333382471 0 -0.023804250382810203 -0.00082378108791239274 0 -0.02302003518930169 0.0010715810820382066 0 -0.023313247753961538 0.00050796554369610298 0 -0.022850475454397005 0.00037248510333382471 0 -0.02302003518930169 0.0010715810820382066 0 -0.023770465265299516 0.00095777708214115004 0 -0.023313247753961538 0.00050796554369610298 0 -0.023313247753961538 0.00050796554369610298 0 -0.023646211747477136 9.7581439680244446e-06 0 -0.022850475454397005 0.00037248510333382471 0 -0.023770465265299516 0.00095777708214115004 0 -0.023714358187332626 0.00043971383359880912 0 -0.023313247753961538 0.00050796554369610298 0 -0.023714358187332626 0.00043971383359880912 0 -0.023313247753961538 0.00050796554369610298 0 -0.023646211747477136 9.7581439680244446e-06 0 -0.023646211747477136 9.7581439680244446e-06 0 -0.022850475454397005 0.00037248510333382471 0 -0.023804250382810203 -0.00082378108791239274 0 -0.022361121354614145 0.00098347271882476533 0 -0.02302003518930169 0.0010715810820382066 0 -0.022850475454397005 0.00037248510333382471 0 -0.023827350699842646 -0.0010512587332109707 0 -0.02470520469765421 -0.0013435643519399047 0 -0.025868812671833399 -0.0018309285714291591 0 -0.025804912096890325 -0.0018195604498058666 0 -0.025716362485374202 -0.0018427547084084758 0 -0.022530343974138143 -0.00025012045742870217 0 -0.023511277337457635 -0.00081688339971454328 0 -0.023804250382810203 -0.00082378108791239274 0 -0.025787379617788837 -0.0017909892909809151 0 -0.025750907968662251 -0.0018003859667983916 0 -0.025750945020728132 -0.001784894523971296 0 -0.025787379617788837 -0.0017909892909809151 0 -0.025776334935821044 -0.0018131168382712151 0 -0.025750907968662251 -0.0018003859667983916 0 -0.025815741865507284 -0.0018030235370959569 0 -0.025787379617788837 -0.0017909892909809151 0 -0.025776334935821044 -0.0018131168382712151 0 -0.025804912096890325 -0.0018195604498058666 0 -0.025815741865507284 -0.0018030235370959569 0 -0.025776334935821044 -0.0018131168382712151 0 -0.025804912096890325 -0.0018195604498058666 0 -0.025776334935821044 -0.0018131168382712151 0 -0.025716362485374202 -0.0018427547084084758 0 -0.025776334935821044 -0.0018131168382712151 0 -0.025716362485374202 -0.0018427547084084758 0 -0.025750907968662251 -0.0018003859667983916 0 -0.025716362485374202 -0.0018427547084084758 0 -0.025750907968662251 -0.0018003859667983916 0 -0.025714851184774724 -0.0017838525497128625 0 -0.025750907968662251 -0.0018003859667983916 0 -0.025714851184774724 -0.0017838525497128625 0 -0.025750945020728132 -0.001784894523971296 0 -0.023511277337457635 -0.00081688339971454328 0 -0.023804250382810203 -0.00082378108791239274 0 -0.025631337566467384 -0.0016063804717483397 0 -0.02470520469765421 -0.0013435643519399047 0 -0.025561769860668323 -0.0015935803860858174 0 -0.025716362485374202 -0.0018427547084084758 0 -0.025670768730391261 -0.001754528277147294 0 -0.025631337566467384 -0.0016063804717483397 0 -0.023804250382810203 -0.00082378108791239274 0 -0.024809857449073699 -0.00074076693858227301 0 -0.025631337566467384 -0.0016063804717483397 0 -0.025716362485374202 -0.0018427547084084758 0 -0.025714851184774724 -0.0017838525497128625 0 -0.025670768730391261 -0.001754528277147294 0 -0.024245987770100202 -0.00032528056878594397 0 -0.023804250382810203 -0.00082378108791239274 0 -0.024809857449073699 -0.00074076693858227301 0 -0.025670768730391261 -0.001754528277147294 0 -0.025631337566467384 -0.0016063804717483397 0 -0.025676846124915106 -0.0018302787551684513 0 -0.025670768730391261 -0.001754528277147294 0 -0.025717015301658853 -0.0017879974664116551 0 -0.025676846124915106 -0.0018302787551684513 0 -0.025717015301658853 -0.0017879974664116551 0 -0.025676846124915106 -0.0018302787551684513 0 -0.025662211079291251 -0.001858292216613149 0 -0.025714851184774724 -0.0017838525497128625 0 -0.025670768730391261 -0.001754528277147294 0 -0.025717015301658853 -0.0017879974664116551 0 -0.025714851184774724 -0.0017838525497128625 0 -0.025717015301658853 -0.0017879974664116551 0 -0.025750945020728132 -0.001784894523971296 0 -0.025717015301658853 -0.0017879974664116551 0 -0.025750945020728132 -0.001784894523971296 0 -0.02580284729941696 -0.0017664334596367568 0 -0.025717015301658853 -0.0017879974664116551 0 -0.02580284729941696 -0.0017664334596367568 0 -0.025821390859650316 -0.0017306432572382368 0 -0.025787379617788837 -0.0017909892909809151 0 -0.025750945020728132 -0.001784894523971296 0 -0.02580284729941696 -0.0017664334596367568 0 -0.025827124640510239 -0.001784624876751021 0 -0.025787379617788837 -0.0017909892909809151 0 -0.02580284729941696 -0.0017664334596367568 0 -0.026999374236812312 -0.0013957205634803104 0 -0.026149222064819063 -0.0010901543251153644 0 -0.026169794890641737 -0.0020236002155508462 0 -0.02806127275692253 -0.0018169798884081257 0 -0.026999374236812312 -0.0013957205634803104 0 -0.027247800341592018 -0.0025016010269631466 0 -0.028396059227690749 -0.00051678894869305251 0 -0.026879159210980223 -0.00034351458956760346 0 -0.026999374236812312 -0.0013957205634803104 0 -0.026879159210980223 -0.00034351458956760346 0 -0.026999374236812312 -0.0013957205634803104 0 -0.026149222064819063 -0.0010901543251153644 0 -0.025828753938853619 -0.00010186472828510556 0 -0.026149222064819063 -0.0010901543251153644 0 -0.025468038129301134 -0.00070208530817394206 0 -0.026149222064819063 -0.0010901543251153644 0 -0.025468038129301134 -0.00070208530817394206 0 -0.025631337566467384 -0.0016063804717483397 0 -0.024809857449073699 -0.00074076693858227301 0 -0.025468038129301134 -0.00070208530817394206 0 -0.025631337566467384 -0.0016063804717483397 0 -0.026149222064819063 -0.0010901543251153644 0 -0.025631337566467384 -0.0016063804717483397 0 -0.026169794890641737 -0.0020236002155508462 0 -0.026169794890641737 -0.0020236002155508462 0 -0.025676846124915106 -0.0018302787551684513 0 -0.025662211079291251 -0.001858292216613149 0 -0.026169794890641737 -0.0020236002155508462 0 -0.026668826209656063 -0.0032294891846711329 0 -0.025565766325878897 -0.0036611943159383879 0 -0.026124501369353584 -0.0020697136312818418 0 -0.025749211015901094 -0.0026233679780561974 0 -0.025631337566467384 -0.0016063804717483397 0 -0.026169794890641737 -0.0020236002155508462 0 -0.025676846124915106 -0.0018302787551684513 0 -0.026169794890641737 -0.0020236002155508462 0 -0.026668826209656063 -0.0032294891846711329 0 -0.027247800341592018 -0.0025016010269631466 0 -0.026999374236812312 -0.0013957205634803104 0 -0.026169794890641737 -0.0020236002155508462 0 -0.027247800341592018 -0.0025016010269631466 0 -0.028273195341885243 -0.0026859131043686711 0 -0.027247800341592018 -0.0025016010269631466 0 -0.027610109460112275 -0.0035335185060472226 0 -0.026668826209656063 -0.0032294891846711329 0 -0.027247800341592018 -0.0025016010269631466 0 -0.027610109460112275 -0.0035335185060472226 0 -0.027610109460112275 -0.0035335185060472226 0 -0.026669572613395715 -0.0041990665908726056 0 -0.027879549241348802 -0.0047558301607082262 0 -0.026668826209656063 -0.0032294891846711329 0 -0.027610109460112275 -0.0035335185060472226 0 -0.026669572613395715 -0.0041990665908726056 0 -0.026668826209656063 -0.0032294891846711329 0 -0.026669572613395715 -0.0041990665908726056 0 -0.025565766325878897 -0.0036611943159383879 0 -0.026669572613395715 -0.0041990665908726056 0 -0.025565766325878897 -0.0036611943159383879 0 -0.025732071202489215 -0.0047280254830245217 0 -0.025732071202489215 -0.0047280254830245217 0 -0.026438181996404381 -0.0050652626784548375 0 -0.025367734431496404 -0.0052361808747458287 0 -0.028809477050716518 -0.0040144412254905053 0 -0.029140941473698213 -0.0038169653665696265 0 -0.026669572613395715 -0.0041990665908726056 0 -0.025732071202489215 -0.0047280254830245217 0 -0.026438181996404381 -0.0050652626784548375 0 -0.028809477050716518 -0.0040144412254905053 0 -0.032519787185819063 -0.0023410013438860079 0 -0.032213748999682247 -0.0025496071443900769 0 -0.032167440627966316 -0.0019944476946456824 0 -0.031624793767354206 -0.002769299249810011 0 -0.035016727670819994 -0.00095930321558154871 0 -0.032519787185819063 -0.0023410013438860079 0 -0.026669572613395715 -0.0041990665908726056 0 -0.026438181996404381 -0.0050652626784548375 0 -0.027879549241348802 -0.0047558301607082262 0 -0.025717015301658853 -0.0017879974664116551 0 -0.025821390859650316 -0.0017306432572382368 0 -0.025759454717685811 -0.0017339120016763411 0 -0.025851778384014226 -0.001660697299037015 0 -0.025821390859650316 -0.0017306432572382368 0 -0.025759454717685811 -0.0017339120016763411 0 -0.025717015301658853 -0.0017879974664116551 0 -0.025662211079291251 -0.001858292216613149 0 -0.025759454717685811 -0.0017339120016763411 0 -0.025749211015901094 -0.0026233679780561974 0 -0.024888021691505315 -0.0035476354428023065 0 -0.025662211079291251 -0.001858292216613149 0 -0.025759454717685811 -0.0017339120016763411 0 -0.02570754067831714 -0.0016659177687135484 0 -0.025565766325878897 -0.0036611943159383879 0 -0.025732071202489215 -0.0047280254830245217 0 -0.02508707760234357 -0.0047746347968318763 0 -0.025732071202489215 -0.0047280254830245217 0 -0.02508707760234357 -0.0047746347968318763 0 -0.025367734431496404 -0.0052361808747458287 0 -0.024888021691505315 -0.0035476354428023065 0 -0.029315225546243068 -0.0029131356520636286 0 -0.02570754067831714 -0.0016659177687135484 0 -0.025801014802473071 -0.0016295212463167078 0 -0.025806069397614605 -0.0015134408739347926 0 -0.025759454717685811 -0.0017339120016763411 0 -0.02570754067831714 -0.0016659177687135484 0 -0.025801014802473071 -0.0016295212463167078 0 -0.025871835155594526 -0.0015720931718505831 0 -0.025851778384014226 -0.001660697299037015 0 -0.025801014802473071 -0.0016295212463167078 0 -0.025851778384014226 -0.001660697299037015 0 -0.025759454717685811 -0.0017339120016763411 0 -0.025801014802473071 -0.0016295212463167078 0 -0.025871835155594526 -0.0015720931718505831 0 -0.025801014802473071 -0.0016295212463167078 0 -0.025806069397614605 -0.0015134408739347926 0 -0.033459958973560432 -0.0021068233819858395 0 -0.032825917414165698 -0.0023342718816418079 0 -0.032837717719323735 -0.0018173508804723 0 -0.02508707760234357 -0.0047746347968318763 0 -0.024728594917013579 -0.0054240147688574582 0 -0.025367734431496404 -0.0052361808747458287 0 -0.029315225546243068 -0.0029131356520636286 0 -0.029140941473698213 -0.0038169653665696265 0 -0.033459958973560432 -0.0021068233819858395 0 -0.032837717719323735 -0.0018173508804723 0 -0.033248884672407122 -0.0015406752622903739 0 -0.032749591173078713 -0.0011956202416676818 0 -0.032837717719323735 -0.0018173508804723 0 -0.033248884672407122 -0.0015406752622903739 0 -0.033845743785170079 -0.0015842156620256437 0 -0.033459958973560432 -0.0021068233819858395 0 -0.033248884672407122 -0.0015406752622903739 0 -0.033845743785170079 -0.0015842156620256437 0 -0.033573600511670562 -0.001053793681864697 0 -0.033248884672407122 -0.0015406752622903739 0 -0.034088443187873976 -0.0012591792822358022 0 -0.029315225546243068 -0.0029131356520636286 0 -0.03717352501992692 -0.00032546884547148453 0 -0.037033088490071621 -0.00029569029630291719 0 -0.0370578169863034 -0.00063751377523316285 0 -0.032213748999682247 -0.0025496071443900769 0 -0.032825917414165698 -0.0023342718816418079 0 -0.032167440627966316 -0.0019944476946456824 0 -0.032825917414165698 -0.0023342718816418079 0 -0.032837717719323735 -0.0018173508804723 0 -0.032167440627966316 -0.0019944476946456824 0 -0.037313353733694266 -0.00021373149433801322 0 -0.03717352501992692 -0.00032546884547148453 0 -0.037150901366956382 -0.00025145018571287277 0 -0.032749591173078713 -0.0011956202416676818 0 -0.032837717719323735 -0.0018173508804723 0 -0.032167440627966316 -0.0019944476946456824 0 -0.034949813748064947 -0.00076645961022916032 0 -0.035016727670819994 -0.00095930321558154871 0 -0.037114424204487004 -0.00020016792933215454 0 -0.037033671398679226 -0.00020799347573664017 0 -0.037150901366956382 -0.00025145018571287277 0 -0.037033671398679226 -0.00020799347573664017 0 -0.037150901366956382 -0.00025145018571287277 0 -0.037033088490071621 -0.00029569029630291719 0 -0.03717352501992692 -0.00032546884547148453 0 -0.037150901366956382 -0.00025145018571287277 0 -0.037033088490071621 -0.00029569029630291719 0 -0.037033671398679226 -0.00020799347573664017 0 -0.037033088490071621 -0.00029569029630291719 0 -0.036998611554244304 -0.00017075470776903434 0 -0.037033088490071621 -0.00029569029630291719 0 -0.036998611554244304 -0.00017075470776903434 0 -0.03681624487880341 -0.00045781707371465299 0 -0.036998611554244304 -0.00017075470776903434 0 -0.036538875930743418 -0.00041737322330207444 0 -0.03681624487880341 -0.00045781707371465299 0 -0.037135092467410681 -8.9705113955021752e-05 0 -0.037008299797228979 -0.00017182479725478742 0 -0.037230496429159918 2.5990327252341308e-05 0 -0.036998611554244304 -0.00017075470776903434 0 -0.037376880082629453 0.00021334893685095625 0 -0.036998611554244304 -0.00017075470776903434 0 -0.037376880082629453 0.00021334893685095625 0 -0.036426339853480955 -0.00032685086213626771 0 -0.036095070825997486 -8.4723766697507248e-05 0 -0.037376880082629453 0.00021334893685095625 0 -0.036426339853480955 -0.00032685086213626771 0 -0.036095070825997486 -8.4723766697507248e-05 0 -0.035881574792654032 -0.00049670637893440379 0 -0.036426339853480955 -0.00032685086213626771 0 -0.035881574792654032 -0.00049670637893440379 0 -0.036426339853480955 -0.00032685086213626771 0 -0.036022892628179204 -0.00052558528205481957 0 -0.036998611554244304 -0.00017075470776903434 0 -0.036538875930743418 -0.00041737322330207444 0 -0.036426339853480955 -0.00032685086213626771 0 -0.036538875930743418 -0.00041737322330207444 0 -0.036426339853480955 -0.00032685086213626771 0 -0.036022892628179204 -0.00052558528205481957 0 -0.036538875930743418 -0.00041737322330207444 0 -0.036022892628179204 -0.00052558528205481957 0 -0.036290659296083085 -0.00059491976194902098 0 -0.036022892628179204 -0.00052558528205481957 0 -0.036290659296083085 -0.00059491976194902098 0 -0.035243149209159712 -0.00086218770876925384 0 -0.036022892628179204 -0.00052558528205481957 0 -0.03568380590888158 -0.00062477733563219692 0 -0.035243149209159712 -0.00086218770876925384 0 -0.035881574792654032 -0.00049670637893440379 0 -0.036022892628179204 -0.00052558528205481957 0 -0.03568380590888158 -0.00062477733563219692 0 -0.035708032982017197 -0.00050676522633481206 0 -0.035428939396862077 -0.00038914484145354775 0 -0.035243149209159712 -0.00086218770876925384 0 -0.035708032982017197 -0.00050676522633481206 0 -0.03568380590888158 -0.00062477733563219692 0 -0.035243149209159712 -0.00086218770876925384 0 -0.034323997057810175 -0.00067683759709827361 0 -0.035243149209159712 -0.00086218770876925384 0 -0.034008373838707161 -0.0013683542411764291 0 -0.036290659296083085 -0.00059491976194902098 0 -0.035243149209159712 -0.00086218770876925384 0 -0.036580215874384675 -0.00090436992910599638 0 -0.035074353288433863 -0.00099980478128646757 0 -0.035831582873267827 -0.00087686085390072024 0 -0.034323997057810175 -0.00067683759709827361 0 -0.034008373838707161 -0.0013683542411764291 0 -0.033648096588539601 -0.0008386624181250681 0 -0.027610109460112275 -0.0035335185060472226 0 -0.029116309050570988 -0.0034868760743480263 0 -0.027879549241348802 -0.0047558301607082262 0 -0.035831582873267827 -0.00087686085390072024 0 -0.032519787185819063 -0.0023410013438860079 0 -0.031089608645181174 -0.0024427030257796818 0 -0.032519787185819063 -0.0023410013438860079 0 -0.034008373838707161 -0.0013683542411764291 0 -0.033648096588539601 -0.0008386624181250681 0 -0.03297795048096553 -0.0017506694547046191 0 -0.036580215874384675 -0.00090436992910599638 0 -0.0370578169863034 -0.00063751377523316285 0 -0.03681624487880341 -0.00045781707371465299 0 -0.037033088490071621 -0.00029569029630291719 0 -0.0370578169863034 -0.00063751377523316285 0 -0.03681624487880341 -0.00045781707371465299 0 -0.036290659296083085 -0.00059491976194902098 0 -0.036580215874384675 -0.00090436992910599638 0 -0.03681624487880341 -0.00045781707371465299 0 -0.036538875930743418 -0.00041737322330207444 0 -0.036290659296083085 -0.00059491976194902098 0 -0.03681624487880341 -0.00045781707371465299 0 -0.033947822781063321 0.00056872113702853111 0 -0.033445009261910567 0.00037497599918764099 0 -0.036106324489024844 -3.1086814926506464e-05 0 -0.033947822781063321 0.00056872113702853111 0 -0.032430814340814088 0.00072615491987126305 0 -0.032663165196512252 0.00085328680855317057 0 -0.033947822781063321 0.00056872113702853111 0 -0.033445009261910567 0.00037497599918764099 0 -0.032663165196512252 0.00085328680855317057 0 -0.033947822781063321 0.00056872113702853111 0 -0.036215540414300897 1.7042146013042418e-06 0 -0.034498619270509637 0.0003066184141902879 0 -0.033947822781063321 0.00056872113702853111 0 -0.036215540414300897 1.7042146013042418e-06 0 -0.036106324489024844 -3.1086814926506464e-05 0 -0.036215540414300897 1.7042146013042418e-06 0 -0.034498619270509637 0.0003066184141902879 0 -0.033953594897569987 7.0158474786344593e-07 0 -0.033947822781063321 0.00056872113702853111 0 -0.034498619270509637 0.0003066184141902879 0 -0.033995664988986075 0.00013984321937999983 0 -0.033672769712202254 0.00043370160755652271 0 -0.032652525218876023 0.00032931881628198514 0 -0.034498619270509637 0.0003066184141902879 0 -0.033953594897569987 7.0158474786344593e-07 0 -0.033995664988986075 0.00013984321937999983 0 -0.032430814340814088 0.00072615491987126305 0 -0.031597267143067653 0.00040761862123478865 0 -0.031384688652562401 0.00061181441555083487 0 -0.033947822781063321 0.00056872113702853111 0 -0.032430814340814088 0.00072615491987126305 0 -0.031384688652562401 0.00061181441555083487 0 -0.032430814340814088 0.00072615491987126305 0 -0.032063091292471771 0.00055168291897239542 0 -0.031597267143067653 0.00040761862123478865 0 -0.032430814340814088 0.00072615491987126305 0 -0.032063091292471771 0.00055168291897239542 0 -0.032663165196512252 0.00085328680855317057 0 -0.032063091292471771 0.00055168291897239542 0 -0.032365077090671428 0.00073304986822106443 0 -0.032663165196512252 0.00085328680855317057 0 -0.032063091292471771 0.00055168291897239542 0 -0.032141658922587815 0.00020739880168885031 0 -0.0316091562257097 1.277027530938874e-05 0 -0.032063091292471771 0.00055168291897239542 0 -0.032365077090671428 0.00073304986822106443 0 -0.032141658922587815 0.00020739880168885031 0 -0.032141658922587815 0.00020739880168885031 0 -0.03327196149231057 0.00072592915250181179 0 -0.031956249705668086 -0.00070120214159572099 0 -0.032365077090671428 0.00073304986822106443 0 -0.032141658922587815 0.00020739880168885031 0 -0.03327196149231057 0.00072592915250181179 0 -0.03327196149231057 0.00072592915250181179 0 -0.033743426117575928 0.0012611184882346384 0 -0.034653687236393303 0.0011520374610695047 0 -0.03327196149231057 0.00072592915250181179 0 -0.033743426117575928 0.0012611184882346384 0 -0.032590949276380954 0.0010717081661541492 0 -0.032365077090671428 0.00073304986822106443 0 -0.03327196149231057 0.00072592915250181179 0 -0.032590949276380954 0.0010717081661541492 0 -0.033743426117575928 0.0012611184882346384 0 -0.032590949276380954 0.0010717081661541492 0 -0.032326839491053673 0.0014939573950779399 0 -0.033445009261910567 0.00037497599918764099 0 -0.032663165196512252 0.00085328680855317057 0 -0.032326839491053673 0.0014939573950779399 0 -0.032365077090671428 0.00073304986822106443 0 -0.032590949276380954 0.0010717081661541492 0 -0.032663165196512252 0.00085328680855317057 0 -0.032590949276380954 0.0010717081661541492 0 -0.032663165196512252 0.00085328680855317057 0 -0.032326839491053673 0.0014939573950779399 0 -0.033445009261910567 0.00037497599918764099 0 -0.032326839491053673 0.0014939573950779399 0 -0.033724672381649952 -0.00065670913247604403 0 -0.039726821817131781 0.00090846663944709805 0 -0.039764388244690557 0.0015497019304489953 0 -0.039474782369180207 0.00050406663965788738 0 -0.036168533684760744 0.0014382747082175402 0 -0.036564453751375174 0.00012022325419492861 0 -0.039764388244690557 0.0015497019304489953 0 -0.039141423656101598 0.0014233556222894694 0 -0.038275675421006891 0.0016332598705297813 0 -0.041245040149228002 0.00094930967613057022 0 -0.040150339433533362 0.00083499803071581714 0 -0.039141423656101598 0.0014233556222894694 0 -0.039726821817131781 0.00090846663944709805 0 -0.039764388244690557 0.0015497019304489953 0 -0.039141423656101598 0.0014233556222894694 0 -0.040403137666978617 0.0008677307055157908 0 -0.039304517334029773 0.001383942500368607 0 -0.041245040149228002 0.00094930967613057022 0 -0.040150339433533362 0.00083499803071581714 0 -0.041003105624725103 0.00039310619779852132 0 -0.040150339433533362 0.00083499803071581714 0 -0.040248330850699003 0.00052477208090707733 0 -0.039089496993096627 0.00097863245923319304 0 -0.040150339433533362 0.00083499803071581714 0 -0.041003105624725103 0.00039310619779852132 0 -0.040248330850699003 0.00052477208090707733 0 -0.041245040149228002 0.00094930967613057022 0 -0.041595917586248164 0.00021546364178227264 0 -0.041552483714264177 -8.7173218065311753e-05 0 -0.041245040149228002 0.00094930967613057022 0 -0.041003105624725103 0.00039310619779852132 0 -0.041595917586248164 0.00021546364178227264 0 -0.040403137666978617 0.0008677307055157908 0 -0.040368770547865286 0.00024898380999108856 0 -0.039726821817131781 0.00090846663944709805 0 -0.039257235494742103 0.00050950633262435662 0 -0.039474782369180207 0.00050406663965788738 0 -0.033445009261910567 0.00037497599918764099 0 -0.033724672381649952 -0.00065670913247604403 0 -0.036106324489024844 -3.1086814926506464e-05 0 -0.033724672381649952 -0.00065670913247604403 0 -0.036106324489024844 -3.1086814926506464e-05 0 -0.038474221172046873 -3.5672087983813684e-06 0 -0.036215540414300897 1.7042146013042418e-06 0 -0.036106324489024844 -3.1086814926506464e-05 0 -0.038474221172046873 -3.5672087983813684e-06 0 -0.036564453751375174 0.00012022325419492861 0 -0.038477189118197884 -1.1839990764688567e-08 0 -0.040368770547865286 0.00024898380999108856 0 -0.039412367972218199 1.6253707440169762e-07 0 -0.039257235494742103 0.00050950633262435662 0 -0.038484256327497565 -1.1754848438317154e-07 0 -0.039406326776426581 5.7845356666044108e-07 0 -0.039257235494742103 0.00050950633262435662 0 -0.039474782369180207 0.00050406663965788738 0 -0.038484256327497565 -1.1754848438317154e-07 0 -0.041552483714264177 -8.7173218065311753e-05 0 -0.039420665572785979 -3.6738823088363684e-07 0 -0.041843023155622112 0.00019283452121843052 0 -0.039420665572785979 -3.6738823088363684e-07 0 -0.041843023155622112 0.00019283452121843052 0 -0.044995519984789706 3.3056841900577895e-07 0 -0.041595917586248164 0.00021546364178227264 0 -0.041552483714264177 -8.7173218065311753e-05 0 -0.041843023155622112 0.00019283452121843052 0 -0.041843023155622112 0.00019283452121843052 0 -0.042919616608150614 -1.5256816192380979e-05 0 -0.041820398885309161 0.00019687189035238128 0 -0.044995519984789706 3.3056841900577895e-07 0 -0.042919616608150614 -1.5256816192380979e-05 0 -0.043765169177619183 -0.00041318420688534125 0 -0.041843023155622112 0.00019283452121843052 0 -0.044995519984789706 3.3056841900577895e-07 0 -0.042919616608150614 -1.5256816192380979e-05 0 -0.044995519984789706 3.3056841900577895e-07 0 -0.044997835531321785 -3.2622017252969106e-07 0 -0.043765169177619183 -0.00041318420688534125 0 -0.044997835531321785 -3.2622017252969106e-07 0 -0.043765169177619183 -0.00041318420688534125 0 -0.045104896918150991 -0.00013739465347565463 0 -0.043689861486971515 -0.00046304731369821678 0 -0.042785022292006369 -0.00065820459084504142 0 -0.042919616608150614 -1.5256816192380979e-05 0 -0.043765169177619183 -0.00041318420688534125 0 -0.041975753848819929 -2.7479303896069014e-05 0 -0.043765169177619183 -0.00041318420688534125 0 -0.041975753848819929 -2.7479303896069014e-05 0 -0.040491551750126961 -0.0012715181048273852 0 -0.041975753848819929 -2.7479303896069014e-05 0 -0.041820398885309161 0.00019687189035238128 0 -0.04091690243636479 0.00026613662550525023 0 -0.041975753848819929 -2.7479303896069014e-05 0 -0.04091690243636479 0.00026613662550525023 0 -0.040395206667086458 -0.00013884694704797669 0 -0.042919616608150614 -1.5256816192380979e-05 0 -0.041975753848819929 -2.7479303896069014e-05 0 -0.041820398885309161 0.00019687189035238128 0 -0.041595917586248164 0.00021546364178227264 0 -0.041843023155622112 0.00019283452121843052 0 -0.041820398885309161 0.00019687189035238128 0 -0.041003105624725103 0.00039310619779852132 0 -0.041595917586248164 0.00021546364178227264 0 -0.041820398885309161 0.00019687189035238128 0 -0.041003105624725103 0.00039310619779852132 0 -0.041820398885309161 0.00019687189035238128 0 -0.04091690243636479 0.00026613662550525023 0 -0.041003105624725103 0.00039310619779852132 0 -0.040248330850699003 0.00052477208090707733 0 -0.04091690243636479 0.00026613662550525023 0 -0.040248330850699003 0.00052477208090707733 0 -0.04091690243636479 0.00026613662550525023 0 -0.039645566411911561 0.00041918150065303191 0 -0.039645566411911561 0.00041918150065303191 0 -0.03948858513513346 -1.789569947238611e-05 0 -0.038957789946021136 0.0004837189240312473 0 -0.03948858513513346 -1.789569947238611e-05 0 -0.040395206667086458 -0.00013884694704797669 0 -0.039501939618914905 -0.00054890182841146017 0 -0.03948858513513346 -1.789569947238611e-05 0 -0.039501939618914905 -0.00054890182841146017 0 -0.039106827722267833 -0.00032148844086221699 0 -0.04091690243636479 0.00026613662550525023 0 -0.039645566411911561 0.00041918150065303191 0 -0.040395206667086458 -0.00013884694704797669 0 -0.039645566411911561 0.00041918150065303191 0 -0.03948858513513346 -1.789569947238611e-05 0 -0.040395206667086458 -0.00013884694704797669 0 -0.041975753848819929 -2.7479303896069014e-05 0 -0.040395206667086458 -0.00013884694704797669 0 -0.040491551750126961 -0.0012715181048273852 0 -0.044997835531321785 -3.2622017252969106e-07 0 -0.045104896918150991 -0.00013739465347565463 0 -0.045000851592166449 -2.4894408629692994e-08 0 -0.040395206667086458 -0.00013884694704797669 0 -0.039501939618914905 -0.00054890182841146017 0 -0.040491551750126961 -0.0012715181048273852 0 -0.045104896918150991 -0.00013739465347565463 0 -0.044994341631392536 4.5832301800857106e-06 0 -0.045000851592166449 -2.4894408629692994e-08 0 -0.039501939618914905 -0.00054890182841146017 0 -0.040491551750126961 -0.0012715181048273852 0 -0.039086119257205919 -0.00087052873286467029 0 -0.042785022292006369 -0.00065820459084504142 0 -0.042141781356683394 -0.00043340202225712393 0 -0.039086119257205919 -0.00087052873286467029 0 -0.038910971515177778 -0.00051070912202327834 0 -0.038872408177846624 -0.00032042247772980553 0 -0.044999371088757179 -1.345547528081371e-09 0 -0.044994341631392536 4.5832301800857106e-06 0 -0.044952416756978253 6.0067212268544572e-05 0 -0.042141781356683394 -0.00043340202225712393 0 -0.041643778054914704 -0.00014589795989425696 0 -0.038910971515177778 -0.00051070912202327834 0 -0.038883068348442566 -0.00040831074525913869 0 -0.038872408177846624 -0.00032042247772980553 0 -0.044999371088757179 -1.345547528081371e-09 0 -0.044994341631392536 4.5832301800857106e-06 0 -0.045000851592166449 -2.4894408629692994e-08 0 -0.039086119257205919 -0.00087052873286467029 0 -0.039004643758716671 -0.00056885740944277664 0 -0.038910971515177778 -0.00051070912202327834 0 -0.039004643758716671 -0.00056885740944277664 0 -0.039106827722267833 -0.00032148844086221699 0 -0.038775560685973362 -0.00037681588684950813 0 -0.039501939618914905 -0.00054890182841146017 0 -0.039004643758716671 -0.00056885740944277664 0 -0.039106827722267833 -0.00032148844086221699 0 -0.039501939618914905 -0.00054890182841146017 0 -0.039086119257205919 -0.00087052873286467029 0 -0.039004643758716671 -0.00056885740944277664 0 -0.038910971515177778 -0.00051070912202327834 0 -0.038775560685973362 -0.00037681588684950813 0 -0.038883068348442566 -0.00040831074525913869 0 -0.039004643758716671 -0.00056885740944277664 0 -0.038910971515177778 -0.00051070912202327834 0 -0.038775560685973362 -0.00037681588684950813 0 -0.038767204468440994 -0.00034140854120542295 0 -0.038770801488587484 -0.0001714873208525939 0 -0.038775560685973362 -0.00037681588684950813 0 -0.038843184845226759 -0.00073178003168210043 0 -0.039009876240710367 -0.00052503189203550939 0 -0.038775560685973362 -0.00037681588684950813 0 -0.038974560107689793 4.9077115943327657e-05 0 -0.038667083593776373 0.00032771864459397781 0 -0.039106827722267833 -0.00032148844086221699 0 -0.038775560685973362 -0.00037681588684950813 0 -0.038974560107689793 4.9077115943327657e-05 0 -0.03948858513513346 -1.789569947238611e-05 0 -0.038974560107689793 4.9077115943327657e-05 0 -0.038957789946021136 0.0004837189240312473 0 -0.03948858513513346 -1.789569947238611e-05 0 -0.039106827722267833 -0.00032148844086221699 0 -0.038974560107689793 4.9077115943327657e-05 0 -0.038974560107689793 4.9077115943327657e-05 0 -0.038957789946021136 0.0004837189240312473 0 -0.038667083593776373 0.00032771864459397781 0 -0.038957789946021136 0.0004837189240312473 0 -0.038667083593776373 0.00032771864459397781 0 -0.038708314516842972 0.00073795949964600648 0 -0.038843184845226759 -0.00073178003168210043 0 -0.038916486041915464 -0.00090166362741144206 0 -0.039040639369174547 -0.00087516580847124938 0 -0.038770801488587484 -0.0001714873208525939 0 -0.038844224990052974 -0.00018850519514529996 0 -0.038916486041915464 -0.00090166362741144206 0 -0.039058337718575586 -0.00096265073234347959 0 -0.039040639369174547 -0.00087516580847124938 0 -0.039036202895039125 -0.0010146259141314614 0 -0.039150270280526374 -0.0010615828282998323 0 -0.039058337718575586 -0.00096265073234347959 0 -0.038916486041915464 -0.00090166362741144206 0 -0.039036202895039125 -0.0010146259141314614 0 -0.039058337718575586 -0.00096265073234347959 0 -0.038916486041915464 -0.00090166362741144206 0 -0.039036202895039125 -0.0010146259141314614 0 -0.038934545411679858 -0.0010256986791839966 0 -0.038844224990052974 -0.00018850519514529996 0 -0.037933711647402953 0.00048695794055968634 0 -0.038285655892054404 0.001147490499543023 0 -0.037933711647402953 0.00048695794055968634 0 -0.038708314516842972 0.00073795949964600648 0 -0.038557152862160202 0.00086915220436865827 0 -0.038678866881514846 0.00066010596626010732 0 -0.038957789946021136 0.0004837189240312473 0 -0.038708314516842972 0.00073795949964600648 0 -0.038557152862160202 0.00086915220436865827 0 -0.039645566411911561 0.00041918150065303191 0 -0.038957789946021136 0.0004837189240312473 0 -0.038557152862160202 0.00086915220436865827 0 -0.039645566411911561 0.00041918150065303191 0 -0.038557152862160202 0.00086915220436865827 0 -0.039089496993096627 0.00097863245923319304 0 -0.040248330850699003 0.00052477208090707733 0 -0.039645566411911561 0.00041918150065303191 0 -0.039089496993096627 0.00097863245923319304 0 -0.039089496993096627 0.00097863245923319304 0 -0.039141423656101598 0.0014233556222894694 0 -0.038275675421006891 0.0016332598705297813 0 -0.040150339433533362 0.00083499803071581714 0 -0.039089496993096627 0.00097863245923319304 0 -0.039141423656101598 0.0014233556222894694 0 -0.039089496993096627 0.00097863245923319304 0 -0.038275675421006891 0.0016332598705297813 0 -0.037755030317385273 0.0017559119216683473 0 -0.038557152862160202 0.00086915220436865827 0 -0.039089496993096627 0.00097863245923319304 0 -0.037755030317385273 0.0017559119216683473 0 -0.038557152862160202 0.00086915220436865827 0 -0.037755030317385273 0.0017559119216683473 0 -0.036508957679594028 0.0017731696816144027 0 -0.037755030317385273 0.0017559119216683473 0 -0.037409453527636527 0.0021069502433257305 0 -0.037060362079958852 0.0021815374880639437 0 -0.037755030317385273 0.0017559119216683473 0 -0.037409453527636527 0.0021069502433257305 0 -0.036932993342570997 0.0021689839063654386 0 -0.036861835307576474 0.0014124167545603505 0 -0.037409453527636527 0.0021069502433257305 0 -0.036932993342570997 0.0021689839063654386 0 -0.036861835307576474 0.0014124167545603505 0 -0.037409453527636527 0.0021069502433257305 0 -0.037320838187953863 0.00057867822576146378 0 -0.037409453527636527 0.0021069502433257305 0 -0.03709457906540941 0.0026423653556364238 0 -0.037060362079958852 0.0021815374880639437 0 -0.037234151566221306 0.0019905192115709635 0 -0.036417551743683073 0.00053165285593199832 0 -0.033743426117575928 0.0012611184882346384 0 -0.032326839491053673 0.0014939573950779399 0 -0.036932993342570997 0.0021689839063654386 0 -0.039764388244690557 0.0015497019304489953 0 -0.038275675421006891 0.0016332598705297813 0 -0.036932993342570997 0.0021689839063654386 0 -0.036168533684760744 0.0014382747082175402 0 -0.036962189036966166 0.0020051774449162804 0 -0.033743426117575928 0.0012611184882346384 0 -0.036932993342570997 0.0021689839063654386 0 -0.034653687236393303 0.0011520374610695047 0 -0.038275675421006891 0.0016332598705297813 0 -0.037755030317385273 0.0017559119216683473 0 -0.036932993342570997 0.0021689839063654386 0 -0.036861835307576474 0.0014124167545603505 0 -0.036932993342570997 0.0021689839063654386 0 -0.035285818376191685 0.00056927977235834027 0 -0.036932993342570997 0.0021689839063654386 0 -0.034653687236393303 0.0011520374610695047 0 -0.035285818376191685 0.00056927977235834027 0 -0.03327196149231057 0.00072592915250181179 0 -0.035285818376191685 0.00056927977235834027 0 -0.031956249705668086 -0.00070120214159572099 0 -0.03327196149231057 0.00072592915250181179 0 -0.034653687236393303 0.0011520374610695047 0 -0.035285818376191685 0.00056927977235834027 0 -0.033106808877317047 -0.00024033226233647427 0 -0.033315874441157231 -0.00097174961700550132 0 -0.029200841589216261 -0.0012786725964479869 0 -0.029186853036866654 -0.0013555422853047602 0 -0.03015685135313776 -0.0011085241472138328 0 -0.037320838187953863 0.00057867822576146378 0 -0.039072703234953231 -0.00027362316125708187 0 -0.036109961418962312 -0.0010289385821308198 0 -0.037409453527636527 0.0021069502433257305 0 -0.037320838187953863 0.00057867822576146378 0 -0.038254330991461881 0.00080564891971471396 0 -0.037320838187953863 0.00057867822576146378 0 -0.039072703234953231 -0.00027362316125708187 0 -0.038254330991461881 0.00080564891971471396 0 -0.036861835307576474 0.0014124167545603505 0 -0.035285818376191685 0.00056927977235834027 0 -0.037320838187953863 0.00057867822576146378 0 -0.035285818376191685 0.00056927977235834027 0 -0.037320838187953863 0.00057867822576146378 0 -0.036109961418962312 -0.0010289385821308198 0 -0.033106808877317047 -0.00024033226233647427 0 -0.036417551743683073 0.00053165285593199832 0 -0.030946061650760266 -0.0010608687759792084 0 -0.033106808877317047 -0.00024033226233647427 0 -0.03709457906540941 0.0026423653556364238 0 -0.036751254551000236 0.0026141969677668402 0 -0.037060362079958852 0.0021815374880639437 0 -0.036417551743683073 0.00053165285593199832 0 -0.035701655773354719 0.00071774254577235304 0 -0.034871935782289823 0.00035864633928327753 0 -0.034921515202641196 0.00030259017373325883 0 -0.034864333319863605 0.00029502921299272994 0 -0.033106808877317047 -0.00024033226233647427 0 -0.035701655773354719 0.00071774254577235304 0 -0.033106808877317047 -0.00024033226233647427 0 -0.034260635777385501 -0.00069316709435352896 0 -0.034601879963287355 -0.00051645119502103504 0 -0.034688120065068599 -0.00012581754309324252 0 -0.035236106424322781 -0.00034487376231436061 0 -0.032989691603748254 -0.0011946020869743892 0 -0.0329946968413024 -0.0011730671483830058 0 -0.033196220554687343 -0.0011248392099400357 0 -0.035701655773354719 0.00071774254577235304 0 -0.03706462830255685 -0.00078641393837181994 0 -0.034688120065068599 -0.00012581754309324252 0 -0.035236106424322781 -0.00034487376231436061 0 -0.03565401473802738 -1.5569687118829535e-07 0 -0.033196220554687343 -0.0011248392099400357 0 -0.033386632230980241 -0.0010550165761793382 0 -0.033357507785332377 -0.001277741809522682 0 -0.035236106424322781 -0.00034487376231436061 0 -0.03565401473802738 -1.5569687118829535e-07 0 -0.035866796502625344 -0.00017296443878571667 0 -0.034260635777385501 -0.00069316709435352896 0 -0.034773479540084744 -0.00058079881165234266 0 -0.039036202895039125 -0.0010146259141314614 0 -0.038934545411679858 -0.0010256986791839966 0 -0.039124309651400589 -0.0010810119614872806 0 -0.03675552825716881 1.0879559497351766e-05 0 -0.036827161875966734 0.00032382051417341207 0 -0.037148963782742836 5.8056127126489085e-05 0 -0.039036202895039125 -0.0010146259141314614 0 -0.039150270280526374 -0.0010615828282998323 0 -0.039124309651400589 -0.0010810119614872806 0 -0.037933711647402953 0.00048695794055968634 0 -0.03706462830255685 -0.00078641393837181994 0 -0.037755030317385273 0.0017559119216683473 0 -0.036508957679594028 0.0017731696816144027 0 -0.037060362079958852 0.0021815374880639437 0 -0.036751254551000236 0.0026141969677668402 0 -0.036508957679594028 0.0017731696816144027 0 -0.037060362079958852 0.0021815374880639437 0 -0.035701655773354719 0.00071774254577235304 0 -0.037933711647402953 0.00048695794055968634 0 -0.036327243439621959 -0.00074854913665036902 0 -0.036351520355341088 -0.00076772833566893098 0 -0.036521411831619964 -0.00070454799346875586 0 -0.039064376378774156 -0.00093264228743093704 0 -0.038617062272818997 -0.00080515998378572254 0 -0.038847878815743662 -0.001240595688596633 0 -0.037967595651285886 -0.00081854287984414438 0 -0.036517425274231893 -0.00073862429374385368 0 -0.039064376378774156 -0.00093264228743093704 0 -0.039150270280526374 -0.0010615828282998323 0 -0.039199602932024631 -0.0014795416727434341 0 -0.039064376378774156 -0.00093264228743093704 0 -0.039150270280526374 -0.0010615828282998323 0 -0.039124309651400589 -0.0010810119614872806 0 -0.037967595651285886 -0.00081854287984414438 0 -0.03706462830255685 -0.00078641393837181994 0 -0.033386632230980241 -0.0010550165761793382 0 -0.033622024598988477 -0.0011865234357378899 0 -0.033357507785332377 -0.001277741809522682 0 -0.036327243439621959 -0.00074854913665036902 0 -0.036131235614355779 -0.00078425302039283559 0 -0.03617959289466758 -0.00082315993710916182 0 -0.034773479540084744 -0.00058079881165234266 0 -0.033614729175431131 -0.0011336429880402438 0 -0.034969898248749298 -0.00082857171215448063 0 -0.034773479540084744 -0.00058079881165234266 0 -0.03706462830255685 -0.00078641393837181994 0 -0.034773479540084744 -0.00058079881165234266 0 -0.03392088602857625 -0.00080188234260387893 0 -0.034158774037162561 -0.00093715010487881059 0 -0.033882381667418075 -0.0011629706889513716 0 -0.036327243439621959 -0.00074854913665036902 0 -0.036351520355341088 -0.00076772833566893098 0 -0.03617959289466758 -0.00082315993710916182 0 -0.03392088602857625 -0.00080188234260387893 0 -0.03358212378206013 -0.00090121898913061668 0 -0.033882381667418075 -0.0011629706889513716 0 -0.034433152183734501 -0.00085938649957100724 0 -0.034158774037162561 -0.00093715010487881059 0 -0.034470136719268338 -0.0010986635452610155 0 -0.034433152183734501 -0.00085938649957100724 0 -0.034158774037162561 -0.00093715010487881059 0 -0.034327365641763682 -0.00066868393786037779 0 -0.034470136719268338 -0.0010986635452610155 0 -0.034803739510198155 -0.00088242397887204854 0 -0.034985781338339794 -0.0011842345830360042 0 -0.034433152183734501 -0.00085938649957100724 0 -0.034470136719268338 -0.0010986635452610155 0 -0.034803739510198155 -0.00088242397887204854 0 -0.03645282997124788 -0.00071446080803359759 0 -0.036317907216145341 -0.00065475083115685239 0 -0.034803739510198155 -0.00088242397887204854 0 -0.034466076387861887 -0.00062971005669086708 0 -0.035056538180989118 -0.00056638578662258877 0 -0.038460378716632777 -0.00078293660958852422 0 -0.038367085494427203 -0.0011018770948672738 0 -0.037676848936136188 -0.00064544770238177053 0 -0.034433152183734501 -0.00085938649957100724 0 -0.034803739510198155 -0.00088242397887204854 0 -0.034466076387861887 -0.00062971005669086708 0 -0.034969898248749298 -0.00082857171215448063 0 -0.036517425274231893 -0.00073862429374385368 0 -0.03392088602857625 -0.00080188234260387893 0 -0.034158774037162561 -0.00093715010487881059 0 -0.034327365641763682 -0.00066868393786037779 0 -0.034433152183734501 -0.00085938649957100724 0 -0.034466076387861887 -0.00062971005669086708 0 -0.034327365641763682 -0.00066868393786037779 0 -0.03645282997124788 -0.00071446080803359759 0 -0.036517425274231893 -0.00073862429374385368 0 -0.038460378716632777 -0.00078293660958852422 0 -0.038617062272818997 -0.00080515998378572254 0 -0.038367085494427203 -0.0011018770948672738 0 -0.038617062272818997 -0.00080515998378572254 0 -0.038847878815743662 -0.001240595688596633 0 -0.038367085494427203 -0.0011018770948672738 0 -0.038847878815743662 -0.001240595688596633 0 -0.038517619533207544 -0.0015003547866036244 0 -0.038367085494427203 -0.0011018770948672738 0 -0.038847878815743662 -0.001240595688596633 0 -0.038517619533207544 -0.0015003547866036244 0 -0.038805454504864709 -0.001748644202910534 0 -0.038367085494427203 -0.0011018770948672738 0 -0.037930883888998845 -0.0013570151524197409 0 -0.037676848936136188 -0.00064544770238177053 0 -0.038517619533207544 -0.0015003547866036244 0 -0.038367085494427203 -0.0011018770948672738 0 -0.037930883888998845 -0.0013570151524197409 0 -0.038517619533207544 -0.0015003547866036244 0 -0.037930883888998845 -0.0013570151524197409 0 -0.038329228805465895 -0.0021084706811766974 0 -0.038329228805465895 -0.0021084706811766974 0 -0.037532236634190787 -0.002366220013494757 0 -0.037640076383479729 -0.0018014360671896837 0 -0.037930883888998845 -0.0013570151524197409 0 -0.038329228805465895 -0.0021084706811766974 0 -0.037640076383479729 -0.0018014360671896837 0 -0.038517619533207544 -0.0015003547866036244 0 -0.038329228805465895 -0.0021084706811766974 0 -0.038805454504864709 -0.001748644202910534 0 -0.038329228805465895 -0.0021084706811766974 0 -0.038805454504864709 -0.001748644202910534 0 -0.038900349480487609 -0.0023567987269228026 0 -0.038805454504864709 -0.001748644202910534 0 -0.039199602932024631 -0.0014795416727434341 0 -0.038900349480487609 -0.0023567987269228026 0 -0.039171924487148665 -0.0012453905527357891 0 -0.039076163575132411 -0.0015951576063968958 0 -0.039162499478372553 -0.00085875970515087601 0 -0.039162537864540922 -0.00097018437545253291 0 -0.039304989379822713 -0.00085855980656615973 0 -0.039064376378774156 -0.00093264228743093704 0 -0.038847878815743662 -0.001240595688596633 0 -0.039199602932024631 -0.0014795416727434341 0 -0.038847878815743662 -0.001240595688596633 0 -0.038805454504864709 -0.001748644202910534 0 -0.039199602932024631 -0.0014795416727434341 0 -0.039157278616045128 -0.0010942121441107635 0 -0.039171924487148665 -0.0012453905527357891 0 -0.039150270280526374 -0.0010615828282998323 0 -0.039162537864540922 -0.00097018437545253291 0 -0.039058337718575586 -0.00096265073234347959 0 -0.039162537864540922 -0.00097018437545253291 0 -0.039058337718575586 -0.00096265073234347959 0 -0.039040639369174547 -0.00087516580847124938 0 -0.039162499478372553 -0.00085875970515087601 0 -0.039162537864540922 -0.00097018437545253291 0 -0.039040639369174547 -0.00087516580847124938 0 -0.038843184845226759 -0.00073178003168210043 0 -0.039086505889331054 -0.00072789201157697739 0 -0.039009876240710367 -0.00052503189203550939 0 -0.039162499478372553 -0.00085875970515087601 0 -0.039040639369174547 -0.00087516580847124938 0 -0.039086505889331054 -0.00072789201157697739 0 -0.038843184845226759 -0.00073178003168210043 0 -0.039040639369174547 -0.00087516580847124938 0 -0.039086505889331054 -0.00072789201157697739 0 -0.039162499478372553 -0.00085875970515087601 0 -0.039320456143459789 -0.00074444151408300271 0 -0.039304989379822713 -0.00085855980656615973 0 -0.039162499478372553 -0.00085875970515087601 0 -0.039086505889331054 -0.00072789201157697739 0 -0.039320456143459789 -0.00074444151408300271 0 -0.039086505889331054 -0.00072789201157697739 0 -0.039320456143459789 -0.00074444151408300271 0 -0.039179106213549975 -0.00061470128647263299 0 -0.039320456143459789 -0.00074444151408300271 0 -0.039179106213549975 -0.00061470128647263299 0 -0.039336398852849758 -0.00059645873771738047 0 -0.039179106213549975 -0.00061470128647263299 0 -0.039009876240710367 -0.00052503189203550939 0 -0.039150961082912293 -0.00046017041106466086 0 -0.039179106213549975 -0.00061470128647263299 0 -0.039150961082912293 -0.00046017041106466086 0 -0.039336398852849758 -0.00059645873771738047 0 -0.039086505889331054 -0.00072789201157697739 0 -0.039179106213549975 -0.00061470128647263299 0 -0.039009876240710367 -0.00052503189203550939 0 -0.038775560685973362 -0.00037681588684950813 0 -0.038883068348442566 -0.00040831074525913869 0 -0.038959265172091286 -0.00039975786149913656 0 -0.038775560685973362 -0.00037681588684950813 0 -0.039009876240710367 -0.00052503189203550939 0 -0.038959265172091286 -0.00039975786149913656 0 -0.038883068348442566 -0.00040831074525913869 0 -0.038959265172091286 -0.00039975786149913656 0 -0.038946059587299228 -0.00034206632813362647 0 -0.038959265172091286 -0.00039975786149913656 0 -0.039094470110264783 -0.0002338704342438869 0 -0.038946059587299228 -0.00034206632813362647 0 -0.039009876240710367 -0.00052503189203550939 0 -0.038959265172091286 -0.00039975786149913656 0 -0.039150961082912293 -0.00046017041106466086 0 -0.039150961082912293 -0.00046017041106466086 0 -0.039248429867483607 -0.00026193266521063304 0 -0.039094470110264783 -0.0002338704342438869 0 -0.038959265172091286 -0.00039975786149913656 0 -0.039150961082912293 -0.00046017041106466086 0 -0.039094470110264783 -0.0002338704342438869 0 -0.039150961082912293 -0.00046017041106466086 0 -0.039343881921212083 -0.00042423467697459124 0 -0.039336398852849758 -0.00059645873771738047 0 -0.039150961082912293 -0.00046017041106466086 0 -0.039248429867483607 -0.00026193266521063304 0 -0.039343881921212083 -0.00042423467697459124 0 -0.045071807101989388 -4.5053837319451361e-05 0 -0.043031928402686159 4.6475170028072403e-05 0 -0.044999984641252558 -1.5954411704947622e-09 0 -0.044999894643034034 -2.4085293380834428e-07 0 -0.044997442609842106 1.6879616558718477e-07 0 -0.041643778054914704 -0.00014589795989425696 0 -0.043031928402686159 4.6475170028072403e-05 0 -0.044651643238521659 -3.7125391804064061e-05 0 -0.044952416756978253 6.0067212268544572e-05 0 -0.044251905568118532 3.7984900991586807e-05 0 -0.039094470110264783 -0.0002338704342438869 0 -0.038872408177846624 -0.00032042247772980553 0 -0.039319645439360638 6.7142814055752646e-05 0 -0.039248429867483607 -0.00026193266521063304 0 -0.039094470110264783 -0.0002338704342438869 0 -0.039319645439360638 6.7142814055752646e-05 0 -0.044999729018676597 1.1142290502520889e-08 0 -0.045071807101989388 -4.5053837319451361e-05 0 -0.045000007091442293 4.4129323517414385e-12 0 -0.044999984641252558 -1.5954411704947622e-09 0 -0.044999894643034034 -2.4085293380834428e-07 0 -0.044999371088757179 -1.345547528081371e-09 0 -0.044651643238521659 -3.7125391804064061e-05 0 -0.044952416756978253 6.0067212268544572e-05 0 -0.038883068348442566 -0.00040831074525913869 0 -0.038872408177846624 -0.00032042247772980553 0 -0.038946059587299228 -0.00034206632813362647 0 -0.039094470110264783 -0.0002338704342438869 0 -0.038872408177846624 -0.00032042247772980553 0 -0.038946059587299228 -0.00034206632813362647 0 -0.044698231036176282 9.1406193441632909e-05 0 -0.044622868418384184 -1.8611091023236252e-05 0 -0.044957828551335413 -6.1581857830205333e-06 0 -0.044698231036176282 9.1406193441632909e-05 0 -0.044622868418384184 -1.8611091023236252e-05 0 -0.044047018037520681 6.5491036998191728e-05 0 -0.040556463289724183 -1.0214394697189644e-05 0 -0.039887299275411563 0.0004115207522204493 0 -0.041844217058131038 0.00074004689089526246 0 -0.044999892860646588 1.2594564403861278e-07 0 -0.044999996645201532 2.4969154674882507e-09 0 -0.045000002000240652 -1.1608511786376934e-09 0 -0.039887299275411563 0.0004115207522204493 0 -0.039561051709259776 -3.81382051357529e-05 0 -0.039825682420484967 -0.00017313580958970342 0 -0.040556463289724183 -1.0214394697189644e-05 0 -0.039887299275411563 0.0004115207522204493 0 -0.039825682420484967 -0.00017313580958970342 0 -0.045135234171465526 5.5124576235532024e-05 0 -0.043031928402686159 4.6475170028072403e-05 0 -0.039887299275411563 0.0004115207522204493 0 -0.039319645439360638 6.7142814055752646e-05 0 -0.039561051709259776 -3.81382051357529e-05 0 -0.042054974812906223 0.00023390224404986744 0 -0.043031928402686159 4.6475170028072403e-05 0 -0.044999984641252558 -1.5954411704947622e-09 0 -0.044999996645201532 2.4969154674882507e-09 0 -0.044997442609842106 1.6879616558718477e-07 0 -0.044999892860646588 1.2594564403861278e-07 0 -0.044999996645201532 2.4969154674882507e-09 0 -0.044997442609842106 1.6879616558718477e-07 0 -0.039319645439360638 6.7142814055752646e-05 0 -0.039561051709259776 -3.81382051357529e-05 0 -0.039391205902595511 -0.00019441602401884026 0 -0.039248429867483607 -0.00026193266521063304 0 -0.039319645439360638 6.7142814055752646e-05 0 -0.039391205902595511 -0.00019441602401884026 0 -0.039533803238238019 -0.00033359150362764566 0 -0.039730972312606735 -0.00046806850685872001 0 -0.039825682420484967 -0.00017313580958970342 0 -0.039561051709259776 -3.81382051357529e-05 0 -0.039533803238238019 -0.00033359150362764566 0 -0.039391205902595511 -0.00019441602401884026 0 -0.039561051709259776 -3.81382051357529e-05 0 -0.039533803238238019 -0.00033359150362764566 0 -0.039825682420484967 -0.00017313580958970342 0 -0.039248429867483607 -0.00026193266521063304 0 -0.039391205902595511 -0.00019441602401884026 0 -0.039343881921212083 -0.00042423467697459124 0 -0.039533803238238019 -0.00033359150362764566 0 -0.039391205902595511 -0.00019441602401884026 0 -0.039343881921212083 -0.00042423467697459124 0 -0.039533803238238019 -0.00033359150362764566 0 -0.039343881921212083 -0.00042423467697459124 0 -0.039495369930811292 -0.00054428879987093021 0 -0.039343881921212083 -0.00042423467697459124 0 -0.039495369930811292 -0.00054428879987093021 0 -0.039336398852849758 -0.00059645873771738047 0 -0.039533803238238019 -0.00033359150362764566 0 -0.039495369930811292 -0.00054428879987093021 0 -0.039730972312606735 -0.00046806850685872001 0 -0.039495369930811292 -0.00054428879987093021 0 -0.039730972312606735 -0.00046806850685872001 0 -0.039663476193688409 -0.0005967934745939726 0 -0.039730972312606735 -0.00046806850685872001 0 -0.040228147462292987 -0.00056686006862765876 0 -0.039663476193688409 -0.0005967934745939726 0 -0.039730972312606735 -0.00046806850685872001 0 -0.039825682420484967 -0.00017313580958970342 0 -0.040228147462292987 -0.00056686006862765876 0 -0.040556463289724183 -1.0214394697189644e-05 0 -0.039825682420484967 -0.00017313580958970342 0 -0.040228147462292987 -0.00056686006862765876 0 -0.040228147462292987 -0.00056686006862765876 0 -0.039663476193688409 -0.0005967934745939726 0 -0.039564958635039491 -0.00073808870194825053 0 -0.040228147462292987 -0.00056686006862765876 0 -0.038566955591113276 -0.0028239095214556776 0 -0.04189514367733644 -0.0019591268415199894 0 -0.040228147462292987 -0.00056686006862765876 0 -0.038566955591113276 -0.0028239095214556776 0 -0.03831862227110365 -0.0027184124303924048 0 -0.038566955591113276 -0.0028239095214556776 0 -0.038675676518355892 -0.0025771166879457962 0 -0.039151105795682227 -0.0016748358266725615 0 -0.040072524402534726 -0.00062982753469405348 0 -0.039051749581348195 -0.0016724463069414475 0 -0.03874857714719674 -0.0027245732275339996 0 -0.040566641877250148 -0.001797684438422417 0 -0.038566955591113276 -0.0028239095214556776 0 -0.03831862227110365 -0.0027184124303924048 0 -0.038480430928662879 -0.0026852339432423271 0 -0.038566955591113276 -0.0028239095214556776 0 -0.038675676518355892 -0.0025771166879457962 0 -0.038463490188090081 -0.0027725714577147976 0 -0.039495369930811292 -0.00054428879987093021 0 -0.039336398852849758 -0.00059645873771738047 0 -0.039455630326343236 -0.000667925954819676 0 -0.039455630326343236 -0.000667925954819676 0 -0.039663476193688409 -0.0005967934745939726 0 -0.039564958635039491 -0.00073808870194825053 0 -0.039495369930811292 -0.00054428879987093021 0 -0.039455630326343236 -0.000667925954819676 0 -0.039663476193688409 -0.0005967934745939726 0 -0.039320456143459789 -0.00074444151408300271 0 -0.039455630326343236 -0.000667925954819676 0 -0.039564958635039491 -0.00073808870194825053 0 -0.039320456143459789 -0.00074444151408300271 0 -0.039336398852849758 -0.00059645873771738047 0 -0.039455630326343236 -0.000667925954819676 0 -0.038329228805465895 -0.0021084706811766974 0 -0.038900349480487609 -0.0023567987269228026 0 -0.038480430928662879 -0.0026852339432423271 0 -0.039051749581348195 -0.0016724463069414475 0 -0.039076163575132411 -0.0015951576063968958 0 -0.039320456143459789 -0.00074444151408300271 0 -0.039564958635039491 -0.00073808870194825053 0 -0.039304989379822713 -0.00085855980656615973 0 -0.03831862227110365 -0.0027184124303924048 0 -0.038900349480487609 -0.0023567987269228026 0 -0.038480430928662879 -0.0026852339432423271 0 -0.038329228805465895 -0.0021084706811766974 0 -0.038292498541238229 -0.0029109136166399195 0 -0.038480430928662879 -0.0026852339432423271 0 -0.038329228805465895 -0.0021084706811766974 0 -0.038292498541238229 -0.0029109136166399195 0 -0.037532236634190787 -0.002366220013494757 0 -0.038463490188090081 -0.0027725714577147976 0 -0.038292498541238229 -0.0029109136166399195 0 -0.038480430928662879 -0.0026852339432423271 0 -0.038675676518355892 -0.0025771166879457962 0 -0.038463490188090081 -0.0027725714577147976 0 -0.038292498541238229 -0.0029109136166399195 0 -0.038566955591113276 -0.0028239095214556776 0 -0.038463490188090081 -0.0027725714577147976 0 -0.038480430928662879 -0.0026852339432423271 0 -0.038292498541238229 -0.0029109136166399195 0 -0.039853678658018983 -0.0028388001699058735 0 -0.038956521080266544 -0.0025017519065060126 0 -0.038292498541238229 -0.0029109136166399195 0 -0.036586168064347058 -0.0028221180884133472 0 -0.037532236634190787 -0.002366220013494757 0 -0.038095791963948737 -0.0030340872781056093 0 -0.038890373662017037 -0.0026204230961363621 0 -0.038292498541238229 -0.0029109136166399195 0 -0.040032256040744216 -0.0035815775015174602 0 -0.039853678658018983 -0.0028388001699058735 0 -0.038675676518355892 -0.0025771166879457962 0 -0.038292498541238229 -0.0029109136166399195 0 -0.038956521080266544 -0.0025017519065060126 0 -0.04018138650835202 -0.0037616989843458652 0 -0.039853678658018983 -0.0028388001699058735 0 -0.040959682918462421 -0.0027652901260804708 0 -0.038890373662017037 -0.0026204230961363621 0 -0.039592284323493016 -0.0032498381608412233 0 -0.04018138650835202 -0.0037616989843458652 0 -0.040959682918462421 -0.0027652901260804708 0 -0.041102886756500208 -0.0037816053922379339 0 -0.040959682918462421 -0.0027652901260804708 0 -0.04014328158173721 -0.0022492278692303955 0 -0.040623368312003701 -0.0017371865134840671 0 -0.040959682918462421 -0.0027652901260804708 0 -0.040623368312003701 -0.0017371865134840671 0 -0.041776982811398924 -0.0021003424877818022 0 -0.039853678658018983 -0.0028388001699058735 0 -0.040959682918462421 -0.0027652901260804708 0 -0.04014328158173721 -0.0022492278692303955 0 -0.039853678658018983 -0.0028388001699058735 0 -0.04014328158173721 -0.0022492278692303955 0 -0.039151105795682227 -0.0016748358266725615 0 -0.04014328158173721 -0.0022492278692303955 0 -0.040623368312003701 -0.0017371865134840671 0 -0.039151105795682227 -0.0016748358266725615 0 -0.038675676518355892 -0.0025771166879457962 0 -0.038956521080266544 -0.0025017519065060126 0 -0.039151105795682227 -0.0016748358266725615 0 -0.039853678658018983 -0.0028388001699058735 0 -0.038956521080266544 -0.0025017519065060126 0 -0.039151105795682227 -0.0016748358266725615 0 -0.040228147462292987 -0.00056686006862765876 0 -0.04189514367733644 -0.0019591268415199894 0 -0.041591588269392507 -0.00050860300717309116 0 -0.040556463289724183 -1.0214394697189644e-05 0 -0.040228147462292987 -0.00056686006862765876 0 -0.041591588269392507 -0.00050860300717309116 0 -0.041591588269392507 -0.00050860300717309116 0 -0.043015331079000706 -0.00045239671746368317 0 -0.041844217058131038 0.00074004689089526246 0 -0.04189514367733644 -0.0019591268415199894 0 -0.041591588269392507 -0.00050860300717309116 0 -0.043015331079000706 -0.00045239671746368317 0 -0.040623368312003701 -0.0017371865134840671 0 -0.039151105795682227 -0.0016748358266725615 0 -0.041420452519145244 -0.00041908159073530949 0 -0.04189514367733644 -0.0019591268415199894 0 -0.043015331079000706 -0.00045239671746368317 0 -0.044827649488157172 -0.00059091724634427521 0 -0.040566641877250148 -0.001797684438422417 0 -0.043070777297790692 -0.00053201888727199707 0 -0.040623368312003701 -0.0017371865134840671 0 -0.041420452519145244 -0.00041908159073530949 0 -0.041463174122524052 -0.0013852687688100315 0 -0.043015331079000706 -0.00045239671746368317 0 -0.044714207413456414 8.1514205588885494e-05 0 -0.044827649488157172 -0.00059091724634427521 0 -0.044999801551876467 1.7010455643192722e-08 0 -0.044714207413456414 8.1514205588885494e-05 0 -0.044957828551335413 -6.1581857830205333e-06 0 -0.043015331079000706 -0.00045239671746368317 0 -0.044714207413456414 8.1514205588885494e-05 0 -0.041844217058131038 0.00074004689089526246 0 -0.044999801551876467 1.7010455643192722e-08 0 -0.044714207413456414 8.1514205588885494e-05 0 -0.044999550951638115 9.0286494705473384e-08 0 -0.044547296676898412 0.00013922875538084338 0 -0.043480739041885888 0.00029599077831748733 0 -0.044698231036176282 9.1406193441632909e-05 0 -0.044999801551876467 1.7010455643192722e-08 0 -0.044957828551335413 -6.1581857830205333e-06 0 -0.042054974812906223 0.00023390224404986744 0 -0.043480739041885888 0.00029599077831748733 0 -0.045135234171465526 5.5124576235532024e-05 0 -0.044999560602733669 -9.788927028555412e-09 0 -0.040556463289724183 -1.0214394697189644e-05 0 -0.041591588269392507 -0.00050860300717309116 0 -0.041844217058131038 0.00074004689089526246 0 -0.045060444670088268 -1.3675821098123375e-06 0 -0.045000298243863909 -1.3331181773173972e-09 0 -0.044970757658756189 -2.0170706593443327e-05 0 -0.045060444670088268 -1.3675821098123375e-06 0 -0.044970757658756189 -2.0170706593443327e-05 0 -0.044827649488157172 -0.00059091724634427521 0 -0.045000298243863909 -1.3331181773173972e-09 0 -0.044999550951638115 9.0286494705473384e-08 0 -0.044970757658756189 -2.0170706593443327e-05 0 -0.044714207413456414 8.1514205588885494e-05 0 -0.044999550951638115 9.0286494705473384e-08 0 -0.044970757658756189 -2.0170706593443327e-05 0 -0.044714207413456414 8.1514205588885494e-05 0 -0.044970757658756189 -2.0170706593443327e-05 0 -0.044827649488157172 -0.00059091724634427521 0 -0.043806767997293945 0.00024924956545167333 0 -0.041420452519145244 -0.00041908159073530949 0 -0.042937001398538614 -0.00076894624620646424 0 -0.04438204814746969 6.1406663210192562e-05 0 -0.043070777297790692 -0.00053201888727199707 0 -0.041420452519145244 -0.00041908159073530949 0 -0.042018622011921247 -0.0012433849116160274 0 -0.041463174122524052 -0.0013852687688100315 0 -0.042018622011921247 -0.0012433849116160274 0 -0.042937001398538614 -0.00076894624620646424 0 -0.042790827184451374 -0.00170142685640539 0 -0.041420452519145244 -0.00041908159073530949 0 -0.042018622011921247 -0.0012433849116160274 0 -0.042937001398538614 -0.00076894624620646424 0 -0.042937001398538614 -0.00076894624620646424 0 -0.043722951888303226 -0.00050669918090799572 0 -0.043768446186290957 -0.0012292211833726588 0 -0.042937001398538614 -0.00076894624620646424 0 -0.043768446186290957 -0.0012292211833726588 0 -0.042790827184451374 -0.00170142685640539 0 -0.043806767997293945 0.00024924956545167333 0 -0.042937001398538614 -0.00076894624620646424 0 -0.043722951888303226 -0.00050669918090799572 0 -0.044367605814245106 -0.0003871914030188081 0 -0.043806767997293945 0.00024924956545167333 0 -0.043722951888303226 -0.00050669918090799572 0 -0.044367605814245106 -0.0003871914030188081 0 -0.043722951888303226 -0.00050669918090799572 0 -0.043768446186290957 -0.0012292211833726588 0 -0.044761653339488866 -0.0018557796597654078 0 -0.043768446186290957 -0.0012292211833726588 0 -0.043571302684782619 -0.0021216467656904529 0 -0.043768446186290957 -0.0012292211833726588 0 -0.042790827184451374 -0.00170142685640539 0 -0.043571302684782619 -0.0021216467656904529 0 -0.042790827184451374 -0.00170142685640539 0 -0.042820192353390379 -0.0025755081778395614 0 -0.043571302684782619 -0.0021216467656904529 0 -0.042820192353390379 -0.0025755081778395614 0 -0.043895802624189739 -0.0026974817295437317 0 -0.043571302684782619 -0.0021216467656904529 0 -0.044761653339488866 -0.0018557796597654078 0 -0.043895802624189739 -0.0026974817295437317 0 -0.043571302684782619 -0.0021216467656904529 0 -0.042018622011921247 -0.0012433849116160274 0 -0.041463174122524052 -0.0013852687688100315 0 -0.041776982811398924 -0.0021003424877818022 0 -0.040623368312003701 -0.0017371865134840671 0 -0.041463174122524052 -0.0013852687688100315 0 -0.041776982811398924 -0.0021003424877818022 0 -0.042018622011921247 -0.0012433849116160274 0 -0.042790827184451374 -0.00170142685640539 0 -0.041776982811398924 -0.0021003424877818022 0 -0.042790827184451374 -0.00170142685640539 0 -0.042820192353390379 -0.0025755081778395614 0 -0.041776982811398924 -0.0021003424877818022 0 -0.042820192353390379 -0.0025755081778395614 0 -0.041776982811398924 -0.0021003424877818022 0 -0.041960536172843697 -0.0030120434313795417 0 -0.040959682918462421 -0.0027652901260804708 0 -0.041776982811398924 -0.0021003424877818022 0 -0.041960536172843697 -0.0030120434313795417 0 -0.041102886756500208 -0.0037816053922379339 0 -0.042549916283702804 -0.0036188532773837379 0 -0.04231579459732597 -0.004145212824370987 0 -0.041258278194228344 -0.0037764188023334672 0 -0.042861468445698235 -0.0036686023904422835 0 -0.04018138650835202 -0.0037616989843458652 0 -0.041102886756500208 -0.0037816053922379339 0 -0.04231579459732597 -0.004145212824370987 0 -0.038890373662017037 -0.0026204230961363621 0 -0.040502647991793463 -0.0030342956796927945 0 -0.041960536172843697 -0.0030120434313795417 0 -0.041102886756500208 -0.0037816053922379339 0 -0.043180602812700628 -0.0036176487607906412 0 -0.040959682918462421 -0.0027652901260804708 0 -0.041960536172843697 -0.0030120434313795417 0 -0.041102886756500208 -0.0037816053922379339 0 -0.042820192353390379 -0.0025755081778395614 0 -0.041960536172843697 -0.0030120434313795417 0 -0.043180602812700628 -0.0036176487607906412 0 -0.045122120907317348 -0.0033252621875847739 0 -0.043895802624189739 -0.0026974817295437317 0 -0.043180602812700628 -0.0036176487607906412 0 -0.044088651907385056 -0.0022507090139871067 0 -0.042861468445698235 -0.0036686023904422835 0 -0.042820192353390379 -0.0025755081778395614 0 -0.043895802624189739 -0.0026974817295437317 0 -0.043180602812700628 -0.0036176487607906412 0 -0.041512525519062073 -0.0021551942109761233 0 -0.040502647991793463 -0.0030342956796927945 0 -0.038567884552844683 -0.0016283334282718941 0 -0.038583216463702032 -0.0016520824609801209 0 -0.038558832843666485 -0.0016123389428154254 0 -0.043864921766533817 -0.0043869656557470335 0 -0.042549916283702804 -0.0036188532773837379 0 -0.04231579459732597 -0.004145212824370987 0 -0.038558832843666485 -0.0016123389428154254 0 -0.038543220269013446 -0.0015879376120345322 0 -0.038561620849830315 -0.0015987373163076114 0 -0.038583216463702032 -0.0016520824609801209 0 -0.038558832843666485 -0.0016123389428154254 0 -0.038561620849830315 -0.0015987373163076114 0 -0.038583216463702032 -0.0016520824609801209 0 -0.038605040884475396 -0.0016195380232381358 0 -0.038561620849830315 -0.0015987373163076114 0 -0.03862982414118038 -0.0016762700572873748 0 -0.038583216463702032 -0.0016520824609801209 0 -0.038605040884475396 -0.0016195380232381358 0 -0.036586168064347058 -0.0028221180884133472 0 -0.036914341720333144 -0.0013729240640539917 0 -0.035935744226382967 -0.0010718287073416162 0 -0.038890373662017037 -0.0026204230961363621 0 -0.037121378814910705 -0.001264186734783987 0 -0.037532236634190787 -0.002366220013494757 0 -0.037640076383479729 -0.0018014360671896837 0 -0.036914341720333144 -0.0013729240640539917 0 -0.036586168064347058 -0.0028221180884133472 0 -0.037532236634190787 -0.002366220013494757 0 -0.036914341720333144 -0.0013729240640539917 0 -0.037930883888998845 -0.0013570151524197409 0 -0.037640076383479729 -0.0018014360671896837 0 -0.036914341720333144 -0.0013729240640539917 0 -0.036914341720333144 -0.0013729240640539917 0 -0.0359398763527694 -0.00085360144766017884 0 -0.037676848936136188 -0.00064544770238177053 0 -0.037930883888998845 -0.0013570151524197409 0 -0.036914341720333144 -0.0013729240640539917 0 -0.037676848936136188 -0.00064544770238177053 0 -0.036914341720333144 -0.0013729240640539917 0 -0.035935744226382967 -0.0010718287073416162 0 -0.0359398763527694 -0.00085360144766017884 0 -0.035935744226382967 -0.0010718287073416162 0 -0.0359398763527694 -0.00085360144766017884 0 -0.035708156517980753 -0.0008116213204063693 0 -0.037121378814910705 -0.001264186734783987 0 -0.037083371077471006 -0.0011132124088552415 0 -0.0359398763527694 -0.00085360144766017884 0 -0.035436345910807382 -0.00087047774884278512 0 -0.035708156517980753 -0.0008116213204063693 0 -0.0359398763527694 -0.00085360144766017884 0 -0.035436345910807382 -0.00087047774884278512 0 -0.035056538180989118 -0.00056638578662258877 0 -0.034803739510198155 -0.00088242397887204854 0 -0.035436345910807382 -0.00087047774884278512 0 -0.035056538180989118 -0.00056638578662258877 0 -0.035928013943008659 -0.00082329122146396964 0 -0.036317907216145341 -0.00065475083115685239 0 -0.035436345910807382 -0.00087047774884278512 0 -0.035429650335411213 -0.001126206128140366 0 -0.034985781338339794 -0.0011842345830360042 0 -0.034803739510198155 -0.00088242397887204854 0 -0.035436345910807382 -0.00087047774884278512 0 -0.034985781338339794 -0.0011842345830360042 0 -0.035436345910807382 -0.00087047774884278512 0 -0.035429650335411213 -0.001126206128140366 0 -0.035708156517980753 -0.0008116213204063693 0 -0.035429650335411213 -0.001126206128140366 0 -0.035708156517980753 -0.0008116213204063693 0 -0.035736159921593208 -0.0013821608334936037 0 -0.038490920805893128 -0.0014732349742577527 0 -0.038513399716367989 -0.0015622983179797894 0 -0.03858660588163159 -0.0015596148028377715 0 -0.037083371077471006 -0.0011132124088552415 0 -0.03777689605937179 -0.0017755460288422416 0 -0.038490920805893128 -0.0014732349742577527 0 -0.03858660588163159 -0.0015596148028377715 0 -0.038534616334506673 -0.0013995307104518553 0 -0.038616819432397531 -0.0014182355595488564 0 -0.038462463642868101 -0.0015597530526138209 0 -0.038366212469216468 -0.0015352616999630695 0 -0.038490920805893128 -0.0014732349742577527 0 -0.038513399716367989 -0.0015622983179797894 0 -0.038366212469216468 -0.0015352616999630695 0 -0.038490920805893128 -0.0014732349742577527 0 -0.038415408918594053 -0.0013756227369948633 0 -0.038513399716367989 -0.0015622983179797894 0 -0.038543220269013446 -0.0015879376120345322 0 -0.038561620849830315 -0.0015987373163076114 0 -0.03854166368535273 -0.0015821117082579154 0 -0.038513399716367989 -0.0015622983179797894 0 -0.038543220269013446 -0.0015879376120345322 0 -0.038605040884475396 -0.0016195380232381358 0 -0.03858660588163159 -0.0015596148028377715 0 -0.038561620849830315 -0.0015987373163076114 0 -0.038513399716367989 -0.0015622983179797894 0 -0.03858660588163159 -0.0015596148028377715 0 -0.038561620849830315 -0.0015987373163076114 0 -0.035736159921593208 -0.0013821608334936037 0 -0.035455287287411694 -0.001737388423096317 0 -0.035771220498486238 -0.0019412078427942933 0 -0.038415408918594053 -0.0013756227369948633 0 -0.038534616334506673 -0.0013995307104518553 0 -0.038418715154563923 -0.0012115236657353429 0 -0.03777689605937179 -0.0017755460288422416 0 -0.032061810775333648 -0.00030643771535795376 0 -0.03606590884222665 -0.00030410957933926959 0 -0.036011521384207185 -5.8422320943485883e-05 0 -0.035842742003135329 -0.00031065999669049307 0 -0.03771320555630308 -0.00050459710259499551 0 -0.032061810775333648 -0.00030643771535795376 0 -0.038490920805893128 -0.0014732349742577527 0 -0.038415408918594053 -0.0013756227369948633 0 -0.038534616334506673 -0.0013995307104518553 0 -0.038616819432397531 -0.0014182355595488564 0 -0.03771320555630308 -0.00050459710259499551 0 -0.035429650335411213 -0.001126206128140366 0 -0.035736159921593208 -0.0013821608334936037 0 -0.035269291216392579 -0.0014638876213039504 0 -0.035429650335411213 -0.001126206128140366 0 -0.035269291216392579 -0.0014638876213039504 0 -0.034985781338339794 -0.0011842345830360042 0 -0.035269291216392579 -0.0014638876213039504 0 -0.034985781338339794 -0.0011842345830360042 0 -0.034866806837989019 -0.0015456721781856807 0 -0.035269291216392579 -0.0014638876213039504 0 -0.034866806837989019 -0.0015456721781856807 0 -0.035043685665118791 -0.0018958423930845278 0 -0.034866806837989019 -0.0015456721781856807 0 -0.035043685665118791 -0.0018958423930845278 0 -0.0345030361019295 -0.0017901331633746228 0 -0.035269291216392579 -0.0014638876213039504 0 -0.035455287287411694 -0.001737388423096317 0 -0.035043685665118791 -0.0018958423930845278 0 -0.035736159921593208 -0.0013821608334936037 0 -0.035269291216392579 -0.0014638876213039504 0 -0.035455287287411694 -0.001737388423096317 0 -0.035455287287411694 -0.001737388423096317 0 -0.035364284542079939 -0.002066881905630358 0 -0.035043685665118791 -0.0018958423930845278 0 -0.035364284542079939 -0.002066881905630358 0 -0.035043685665118791 -0.0018958423930845278 0 -0.035071284135888468 -0.0023261103020551441 0 -0.035043685665118791 -0.0018958423930845278 0 -0.035071284135888468 -0.0023261103020551441 0 -0.034733458944791594 -0.0022055690892743914 0 -0.035071284135888468 -0.0023261103020551441 0 -0.034757437210317037 -0.0026155061873386364 0 -0.034733458944791594 -0.0022055690892743914 0 -0.035071284135888468 -0.0023261103020551441 0 -0.035094974075436429 -0.0025714180417724104 0 -0.034757437210317037 -0.0026155061873386364 0 -0.035364284542079939 -0.002066881905630358 0 -0.035071284135888468 -0.0023261103020551441 0 -0.035430068267394567 -0.0024526587950219653 0 -0.035071284135888468 -0.0023261103020551441 0 -0.035430068267394567 -0.0024526587950219653 0 -0.035094974075436429 -0.0025714180417724104 0 -0.020543921194347881 0.001791253765944601 0 -0.020296845895270605 0.002137041763809174 0 -0.020374834511489699 0.0021477523883978752 0 -0.020488449886569966 0.0020660514915386797 0 -0.020543921194347881 0.001791253765944601 0 -0.020374834511489699 0.0021477523883978752 0 -0.035455287287411694 -0.001737388423096317 0 -0.035364284542079939 -0.002066881905630358 0 -0.035771220498486238 -0.0019412078427942933 0 -0.035364284542079939 -0.002066881905630358 0 -0.035430068267394567 -0.0024526587950219653 0 -0.035771220498486238 -0.0019412078427942933 0 -0.027307485520746352 -0.00048695273787348684 0 -0.032061810775333648 -0.00030643771535795376 0 -0.03606590884222665 -0.00030410957933926959 0 -0.035842742003135329 -0.00031065999669049307 0 -0.036007405057462916 -0.00044042203671256641 0 -0.035842742003135329 -0.00031065999669049307 0 -0.036007405057462916 -0.00044042203671256641 0 -0.035878316575209381 -0.0005557927464242573 0 -0.032061810775333648 -0.00030643771535795376 0 -0.027815717624940613 0.0010327998849342765 0 -0.036037296648865569 -0.00054042317849415896 0 -0.036007405057462916 -0.00044042203671256641 0 -0.035878316575209381 -0.0005557927464242573 0 -0.035878316575209381 -0.0005557927464242573 0 -0.035950346138611998 -0.00063286797145318261 0 -0.035859387472788523 -0.00078663334586929123 0 -0.020296845895270605 0.002137041763809174 0 -0.020374834511489699 0.0021477523883978752 0 -0.020349942908420435 0.0025720595244540611 0 -0.036037296648865569 -0.00054042317849415896 0 -0.035878316575209381 -0.0005557927464242573 0 -0.035950346138611998 -0.00063286797145318261 0 -0.020357449043464371 0.0021805262466852555 0 -0.020251750192661119 0.002429288135172738 0 -0.020374834511489699 0.0021477523883978752 0 -0.020308193983215157 0.002221935081984133 0 -0.020164760448966403 0.0023024522537488084 0 -0.020488449886569966 0.0020660514915386797 0 -0.020401404877418448 0.0021672452486688775 0 -0.020374834511489699 0.0021477523883978752 0 -0.020401404877418448 0.0021672452486688775 0 -0.020374834511489699 0.0021477523883978752 0 -0.020308193983215157 0.002221935081984133 0 -0.020308193983215157 0.002221935081984133 0 -0.020368050169396041 0.0022548481014634959 0 -0.020268250535396982 0.0022684826038733351 0 -0.020401404877418448 0.0021672452486688775 0 -0.020308193983215157 0.002221935081984133 0 -0.020368050169396041 0.0022548481014634959 0 -0.020368050169396041 0.0022548481014634959 0 -0.020253938176185083 0.0022884862541737517 0 -0.020268250535396982 0.0022684826038733351 0 -0.020253938176185083 0.0022884862541737517 0 -0.020268250535396982 0.0022684826038733351 0 -0.020220877514296395 0.0022867706404746785 0 -0.020308193983215157 0.002221935081984133 0 -0.020268250535396982 0.0022684826038733351 0 -0.020164760448966403 0.0023024522537488084 0 -0.020268250535396982 0.0022684826038733351 0 -0.020220877514296395 0.0022867706404746785 0 -0.020164760448966403 0.0023024522537488084 0 -0.020220877514296395 0.0022867706404746785 0 -0.020164760448966403 0.0023024522537488084 0 -0.020148767402343424 0.0022881043472165051 0 -0.020220877514296395 0.0022867706404746785 0 -0.020201865242743193 0.002290636046050779 0 -0.020148767402343424 0.0022881043472165051 0 -0.020201865242743193 0.002290636046050779 0 -0.020148767402343424 0.0022881043472165051 0 -0.020139047165169861 0.0022847571280946474 0 -0.020253938176185083 0.0022884862541737517 0 -0.020220877514296395 0.0022867706404746785 0 -0.020201865242743193 0.002290636046050779 0 -0.027815717624940613 0.0010327998849342765 0 -0.025945731743450051 0.0009940396948473595 0 -0.020296845895270605 0.002137041763809174 0 -0.020349942908420435 0.0025720595244540611 0 -0.020232755945838978 0.0026100497624637858 0 -0.020349942908420435 0.0025720595244540611 0 -0.020267735325366128 0.0026145880212096037 0 -0.020232755945838978 0.0026100497624637858 0 -0.024404409236659989 0.0010057091367101601 0 -0.025945731743450051 0.0009940396948473595 0 -0.019880353338750472 0.0040538274226626283 0 -0.025945731743450051 0.0009940396948473595 0 -0.020251750192661119 0.002429288135172738 0 -0.020106355680983491 0.0024249327193069919 0 -0.020239394160602373 0.0027692480889829792 0 -0.020267735325366128 0.0026145880212096037 0 -0.020251085474627249 0.0026123187559003096 0 -0.020239394160602373 0.0027692480889829792 0 -0.020267735325366128 0.0026145880212096037 0 -0.020130014957713594 0.0026318678043400021 0 -0.020349942908420435 0.0025720595244540611 0 -0.020267735325366128 0.0026145880212096037 0 -0.020130014957713594 0.0026318678043400021 0 -0.020164760448966403 0.0023024522537488084 0 -0.020148767402343424 0.0022881043472165051 0 -0.020097400394080221 0.002272387629868236 0 -0.020164760448966403 0.0023024522537488084 0 -0.020097400394080221 0.002272387629868236 0 -0.020069160009119819 0.0022522524265921559 0 -0.020148767402343424 0.0022881043472165051 0 -0.020077363620690861 0.0022664884909494492 0 -0.020139047165169861 0.0022847571280946474 0 -0.020148767402343424 0.0022881043472165051 0 -0.020077363620690861 0.0022664884909494492 0 -0.020097400394080221 0.002272387629868236 0 -0.020077363620690861 0.0022664884909494492 0 -0.020097400394080221 0.002272387629868236 0 -0.02001518878441429 0.0022300255406395961 0 -0.020097400394080221 0.002272387629868236 0 -0.02001518878441429 0.0022300255406395961 0 -0.020069160009119819 0.0022522524265921559 0 -0.020077363620690861 0.0022664884909494492 0 -0.02001518878441429 0.0022300255406395961 0 -0.0199948854753948 0.0022379176611794839 0 -0.02001518878441429 0.0022300255406395961 0 -0.020069160009119819 0.0022522524265921559 0 -0.019979474713558546 0.0021891177324256392 0 -0.020239394160602373 0.0027692480889829792 0 -0.020240164224835201 0.0023516079766763543 0 -0.020130014957713594 0.0026318678043400021 0 -0.024752107819716242 0.0027286116584704953 0 -0.020309307854971471 0.0027955320228376882 0 -0.019899833196229035 0.0022003055027859228 0 -0.019942326411693644 0.0022746978121884398 0 -0.019824562214068798 0.0021840098277396466 0 -0.024752107819716242 0.0027286116584704953 0 -0.023291621896396573 0.0031094737351018589 0 -0.019899833196229035 0.0022003055027859228 0 -0.0199948854753948 0.0022379176611794839 0 -0.019942326411693644 0.0022746978121884398 0 -0.02001518878441429 0.0022300255406395961 0 -0.0199948854753948 0.0022379176611794839 0 -0.019915851948827643 0.0021764357327917604 0 -0.019899833196229035 0.0022003055027859228 0 -0.0199948854753948 0.0022379176611794839 0 -0.019915851948827643 0.0021764357327917604 0 -0.024752107819716242 0.0027286116584704953 0 -0.022269132117345533 0.001950299434704175 0 -0.0199948854753948 0.0022379176611794839 0 -0.020084261109757317 0.0022805078666549281 0 -0.019942326411693644 0.0022746978121884398 0 -0.020084261109757317 0.0022805078666549281 0 -0.019942326411693644 0.0022746978121884398 0 -0.020175133088327659 0.0023104434553607024 0 -0.020077363620690861 0.0022664884909494492 0 -0.0199948854753948 0.0022379176611794839 0 -0.020084261109757317 0.0022805078666549281 0 -0.020077363620690861 0.0022664884909494492 0 -0.020084261109757317 0.0022805078666549281 0 -0.020139047165169861 0.0022847571280946474 0 -0.029538892058765264 0.0026131132962443748 0 -0.029971001444222385 0.0014303365964923186 0 -0.030553211741676981 0.0023393213632813261 0 -0.029538892058765264 0.0026131132962443748 0 -0.029971001444222385 0.0014303365964923186 0 -0.028674463236011343 0.00085650018868699631 0 -0.024752107819716242 0.0027286116584704953 0 -0.028657808547829247 0.00046234334809675106 0 -0.025473583220275924 0.0020401208819241555 0 -0.025406351354484349 0.0018584382554116714 0 -0.025371272615486582 0.0018834738560697551 0 -0.020084261109757317 0.0022805078666549281 0 -0.020139047165169861 0.0022847571280946474 0 -0.020175133088327659 0.0023104434553607024 0 -0.020201865242743193 0.002290636046050779 0 -0.020139047165169861 0.0022847571280946474 0 -0.020175133088327659 0.0023104434553607024 0 -0.028657808547829247 0.00046234334809675106 0 -0.022269132117345533 0.001950299434704175 0 -0.020368050169396041 0.0022548481014634959 0 -0.020253938176185083 0.0022884862541737517 0 -0.020175133088327659 0.0023104434553607024 0 -0.020368050169396041 0.0022548481014634959 0 -0.020489351584176241 0.0022881222049591574 0 -0.020447438506065424 0.0023199823067009142 0 -0.020781211440029281 0.0017677234520849846 0 -0.022269132117345533 0.001950299434704175 0 -0.020253938176185083 0.0022884862541737517 0 -0.020201865242743193 0.002290636046050779 0 -0.020175133088327659 0.0023104434553607024 0 -0.020488449886569966 0.0020660514915386797 0 -0.020401404877418448 0.0021672452486688775 0 -0.020489351584176241 0.0022881222049591574 0 -0.035430068267394567 -0.0024526587950219653 0 -0.03512014449451626 -0.0028818194222084404 0 -0.035094974075436429 -0.0025714180417724104 0 -0.027307485520746352 -0.00048695273787348684 0 -0.028657808547829247 0.00046234334809675106 0 -0.020401404877418448 0.0021672452486688775 0 -0.020368050169396041 0.0022548481014634959 0 -0.020489351584176241 0.0022881222049591574 0 -0.028657808547829247 0.00046234334809675106 0 -0.033138282657889664 -0.0018595299879011298 0 -0.03512014449451626 -0.0028818194222084404 0 -0.035094974075436429 -0.0025714180417724104 0 -0.034757437210317037 -0.0026155061873386364 0 -0.029971001444222385 0.0014303365964923186 0 -0.028674463236011343 0.00085650018868699631 0 -0.030214903618147906 -0.00031211451412222515 0 -0.030214903618147906 -0.00031211451412222515 0 -0.032163886104459291 -0.00029702217881651523 0 -0.031153912674950265 0.0011932165548289334 0 -0.032163886104459291 -0.00029702217881651523 0 -0.031153912674950265 0.0011932165548289334 0 -0.032589291048019622 0.00099897742803725913 0 -0.02519505917054099 0.0030638924475117741 0 -0.025198472311490187 0.0028673368013745104 0 -0.031153912674950265 0.0011932165548289334 0 -0.031564149966661091 0.0024926795120888134 0 -0.032589291048019622 0.00099897742803725913 0 -0.029971001444222385 0.0014303365964923186 0 -0.031153912674950265 0.0011932165548289334 0 -0.030553211741676981 0.0023393213632813261 0 -0.029971001444222385 0.0014303365964923186 0 -0.030214903618147906 -0.00031211451412222515 0 -0.031153912674950265 0.0011932165548289334 0 -0.031153912674950265 0.0011932165548289334 0 -0.030553211741676981 0.0023393213632813261 0 -0.031564149966661091 0.0024926795120888134 0 -0.030553211741676981 0.0023393213632813261 0 -0.031564149966661091 0.0024926795120888134 0 -0.030541862601760207 0.0039381843135504252 0 -0.018436343842253941 0.003737951478969491 0 -0.017980568314480173 0.0038732905815680521 0 -0.018159662269710154 0.0041418401486926666 0 -0.018436343842253941 0.003737951478969491 0 -0.018235180088604169 0.0032827929313440796 0 -0.017879940606063235 0.0034719697563307763 0 -0.018235180088604169 0.0032827929313440796 0 -0.018783592681404431 0.0032379347304837733 0 -0.018398638293784821 0.0030715493088934839 0 -0.018436343842253941 0.003737951478969491 0 -0.018235180088604169 0.0032827929313440796 0 -0.018783592681404431 0.0032379347304837733 0 -0.023343072663493936 0.0035810087843150661 0 -0.022474047815184042 0.0025483440221297613 0 -0.022636819873466631 0.0022925724678132405 0 -0.029538892058765264 0.0026131132962443748 0 -0.030553211741676981 0.0023393213632813261 0 -0.030541862601760207 0.0039381843135504252 0 -0.02519505917054099 0.0030638924475117741 0 -0.023291621896396573 0.0031094737351018589 0 -0.017355673974572303 0.0034808182611495157 0 -0.017879940606063235 0.0034719697563307763 0 -0.017409155464819054 0.0030027027595770539 0 -0.018235180088604169 0.0032827929313440796 0 -0.017879940606063235 0.0034719697563307763 0 -0.017877019036059351 0.0030104281117386 0 -0.018436343842253941 0.003737951478969491 0 -0.017879940606063235 0.0034719697563307763 0 -0.017980568314480173 0.0038732905815680521 0 -0.017355673974572303 0.0034808182611495157 0 -0.017879940606063235 0.0034719697563307763 0 -0.017980568314480173 0.0038732905815680521 0 -0.017468656568632036 0.0034231345747661947 0 -0.017935796907211542 0.0038452997002473379 0 -0.017581771007846785 0.0033716134125058098 0 -0.017980568314480173 0.0038732905815680521 0 -0.017492081488203283 0.003813340779221029 0 -0.017980568314480173 0.0038732905815680521 0 -0.017492081488203283 0.003813340779221029 0 -0.017844640185874488 0.0041788853796026855 0 -0.017492081488203283 0.003813340779221029 0 -0.017844640185874488 0.0041788853796026855 0 -0.017490279108219271 0.0042094874213163313 0 -0.017980568314480173 0.0038732905815680521 0 -0.017844640185874488 0.0041788853796026855 0 -0.018159662269710154 0.0041418401486926666 0 -0.017844640185874488 0.0041788853796026855 0 -0.018159662269710154 0.0041418401486926666 0 -0.017944719605533226 0.0045278061327007069 0 -0.032163886104459291 -0.00029702217881651523 0 -0.032589291048019622 0.00099897742803725913 0 -0.033504883164388426 -0.0005136010217024579 0 -0.025198472311490187 0.0028673368013745104 0 -0.026291773429320327 0.00055444870803053983 0 -0.017844640185874488 0.0041788853796026855 0 -0.017944719605533226 0.0045278061327007069 0 -0.017490279108219271 0.0042094874213163313 0 -0.025555866644314442 -0.00010354030699618686 0 -0.025897947689700926 -0.00013485135821682885 0 -0.025724832426305896 9.4571656321572651e-05 0 -0.026291773429320327 0.00055444870803053983 0 -0.02096832216344963 0.0021663732179345477 0 -0.03347845279691411 -0.0016297191743200815 0 -0.033299072521266619 -0.0013068308405610727 0 -0.033361908139016912 -0.00076757602777694314 0 -0.030126853225310026 -0.0013248304957260138 0 -0.026291773429320327 0.00055444870803053983 0 -0.025733458571745381 -0.00036211967446421321 0 -0.025555866644314442 -0.00010354030699618686 0 -0.025897947689700926 -0.00013485135821682885 0 -0.03347845279691411 -0.0016297191743200815 0 -0.033451856971873244 -0.0018055256603722897 0 -0.033299072521266619 -0.0013068308405610727 0 -0.033451856971873244 -0.0018055256603722897 0 -0.032894060925191988 -0.0012815278927011235 0 -0.03183193412584636 -0.0013948935193953986 0 -0.033451856971873244 -0.0018055256603722897 0 -0.032894060925191988 -0.0012815278927011235 0 -0.033299072521266619 -0.0013068308405610727 0 -0.032163886104459291 -0.00029702217881651523 0 -0.033189933448236897 -0.00087816086505260226 0 -0.033504883164388426 -0.0005136010217024579 0 -0.032894060925191988 -0.0012815278927011235 0 -0.033189933448236897 -0.00087816086505260226 0 -0.032499379806566892 -0.00094997233753736263 0 -0.032163886104459291 -0.00029702217881651523 0 -0.033189933448236897 -0.00087816086505260226 0 -0.032499379806566892 -0.00094997233753736263 0 -0.032894060925191988 -0.0012815278927011235 0 -0.033299072521266619 -0.0013068308405610727 0 -0.033189933448236897 -0.00087816086505260226 0 -0.033299072521266619 -0.0013068308405610727 0 -0.033189933448236897 -0.00087816086505260226 0 -0.033361908139016912 -0.00076757602777694314 0 -0.029898032823421426 0.0013969228563151007 0 -0.026291773429320327 0.00055444870803053983 0 -0.032163886104459291 -0.00029702217881651523 0 -0.032499379806566892 -0.00094997233753736263 0 -0.03183193412584636 -0.0013948935193953986 0 -0.032894060925191988 -0.0012815278927011235 0 -0.032499379806566892 -0.00094997233753736263 0 -0.03183193412584636 -0.0013948935193953986 0 -0.033138282657889664 -0.0018595299879011298 0 -0.032885740707371769 -0.0017180573833215943 0 -0.030214903618147906 -0.00031211451412222515 0 -0.032163886104459291 -0.00029702217881651523 0 -0.03183193412584636 -0.0013948935193953986 0 -0.034757437210317037 -0.0026155061873386364 0 -0.034239345658516357 -0.0023342273820552099 0 -0.034733458944791594 -0.0022055690892743914 0 -0.035043685665118791 -0.0018958423930845278 0 -0.034733458944791594 -0.0022055690892743914 0 -0.0345030361019295 -0.0017901331633746228 0 -0.034239345658516357 -0.0023342273820552099 0 -0.034733458944791594 -0.0022055690892743914 0 -0.0345030361019295 -0.0017901331633746228 0 -0.034239345658516357 -0.0023342273820552099 0 -0.034012699373214154 -0.0017455537413572251 0 -0.0345030361019295 -0.0017901331633746228 0 -0.033429615222595216 -0.0018656266028460281 0 -0.032885740707371769 -0.0017180573833215943 0 -0.033451856971873244 -0.0018055256603722897 0 -0.034239345658516357 -0.0023342273820552099 0 -0.034012699373214154 -0.0017455537413572251 0 -0.034012699373214154 -0.0017455537413572251 0 -0.0345030361019295 -0.0017901331633746228 0 -0.034099111174168098 -0.0014268557363267017 0 -0.0345030361019295 -0.0017901331633746228 0 -0.034568034642811607 -0.0013916078092183646 0 -0.034099111174168098 -0.0014268557363267017 0 -0.034866806837989019 -0.0015456721781856807 0 -0.0345030361019295 -0.0017901331633746228 0 -0.034568034642811607 -0.0013916078092183646 0 -0.034985781338339794 -0.0011842345830360042 0 -0.034866806837989019 -0.0015456721781856807 0 -0.034568034642811607 -0.0013916078092183646 0 -0.034470136719268338 -0.0010986635452610155 0 -0.034985781338339794 -0.0011842345830360042 0 -0.034568034642811607 -0.0013916078092183646 0 -0.034158774037162561 -0.00093715010487881059 0 -0.034470136719268338 -0.0010986635452610155 0 -0.034099111174168098 -0.0014268557363267017 0 -0.034470136719268338 -0.0010986635452610155 0 -0.034568034642811607 -0.0013916078092183646 0 -0.034099111174168098 -0.0014268557363267017 0 -0.034121881132643195 -0.0014451489924362628 0 -0.033614729175431131 -0.0011336429880402438 0 -0.034158774037162561 -0.00093715010487881059 0 -0.034099111174168098 -0.0014268557363267017 0 -0.033882381667418075 -0.0011629706889513716 0 -0.034099111174168098 -0.0014268557363267017 0 -0.033622024598988477 -0.0011865234357378899 0 -0.033470928640402048 -0.0015160380452503609 0 -0.033357507785332377 -0.001277741809522682 0 -0.033470928640402048 -0.0015160380452503609 0 -0.033206401392486699 -0.0014748414304164772 0 -0.033622024598988477 -0.0011865234357378899 0 -0.033357507785332377 -0.001277741809522682 0 -0.033470928640402048 -0.0015160380452503609 0 -0.03347845279691411 -0.0016297191743200815 0 -0.033470928640402048 -0.0015160380452503609 0 -0.033206401392486699 -0.0014748414304164772 0 -0.03347845279691411 -0.0016297191743200815 0 -0.033451856971873244 -0.0018055256603722897 0 -0.033470928640402048 -0.0015160380452503609 0 -0.033451856971873244 -0.0018055256603722897 0 -0.034012699373214154 -0.0017455537413572251 0 -0.033470928640402048 -0.0015160380452503609 0 -0.034012699373214154 -0.0017455537413572251 0 -0.034099111174168098 -0.0014268557363267017 0 -0.033470928640402048 -0.0015160380452503609 0 -0.026180539414180592 -0.00060699221167784625 0 -0.025929138184410595 -0.00064431058434764952 0 -0.025979544413920828 -0.00040171744406701417 0 -0.030126853225310026 -0.0013248304957260138 0 -0.029293219692292403 -0.00090619896688389813 0 -0.032989691603748254 -0.0011946020869743892 0 -0.033196220554687343 -0.0011248392099400357 0 -0.033206401392486699 -0.0014748414304164772 0 -0.033196220554687343 -0.0011248392099400357 0 -0.033357507785332377 -0.001277741809522682 0 -0.033206401392486699 -0.0014748414304164772 0 -0.030946061650760266 -0.0010608687759792084 0 -0.029293219692292403 -0.00090619896688389813 0 -0.026175191631330096 -0.00095192321369846661 0 -0.026180539414180592 -0.00060699221167784625 0 -0.025929138184410595 -0.00064431058434764952 0 -0.030946061650760266 -0.0010608687759792084 0 -0.027465407255846078 -0.00043761889097507461 0 -0.029200841589216261 -0.0012786725964479869 0 -0.029429570663632266 -8.2094395770524579e-05 0 -0.03015685135313776 -0.0011085241472138328 0 -0.029429570663632266 -8.2094395770524579e-05 0 -0.03015685135313776 -0.0011085241472138328 0 -0.030424077041514529 -0.00010657499959627949 0 -0.03015685135313776 -0.0011085241472138328 0 -0.030424077041514529 -0.00010657499959627949 0 -0.031956249705668086 -0.00070120214159572099 0 -0.035285818376191685 0.00056927977235834027 0 -0.036109961418962312 -0.0010289385821308198 0 -0.031956249705668086 -0.00070120214159572099 0 -0.033315874441157231 -0.00097174961700550132 0 -0.032146924822403881 -0.00084335065806535295 0 -0.030424077041514529 -0.00010657499959627949 0 -0.030095888553243914 0.00034302811438184058 0 -0.030919809126275347 6.2487091888433765e-05 0 -0.029429570663632266 -8.2094395770524579e-05 0 -0.030424077041514529 -0.00010657499959627949 0 -0.029443726439297928 0.00058124938442625975 0 -0.027465407255846078 -0.00043761889097507461 0 -0.027834086241804622 0.00016321262197768402 0 -0.030424077041514529 -0.00010657499959627949 0 -0.029443726439297928 0.00058124938442625975 0 -0.030095888553243914 0.00034302811438184058 0 -0.029443726439297928 0.00058124938442625975 0 -0.030095888553243914 0.00034302811438184058 0 -0.029442831385117312 0.00057810727195153813 0 -0.029443726439297928 0.00058124938442625975 0 -0.029442831385117312 0.00057810727195153813 0 -0.029190711963891471 0.00060893936346815354 0 -0.027834086241804622 0.00016321262197768402 0 -0.027641691359903797 0.00032655188854953377 0 -0.026164003503719571 -0.00029212595461968572 0 -0.025897947689700926 -0.00013485135821682885 0 -0.026136898316322456 -1.6388510129609215e-05 0 -0.026164003503719571 -0.00029212595461968572 0 -0.025979544413920828 -0.00040171744406701417 0 -0.025897947689700926 -0.00013485135821682885 0 -0.026180539414180592 -0.00060699221167784625 0 -0.026164003503719571 -0.00029212595461968572 0 -0.025979544413920828 -0.00040171744406701417 0 -0.025733458571745381 -0.00036211967446421321 0 -0.025979544413920828 -0.00040171744406701417 0 -0.025897947689700926 -0.00013485135821682885 0 -0.025733458571745381 -0.00036211967446421321 0 -0.025929138184410595 -0.00064431058434764952 0 -0.025979544413920828 -0.00040171744406701417 0 -0.025897947689700926 -0.00013485135821682885 0 -0.025951075346553571 0.00011066051390492546 0 -0.025724832426305896 9.4571656321572651e-05 0 -0.025897947689700926 -0.00013485135821682885 0 -0.025951075346553571 0.00011066051390492546 0 -0.026136898316322456 -1.6388510129609215e-05 0 -0.025951075346553571 0.00011066051390492546 0 -0.025873376439429125 0.00025403096192237371 0 -0.02597664597886495 0.00025659338703934263 0 -0.025951075346553571 0.00011066051390492546 0 -0.025724832426305896 9.4571656321572651e-05 0 -0.025873376439429125 0.00025403096192237371 0 -0.017492081488203283 0.003813340779221029 0 -0.017490279108219271 0.0042094874213163313 0 -0.016967845814676207 0.0038173859516923876 0 -0.02096832216344963 0.0021663732179345477 0 -0.021517630931060159 0.0020546166105781297 0 -0.017492081488203283 0.003813340779221029 0 -0.016967845814676207 0.0038173859516923876 0 -0.016973786319313438 0.0033461213865611321 0 -0.025873376439429125 0.00025403096192237371 0 -0.025963173549422274 0.0003499792448355701 0 -0.02597664597886495 0.00025659338703934263 0 -0.021517630931060159 0.0020546166105781297 0 -0.021162567332232117 0.0018842723263767722 0 -0.016967845814676207 0.0038173859516923876 0 -0.016973786319313438 0.0033461213865611321 0 -0.016422793761761891 0.0033415846323640195 0 -0.016973786319313438 0.0033461213865611321 0 -0.016422793761761891 0.0033415846323640195 0 -0.016482015765278572 0.0029436090212390858 0 -0.017581771007846785 0.0033716134125058098 0 -0.016973786319313438 0.0033461213865611321 0 -0.017039595657843139 0.0028441873464725999 0 -0.017581771007846785 0.0033716134125058098 0 -0.017492081488203283 0.003813340779221029 0 -0.016973786319313438 0.0033461213865611321 0 -0.028484572475750179 -0.00039463938595959167 0 -0.027778108145648274 0.00014604345621661535 0 -0.027535409804458403 -0.00040831808510520307 0 -0.025988329618430096 0.00035241080916421084 0 -0.025963173549422274 0.0003499792448355701 0 -0.025936797845916525 0.00038519389219929446 0 -0.025988329618430096 0.00035241080916421084 0 -0.025963173549422274 0.0003499792448355701 0 -0.02600308378757113 0.00029599758940039919 0 -0.025963173549422274 0.0003499792448355701 0 -0.02600308378757113 0.00029599758940039919 0 -0.02597664597886495 0.00025659338703934263 0 -0.025988329618430096 0.00035241080916421084 0 -0.02600308378757113 0.00029599758940039919 0 -0.026083079993962782 0.00021345855405438118 0 -0.02600308378757113 0.00029599758940039919 0 -0.02597664597886495 0.00025659338703934263 0 -0.026083079993962782 0.00021345855405438118 0 -0.028484572475750179 -0.00039463938595959167 0 -0.02884207521369456 0.00033309853782664399 0 -0.027778108145648274 0.00014604345621661535 0 -0.024983312672837168 0.000978938892446012 0 -0.027672384392769318 0.00011689319419333064 0 -0.02884207521369456 0.00033309853782664399 0 -0.02821071107865945 0.0004407127076600445 0 -0.027778108145648274 0.00014604345621661535 0 -0.02884207521369456 0.00033309853782664399 0 -0.02886583670066907 0.00055062252556654099 0 -0.02821071107865945 0.0004407127076600445 0 -0.027672384392769318 0.00011689319419333064 0 -0.027641691359903797 0.00032655188854953377 0 -0.02884207521369456 0.00033309853782664399 0 -0.029190711963891471 0.00060893936346815354 0 -0.02886583670066907 0.00055062252556654099 0 -0.025951075346553571 0.00011066051390492546 0 -0.026083079993962782 0.00021345855405438118 0 -0.026136898316322456 -1.6388510129609215e-05 0 -0.025951075346553571 0.00011066051390492546 0 -0.02597664597886495 0.00025659338703934263 0 -0.026083079993962782 0.00021345855405438118 0 -0.029442831385117312 0.00057810727195153813 0 -0.02886583670066907 0.00055062252556654099 0 -0.028874848672681589 0.00055697844937637603 0 -0.029442831385117312 0.00057810727195153813 0 -0.029190711963891471 0.00060893936346815354 0 -0.02886583670066907 0.00055062252556654099 0 -0.02886583670066907 0.00055062252556654099 0 -0.028874848672681589 0.00055697844937637603 0 -0.02821071107865945 0.0004407127076600445 0 -0.028874848672681589 0.00055697844937637603 0 -0.028333890550352046 0.00046847821531901981 0 -0.02821071107865945 0.0004407127076600445 0 -0.028333890550352046 0.00046847821531901981 0 -0.027422657151767997 0.0003845375692723613 0 -0.02821071107865945 0.0004407127076600445 0 -0.028333890550352046 0.00046847821531901981 0 -0.027422657151767997 0.0003845375692723613 0 -0.027119205646103015 0.00031580969673295509 0 -0.027422657151767997 0.0003845375692723613 0 -0.02821071107865945 0.0004407127076600445 0 -0.027778108145648274 0.00014604345621661535 0 -0.027422657151767997 0.0003845375692723613 0 -0.027778108145648274 0.00014604345621661535 0 -0.026508726907719288 1.0259007728626879e-05 0 -0.027422657151767997 0.0003845375692723613 0 -0.026508726907719288 1.0259007728626879e-05 0 -0.025936719331889999 0.00020738197467538635 0 -0.026508726907719288 1.0259007728626879e-05 0 -0.025354855847167568 -0.00037369872604796377 0 -0.024920589651681146 -3.4400449874454606e-05 0 -0.026508726907719288 1.0259007728626879e-05 0 -0.025354855847167568 -0.00037369872604796377 0 -0.026669337708360358 -0.00067224107408012318 0 -0.028484572475750179 -0.00039463938595959167 0 -0.027535409804458403 -0.00040831808510520307 0 -0.027246123117842035 -0.0013742627150708478 0 -0.026508726907719288 1.0259007728626879e-05 0 -0.026669337708360358 -0.00067224107408012318 0 -0.027535409804458403 -0.00040831808510520307 0 -0.027778108145648274 0.00014604345621661535 0 -0.026508726907719288 1.0259007728626879e-05 0 -0.027535409804458403 -0.00040831808510520307 0 -0.022827473009975795 5.0097223336582217e-08 0 -0.024920589651681146 -3.4400449874454606e-05 0 -0.024589700288810211 8.1189117782971498e-05 0 -0.022827473009975795 5.0097223336582217e-08 0 -0.024920589651681146 -3.4400449874454606e-05 0 -0.023977740057881877 -0.00023116751554606824 0 -0.025354855847167568 -0.00037369872604796377 0 -0.024920589651681146 -3.4400449874454606e-05 0 -0.023977740057881877 -0.00023116751554606824 0 -0.026508726907719288 1.0259007728626879e-05 0 -0.024920589651681146 -3.4400449874454606e-05 0 -0.025936719331889999 0.00020738197467538635 0 -0.024920589651681146 -3.4400449874454606e-05 0 -0.025936719331889999 0.00020738197467538635 0 -0.024589700288810211 8.1189117782971498e-05 0 -0.022827473009975795 5.0097223336582217e-08 0 -0.024589700288810211 8.1189117782971498e-05 0 -0.025028073666108982 3.8853079358774808e-07 0 -0.025936719331889999 0.00020738197467538635 0 -0.024589700288810211 8.1189117782971498e-05 0 -0.025028073666108982 3.8853079358774808e-07 0 -0.025028073666108982 3.8853079358774808e-07 0 -0.027119205646103015 0.00031580969673295509 0 -0.027229453917362915 6.0673517531036247e-07 0 -0.025936719331889999 0.00020738197467538635 0 -0.025028073666108982 3.8853079358774808e-07 0 -0.027119205646103015 0.00031580969673295509 0 -0.027422657151767997 0.0003845375692723613 0 -0.025936719331889999 0.00020738197467538635 0 -0.027119205646103015 0.00031580969673295509 0 -0.028333890550352046 0.00046847821531901981 0 -0.027119205646103015 0.00031580969673295509 0 -0.028349097451000185 0.00032280855033175906 0 -0.027119205646103015 0.00031580969673295509 0 -0.028349097451000185 0.00032280855033175906 0 -0.027229453917362915 6.0673517531036247e-07 0 -0.028349097451000185 0.00032280855033175906 0 -0.027229453917362915 6.0673517531036247e-07 0 -0.02904323333096304 0.00022418962518563622 0 -0.027229453917362915 6.0673517531036247e-07 0 -0.029427213172163718 3.3449342113162553e-07 0 -0.02904323333096304 0.00022418962518563622 0 -0.029430129309507346 -1.1909843403377096e-07 0 -0.031692518630946832 -2.1502254168758157e-07 0 -0.031829595296620612 -3.4730151807648945e-05 0 -0.029430285592725959 2.1091718069386898e-07 0 -0.030985986034209916 0.00017044620986858501 0 -0.029427213172163718 3.3449342113162553e-07 0 -0.029720490244512725 8.2527343795682926e-05 0 -0.030045628801725972 0.00016087528685628782 0 -0.029427213172163718 3.3449342113162553e-07 0 -0.029720490244512725 8.2527343795682926e-05 0 -0.02904323333096304 0.00022418962518563622 0 -0.029831473908115264 0.00016684462531799091 0 -0.02904323333096304 0.00022418962518563622 0 -0.029565754666319843 0.00039450633636231949 0 -0.029831473908115264 0.00016684462531799091 0 -0.030285987433299726 0.0001861738109448672 0 -0.030295324075799154 0.00016286690918055222 0 -0.029720490244512725 8.2527343795682926e-05 0 -0.029831473908115264 0.00016684462531799091 0 -0.030295324075799154 0.00016286690918055222 0 -0.029720490244512725 8.2527343795682926e-05 0 -0.029831473908115264 0.00016684462531799091 0 -0.02904323333096304 0.00022418962518563622 0 -0.028349097451000185 0.00032280855033175906 0 -0.02904323333096304 0.00022418962518563622 0 -0.029565754666319843 0.00039450633636231949 0 -0.028333890550352046 0.00046847821531901981 0 -0.028349097451000185 0.00032280855033175906 0 -0.029565754666319843 0.00039450633636231949 0 -0.029442831385117312 0.00057810727195153813 0 -0.028874848672681589 0.00055697844937637603 0 -0.029565754666319843 0.00039450633636231949 0 -0.028874848672681589 0.00055697844937637603 0 -0.028333890550352046 0.00046847821531901981 0 -0.029565754666319843 0.00039450633636231949 0 -0.030095888553243914 0.00034302811438184058 0 -0.029442831385117312 0.00057810727195153813 0 -0.029565754666319843 0.00039450633636231949 0 -0.030095888553243914 0.00034302811438184058 0 -0.029565754666319843 0.00039450633636231949 0 -0.030919809126275347 6.2487091888433765e-05 0 -0.029831473908115264 0.00016684462531799091 0 -0.029565754666319843 0.00039450633636231949 0 -0.030285987433299726 0.0001861738109448672 0 -0.029565754666319843 0.00039450633636231949 0 -0.030285987433299726 0.0001861738109448672 0 -0.030919809126275347 6.2487091888433765e-05 0 -0.030285987433299726 0.0001861738109448672 0 -0.030965166743313826 0.00017804473109226507 0 -0.030919809126275347 6.2487091888433765e-05 0 -0.030965166743313826 0.00017804473109226507 0 -0.030919809126275347 6.2487091888433765e-05 0 -0.0316091562257097 1.277027530938874e-05 0 -0.030424077041514529 -0.00010657499959627949 0 -0.030919809126275347 6.2487091888433765e-05 0 -0.031956249705668086 -0.00070120214159572099 0 -0.032141658922587815 0.00020739880168885031 0 -0.031956249705668086 -0.00070120214159572099 0 -0.0316091562257097 1.277027530938874e-05 0 -0.030919809126275347 6.2487091888433765e-05 0 -0.031956249705668086 -0.00070120214159572099 0 -0.0316091562257097 1.277027530938874e-05 0 -0.030965166743313826 0.00017804473109226507 0 -0.0316091562257097 1.277027530938874e-05 0 -0.031597267143067653 0.00040761862123478865 0 -0.032063091292471771 0.00055168291897239542 0 -0.0316091562257097 1.277027530938874e-05 0 -0.031597267143067653 0.00040761862123478865 0 -0.031597267143067653 0.00040761862123478865 0 -0.030935653724096925 0.00030619469276736829 0 -0.031384688652562401 0.00061181441555083487 0 -0.030965166743313826 0.00017804473109226507 0 -0.031597267143067653 0.00040761862123478865 0 -0.030935653724096925 0.00030619469276736829 0 -0.031384688652562401 0.00061181441555083487 0 -0.030670273368969065 0.00029449697943620618 0 -0.030045628801725972 0.00016087528685628782 0 -0.033953594897569987 7.0158474786344593e-07 0 -0.033995664988986075 0.00013984321937999983 0 -0.031692518630946832 -2.1502254168758157e-07 0 -0.032652525218876023 0.00032931881628198514 0 -0.030985986034209916 0.00017044620986858501 0 -0.030935653724096925 0.00030619469276736829 0 -0.031384688652562401 0.00061181441555083487 0 -0.030670273368969065 0.00029449697943620618 0 -0.033995664988986075 0.00013984321937999983 0 -0.031692518630946832 -2.1502254168758157e-07 0 -0.031829595296620612 -3.4730151807648945e-05 0 -0.030670273368969065 0.00029449697943620618 0 -0.030045628801725972 0.00016087528685628782 0 -0.030295324075799154 0.00016286690918055222 0 -0.029720490244512725 8.2527343795682926e-05 0 -0.030045628801725972 0.00016087528685628782 0 -0.030295324075799154 0.00016286690918055222 0 -0.030285987433299726 0.0001861738109448672 0 -0.030965166743313826 0.00017804473109226507 0 -0.030295324075799154 0.00016286690918055222 0 -0.030965166743313826 0.00017804473109226507 0 -0.030935653724096925 0.00030619469276736829 0 -0.030295324075799154 0.00016286690918055222 0 -0.030935653724096925 0.00030619469276736829 0 -0.030670273368969065 0.00029449697943620618 0 -0.030295324075799154 0.00016286690918055222 0 -0.012622927423140739 0.0001959430831215597 0 -0.012859989300197504 0.00023664773062282048 0 -0.013254667997047068 0.00018861814196131837 0 -0.012505648893667447 1.9594349884916058e-06 0 -0.012622927423140739 0.0001959430831215597 0 -0.013254667997047068 0.00018861814196131837 0 -0.012505648893667447 1.9594349884916058e-06 0 -0.013254667997047068 0.00018861814196131837 0 -0.015003446365073328 -1.5897498485578669e-06 0 -0.012505648893667447 1.9594349884916058e-06 0 -0.012622927423140739 0.0001959430831215597 0 -0.011863893813083688 0.00011660134691582585 0 -0.012622927423140739 0.0001959430831215597 0 -0.012840001881921173 1.357817482706679e-05 0 -0.012404763623174058 -0.00043817093521425742 0 -0.012840001881921173 1.357817482706679e-05 0 -0.012950271996389514 0.00019038562595099487 0 -0.012980650605848859 -0.0002971376571596758 0 -0.012840001881921173 1.357817482706679e-05 0 -0.012950271996389514 0.00019038562595099487 0 -0.012859989300197504 0.00023664773062282048 0 -0.012622927423140739 0.0001959430831215597 0 -0.012840001881921173 1.357817482706679e-05 0 -0.012859989300197504 0.00023664773062282048 0 -0.014203378467070728 0.00054045034612015764 0 -0.01186711921882698 0.00019983706005917659 0 -0.014203378467070728 0.00054045034612015764 0 -0.013885469588595413 0.00047174480543123941 0 -0.012950271996389514 0.00019038562595099487 0 -0.012850919474830984 0.00020230342942392597 0 -0.012889377905685968 0.00024533822075578892 0 -0.01492831844967526 0.00077751726178330795 0 -0.014961947910613836 0.0011391671800426782 0 -0.015170950276115877 0.0009118057201896486 0 -0.012859989300197504 0.00023664773062282048 0 -0.012850919474830984 0.00020230342942392597 0 -0.013254667997047068 0.00018861814196131837 0 -0.012950271996389514 0.00019038562595099487 0 -0.012859989300197504 0.00023664773062282048 0 -0.012850919474830984 0.00020230342942392597 0 -0.012873023716604743 -0.0001875012186176057 0 -0.013171232203073134 -0.00053580039347240517 0 -0.013254667997047068 0.00018861814196131837 0 -0.012850919474830984 0.00020230342942392597 0 -0.012873023716604743 -0.0001875012186176057 0 -0.013254667997047068 0.00018861814196131837 0 -0.012537311057899972 -9.8752211016707301e-05 0 -0.013885469588595413 0.00047174480543123941 0 -0.012850919474830984 0.00020230342942392597 0 -0.012873023716604743 -0.0001875012186176057 0 -0.012409703732556843 -0.00019221473004333905 0 -0.012409703732556843 -0.00019221473004333905 0 -0.012286743923775304 -0.0008406157487757266 0 -0.012801566354152956 -0.00071454323008871142 0 -0.013885469588595413 0.00047174480543123941 0 -0.013596171288386482 -1.8291981560605373e-05 0 -0.012873023716604743 -0.0001875012186176057 0 -0.012409703732556843 -0.00019221473004333905 0 -0.012801566354152956 -0.00071454323008871142 0 -0.012873023716604743 -0.0001875012186176057 0 -0.013171232203073134 -0.00053580039347240517 0 -0.012801566354152956 -0.00071454323008871142 0 -0.013171232203073134 -0.00053580039347240517 0 -0.012801566354152956 -0.00071454323008871142 0 -0.013338692454241918 -0.0010590883009400729 0 -0.013171232203073134 -0.00053580039347240517 0 -0.014064866100319796 -0.00096987182985212015 0 -0.013338692454241918 -0.0010590883009400729 0 -0.013171232203073134 -0.00053580039347240517 0 -0.013254667997047068 0.00018861814196131837 0 -0.014064866100319796 -0.00096987182985212015 0 -0.013254667997047068 0.00018861814196131837 0 -0.015003446365073328 -1.5897498485578669e-06 0 -0.014064866100319796 -0.00096987182985212015 0 -0.015010061319308338 -6.5338764419953558e-07 0 -0.017140265066072816 1.5089020677322328e-05 0 -0.016629182686342347 6.5009312715745335e-07 0 -0.015009067502116998 2.1372472884378511e-07 0 -0.015422255553047961 -0.00039656600776071422 0 -0.017140265066072816 1.5089020677322328e-05 0 -0.016629182686342347 6.5009312715745335e-07 0 -0.017483104580615288 8.1656486876407293e-05 0 -0.016629182686342347 6.5009312715745335e-07 0 -0.017483104580615288 8.1656486876407293e-05 0 -0.018247696151623402 -6.8200765619255094e-07 0 -0.017140265066072816 1.5089020677322328e-05 0 -0.017483104580615288 8.1656486876407293e-05 0 -0.017357245034019905 3.3762392777066662e-05 0 -0.018404284908660546 -0.0011169761373263207 0 -0.019731325663380112 -0.0015509896389877286 0 -0.017483104580615288 8.1656486876407293e-05 0 -0.01797211866365948 -0.00030311397801599613 0 -0.016967169394217642 -0.00037550159969351792 0 -0.017483104580615288 8.1656486876407293e-05 0 -0.018247696151623402 -6.8200765619255094e-07 0 -0.01797211866365948 -0.00030311397801599613 0 -0.014064866100319796 -0.00096987182985212015 0 -0.013338692454241918 -0.0010590883009400729 0 -0.013522803640851856 -0.0015668143156847454 0 -0.015422255553047961 -0.00039656600776071422 0 -0.016890928853929964 -0.0010741125067349631 0 -0.017140265066072816 1.5089020677322328e-05 0 -0.01735451954136176 2.7257651628858006e-05 0 -0.017357245034019905 3.3762392777066662e-05 0 -0.020205500319188809 -0.0020394284058468976 0 -0.019226721711920969 -0.0020324324046821318 0 -0.020802249006449877 -0.00070359409730033759 0 -0.02330124267519167 -0.0045061422388389489 0 -0.023791687650476134 -0.0031054562739198112 0 -0.025362040181979927 -0.0028854880455040544 0 -0.019731325663380112 -0.0015509896389877286 0 -0.023250833480333619 -0.0018810322572734607 0 -0.020205500319188809 -0.0020394284058468976 0 -0.020802249006449877 -0.00070359409730033759 0 -0.020854595120861522 -0.0010976545380431636 0 -0.016890928853929964 -0.0010741125067349631 0 -0.019748498241721216 -0.00052033084303404703 0 -0.016890928853929964 -0.0010741125067349631 0 -0.019731325663380112 -0.0015509896389877286 0 -0.018750694146574248 -0.00012012773157018508 0 -0.020626508949124069 -3.9629047340060003e-07 0 -0.021988004166563175 -0.00078271591578753263 0 -0.01842740959470264 -2.2953162694030012e-06 0 -0.018750694146574248 -0.00012012773157018508 0 -0.020626508949124069 -3.9629047340060003e-07 0 -0.019170396280228898 -0.00076023958028483452 0 -0.019731325663380112 -0.0015509896389877286 0 -0.018426407238778586 -3.8772724258948424e-06 0 -0.019170396280228898 -0.00076023958028483452 0 -0.018252746807134804 -2.8673416362824943e-06 0 -0.019170396280228898 -0.00076023958028483452 0 -0.018250121564680123 1.58211851705131e-10 0 -0.018424016618447746 -2.2155155166837073e-09 0 -0.018423879529918922 -1.1357087428355103e-06 0 -0.022301654910348485 -0.0044790610850623811 0 -0.02330124267519167 -0.0045061422388389489 0 -0.023791687650476134 -0.0031054562739198112 0 -0.019170396280228898 -0.00076023958028483452 0 -0.02304628707237439 -0.0019090069393096363 0 -0.020626508949124069 -3.9629047340060003e-07 0 -0.021988004166563175 -0.00078271591578753263 0 -0.022721114771831523 -0.00029193034047064639 0 -0.023791687650476134 -0.0031054562739198112 0 -0.025292129698634359 -0.0017959888952700489 0 -0.025362040181979927 -0.0028854880455040544 0 -0.021988004166563175 -0.00078271591578753263 0 -0.022721114771831523 -0.00029193034047064639 0 -0.024619886572955777 -0.00089367466257348762 0 -0.02304628707237439 -0.0019090069393096363 0 -0.025003965774503849 -0.001252172069700754 0 -0.023977740057881877 -0.00023116751554606824 0 -0.022721114771831523 -0.00029193034047064639 0 -0.024619886572955777 -0.00089367466257348762 0 -0.025354855847167568 -0.00037369872604796377 0 -0.023977740057881877 -0.00023116751554606824 0 -0.024619886572955777 -0.00089367466257348762 0 -0.022827473009975795 5.0097223336582217e-08 0 -0.020626508949124069 -3.9629047340060003e-07 0 -0.022721114771831523 -0.00029193034047064639 0 -0.022827473009975795 5.0097223336582217e-08 0 -0.023977740057881877 -0.00023116751554606824 0 -0.022721114771831523 -0.00029193034047064639 0 -0.026669337708360358 -0.00067224107408012318 0 -0.027535409804458403 -0.00040831808510520307 0 -0.027246123117842035 -0.0013742627150708478 0 -0.019844199278560942 0.0013552696351402131 0 -0.019849127037701451 0.00025161614177686718 0 -0.021059344162239792 0.0013647404571975562 0 -0.023546431879829938 2.5809846007023174e-05 0 -0.022273049507962543 -0.0006743993039014833 0 -0.026488603124134744 -0.00059987297502046594 0 -0.025003965774503849 -0.001252172069700754 0 -0.026669337708360358 -0.00067224107408012318 0 -0.027246123117842035 -0.0013742627150708478 0 -0.025292129698634359 -0.0017959888952700489 0 -0.027246123117842035 -0.0013742627150708478 0 -0.025292129698634359 -0.0017959888952700489 0 -0.026185440666596706 -0.0022108298961444049 0 -0.025354855847167568 -0.00037369872604796377 0 -0.026669337708360358 -0.00067224107408012318 0 -0.024619886572955777 -0.00089367466257348762 0 -0.025292129698634359 -0.0017959888952700489 0 -0.026185440666596706 -0.0022108298961444049 0 -0.025362040181979927 -0.0028854880455040544 0 -0.021491068005066734 -0.00013157569505563806 0 -0.020802249006449877 -0.00070359409730033759 0 -0.020854595120861522 -0.0010976545380431636 0 -0.022273049507962543 -0.0006743993039014833 0 -0.023250833480333619 -0.0018810322572734607 0 -0.022273049507962543 -0.0006743993039014833 0 -0.019748498241721216 -0.00052033084303404703 0 -0.019059512801833305 0.00067708663465205338 0 -0.019242640412425283 -2.4554452167527964e-05 0 -0.018551239039428107 -0.00011865850241981018 0 -0.019844199278560942 0.0013552696351402131 0 -0.019059512801833305 0.00067708663465205338 0 -0.019849127037701451 0.00025161614177686718 0 -0.019059512801833305 0.00067708663465205338 0 -0.019242640412425283 -2.4554452167527964e-05 0 -0.019849127037701451 0.00025161614177686718 0 -0.019849127037701451 0.00025161614177686718 0 -0.019734258300598675 -0.00036744386718705048 0 -0.020544245329529229 0.00018748364092755444 0 -0.019734258300598675 -0.00036744386718705048 0 -0.019192074298378187 -0.00088299589649531106 0 -0.020312544576156309 -0.00085970156209471467 0 -0.019734258300598675 -0.00036744386718705048 0 -0.020312544576156309 -0.00085970156209471467 0 -0.020544245329529229 0.00018748364092755444 0 -0.015846776031339032 -0.0012751657395489275 0 -0.016076828788573042 0.00088713255991767896 0 -0.019242640412425283 -2.4554452167527964e-05 0 -0.019849127037701451 0.00025161614177686718 0 -0.019734258300598675 -0.00036744386718705048 0 -0.016890928853929964 -0.0010741125067349631 0 -0.015846776031339032 -0.0012751657395489275 0 -0.01801983834030587 -0.00088988350491458243 0 -0.018945807344588027 -0.00044371202173529539 0 -0.019192074298378187 -0.00088299589649531106 0 -0.01801983834030587 -0.00088988350491458243 0 -0.018551239039428107 -0.00011865850241981018 0 -0.018945807344588027 -0.00044371202173529539 0 -0.019242640412425283 -2.4554452167527964e-05 0 -0.018551239039428107 -0.00011865850241981018 0 -0.018945807344588027 -0.00044371202173529539 0 -0.019242640412425283 -2.4554452167527964e-05 0 -0.019734258300598675 -0.00036744386718705048 0 -0.018945807344588027 -0.00044371202173529539 0 -0.019734258300598675 -0.00036744386718705048 0 -0.018945807344588027 -0.00044371202173529539 0 -0.019192074298378187 -0.00088299589649531106 0 -0.013338692454241918 -0.0010590883009400729 0 -0.013522803640851856 -0.0015668143156847454 0 -0.012837324173390494 -0.0015108578148289107 0 -0.012801566354152956 -0.00071454323008871142 0 -0.013338692454241918 -0.0010590883009400729 0 -0.012837324173390494 -0.0015108578148289107 0 -0.013596171288386482 -1.8291981560605373e-05 0 -0.016076828788573042 0.00088713255991767896 0 -0.012286743923775304 -0.0008406157487757266 0 -0.012837324173390494 -0.0015108578148289107 0 -0.01219198759249311 -0.001471198526200464 0 -0.012286743923775304 -0.0008406157487757266 0 -0.012801566354152956 -0.00071454323008871142 0 -0.012837324173390494 -0.0015108578148289107 0 -0.01511971735043177 0.0012797493858891619 0 -0.015730087292092666 0.0017382436027363996 0 -0.0153167086236834 0.0021173208927639155 0 -0.015730087292092666 0.0017382436027363996 0 -0.016324767988522459 0.0019935903115016669 0 -0.015688577286214003 0.0012006797550724849 0 -0.01511971735043177 0.0012797493858891619 0 -0.015730087292092666 0.0017382436027363996 0 -0.015688577286214003 0.0012006797550724849 0 -0.015730087292092666 0.0017382436027363996 0 -0.016106187047627563 0.0020970261954882125 0 -0.0153167086236834 0.0021173208927639155 0 -0.015677092152485108 0.0016331945115666527 0 -0.01569879723494284 0.00197299823176642 0 -0.015240332223197822 0.0015004111979996955 0 -0.01597784595727517 0.0019358548248045722 0 -0.015633242694030693 0.0014647678496570791 0 -0.015677092152485108 0.0016331945115666527 0 -0.015865181037485129 0.0017828580151013553 0 -0.015920252383189521 0.0016279903767180035 0 -0.015677092152485108 0.0016331945115666527 0 -0.015865181037485129 0.0017828580151013553 0 -0.01569879723494284 0.00197299823176642 0 -0.015730087292092666 0.0017382436027363996 0 -0.016324767988522459 0.0019935903115016669 0 -0.016106187047627563 0.0020970261954882125 0 -0.015865181037485129 0.0017828580151013553 0 -0.01569879723494284 0.00197299823176642 0 -0.016018775906590281 0.0019228896875780528 0 -0.016324767988522459 0.0019935903115016669 0 -0.016216880782967482 0.0021548997721137402 0 -0.016306406026267817 0.0022434336443556556 0 -0.016216880782967482 0.0021548997721137402 0 -0.016106187047627563 0.0020970261954882125 0 -0.016099181771503296 0.002270539025541534 0 -0.016216880782967482 0.0021548997721137402 0 -0.016099181771503296 0.002270539025541534 0 -0.016306406026267817 0.0022434336443556556 0 -0.016324767988522459 0.0019935903115016669 0 -0.016216880782967482 0.0021548997721137402 0 -0.016106187047627563 0.0020970261954882125 0 -0.016099181771503296 0.002270539025541534 0 -0.016306406026267817 0.0022434336443556556 0 -0.016256346544978435 0.0024143633519309012 0 -0.016306406026267817 0.0022434336443556556 0 -0.016256346544978435 0.0024143633519309012 0 -0.016393681018662804 0.002422457052729244 0 -0.016106187047627563 0.0020970261954882125 0 -0.016099181771503296 0.002270539025541534 0 -0.015805663126727085 0.0020934359638966949 0 -0.015868648917114161 0.002104000335264217 0 -0.016076828788573042 0.00088713255991767896 0 -0.016099181771503296 0.002270539025541534 0 -0.015805663126727085 0.0020934359638966949 0 -0.015880061170746005 0.0024496384070173799 0 -0.016076828788573042 0.00088713255991767896 0 -0.018201278802969251 0.0013814469426300514 0 -0.019851144979863917 0.00029672779968543299 0 -0.021169184657208285 0.0012456327896440216 0 -0.019849127037701451 0.00025161614177686718 0 -0.020544245329529229 0.00018748364092755444 0 -0.020751380787782572 0.0011907389180335476 0 -0.015880061170746005 0.0024496384070173799 0 -0.016116409538532651 0.0025037164121124171 0 -0.015964846838766644 0.0028584932431890073 0 -0.018201278802969251 0.0013814469426300514 0 -0.021169184657208285 0.0012456327896440216 0 -0.016099181771503296 0.002270539025541534 0 -0.015880061170746005 0.0024496384070173799 0 -0.016116409538532651 0.0025037164121124171 0 -0.016099181771503296 0.002270539025541534 0 -0.016116409538532651 0.0025037164121124171 0 -0.016256346544978435 0.0024143633519309012 0 -0.016116409538532651 0.0025037164121124171 0 -0.016256346544978435 0.0024143633519309012 0 -0.016354566844404915 0.0026468890465596762 0 -0.016116409538532651 0.0025037164121124171 0 -0.016354566844404915 0.0026468890465596762 0 -0.015964846838766644 0.0028584932431890073 0 -0.016256346544978435 0.0024143633519309012 0 -0.016354566844404915 0.0026468890465596762 0 -0.016393681018662804 0.002422457052729244 0 -0.016354566844404915 0.0026468890465596762 0 -0.016482015765278572 0.0029436090212390858 0 -0.015964846838766644 0.0028584932431890073 0 -0.016422793761761891 0.0033415846323640195 0 -0.016482015765278572 0.0029436090212390858 0 -0.015964846838766644 0.0028584932431890073 0 -0.021162567332232117 0.0018842723263767722 0 -0.021169184657208285 0.0012456327896440216 0 -0.024983312672837168 0.000978938892446012 0 -0.021169184657208285 0.0012456327896440216 0 -0.024983312672837168 0.000978938892446012 0 -0.023546431879829938 2.5809846007023174e-05 0 -0.021352392002095006 0.0025828999986015357 0 -0.019844199278560942 0.0013552696351402131 0 -0.021059344162239792 0.0013647404571975562 0 -0.017468656568632036 0.0034231345747661947 0 -0.016883881894638287 0.0028890169627304812 0 -0.016726495295744586 0.0029351431235489873 0 -0.017086667078994807 0.0026493488483067757 0 -0.017409155464819054 0.0030027027595770539 0 -0.016354566844404915 0.0026468890465596762 0 -0.016482015765278572 0.0029436090212390858 0 -0.017039595657843139 0.0028441873464725999 0 -0.016973786319313438 0.0033461213865611321 0 -0.016482015765278572 0.0029436090212390858 0 -0.017039595657843139 0.0028441873464725999 0 -0.016354566844404915 0.0026468890465596762 0 -0.017039595657843139 0.0028441873464725999 0 -0.016393681018662804 0.002422457052729244 0 -0.016726495295744586 0.0029351431235489873 0 -0.016393681018662804 0.002422457052729244 0 -0.016465838761807565 0.0023815179333736133 0 -0.016883881894638287 0.0028890169627304812 0 -0.016436911435397591 0.0024579070027335218 0 -0.016726495295744586 0.0029351431235489873 0 -0.016770812792203778 0.0024743504124850879 0 -0.017086667078994807 0.0026493488483067757 0 -0.016726495295744586 0.0029351431235489873 0 -0.016770812792203778 0.0024743504124850879 0 -0.016465838761807565 0.0023815179333736133 0 -0.016770812792203778 0.0024743504124850879 0 -0.017073903726135455 0.0023250402885175428 0 -0.017086667078994807 0.0026493488483067757 0 -0.016794098308798674 0.0022642183559042576 0 -0.01688551570772617 0.0021698320321711429 0 -0.017073903726135455 0.0023250402885175428 0 -0.016770812792203778 0.0024743504124850879 0 -0.016794098308798674 0.0022642183559042576 0 -0.017073903726135455 0.0023250402885175428 0 -0.016794098308798674 0.0022642183559042576 0 -0.01688551570772617 0.0021698320321711429 0 -0.016786525350697069 0.002179944697246384 0 -0.016770812792203778 0.0024743504124850879 0 -0.016582775332723069 0.0022671553920052233 0 -0.016465838761807565 0.0023815179333736133 0 -0.016770812792203778 0.0024743504124850879 0 -0.016794098308798674 0.0022642183559042576 0 -0.016582775332723069 0.0022671553920052233 0 -0.016794098308798674 0.0022642183559042576 0 -0.016582775332723069 0.0022671553920052233 0 -0.016694889211563844 0.0021650776200854943 0 -0.016582775332723069 0.0022671553920052233 0 -0.016694889211563844 0.0021650776200854943 0 -0.016555769658169506 0.0020941665393227516 0 -0.016582775332723069 0.0022671553920052233 0 -0.016555769658169506 0.0020941665393227516 0 -0.016435088936997942 0.0021255864072578716 0 -0.016555769658169506 0.0020941665393227516 0 -0.016403504888533857 0.0019955345850701479 0 -0.016527288426557218 0.0019812050321014628 0 -0.016694889211563844 0.0021650776200854943 0 -0.016555769658169506 0.0020941665393227516 0 -0.01669000219596864 0.0020249378934154671 0 -0.016555769658169506 0.0020941665393227516 0 -0.01669000219596864 0.0020249378934154671 0 -0.016527288426557218 0.0019812050321014628 0 -0.016820362646961268 0.0020159261646657081 0 -0.01688551570772617 0.0021698320321711429 0 -0.016775205151669255 0.0021073441347654802 0 -0.01669000219596864 0.0020249378934154671 0 -0.016820362646961268 0.0020159261646657081 0 -0.016775205151669255 0.0021073441347654802 0 -0.016820362646961268 0.0020159261646657081 0 -0.01688551570772617 0.0021698320321711429 0 -0.016949173640184969 0.0018953041587408683 0 -0.016694889211563844 0.0021650776200854943 0 -0.01669000219596864 0.0020249378934154671 0 -0.016775205151669255 0.0021073441347654802 0 -0.016794098308798674 0.0022642183559042576 0 -0.016694889211563844 0.0021650776200854943 0 -0.016786525350697069 0.002179944697246384 0 -0.01688551570772617 0.0021698320321711429 0 -0.016786525350697069 0.002179944697246384 0 -0.016775205151669255 0.0021073441347654802 0 -0.016694889211563844 0.0021650776200854943 0 -0.016786525350697069 0.002179944697246384 0 -0.016775205151669255 0.0021073441347654802 0 -0.016324767988522459 0.0019935903115016669 0 -0.016306406026267817 0.0022434336443556556 0 -0.016465838761807565 0.0023815179333736133 0 -0.01569879723494284 0.00197299823176642 0 -0.016465838761807565 0.0023815179333736133 0 -0.016148184116251983 0.0021119184627875058 0 -0.01597784595727517 0.0019358548248045722 0 -0.016420666139668815 0.0023538235097984432 0 -0.016306406026267817 0.0022434336443556556 0 -0.016393681018662804 0.002422457052729244 0 -0.016465838761807565 0.0023815179333736133 0 -0.016465838761807565 0.0023815179333736133 0 -0.016373092918644819 0.0021959737713306295 0 -0.016148184116251983 0.0021119184627875058 0 -0.016582775332723069 0.0022671553920052233 0 -0.016465838761807565 0.0023815179333736133 0 -0.016373092918644819 0.0021959737713306295 0 -0.016582775332723069 0.0022671553920052233 0 -0.016435088936997942 0.0021255864072578716 0 -0.016373092918644819 0.0021959737713306295 0 -0.016555769658169506 0.0020941665393227516 0 -0.016435088936997942 0.0021255864072578716 0 -0.016403504888533857 0.0019955345850701479 0 -0.016435088936997942 0.0021255864072578716 0 -0.016261140119190935 0.0020186895580537631 0 -0.016403504888533857 0.0019955345850701479 0 -0.016261140119190935 0.0020186895580537631 0 -0.016373092918644819 0.0021959737713306295 0 -0.016148184116251983 0.0021119184627875058 0 -0.016435088936997942 0.0021255864072578716 0 -0.016261140119190935 0.0020186895580537631 0 -0.016373092918644819 0.0021959737713306295 0 -0.01569879723494284 0.00197299823176642 0 -0.016148184116251983 0.0021119184627875058 0 -0.016018775906590281 0.0019228896875780528 0 -0.015865181037485129 0.0017828580151013553 0 -0.016018775906590281 0.0019228896875780528 0 -0.016000778424634043 0.0017879148991069088 0 -0.016261140119190935 0.0020186895580537631 0 -0.016148184116251983 0.0021119184627875058 0 -0.016018775906590281 0.0019228896875780528 0 -0.016261140119190935 0.0020186895580537631 0 -0.016018775906590281 0.0019228896875780528 0 -0.0161636033130199 0.0018625564371046893 0 -0.016018775906590281 0.0019228896875780528 0 -0.0161636033130199 0.0018625564371046893 0 -0.016000778424634043 0.0017879148991069088 0 -0.0161636033130199 0.0018625564371046893 0 -0.016337832349823549 0.0018732083367460105 0 -0.016160662132800218 0.001711699495715716 0 -0.016261140119190935 0.0020186895580537631 0 -0.0161636033130199 0.0018625564371046893 0 -0.016337832349823549 0.0018732083367460105 0 -0.016403504888533857 0.0019955345850701479 0 -0.016337832349823549 0.0018732083367460105 0 -0.016527288426557218 0.0019812050321014628 0 -0.016261140119190935 0.0020186895580537631 0 -0.016403504888533857 0.0019955345850701479 0 -0.016337832349823549 0.0018732083367460105 0 -0.016337832349823549 0.0018732083367460105 0 -0.016336953972699166 0.0017317584856803977 0 -0.016464277019494825 0.0018458181316626347 0 -0.016160662132800218 0.001711699495715716 0 -0.015920252383189521 0.0016279903767180035 0 -0.016222357070759738 0.0015380490014712399 0 -0.016337832349823549 0.0018732083367460105 0 -0.016336953972699166 0.0017317584856803977 0 -0.016160662132800218 0.001711699495715716 0 -0.016336953972699166 0.0017317584856803977 0 -0.016160662132800218 0.001711699495715716 0 -0.016222357070759738 0.0015380490014712399 0 -0.0161636033130199 0.0018625564371046893 0 -0.016160662132800218 0.001711699495715716 0 -0.016000778424634043 0.0017879148991069088 0 -0.016160662132800218 0.001711699495715716 0 -0.015920252383189521 0.0016279903767180035 0 -0.016000778424634043 0.0017879148991069088 0 -0.015865181037485129 0.0017828580151013553 0 -0.015920252383189521 0.0016279903767180035 0 -0.016000778424634043 0.0017879148991069088 0 -0.016696227945032324 0.0017570245590225308 0 -0.016371177749718704 0.0012507078221436659 0 -0.016949173640184969 0.0018953041587408683 0 -0.016749685785013655 0.0018831196339528875 0 -0.016665664830590957 0.0018451086550561957 0 -0.016696227945032324 0.0017570245590225308 0 -0.016749685785013655 0.0018831196339528875 0 -0.016665664830590957 0.0018451086550561957 0 -0.016699641324765334 0.0019230068178144894 0 -0.016665664830590957 0.0018451086550561957 0 -0.016699641324765334 0.0019230068178144894 0 -0.016586315729429948 0.0019164460132396332 0 -0.016827311311088965 0.0019033581551712896 0 -0.016696227945032324 0.0017570245590225308 0 -0.016949173640184969 0.0018953041587408683 0 -0.016749685785013655 0.0018831196339528875 0 -0.016827311311088965 0.0019033581551712896 0 -0.016696227945032324 0.0017570245590225308 0 -0.016820362646961268 0.0020159261646657081 0 -0.016827311311088965 0.0019033581551712896 0 -0.01677433837416523 0.0019523265987181223 0 -0.016820362646961268 0.0020159261646657081 0 -0.016827311311088965 0.0019033581551712896 0 -0.016949173640184969 0.0018953041587408683 0 -0.016749685785013655 0.0018831196339528875 0 -0.016827311311088965 0.0019033581551712896 0 -0.01677433837416523 0.0019523265987181223 0 -0.01669000219596864 0.0020249378934154671 0 -0.016820362646961268 0.0020159261646657081 0 -0.01677433837416523 0.0019523265987181223 0 -0.016749685785013655 0.0018831196339528875 0 -0.01677433837416523 0.0019523265987181223 0 -0.016699641324765334 0.0019230068178144894 0 -0.01669000219596864 0.0020249378934154671 0 -0.01677433837416523 0.0019523265987181223 0 -0.016699641324765334 0.0019230068178144894 0 -0.01669000219596864 0.0020249378934154671 0 -0.016699641324765334 0.0019230068178144894 0 -0.016586315729429948 0.0019164460132396332 0 -0.01669000219596864 0.0020249378934154671 0 -0.016586315729429948 0.0019164460132396332 0 -0.016527288426557218 0.0019812050321014628 0 -0.016586315729429948 0.0019164460132396332 0 -0.016527288426557218 0.0019812050321014628 0 -0.016464277019494825 0.0018458181316626347 0 -0.016337832349823549 0.0018732083367460105 0 -0.016527288426557218 0.0019812050321014628 0 -0.016464277019494825 0.0018458181316626347 0 -0.016665664830590957 0.0018451086550561957 0 -0.016586315729429948 0.0019164460132396332 0 -0.016532503557824249 0.0017271630625952229 0 -0.016586315729429948 0.0019164460132396332 0 -0.016464277019494825 0.0018458181316626347 0 -0.016532503557824249 0.0017271630625952229 0 -0.016336953972699166 0.0017317584856803977 0 -0.016532503557824249 0.0017271630625952229 0 -0.016222357070759738 0.0015380490014712399 0 -0.016336953972699166 0.0017317584856803977 0 -0.016464277019494825 0.0018458181316626347 0 -0.016532503557824249 0.0017271630625952229 0 -0.016665664830590957 0.0018451086550561957 0 -0.016532503557824249 0.0017271630625952229 0 -0.016696227945032324 0.0017570245590225308 0 -0.015960678777907182 0.0021438547810165957 0 -0.016684963642831171 0.0025095538894266086 0 -0.016532503557824249 0.0017271630625952229 0 -0.016371177749718704 0.0012507078221436659 0 -0.016222357070759738 0.0015380490014712399 0 -0.016532503557824249 0.0017271630625952229 0 -0.016696227945032324 0.0017570245590225308 0 -0.016371177749718704 0.0012507078221436659 0 -0.015580169219330912 0.0028541791443337182 0 -0.01511847732700411 0.0017022878883950865 0 -0.016054616322848596 0.001906402350380258 0 -0.015960678777907182 0.0021438547810165957 0 -0.015455438151927542 0.0012450652399579761 0 -0.016371177749718704 0.0012507078221436659 0 -0.015691241034764099 0.0010513640912831388 0 -0.015763278533827675 0.00076824352644329797 0 -0.016371177749718704 0.0012507078221436659 0 -0.015691241034764099 0.0010513640912831388 0 -0.015839521754736741 0.0013997611193093686 0 -0.016371177749718704 0.0012507078221436659 0 -0.015839521754736741 0.0013997611193093686 0 -0.016222357070759738 0.0015380490014712399 0 -0.015920252383189521 0.0016279903767180035 0 -0.015839521754736741 0.0013997611193093686 0 -0.016222357070759738 0.0015380490014712399 0 -0.015677092152485108 0.0016331945115666527 0 -0.015839521754736741 0.0013997611193093686 0 -0.015503677867431107 0.0012801028900004592 0 -0.015677092152485108 0.0016331945115666527 0 -0.015503677867431107 0.0012801028900004592 0 -0.015240332223197822 0.0015004111979996955 0 -0.015691241034764099 0.0010513640912831388 0 -0.015839521754736741 0.0013997611193093686 0 -0.015503677867431107 0.0012801028900004592 0 -0.015677092152485108 0.0016331945115666527 0 -0.015920252383189521 0.0016279903767180035 0 -0.015839521754736741 0.0013997611193093686 0 -0.014920398596565555 0.00039181736575863592 0 -0.01511971735043177 0.0012797493858891619 0 -0.015688577286214003 0.0012006797550724849 0 -0.014961947910613836 0.0011391671800426782 0 -0.015240332223197822 0.0015004111979996955 0 -0.015242181841120528 0.00115280307691517 0 -0.013885469588595413 0.00047174480543123941 0 -0.015633242694030693 0.0014647678496570791 0 -0.015503677867431107 0.0012801028900004592 0 -0.015240332223197822 0.0015004111979996955 0 -0.015242181841120528 0.00115280307691517 0 -0.014961947910613836 0.0011391671800426782 0 -0.015242181841120528 0.00115280307691517 0 -0.015170950276115877 0.0009118057201896486 0 -0.015242181841120528 0.00115280307691517 0 -0.015364433263576078 0.0010100607626135432 0 -0.015170950276115877 0.0009118057201896486 0 -0.015691241034764099 0.0010513640912831388 0 -0.015503677867431107 0.0012801028900004592 0 -0.015364433263576078 0.0010100607626135432 0 -0.015503677867431107 0.0012801028900004592 0 -0.015242181841120528 0.00115280307691517 0 -0.015364433263576078 0.0010100607626135432 0 -0.015364433263576078 0.0010100607626135432 0 -0.015368999287601038 0.00080082572035900228 0 -0.015170950276115877 0.0009118057201896486 0 -0.015691241034764099 0.0010513640912831388 0 -0.015364433263576078 0.0010100607626135432 0 -0.015368999287601038 0.00080082572035900228 0 -0.01492831844967526 0.00077751726178330795 0 -0.015170950276115877 0.0009118057201896486 0 -0.015187347418773832 0.00068197217428885818 0 -0.015368999287601038 0.00080082572035900228 0 -0.015170950276115877 0.0009118057201896486 0 -0.015187347418773832 0.00068197217428885818 0 -0.01492831844967526 0.00077751726178330795 0 -0.015187347418773832 0.00068197217428885818 0 -0.015090104448562061 0.00055961723050804006 0 -0.015368999287601038 0.00080082572035900228 0 -0.015187347418773832 0.00068197217428885818 0 -0.015293442772761354 0.00069086332860179823 0 -0.015187347418773832 0.00068197217428885818 0 -0.015293442772761354 0.00069086332860179823 0 -0.015193266231877415 0.00065831587305160359 0 -0.015293442772761354 0.00069086332860179823 0 -0.015763278533827675 0.00076824352644329797 0 -0.015097290464375581 0.00069707091859436208 0 -0.01539031581303886 0.0011038444194700662 0 -0.01511847732700411 0.0017022878883950865 0 -0.015097290464375581 0.00069707091859436208 0 -0.015455438151927542 0.0012450652399579761 0 -0.015143059691444751 0.00076700796495148644 0 -0.01539031581303886 0.0011038444194700662 0 -0.016185500810592616 0.00099172656245063279 0 -0.015516901146574238 0.00064685565694059621 0 -0.01539031581303886 0.0011038444194700662 0 -0.01511847732700411 0.0017022878883950865 0 -0.016054616322848596 0.001906402350380258 0 -0.015368999287601038 0.00080082572035900228 0 -0.015293442772761354 0.00069086332860179823 0 -0.015763278533827675 0.00076824352644329797 0 -0.015691241034764099 0.0010513640912831388 0 -0.015368999287601038 0.00080082572035900228 0 -0.015763278533827675 0.00076824352644329797 0 -0.016715706362791422 0.001535538199651947 0 -0.017473376295958774 0.0015017064677043366 0 -0.01691270267991522 0.0023090355178051166 0 -0.017767767740458719 0.0011574360998640306 0 -0.017391598041114512 0.0017334244582331976 0 -0.016054616322848596 0.001906402350380258 0 -0.016715706362791422 0.001535538199651947 0 -0.01691270267991522 0.0023090355178051166 0 -0.016054616322848596 0.001906402350380258 0 -0.016185500810592616 0.00099172656245063279 0 -0.016715706362791422 0.001535538199651947 0 -0.01539031581303886 0.0011038444194700662 0 -0.016054616322848596 0.001906402350380258 0 -0.016185500810592616 0.00099172656245063279 0 -0.016715706362791422 0.001535538199651947 0 -0.017098270017614096 0.00088503399827551631 0 -0.017473376295958774 0.0015017064677043366 0 -0.016185500810592616 0.00099172656245063279 0 -0.016715706362791422 0.001535538199651947 0 -0.017098270017614096 0.00088503399827551631 0 -0.018053515495469054 0.00084828778631852806 0 -0.018325300060024325 0.00079687739377078668 0 -0.018124294385379762 0.00055259869313752986 0 -0.017767767740458719 0.0011574360998640306 0 -0.018101103927332968 0.00058529460922565027 0 -0.017098270017614096 0.00088503399827551631 0 -0.017473376295958774 0.0015017064677043366 0 -0.018124294385379762 0.00055259869313752986 0 -0.018325300060024325 0.00079687739377078668 0 -0.01864778841659875 0.00068655823098478152 0 -0.01844982592536016 0.00050844468740783696 0 -0.018325300060024325 0.00079687739377078668 0 -0.018361836795498063 0.0011590211056811495 0 -0.018745888859566236 0.0010223592884351076 0 -0.018053515495469054 0.00084828778631852806 0 -0.018325300060024325 0.00079687739377078668 0 -0.018361836795498063 0.0011590211056811495 0 -0.018053515495469054 0.00084828778631852806 0 -0.018361836795498063 0.0011590211056811495 0 -0.017852179407860016 0.0011835950619693498 0 -0.018361836795498063 0.0011590211056811495 0 -0.018059081172927243 0.0015641423336963476 0 -0.017852179407860016 0.0011835950619693498 0 -0.018361836795498063 0.0011590211056811495 0 -0.01868507989586056 0.0013332825718328245 0 -0.018745888859566236 0.0010223592884351076 0 -0.018361836795498063 0.0011590211056811495 0 -0.018513495112813298 0.0016056029880264747 0 -0.01868507989586056 0.0013332825718328245 0 -0.018513495112813298 0.0016056029880264747 0 -0.018059081172927243 0.0015641423336963476 0 -0.018311719553343739 0.001919951435099041 0 -0.018361836795498063 0.0011590211056811495 0 -0.018513495112813298 0.0016056029880264747 0 -0.018059081172927243 0.0015641423336963476 0 -0.018059081172927243 0.0015641423336963476 0 -0.017852179407860016 0.0011835950619693498 0 -0.017602651163256777 0.0015634561219392304 0 -0.018059081172927243 0.0015641423336963476 0 -0.017602651163256777 0.0015634561219392304 0 -0.017877184240609509 0.0019677514089708756 0 -0.017391598041114512 0.0017334244582331976 0 -0.017001251075886334 0.0024149884758979854 0 -0.015580169219330912 0.0028541791443337182 0 -0.016054616322848596 0.001906402350380258 0 -0.016443189597133274 0.0031092915256150772 0 -0.016054616322848596 0.001906402350380258 0 -0.01691270267991522 0.0023090355178051166 0 -0.016443189597133274 0.0031092915256150772 0 -0.015580169219330912 0.0028541791443337182 0 -0.016443189597133274 0.0031092915256150772 0 -0.016015294702949934 0.0038944679898403642 0 -0.017602651163256777 0.0015634561219392304 0 -0.017596467422492011 0.0019367193466055979 0 -0.017344079681202162 0.0019749510009499519 0 -0.017001251075886334 0.0024149884758979854 0 -0.016684963642831171 0.0025095538894266086 0 -0.017596467422492011 0.0019367193466055979 0 -0.017344079681202162 0.0019749510009499519 0 -0.017615235621708095 0.0021730293748727105 0 -0.017602651163256777 0.0015634561219392304 0 -0.017596467422492011 0.0019367193466055979 0 -0.017877184240609509 0.0019677514089708756 0 -0.017596467422492011 0.0019367193466055979 0 -0.017877184240609509 0.0019677514089708756 0 -0.017615235621708095 0.0021730293748727105 0 -0.017933997999358429 0.0023517017536300346 0 -0.017615235621708095 0.0021730293748727105 0 -0.017478775965974268 0.0025552404534026625 0 -0.017877184240609509 0.0019677514089708756 0 -0.017933997999358429 0.0023517017536300346 0 -0.017615235621708095 0.0021730293748727105 0 -0.017877184240609509 0.0019677514089708756 0 -0.017933997999358429 0.0023517017536300346 0 -0.018172808905621948 0.0021841384205059382 0 -0.01688551570772617 0.0021698320321711429 0 -0.016949173640184969 0.0018953041587408683 0 -0.017073903726135455 0.0023250402885175428 0 -0.017344079681202162 0.0019749510009499519 0 -0.017615235621708095 0.0021730293748727105 0 -0.017478775965974268 0.0025552404534026625 0 -0.016949173640184969 0.0018953041587408683 0 -0.017073903726135455 0.0023250402885175428 0 -0.017478775965974268 0.0025552404534026625 0 -0.016684963642831171 0.0025095538894266086 0 -0.017557448167820264 0.0023432349547372676 0 -0.017086667078994807 0.0026493488483067757 0 -0.017478775965974268 0.0025552404534026625 0 -0.017409155464819054 0.0030027027595770539 0 -0.017073903726135455 0.0023250402885175428 0 -0.017086667078994807 0.0026493488483067757 0 -0.017478775965974268 0.0025552404534026625 0 -0.017933997999358429 0.0023517017536300346 0 -0.017478775965974268 0.0025552404534026625 0 -0.018004043231537935 0.0027373301192359653 0 -0.017478775965974268 0.0025552404534026625 0 -0.018004043231537935 0.0027373301192359653 0 -0.017877019036059351 0.0030104281117386 0 -0.017879940606063235 0.0034719697563307763 0 -0.017877019036059351 0.0030104281117386 0 -0.017409155464819054 0.0030027027595770539 0 -0.018004043231537935 0.0027373301192359653 0 -0.017877019036059351 0.0030104281117386 0 -0.01820811122458401 0.0029834337676775207 0 -0.017478775965974268 0.0025552404534026625 0 -0.017877019036059351 0.0030104281117386 0 -0.017409155464819054 0.0030027027595770539 0 -0.017355673974572303 0.0034808182611495157 0 -0.016726495295744586 0.0029351431235489873 0 -0.017409155464819054 0.0030027027595770539 0 -0.023291621896396573 0.0031094737351018589 0 -0.017746224579996743 0.0025295420260990895 0 -0.018775490521223577 0.0033951695729389879 0 -0.01886845056148085 0.0032459385336644393 0 -0.018596925891551607 0.0027950919352574414 0 -0.018783592681404431 0.0032379347304837733 0 -0.018398638293784821 0.0030715493088934839 0 -0.018367788908556195 0.0027794689691333476 0 -0.018775490521223577 0.0033951695729389879 0 -0.018281808234570988 0.0028191234204014573 0 -0.018596925891551607 0.0027950919352574414 0 -0.020309307854971471 0.0027955320228376882 0 -0.018568916739233603 0.0026861727576096639 0 -0.023291621896396573 0.0031094737351018589 0 -0.020309307854971471 0.0027955320228376882 0 -0.018235180088604169 0.0032827929313440796 0 -0.017877019036059351 0.0030104281117386 0 -0.01820811122458401 0.0029834337676775207 0 -0.018235180088604169 0.0032827929313440796 0 -0.018398638293784821 0.0030715493088934839 0 -0.01820811122458401 0.0029834337676775207 0 -0.018004043231537935 0.0027373301192359653 0 -0.01820811122458401 0.0029834337676775207 0 -0.018367788908556195 0.0027794689691333476 0 -0.018398638293784821 0.0030715493088934839 0 -0.01820811122458401 0.0029834337676775207 0 -0.018367788908556195 0.0027794689691333476 0 -0.018281808234570988 0.0028191234204014573 0 -0.01833648304980726 0.0024280940245445743 0 -0.018596925891551607 0.0027950919352574414 0 -0.017933997999358429 0.0023517017536300346 0 -0.018004043231537935 0.0027373301192359653 0 -0.018367788908556195 0.0027794689691333476 0 -0.017933997999358429 0.0023517017536300346 0 -0.018281808234570988 0.0028191234204014573 0 -0.01833648304980726 0.0024280940245445743 0 -0.018144186944717811 0.0025354099693237929 0 -0.017746224579996743 0.0025295420260990895 0 -0.018496385857902753 0.002742152912797286 0 -0.018636053460572153 0.0023987544549664004 0 -0.019023298155246882 0.0025039045704378024 0 -0.018663444846426732 0.0030467966810037448 0 -0.018496385857902753 0.002742152912797286 0 -0.019023298155246882 0.0025039045704378024 0 -0.01833648304980726 0.0024280940245445743 0 -0.018496385857902753 0.002742152912797286 0 -0.018636053460572153 0.0023987544549664004 0 -0.018387378578129929 0.0024912664079399221 0 -0.018568916739233603 0.0026861727576096639 0 -0.018636053460572153 0.0023987544549664004 0 -0.018469540350520602 0.0021857120388088518 0 -0.018767125449115206 0.0020283697823982824 0 -0.01833648304980726 0.0024280940245445743 0 -0.018636053460572153 0.0023987544549664004 0 -0.018469540350520602 0.0021857120388088518 0 -0.017933997999358429 0.0023517017536300346 0 -0.01833648304980726 0.0024280940245445743 0 -0.018172808905621948 0.0021841384205059382 0 -0.01833648304980726 0.0024280940245445743 0 -0.018469540350520602 0.0021857120388088518 0 -0.018172808905621948 0.0021841384205059382 0 -0.018469540350520602 0.0021857120388088518 0 -0.018172808905621948 0.0021841384205059382 0 -0.018311719553343739 0.001919951435099041 0 -0.018059081172927243 0.0015641423336963476 0 -0.017877184240609509 0.0019677514089708756 0 -0.018311719553343739 0.001919951435099041 0 -0.017877184240609509 0.0019677514089708756 0 -0.018172808905621948 0.0021841384205059382 0 -0.018311719553343739 0.001919951435099041 0 -0.018513495112813298 0.0016056029880264747 0 -0.018311719553343739 0.001919951435099041 0 -0.018767125449115206 0.0020283697823982824 0 -0.018469540350520602 0.0021857120388088518 0 -0.018311719553343739 0.001919951435099041 0 -0.018767125449115206 0.0020283697823982824 0 -0.018767125449115206 0.0020283697823982824 0 -0.019465583421929385 0.001870939675848875 0 -0.018878149221573059 0.0016867113918499789 0 -0.018513495112813298 0.0016056029880264747 0 -0.018767125449115206 0.0020283697823982824 0 -0.018878149221573059 0.0016867113918499789 0 -0.019465583421929385 0.001870939675848875 0 -0.01974838907267255 0.0020739972754824421 0 -0.019811340820100824 0.0020902672476051263 0 -0.019547469630184545 0.0018699537629249011 0 -0.019205300171996547 0.0022772002286744744 0 -0.018636053460572153 0.0023987544549664004 0 -0.018767125449115206 0.0020283697823982824 0 -0.019023298155246882 0.0025039045704378024 0 -0.018767125449115206 0.0020283697823982824 0 -0.019465583421929385 0.001870939675848875 0 -0.019023298155246882 0.0025039045704378024 0 -0.01974838907267255 0.0020739972754824421 0 -0.019841805794509764 0.0021433635868381802 0 -0.019811340820100824 0.0020902672476051263 0 -0.019841805794509764 0.0021433635868381802 0 -0.019915851948827643 0.0021764357327917604 0 -0.019811340820100824 0.0020902672476051263 0 -0.019899833196229035 0.0022003055027859228 0 -0.019841805794509764 0.0021433635868381802 0 -0.019915851948827643 0.0021764357327917604 0 -0.019824562214068798 0.0021840098277396466 0 -0.01974838907267255 0.0020739972754824421 0 -0.019841805794509764 0.0021433635868381802 0 -0.020309307854971471 0.0027955320228376882 0 -0.019205300171996547 0.0022772002286744744 0 -0.019899833196229035 0.0022003055027859228 0 -0.019824562214068798 0.0021840098277396466 0 -0.019841805794509764 0.0021433635868381802 0 -0.020240164224835201 0.0023516079766763543 0 -0.020044116365979348 0.0021453456262329014 0 -0.020278878618769262 0.0022318742580843287 0 -0.020240164224835201 0.0023516079766763543 0 -0.020130014957713594 0.0026318678043400021 0 -0.020044116365979348 0.0021453456262329014 0 -0.020069160009119819 0.0022522524265921559 0 -0.020044116365979348 0.0021453456262329014 0 -0.019979474713558546 0.0021891177324256392 0 -0.020106355680983491 0.0024249327193069919 0 -0.020059168410935715 0.0021627620681210873 0 -0.019915851948827643 0.0021764357327917604 0 -0.019979474713558546 0.0021891177324256392 0 -0.019811340820100824 0.0020902672476051263 0 -0.020044116365979348 0.0021453456262329014 0 -0.019979474713558546 0.0021891177324256392 0 -0.019811340820100824 0.0020902672476051263 0 -0.02001518878441429 0.0022300255406395961 0 -0.019915851948827643 0.0021764357327917604 0 -0.019979474713558546 0.0021891177324256392 0 -0.020044116365979348 0.0021453456262329014 0 -0.019868780082791089 0.0019359813550408661 0 -0.020208905816330568 0.0020790706366646634 0 -0.020044116365979348 0.0021453456262329014 0 -0.019811340820100824 0.0020902672476051263 0 -0.019868780082791089 0.0019359813550408661 0 -0.019868780082791089 0.0019359813550408661 0 -0.019638737964410149 0.0014249378640896248 0 -0.020119739388498863 0.0017094625943292635 0 -0.019465583421929385 0.001870939675848875 0 -0.019868780082791089 0.0019359813550408661 0 -0.019638737964410149 0.0014249378640896248 0 -0.019465583421929385 0.001870939675848875 0 -0.019811340820100824 0.0020902672476051263 0 -0.019868780082791089 0.0019359813550408661 0 -0.019465583421929385 0.001870939675848875 0 -0.019638737964410149 0.0014249378640896248 0 -0.019047476092211184 0.0014261124539779828 0 -0.019638737964410149 0.0014249378640896248 0 -0.019047476092211184 0.0014261124539779828 0 -0.019188453219182739 0.0011062430593146012 0 -0.019638737964410149 0.0014249378640896248 0 -0.019452169249210477 0.00098756913280089744 0 -0.019737239163301959 0.0010065313551269473 0 -0.019638737964410149 0.0014249378640896248 0 -0.019188453219182739 0.0011062430593146012 0 -0.019452169249210477 0.00098756913280089744 0 -0.019465583421929385 0.001870939675848875 0 -0.019047476092211184 0.0014261124539779828 0 -0.018878149221573059 0.0016867113918499789 0 -0.018513495112813298 0.0016056029880264747 0 -0.018878149221573059 0.0016867113918499789 0 -0.01868507989586056 0.0013332825718328245 0 -0.019047476092211184 0.0014261124539779828 0 -0.018878149221573059 0.0016867113918499789 0 -0.01868507989586056 0.0013332825718328245 0 -0.019047476092211184 0.0014261124539779828 0 -0.01868507989586056 0.0013332825718328245 0 -0.018745888859566236 0.0010223592884351076 0 -0.019047476092211184 0.0014261124539779828 0 -0.019188453219182739 0.0011062430593146012 0 -0.018745888859566236 0.0010223592884351076 0 -0.019188453219182739 0.0011062430593146012 0 -0.018745888859566236 0.0010223592884351076 0 -0.018971626973583729 0.00074185528113847939 0 -0.01864778841659875 0.00068655823098478152 0 -0.018971626973583729 0.00074185528113847939 0 -0.018794938885686154 0.00047824953818479093 0 -0.018325300060024325 0.00079687739377078668 0 -0.018745888859566236 0.0010223592884351076 0 -0.01864778841659875 0.00068655823098478152 0 -0.018745888859566236 0.0010223592884351076 0 -0.01864778841659875 0.00068655823098478152 0 -0.018971626973583729 0.00074185528113847939 0 -0.019188453219182739 0.0011062430593146012 0 -0.018971626973583729 0.00074185528113847939 0 -0.019276331733261053 0.00070453883789688154 0 -0.018971626973583729 0.00074185528113847939 0 -0.019276331733261053 0.00070453883789688154 0 -0.019116697008278106 0.00044741596128788241 0 -0.019452169249210477 0.00098756913280089744 0 -0.019512360241604715 0.00058385342460019524 0 -0.019737239163301959 0.0010065313551269473 0 -0.019276331733261053 0.00070453883789688154 0 -0.019452169249210477 0.00098756913280089744 0 -0.019512360241604715 0.00058385342460019524 0 -0.019188453219182739 0.0011062430593146012 0 -0.019276331733261053 0.00070453883789688154 0 -0.019452169249210477 0.00098756913280089744 0 -0.01909939359876801 0.00023833734965177856 0 -0.019299407370438545 0.00030055009883595929 0 -0.019203520793991694 6.3512356862918215e-05 0 -0.01909939359876801 0.00023833734965177856 0 -0.019299407370438545 0.00030055009883595929 0 -0.019116697008278106 0.00044741596128788241 0 -0.019299407370438545 0.00030055009883595929 0 -0.019512360241604715 0.00058385342460019524 0 -0.019476579774472189 0.0002039727818178399 0 -0.019299407370438545 0.00030055009883595929 0 -0.019512360241604715 0.00058385342460019524 0 -0.019116697008278106 0.00044741596128788241 0 -0.019276331733261053 0.00070453883789688154 0 -0.019512360241604715 0.00058385342460019524 0 -0.019116697008278106 0.00044741596128788241 0 -0.018971626973583729 0.00074185528113847939 0 -0.019116697008278106 0.00044741596128788241 0 -0.018794938885686154 0.00047824953818479093 0 -0.019116697008278106 0.00044741596128788241 0 -0.018794938885686154 0.00047824953818479093 0 -0.018877478544808129 0.00024566457998596419 0 -0.018794938885686154 0.00047824953818479093 0 -0.018594137085178517 0.00024353722231728125 0 -0.01844982592536016 0.00050844468740783696 0 -0.01864778841659875 0.00068655823098478152 0 -0.018794938885686154 0.00047824953818479093 0 -0.01844982592536016 0.00050844468740783696 0 -0.018594137085178517 0.00024353722231728125 0 -0.01864685969637515 2.0917745174400134e-05 0 -0.01835055605805019 2.8652645989452634e-05 0 -0.018794938885686154 0.00047824953818479093 0 -0.018594137085178517 0.00024353722231728125 0 -0.018877478544808129 0.00024566457998596419 0 -0.018594137085178517 0.00024353722231728125 0 -0.018877478544808129 0.00024566457998596419 0 -0.01864685969637515 2.0917745174400134e-05 0 -0.01909939359876801 0.00023833734965177856 0 -0.019116697008278106 0.00044741596128788241 0 -0.018877478544808129 0.00024566457998596419 0 -0.01909939359876801 0.00023833734965177856 0 -0.018877478544808129 0.00024566457998596419 0 -0.018950200956942512 6.8877920509700837e-05 0 -0.018877478544808129 0.00024566457998596419 0 -0.018950200956942512 6.8877920509700837e-05 0 -0.01864685969637515 2.0917745174400134e-05 0 -0.018950200956942512 6.8877920509700837e-05 0 -0.01864685969637515 2.0917745174400134e-05 0 -0.018676127185665792 -0.0002153639278418468 0 -0.01864685969637515 2.0917745174400134e-05 0 -0.018676127185665792 -0.0002153639278418468 0 -0.018331875541449855 -0.00013853348723514867 0 -0.018676127185665792 -0.0002153639278418468 0 -0.019029454314854685 -9.4503045713738635e-05 0 -0.018936814719478452 -0.00026381164559540263 0 -0.018950200956942512 6.8877920509700837e-05 0 -0.018676127185665792 -0.0002153639278418468 0 -0.019029454314854685 -9.4503045713738635e-05 0 -0.019029454314854685 -9.4503045713738635e-05 0 -0.019203520793991694 6.3512356862918215e-05 0 -0.019139539464554493 -0.00016370116303519446 0 -0.019029454314854685 -9.4503045713738635e-05 0 -0.019139539464554493 -0.00016370116303519446 0 -0.018936814719478452 -0.00026381164559540263 0 -0.01909939359876801 0.00023833734965177856 0 -0.018950200956942512 6.8877920509700837e-05 0 -0.019203520793991694 6.3512356862918215e-05 0 -0.018950200956942512 6.8877920509700837e-05 0 -0.019029454314854685 -9.4503045713738635e-05 0 -0.019203520793991694 6.3512356862918215e-05 0 -0.019299407370438545 0.00030055009883595929 0 -0.019203520793991694 6.3512356862918215e-05 0 -0.019476579774472189 0.0002039727818178399 0 -0.019203520793991694 6.3512356862918215e-05 0 -0.019335269180783383 -9.3866161956699451e-06 0 -0.019476579774472189 0.0002039727818178399 0 -0.019139539464554493 -0.00016370116303519446 0 -0.019335269180783383 -9.3866161956699451e-06 0 -0.01925097427002222 -0.00017472494295069796 0 -0.019203520793991694 6.3512356862918215e-05 0 -0.019139539464554493 -0.00016370116303519446 0 -0.019335269180783383 -9.3866161956699451e-06 0 -0.019139539464554493 -0.00016370116303519446 0 -0.01917342307416325 -0.00023663154227948028 0 -0.019113511285882671 -0.00031445732402984134 0 -0.019139539464554493 -0.00016370116303519446 0 -0.01917342307416325 -0.00023663154227948028 0 -0.01925097427002222 -0.00017472494295069796 0 -0.01917342307416325 -0.00023663154227948028 0 -0.01921366544289671 -0.00026203419270568709 0 -0.01925097427002222 -0.00017472494295069796 0 -0.015593030558395555 -0.0005246955761533718 0 -0.015628033883389032 -0.00053666213636209244 0 -0.015594733765669061 -0.00058036856175503685 0 -0.016388872234012617 0.00038856417816375132 0 -0.017496352397085323 -0.00059635044026133427 0 -0.019139539464554493 -0.00016370116303519446 0 -0.019113511285882671 -0.00031445732402984134 0 -0.018936814719478452 -0.00026381164559540263 0 -0.012560217322151297 0.0036654094156122188 0 -0.012512289713537362 0.0031974422060513179 0 -0.011682065253668038 0.0034228170646694845 0 -0.015593030558395555 -0.0005246955761533718 0 -0.01564564045689798 -0.00053712480943685884 0 -0.015628033883389032 -0.00053666213636209244 0 -0.016388872234012617 0.00038856417816375132 0 -0.013144085678021208 0.0014242292902989649 0 -0.01917342307416325 -0.00023663154227948028 0 -0.019113511285882671 -0.00031445732402984134 0 -0.01921366544289671 -0.00026203419270568709 0 -0.016388872234012617 0.00038856417816375132 0 -0.019917045260011045 3.4216002423264794e-05 0 -0.019258496864305152 -0.00021523513969722607 0 -0.01921408214691267 -0.00016361685114491545 0 -0.01921366544289671 -0.00026203419270568709 0 -0.016388872234012617 0.00038856417816375132 0 -0.015929928306637 0.0016614331330614747 0 -0.012560217322151297 0.0036654094156122188 0 -0.013067495910696555 0.0033298049127155021 0 -0.012512289713537362 0.0031974422060513179 0 -0.012946565789490903 0.0027901839275986202 0 -0.012512289713537362 0.0031974422060513179 0 -0.012291222927967676 0.0027821818309696229 0 -0.013067495910696555 0.0033298049127155021 0 -0.012946565789490903 0.0027901839275986202 0 -0.012512289713537362 0.0031974422060513179 0 -0.012512289713537362 0.0031974422060513179 0 -0.012291222927967676 0.0027821818309696229 0 -0.011682065253668038 0.0034228170646694845 0 -0.012291222927967676 0.0027821818309696229 0 -0.011624890866896956 0.0027697571015542367 0 -0.011682065253668038 0.0034228170646694845 0 -0.012291222927967676 0.0027821818309696229 0 -0.011936921690474061 0.0022784215821165937 0 -0.01254806619009558 0.0020648742776252231 0 -0.012291222927967676 0.0027821818309696229 0 -0.011936921690474061 0.0022784215821165937 0 -0.011624890866896956 0.0027697571015542367 0 -0.011936921690474061 0.0022784215821165937 0 -0.01254806619009558 0.0020648742776252231 0 -0.011876215900034463 0.0016660022432171343 0 -0.012946565789490903 0.0027901839275986202 0 -0.01254806619009558 0.0020648742776252231 0 -0.013269379484032869 0.0022899011743520454 0 -0.012946565789490903 0.0027901839275986202 0 -0.012291222927967676 0.0027821818309696229 0 -0.01254806619009558 0.0020648742776252231 0 -0.010902037283336902 0.0025564088856552722 0 -0.011340461654144528 0.0021097538593386096 0 -0.010437187757684287 0.0020958368662731919 0 -0.011936921690474061 0.0022784215821165937 0 -0.011340461654144528 0.0021097538593386096 0 -0.011624890866896956 0.0027697571015542367 0 -0.010902037283336902 0.0025564088856552722 0 -0.011340461654144528 0.0021097538593386096 0 -0.011624890866896956 0.0027697571015542367 0 -0.011936921690474061 0.0022784215821165937 0 -0.011340461654144528 0.0021097538593386096 0 -0.011876215900034463 0.0016660022432171343 0 -0.011624890866896956 0.0027697571015542367 0 -0.010803207496748121 0.0031705131872682957 0 -0.011682065253668038 0.0034228170646694845 0 -0.010902037283336902 0.0025564088856552722 0 -0.010803207496748121 0.0031705131872682957 0 -0.0099211828825209424 0.0029052810019695448 0 -0.010902037283336902 0.0025564088856552722 0 -0.011624890866896956 0.0027697571015542367 0 -0.010803207496748121 0.0031705131872682957 0 -0.015384670209495124 -0.00070299122771587277 0 -0.015370221721051843 -0.00051226212224158272 0 -0.015061012415153627 -0.00048922149301155657 0 -0.015384670209495124 -0.00070299122771587277 0 -0.015370221721051843 -0.00051226212224158272 0 -0.015545679210216046 -0.00055426498774361005 0 -0.016214409976650367 -0.0011365851835125143 0 -0.015513660303867586 -0.00033680458137645106 0 -0.015633040324967817 -0.00055190294953297466 0 -0.015545679210216046 -0.00055426498774361005 0 -0.015623546620216229 -0.0005494735481979898 0 -0.015370221721051843 -0.00051226212224158272 0 -0.015439815089466026 -0.00029163507529173888 0 -0.015545679210216046 -0.00055426498774361005 0 -0.016214409976650367 -0.0011365851835125143 0 -0.016838321979506878 -0.0015200403127273202 0 -0.015370221721051843 -0.00051226212224158272 0 -0.015439815089466026 -0.00029163507529173888 0 -0.015061012415153627 -0.00048922149301155657 0 -0.015384670209495124 -0.00070299122771587277 0 -0.01564564045689798 -0.00053712480943685884 0 -0.015545679210216046 -0.00055426498774361005 0 -0.0137499961462794 0.0012861348831033404 0 -0.013144085678021208 0.0014242292902989649 0 -0.015545679210216046 -0.00055426498774361005 0 -0.015623546620216229 -0.0005494735481979898 0 -0.015628033883389032 -0.00053666213636209244 0 -0.01564564045689798 -0.00053712480943685884 0 -0.015545679210216046 -0.00055426498774361005 0 -0.015628033883389032 -0.00053666213636209244 0 -0.015863199507761664 -0.00086077977601181502 0 -0.015690268237986568 -0.00056712301536278222 0 -0.015594733765669061 -0.00058036856175503685 0 -0.017148895343763956 -0.00044083608435609189 0 -0.017496352397085323 -0.00059635044026133427 0 -0.015628033883389032 -0.00053666213636209244 0 -0.015690268237986568 -0.00056712301536278222 0 -0.015594733765669061 -0.00058036856175503685 0 -0.015623546620216229 -0.0005494735481979898 0 -0.015628033883389032 -0.00053666213636209244 0 -0.015690268237986568 -0.00056712301536278222 0 -0.015863199507761664 -0.00086077977601181502 0 -0.015849638500462684 -0.00044796634150407464 0 -0.015690268237986568 -0.00056712301536278222 0 -0.015863199507761664 -0.00086077977601181502 0 -0.015849638500462684 -0.00044796634150407464 0 -0.016086684379252262 -0.00077468438893302791 0 -0.016214409976650367 -0.0011365851835125143 0 -0.017306270988446303 -0.0014967413541513198 0 -0.016214409976650367 -0.0011365851835125143 0 -0.015892151743400789 -0.00081771292836209115 0 -0.015633040324967817 -0.00055190294953297466 0 -0.015623546620216229 -0.0005494735481979898 0 -0.015690268237986568 -0.00056712301536278222 0 -0.017952263495018297 -0.0024141168296542065 0 -0.017825646704575714 -0.0019877941318484217 0 -0.018348625595127819 -0.0019677032840386393 0 -0.018664831323735961 -0.0025329031082969534 0 -0.017952263495018297 -0.0024141168296542065 0 -0.018348625595127819 -0.0019677032840386393 0 -0.017952263495018297 -0.0024141168296542065 0 -0.01734109921266444 -0.0025329813217507676 0 -0.017825646704575714 -0.0019877941318484217 0 -0.01734109921266444 -0.0025329813217507676 0 -0.017433437120263736 -0.0016419831371753603 0 -0.017825646704575714 -0.0019877941318484217 0 -0.017804701774224239 -0.003530216017225766 0 -0.015145727370131324 -0.0024840587347491699 0 -0.017375068735418182 -0.0036816095121452804 0 -0.017277090931615884 -0.0045952848265360582 0 -0.018041279823788472 -0.004872829888737904 0 -0.017952263495018297 -0.0024141168296542065 0 -0.01734109921266444 -0.0025329813217507676 0 -0.017764348690536853 -0.0031918079989043308 0 -0.017952263495018297 -0.0024141168296542065 0 -0.018220258112595082 -0.0028626239030637816 0 -0.017764348690536853 -0.0031918079989043308 0 -0.018664831323735961 -0.0025329031082969534 0 -0.017952263495018297 -0.0024141168296542065 0 -0.018220258112595082 -0.0028626239030637816 0 -0.016838321979506878 -0.0015200403127273202 0 -0.015145727370131324 -0.0024840587347491699 0 -0.015384670209495124 -0.00070299122771587277 0 -0.015061012415153627 -0.00048922149301155657 0 -0.014661232961158765 -0.00095058108805582992 0 -0.0137499961462794 0.0012861348831033404 0 -0.0090025212998900307 0.0019648113570306393 0 -0.015061012415153627 -0.00048922149301155657 0 -0.014661232961158765 -0.00095058108805582992 0 -0.014568727048790239 -0.00080541123235042624 0 -0.001107689250778309 0.0037719959743135628 0 0.00023598733579417797 0.0033823412986445814 0 -0.00076478569064644512 0.0023906666316804545 0 -0.0090025212998900307 0.0019648113570306393 0 -0.015145727370131324 -0.0024840587347491699 0 -0.017277090931615884 -0.0045952848265360582 0 -0.018041279823788472 -0.004872829888737904 0 -0.017325168553001594 -0.0054113027990481937 0 -0.015145727370131324 -0.0024840587347491699 0 -0.0082291994258228852 -0.0010833250866475847 0 -0.01280463090487349 -0.00038205978989641333 0 -0.012091577814613551 0.00074804223422975428 0 -0.0088383195480790152 -0.0016024890772284323 0 -0.0090025212998900307 0.0019648113570306393 0 -0.0082291994258228852 -0.0010833250866475847 0 0.00023598733579417797 0.0033823412986445814 0 -0.00076478569064644512 0.0023906666316804545 0 -1.118968864415055e-05 0.0011030693029702894 0 -0.010902037283336902 0.0025564088856552722 0 -0.0099211828825209424 0.0029052810019695448 0 -0.010437187757684287 0.0020958368662731919 0 -0.00076478569064644512 0.0023906666316804545 0 -0.0021424679825639481 0.0020605961657404353 0 -1.118968864415055e-05 0.0011030693029702894 0 -0.001107689250778309 0.0037719959743135628 0 -0.00076478569064644512 0.0023906666316804545 0 -0.0021424679825639481 0.0020605961657404353 0 -0.0090025212998900307 0.0019648113570306393 0 -0.0057738492559026638 0.0025098378910624734 0 -0.0058728697218883861 -0.0013751574309612232 0 -0.0056332893471627704 -0.0010536863334108864 0 -0.0048954485007869745 -0.002007838697342799 0 0.00023598733579417797 0.0033823412986445814 0 0.0020801550633521627 0.0021140327462661115 0 -1.118968864415055e-05 0.0011030693029702894 0 -0.006910233990334946 -0.0006498207369327163 0 -0.0058728697218883861 -0.0013751574309612232 0 -0.0056332893471627704 -0.0010536863334108864 0 -0.0082291994258228852 -0.0010833250866475847 0 -0.011500101864883039 -0.0036353765333867658 0 -0.0082291994258228852 -0.0010833250866475847 0 -0.001195981617953108 0.00048633971685410631 0 -0.017325168553001594 -0.0054113027990481937 0 -0.015817619284537808 -0.005939633452283319 0 -0.016298182019856739 -0.0045854274525409661 0 -0.017277090931615884 -0.0045952848265360582 0 -0.017325168553001594 -0.0054113027990481937 0 -0.016298182019856739 -0.0045854274525409661 0 -0.015817619284537808 -0.005939633452283319 0 -0.016298182019856739 -0.0045854274525409661 0 -0.014882657099178059 -0.0052204485013818969 0 -0.016298182019856739 -0.0045854274525409661 0 -0.01601134302670227 -0.0034305654879316608 0 -0.014717827570522106 -0.0039524836532007709 0 -0.017375068735418182 -0.0036816095121452804 0 -0.016298182019856739 -0.0045854274525409661 0 -0.01601134302670227 -0.0034305654879316608 0 -0.017375068735418182 -0.0036816095121452804 0 -0.017277090931615884 -0.0045952848265360582 0 -0.016298182019856739 -0.0045854274525409661 0 -0.017375068735418182 -0.0036816095121452804 0 -0.01601134302670227 -0.0034305654879316608 0 -0.016725237994503376 -0.0024112651190737826 0 -0.017804701774224239 -0.003530216017225766 0 -0.016666941361418774 -0.0019919263898166804 0 -0.01601134302670227 -0.0034305654879316608 0 -0.016725237994503376 -0.0024112651190737826 0 -0.015061780116907545 -0.0023856778835378411 0 -0.01608409574223104 -0.0010363928457877529 0 -0.016725237994503376 -0.0024112651190737826 0 -0.015061780116907545 -0.0023856778835378411 0 -0.016151089686694198 -0.0011353127736957555 0 -0.016666941361418774 -0.0019919263898166804 0 -0.01608409574223104 -0.0010363928457877529 0 -0.016965491321678964 -0.0011943652440778 0 -0.016860661440212792 -0.00041281266841453447 0 -0.016965491321678964 -0.0011943652440778 0 -0.017538426538842529 -0.0008868767129198322 0 -0.016860661440212792 -0.00041281266841453447 0 -0.016965491321678964 -0.0011943652440778 0 -0.017433437120263736 -0.0016419831371753603 0 -0.017538426538842529 -0.0008868767129198322 0 -0.01608409574223104 -0.0010363928457877529 0 -0.016965491321678964 -0.0011943652440778 0 -0.016824916518295971 -0.0018448971752181847 0 -0.01734109921266444 -0.0025329813217507676 0 -0.016824916518295971 -0.0018448971752181847 0 -0.017433437120263736 -0.0016419831371753603 0 -0.016965491321678964 -0.0011943652440778 0 -0.016824916518295971 -0.0018448971752181847 0 -0.017433437120263736 -0.0016419831371753603 0 -0.017433437120263736 -0.0016419831371753603 0 -0.017825646704575714 -0.0019877941318484217 0 -0.018049066018617041 -0.0013516002186573742 0 -0.017306270988446303 -0.0014967413541513198 0 -0.017675209318831809 -0.0010159314449730257 0 -0.015863199507761664 -0.00086077977601181502 0 -0.016086684379252262 -0.00077468438893302791 0 -0.016373382653132814 -0.0012009364134788997 0 -0.017825646704575714 -0.0019877941318484217 0 -0.018348625595127819 -0.0019677032840386393 0 -0.018049066018617041 -0.0013516002186573742 0 -0.017148895343763956 -0.00044083608435609189 0 -0.017675209318831809 -0.0010159314449730257 0 -0.01864685969637515 2.0917745174400134e-05 0 -0.018331875541449855 -0.00013853348723514867 0 -0.01835055605805019 2.8652645989452634e-05 0 -0.018331875541449855 -0.00013853348723514867 0 -0.01835055605805019 2.8652645989452634e-05 0 -0.018072999915617508 1.0983399313576719e-05 0 -0.017675209318831809 -0.0010159314449730257 0 -0.017785944565002067 -0.0010682913652487497 0 -0.018385804682530902 -0.0014347637869719704 0 -0.017538426538842529 -0.0008868767129198322 0 -0.017880104275065378 -0.00059116787299315408 0 -0.017433437120263736 -0.0016419831371753603 0 -0.018049066018617041 -0.0013516002186573742 0 -0.017538426538842529 -0.0008868767129198322 0 -0.017675209318831809 -0.0010159314449730257 0 -0.017978668198496923 -0.00027549559850151598 0 -0.018072999915617508 1.0983399313576719e-05 0 -0.018021227294692573 0.00023513423357165227 0 -0.017488605987618231 0.00028194143298463736 0 -0.017880104275065378 -0.00059116787299315408 0 -0.017415737079925067 -0.0003240611113099458 0 -0.017488605987618231 0.00028194143298463736 0 -0.017978668198496923 -0.00027549559850151598 0 -0.01753501882116688 0.00027239581403869326 0 -0.017538426538842529 -0.0008868767129198322 0 -0.017880104275065378 -0.00059116787299315408 0 -0.017415737079925067 -0.0003240611113099458 0 -0.018072999915617508 1.0983399313576719e-05 0 -0.018021227294692573 0.00023513423357165227 0 -0.018199951914797317 0.00012292730042123585 0 -0.018594137085178517 0.00024353722231728125 0 -0.01835055605805019 2.8652645989452634e-05 0 -0.018340971968913489 0.0002493708118578893 0 -0.01835055605805019 2.8652645989452634e-05 0 -0.018072999915617508 1.0983399313576719e-05 0 -0.018199951914797317 0.00012292730042123585 0 -0.01835055605805019 2.8652645989452634e-05 0 -0.018199951914797317 0.00012292730042123585 0 -0.018340971968913489 0.0002493708118578893 0 -0.018021227294692573 0.00023513423357165227 0 -0.018199951914797317 0.00012292730042123585 0 -0.018340971968913489 0.0002493708118578893 0 -0.018325300060024325 0.00079687739377078668 0 -0.01844982592536016 0.00050844468740783696 0 -0.018124294385379762 0.00055259869313752986 0 -0.018594137085178517 0.00024353722231728125 0 -0.018340971968913489 0.0002493708118578893 0 -0.01844982592536016 0.00050844468740783696 0 -0.018340971968913489 0.0002493708118578893 0 -0.01844982592536016 0.00050844468740783696 0 -0.018124294385379762 0.00055259869313752986 0 -0.018021227294692573 0.00023513423357165227 0 -0.018340971968913489 0.0002493708118578893 0 -0.018124294385379762 0.00055259869313752986 0 -0.017098270017614096 0.00088503399827551631 0 -0.017488605987618231 0.00028194143298463736 0 -0.018124294385379762 0.00055259869313752986 0 -0.018021227294692573 0.00023513423357165227 0 -0.017488605987618231 0.00028194143298463736 0 -0.018124294385379762 0.00055259869313752986 0 -0.017098270017614096 0.00088503399827551631 0 -0.017488605987618231 0.00028194143298463736 0 -0.016648812927400072 0.00037009473142561572 0 -0.016185500810592616 0.00099172656245063279 0 -0.017098270017614096 0.00088503399827551631 0 -0.016648812927400072 0.00037009473142561572 0 -0.016185500810592616 0.00099172656245063279 0 -0.015900850497921042 1.3166995942396335e-05 0 -0.015516901146574238 0.00064685565694059621 0 -0.016185500810592616 0.00099172656245063279 0 -0.016648812927400072 0.00037009473142561572 0 -0.015900850497921042 1.3166995942396335e-05 0 -0.016648812927400072 0.00037009473142561572 0 -0.015900850497921042 1.3166995942396335e-05 0 -0.016860661440212792 -0.00041281266841453447 0 -0.01608409574223104 -0.0010363928457877529 0 -0.015900850497921042 1.3166995942396335e-05 0 -0.016860661440212792 -0.00041281266841453447 0 -0.017538426538842529 -0.0008868767129198322 0 -0.017415737079925067 -0.0003240611113099458 0 -0.016860661440212792 -0.00041281266841453447 0 -0.017415737079925067 -0.0003240611113099458 0 -0.017488605987618231 0.00028194143298463736 0 -0.016860661440212792 -0.00041281266841453447 0 -0.017488605987618231 0.00028194143298463736 0 -0.016648812927400072 0.00037009473142561572 0 -0.016860661440212792 -0.00041281266841453447 0 -0.013849125460102177 -0.00066622384216747396 0 -0.014982927060800715 -1.2217493190534106e-05 0 -0.014974478713714184 -0.0010861583878272545 0 -0.014141816664129983 0.00019262105013366184 0 -0.013849125460102177 -0.00066622384216747396 0 -0.014982927060800715 -1.2217493190534106e-05 0 -0.014141816664129983 0.00019262105013366184 0 -0.013849125460102177 -0.00066622384216747396 0 -0.013452765669084698 7.6056895618813099e-05 0 -0.01608409574223104 -0.0010363928457877529 0 -0.015900850497921042 1.3166995942396335e-05 0 -0.014974478713714184 -0.0010861583878272545 0 -0.015900850497921042 1.3166995942396335e-05 0 -0.014982927060800715 -1.2217493190534106e-05 0 -0.014974478713714184 -0.0010861583878272545 0 -0.014982927060800715 -1.2217493190534106e-05 0 -0.015516901146574238 0.00064685565694059621 0 -0.015030254305109441 0.00077570004900251476 0 -0.015900850497921042 1.3166995942396335e-05 0 -0.014982927060800715 -1.2217493190534106e-05 0 -0.015516901146574238 0.00064685565694059621 0 -0.01539031581303886 0.0011038444194700662 0 -0.015516901146574238 0.00064685565694059621 0 -0.015030254305109441 0.00077570004900251476 0 -0.014941829636480827 0.00078850653811026632 0 -0.014201783007459983 0.00076958982443294357 0 -0.01539031581303886 0.0011038444194700662 0 -0.015030254305109441 0.00077570004900251476 0 -0.015097290464375581 0.00069707091859436208 0 -0.015030254305109441 0.00077570004900251476 0 -0.015097290464375581 0.00069707091859436208 0 -0.015193266231877415 0.00065831587305160359 0 -0.014141816664129983 0.00019262105013366184 0 -0.015030254305109441 0.00077570004900251476 0 -0.013269768513142044 0.00091076252015552311 0 -0.014141816664129983 0.00019262105013366184 0 -0.014982927060800715 -1.2217493190534106e-05 0 -0.015030254305109441 0.00077570004900251476 0 -0.015293442772761354 0.00069086332860179823 0 -0.015097290464375581 0.00069707091859436208 0 -0.015193266231877415 0.00065831587305160359 0 -0.014141816664129983 0.00019262105013366184 0 -0.013269768513142044 0.00091076252015552311 0 -0.013452765669084698 7.6056895618813099e-05 0 -0.015187347418773832 0.00068197217428885818 0 -0.015193266231877415 0.00065831587305160359 0 -0.015090104448562061 0.00055961723050804006 0 -0.013269768513142044 0.00091076252015552311 0 -0.011722715484680247 0.00086638436742156018 0 -0.012676822498018062 -0.00019353988485467928 0 -0.014201783007459983 0.00076958982443294357 0 -0.013523278250249095 0.00074806882156691428 0 -0.011722715484680247 0.00086638436742156018 0 -0.011823776689855724 -0.00016489507846493865 0 -0.011101776962387351 -0.00030747566449094147 0 -0.011722715484680247 0.00086638436742156018 0 -0.011823776689855724 -0.00016489507846493865 0 -0.012676822498018062 -0.00019353988485467928 0 -0.011823776689855724 -0.00016489507846493865 0 -0.012676822498018062 -0.00019353988485467928 0 -0.011789565152447211 -0.0010013101531150678 0 -0.011823776689855724 -0.00016489507846493865 0 -0.011789565152447211 -0.0010013101531150678 0 -0.011101776962387351 -0.00030747566449094147 0 -0.013849125460102177 -0.00066622384216747396 0 -0.012676822498018062 -0.00019353988485467928 0 -0.012823325556329942 -0.0013130371741190497 0 -0.013849125460102177 -0.00066622384216747396 0 -0.013452765669084698 7.6056895618813099e-05 0 -0.012676822498018062 -0.00019353988485467928 0 -0.013269768513142044 0.00091076252015552311 0 -0.013452765669084698 7.6056895618813099e-05 0 -0.012676822498018062 -0.00019353988485467928 0 -0.013849125460102177 -0.00066622384216747396 0 -0.012823325556329942 -0.0013130371741190497 0 -0.013536737615678387 -0.0021045690986849796 0 -0.011789565152447211 -0.0010013101531150678 0 -0.011865265539838028 -0.0024141890593517069 0 -0.010827181622692621 -0.0014660639094867091 0 -0.012823325556329942 -0.0013130371741190497 0 -0.011789565152447211 -0.0010013101531150678 0 -0.011865265539838028 -0.0024141890593517069 0 -0.012676822498018062 -0.00019353988485467928 0 -0.012823325556329942 -0.0013130371741190497 0 -0.011789565152447211 -0.0010013101531150678 0 -0.012823325556329942 -0.0013130371741190497 0 -0.011865265539838028 -0.0024141890593517069 0 -0.013536737615678387 -0.0021045690986849796 0 -0.011865265539838028 -0.0024141890593517069 0 -0.013536737615678387 -0.0021045690986849796 0 -0.012944042341839743 -0.0038100288655232607 0 -0.013536737615678387 -0.0021045690986849796 0 -0.015061780116907545 -0.0023856778835378411 0 -0.014065519477975704 -0.0030648417311048468 0 -0.013536737615678387 -0.0021045690986849796 0 -0.014974478713714184 -0.0010861583878272545 0 -0.015061780116907545 -0.0023856778835378411 0 -0.013849125460102177 -0.00066622384216747396 0 -0.013536737615678387 -0.0021045690986849796 0 -0.014974478713714184 -0.0010861583878272545 0 -0.01608409574223104 -0.0010363928457877529 0 -0.014974478713714184 -0.0010861583878272545 0 -0.015061780116907545 -0.0023856778835378411 0 -0.015061780116907545 -0.0023856778835378411 0 -0.014065519477975704 -0.0030648417311048468 0 -0.014717827570522106 -0.0039524836532007709 0 -0.01601134302670227 -0.0034305654879316608 0 -0.015061780116907545 -0.0023856778835378411 0 -0.014717827570522106 -0.0039524836532007709 0 -0.014065519477975704 -0.0030648417311048468 0 -0.014717827570522106 -0.0039524836532007709 0 -0.012944042341839743 -0.0038100288655232607 0 -0.014717827570522106 -0.0039524836532007709 0 -0.0134944123143302 -0.005211536854718128 0 -0.012944042341839743 -0.0038100288655232607 0 -0.016298182019856739 -0.0045854274525409661 0 -0.014717827570522106 -0.0039524836532007709 0 -0.014882657099178059 -0.0052204485013818969 0 -0.014717827570522106 -0.0039524836532007709 0 -0.014882657099178059 -0.0052204485013818969 0 -0.0134944123143302 -0.005211536854718128 0 -0.014882657099178059 -0.0052204485013818969 0 -0.0134944123143302 -0.005211536854718128 0 -0.014218876204121168 -0.006463291490069331 0 -0.0134944123143302 -0.005211536854718128 0 -0.014218876204121168 -0.006463291490069331 0 -0.013082066612228625 -0.0060430585514684755 0 -0.015817619284537808 -0.005939633452283319 0 -0.014882657099178059 -0.0052204485013818969 0 -0.014218876204121168 -0.006463291490069331 0 -0.0056332893471627704 -0.0010536863334108864 0 -0.0044754284497095049 -0.0014338762860814566 0 -0.0048954485007869745 -0.002007838697342799 0 -0.011500101864883039 -0.0036353765333867658 0 -0.009214112412752367 -0.0040141542161799141 0 -0.0090772704221019594 -0.0023465239399479334 0 -0.0094829663450540173 -0.0033160202372035622 0 -0.0088710394004315046 -0.0034974742302538364 0 -0.010994832121379061 -0.0043426693498552875 0 -0.0079321054868460843 -0.0038166073354082147 0 -0.0090772704221019594 -0.0023465239399479334 0 -0.0083455261588009314 -0.0028406139278810976 0 -0.0088710394004315046 -0.0034974742302538364 0 -0.013082066612228625 -0.0060430585514684755 0 -0.01199027292133732 -0.0055660487940942778 0 -0.012627271173786774 -0.0069293716890880021 0 -0.014218876204121168 -0.006463291490069331 0 -0.013082066612228625 -0.0060430585514684755 0 -0.012627271173786774 -0.0069293716890880021 0 -0.0134944123143302 -0.005211536854718128 0 -0.013082066612228625 -0.0060430585514684755 0 -0.01199027292133732 -0.0055660487940942778 0 -0.0134944123143302 -0.005211536854718128 0 -0.01199027292133732 -0.0055660487940942778 0 -0.012944042341839743 -0.0038100288655232607 0 -0.010994832121379061 -0.0043426693498552875 0 -0.0098913689550144315 -0.0026494727995869751 0 -0.01199027292133732 -0.0055660487940942778 0 -0.012944042341839743 -0.0038100288655232607 0 -0.011280667465312 -0.0042080818779294572 0 -0.013536737615678387 -0.0021045690986849796 0 -0.014065519477975704 -0.0030648417311048468 0 -0.012944042341839743 -0.0038100288655232607 0 -0.011865265539838028 -0.0024141890593517069 0 -0.012944042341839743 -0.0038100288655232607 0 -0.011280667465312 -0.0042080818779294572 0 -0.0098913689550144315 -0.0026494727995869751 0 -0.0093280032443373972 -0.0015531998215144224 0 -0.011865265539838028 -0.0024141890593517069 0 -0.011280667465312 -0.0042080818779294572 0 -0.010447680015920623 -0.0028219156398744992 0 -0.0075592682564146743 -0.00077028194238631432 0 -0.0086735947050305823 -0.0013015475780950064 0 -0.0082185800428136706 -0.00023879019411282348 0 -0.0075592682564146743 -0.00077028194238631432 0 -0.0086735947050305823 -0.0013015475780950064 0 -0.0079039202454256174 -0.0018305264560244735 0 -0.0090772704221019594 -0.0023465239399479334 0 -0.0079039202454256174 -0.0018305264560244735 0 -0.0083455261588009314 -0.0028406139278810976 0 -0.0090772704221019594 -0.0023465239399479334 0 -0.0086735947050305823 -0.0013015475780950064 0 -0.0079039202454256174 -0.0018305264560244735 0 -0.0075407033192869304 -0.0026660449401172421 0 -0.0083455261588009314 -0.0028406139278810976 0 -0.0082453303913549783 -0.0036728613282308305 0 -0.0079039202454256174 -0.0018305264560244735 0 -0.0075407033192869304 -0.0026660449401172421 0 -0.0083455261588009314 -0.0028406139278810976 0 -0.00062834905391999591 5.1147481758472666e-07 0 -0.00082877036218085317 5.8310378952532151e-05 0 0.00041854025937262257 0.00026760031272887573 0 0.00060389123929713219 7.3544880162425215e-05 0 -0.00082877036218085317 5.8310378952532151e-05 0 0.00041854025937262257 0.00026760031272887573 0 -0.0079039202454256174 -0.0018305264560244735 0 -0.0075407033192869304 -0.0026660449401172421 0 -0.0066700239608198124 -0.0016458890946579488 0 -0.0035765867068535155 -0.0013280956914718306 0 -0.0040747371611192162 -0.00081444226288044915 0 0.00060389123929713219 7.3544880162425215e-05 0 -0.00082877036218085317 5.8310378952532151e-05 0 -0.0015981576648341138 -0.00033063038461473817 0 -0.00062834905391999591 5.1147481758472666e-07 0 -0.00082877036218085317 5.8310378952532151e-05 0 -0.0029962997854707809 -1.7782311661173359e-07 0 -0.00082877036218085317 5.8310378952532151e-05 0 -0.0029962997854707809 -1.7782311661173359e-07 0 -0.0015981576648341138 -0.00033063038461473817 0 -0.0075592682564146743 -0.00077028194238631432 0 -0.0066700239608198124 -0.0016458890946579488 0 -0.0053694470515696126 -1.9344388733767102e-06 0 -0.0075592682564146743 -0.00077028194238631432 0 -0.0053694470515696126 -1.9344388733767102e-06 0 -0.0070502937148877905 7.1192573572390737e-07 0 -0.0029962997854707809 -1.7782311661173359e-07 0 -0.0015981576648341138 -0.00033063038461473817 0 -0.0053632573637400543 -1.1255177730691082e-06 0 -0.0075592682564146743 -0.00077028194238631432 0 -0.0079039202454256174 -0.0018305264560244735 0 -0.0066700239608198124 -0.0016458890946579488 0 -0.0040747371611192162 -0.00081444226288044915 0 -0.0053645490326192594 9.2923017364988773e-08 0 -0.0053694470515696126 -1.9344388733767102e-06 0 -0.0074031710441331122 0.00025370008660685964 0 -0.0070502937148877905 7.1192573572390737e-07 0 -0.0053694470515696126 -1.9344388733767102e-06 0 -0.0076828629859924799 1.7940905270676328e-06 0 -0.0074031710441331122 0.00025370008660685964 0 -0.0076828629859924799 1.7940905270676328e-06 0 -0.0078796312805222268 0.00019258956096471065 0 -0.0074031710441331122 0.00025370008660685964 0 -0.0076828629859924799 1.7940905270676328e-06 0 -0.0078796312805222268 0.00019258956096471065 0 -0.0083561556748013733 0.00021497550448385457 0 -0.0078490642314404287 0.00028595455973549455 0 -0.0076937297488719608 0.00030609866820391932 0 -0.0077371313040909342 0.00041389343600607839 0 -0.0078490642314404287 0.00028595455973549455 0 -0.0077371313040909342 0.00041389343600607839 0 -0.0080330766741162195 0.00020884260016865676 0 -0.0078490642314404287 0.00028595455973549455 0 -0.0078796312805222268 0.00019258956096471065 0 -0.0080730559011900505 0.00021777703709071516 0 -0.0078490642314404287 0.00028595455973549455 0 -0.0078796312805222268 0.00019258956096471065 0 -0.0074031710441331122 0.00025370008660685964 0 -0.0074031710441331122 0.00025370008660685964 0 -0.0076937297488719608 0.00030609866820391932 0 -0.0076407778276197831 0.00022502518225333922 0 -0.0078490642314404287 0.00028595455973549455 0 -0.0074031710441331122 0.00025370008660685964 0 -0.0076937297488719608 0.00030609866820391932 0 -0.0075592682564146743 -0.00077028194238631432 0 -0.0070502937148877905 7.1192573572390737e-07 0 -0.0076407778276197831 0.00022502518225333922 0 -0.0074031710441331122 0.00025370008660685964 0 -0.0070502937148877905 7.1192573572390737e-07 0 -0.0076407778276197831 0.00022502518225333922 0 -0.0076407778276197831 0.00022502518225333922 0 -0.0082185800428136706 -0.00023879019411282348 0 -0.0077371313040909342 0.00041389343600607839 0 -0.0075592682564146743 -0.00077028194238631432 0 -0.0076407778276197831 0.00022502518225333922 0 -0.0082185800428136706 -0.00023879019411282348 0 -0.0093280032443373972 -0.0015531998215144224 0 -0.008572992727389192 -0.00043687636283124578 0 -0.011865265539838028 -0.0024141890593517069 0 -0.010447680015920623 -0.0028219156398744992 0 -0.010827181622692621 -0.0014660639094867091 0 -0.010447680015920623 -0.0028219156398744992 0 -0.010827181622692621 -0.0014660639094867091 0 -0.0096257705635480872 -0.0012126246194432634 0 -0.011789565152447211 -0.0010013101531150678 0 -0.010827181622692621 -0.0014660639094867091 0 -0.011101776962387351 -0.00030747566449094147 0 -0.010827181622692621 -0.0014660639094867091 0 -0.0096257705635480872 -0.0012126246194432634 0 -0.010428966710502545 -0.00055321576737258368 0 -0.010447680015920623 -0.0028219156398744992 0 -0.0096257705635480872 -0.0012126246194432634 0 -0.0093877240035269011 -0.0013124707704696514 0 -0.0076937297488719608 0.00030609866820391932 0 -0.0076407778276197831 0.00022502518225333922 0 -0.0077371313040909342 0.00041389343600607839 0 -0.0096257705635480872 -0.0012126246194432634 0 -0.0093877240035269011 -0.0013124707704696514 0 -0.0092792086422638382 -0.00089559175040281437 0 -0.008572992727389192 -0.00043687636283124578 0 -0.0083022853990520808 -5.8569431424129068e-05 0 -0.0089636185424851154 -0.00063793207949743318 0 -0.0095653784097344697 0.00025555173109013008 0 -0.0083027096665825497 -8.7149411868088587e-05 0 -0.0093877240035269011 -0.0013124707704696514 0 -0.0089636185424851154 -0.00063793207949743318 0 -0.0083027096665825497 -8.7149411868088587e-05 0 -0.0096257705635480872 -0.0012126246194432634 0 -0.010428966710502545 -0.00055321576737258368 0 -0.01015266880936872 0.00080412671539893785 0 -0.0089636185424851154 -0.00063793207949743318 0 -0.0092792086422638382 -0.00089559175040281437 0 -0.0095653784097344697 0.00025555173109013008 0 -0.0096257705635480872 -0.0012126246194432634 0 -0.0092792086422638382 -0.00089559175040281437 0 -0.0095653784097344697 0.00025555173109013008 0 -0.0091474311712764454 -0.0010891916001706083 0 -0.01186711921882698 0.00019983706005917659 0 -0.0093877240035269011 -0.0013124707704696514 0 -0.0089636185424851154 -0.00063793207949743318 0 -0.0092792086422638382 -0.00089559175040281437 0 -0.010827181622692621 -0.0014660639094867091 0 -0.011101776962387351 -0.00030747566449094147 0 -0.010428966710502545 -0.00055321576737258368 0 -0.011101776962387351 -0.00030747566449094147 0 -0.010428966710502545 -0.00055321576737258368 0 -0.01015266880936872 0.00080412671539893785 0 -0.01492831844967526 0.00077751726178330795 0 -0.015090104448562061 0.00055961723050804006 0 -0.014856294855729507 0.00052774766306262896 0 -0.011722715484680247 0.00086638436742156018 0 -0.011101776962387351 -0.00030747566449094147 0 -0.01015266880936872 0.00080412671539893785 0 -0.013523278250249095 0.00074806882156691428 0 -0.01186711921882698 0.00019983706005917659 0 -0.0095653784097344697 0.00025555173109013008 0 -0.0083027096665825497 -8.7149411868088587e-05 0 -0.0081552985481661584 -7.9436140479755544e-05 0 -0.01186711921882698 0.00019983706005917659 0 -0.010211297362954121 -0.00022979579606523801 0 -0.012840001881921173 1.357817482706679e-05 0 -0.012980650605848859 -0.0002971376571596758 0 -0.012404763623174058 -0.00043817093521425742 0 -0.012622927423140739 0.0001959430831215597 0 -0.012404763623174058 -0.00043817093521425742 0 -0.011863893813083688 0.00011660134691582585 0 -0.012404763623174058 -0.00043817093521425742 0 -0.011863893813083688 0.00011660134691582585 0 -0.010003782185528633 -2.2202438809061671e-06 0 -0.010211297362954121 -0.00022979579606523801 0 -0.010001059547257864 -1.1183854325442234e-07 0 -0.012505648893667447 1.9594349884916058e-06 0 -0.011863893813083688 0.00011660134691582585 0 -0.010003782185528633 -2.2202438809061671e-06 0 -0.0076828629859924799 1.7940905270676328e-06 0 -0.009997183593815108 -1.4680820333853684e-06 0 -0.0083561556748013733 0.00021497550448385457 0 -0.0081552985481661584 -7.9436140479755544e-05 0 -0.009997183593815108 -1.4680820333853684e-06 0 -0.0083561556748013733 0.00021497550448385457 0 -0.0078796312805222268 0.00019258956096471065 0 -0.0080730559011900505 0.00021777703709071516 0 -0.0083561556748013733 0.00021497550448385457 0 -0.0077371313040909342 0.00041389343600607839 0 -0.0083027096665825497 -8.7149411868088587e-05 0 -0.0080330766741162195 0.00020884260016865676 0 -0.0080730559011900505 0.00021777703709071516 0 -0.008198726014183309 0.00015137667965970286 0 -0.0083561556748013733 0.00021497550448385457 0 -0.0078490642314404287 0.00028595455973549455 0 -0.0080730559011900505 0.00021777703709071516 0 -0.0080330766741162195 0.00020884260016865676 0 -0.0080730559011900505 0.00021777703709071516 0 -0.0080330766741162195 0.00020884260016865676 0 -0.008198726014183309 0.00015137667965970286 0 -0.0083027096665825497 -8.7149411868088587e-05 0 -0.0080330766741162195 0.00020884260016865676 0 -0.008198726014183309 0.00015137667965970286 0 -0.0083027096665825497 -8.7149411868088587e-05 0 -0.008198726014183309 0.00015137667965970286 0 -0.0083561556748013733 0.00021497550448385457 0 -0.0083027096665825497 -8.7149411868088587e-05 0 -0.0081552985481661584 -7.9436140479755544e-05 0 -0.0083561556748013733 0.00021497550448385457 0 -0.022506310935854628 0.0019012240576412182 0 -0.02331822902613008 0.0023081249780538622 0 -0.022985634767826769 0.0017157266849190198 0 -0.02331822902613008 0.0023081249780538622 0 -0.022758984609635109 0.0024310118394492448 0 -0.023212257090264043 0.0030067687680654753 0 -0.022506310935854628 0.0019012240576412182 0 -0.022758984609635109 0.0024310118394492448 0 -0.022157189309528862 0.0022665012702767951 0 -0.022506310935854628 0.0019012240576412182 0 -0.02331822902613008 0.0023081249780538622 0 -0.022758984609635109 0.0024310118394492448 0 -0.022758984609635109 0.0024310118394492448 0 -0.022157189309528862 0.0022665012702767951 0 -0.022263610297079385 0.0028292942707695301 0 -0.021702128595653548 0.00185496489479047 0 -0.021598845618614845 0.0020770543868827108 0 -0.022157189309528862 0.0022665012702767951 0 -0.022263610297079385 0.0028292942707695301 0 -0.021609048281334083 0.0024285673193780661 0 -0.022157189309528862 0.0022665012702767951 0 -0.021738512291091527 0.0018078465420815189 0 -0.021609048281334083 0.0024285673193780661 0 -0.022506310935854628 0.0019012240576412182 0 -0.022157189309528862 0.0022665012702767951 0 -0.021738512291091527 0.0018078465420815189 0 -0.022506310935854628 0.0019012240576412182 0 -0.021738512291091527 0.0018078465420815189 0 -0.022055577339190783 0.0014436144669175111 0 -0.022055577339190783 0.0014436144669175111 0 -0.021573283239144141 0.0014874716796281268 0 -0.02179743945696665 0.001221405472769502 0 -0.021738512291091527 0.0018078465420815189 0 -0.022055577339190783 0.0014436144669175111 0 -0.021573283239144141 0.0014874716796281268 0 -0.021573283239144141 0.0014874716796281268 0 -0.02179743945696665 0.001221405472769502 0 -0.021405973843033589 0.001217936746521482 0 -0.02179743945696665 0.001221405472769502 0 -0.021405973843033589 0.001217936746521482 0 -0.021655594408157681 0.00096829074547405902 0 -0.022055577339190783 0.0014436144669175111 0 -0.02179743945696665 0.001221405472769502 0 -0.02211163485667509 0.0010506436980169129 0 -0.022055577339190783 0.0014436144669175111 0 -0.022565419090893411 0.0013221390519483681 0 -0.02211163485667509 0.0010506436980169129 0 -0.022565419090893411 0.0013221390519483681 0 -0.02246474408822639 0.0010018395419367004 0 -0.02211163485667509 0.0010506436980169129 0 -0.022506310935854628 0.0019012240576412182 0 -0.022055577339190783 0.0014436144669175111 0 -0.022565419090893411 0.0013221390519483681 0 -0.022985634767826769 0.0017157266849190198 0 -0.022565419090893411 0.0013221390519483681 0 -0.022811819848494171 0.0011045314088432869 0 -0.022506310935854628 0.0019012240576412182 0 -0.022985634767826769 0.0017157266849190198 0 -0.022565419090893411 0.0013221390519483681 0 -0.022565419090893411 0.0013221390519483681 0 -0.022811819848494171 0.0011045314088432869 0 -0.02246474408822639 0.0010018395419367004 0 -0.022811819848494171 0.0011045314088432869 0 -0.023423812284726876 0.0017981578733713588 0 -0.022955454449922991 0.00085034871881544901 0 -0.022985634767826769 0.0017157266849190198 0 -0.022811819848494171 0.0011045314088432869 0 -0.023423812284726876 0.0017981578733713588 0 -0.02429283183935824 0.0011320880047730982 0 -0.02393101729070583 0.0018044441374469031 0 -0.022955454449922991 0.00085034871881544901 0 -0.023061248627745147 0.00087065117160594599 0 -0.022950147337525196 0.00084032350755122059 0 -0.023423812284726876 0.0017981578733713588 0 -0.02393101729070583 0.0018044441374469031 0 -0.022955454449922991 0.00085034871881544901 0 -0.024457859668641131 0.0019060403348816356 0 -0.02429283183935824 0.0011320880047730982 0 -0.02393101729070583 0.0018044441374469031 0 -0.024457859668641131 0.0019060403348816356 0 -0.02393101729070583 0.0018044441374469031 0 -0.024425218467501442 0.0023884515863195487 0 -0.02393101729070583 0.0018044441374469031 0 -0.024125625208906869 0.0024643671535070216 0 -0.024425218467501442 0.0023884515863195487 0 -0.023423812284726876 0.0017981578733713588 0 -0.02393101729070583 0.0018044441374469031 0 -0.024125625208906869 0.0024643671535070216 0 -0.024125625208906869 0.0024643671535070216 0 -0.024425218467501442 0.0023884515863195487 0 -0.024455712817265197 0.0028907021760376712 0 -0.02331822902613008 0.0023081249780538622 0 -0.023423812284726876 0.0017981578733713588 0 -0.023930257268113649 0.0025693552308980881 0 -0.02331822902613008 0.0023081249780538622 0 -0.022985634767826769 0.0017157266849190198 0 -0.023423812284726876 0.0017981578733713588 0 -0.023423812284726876 0.0017981578733713588 0 -0.024125625208906869 0.0024643671535070216 0 -0.023930257268113649 0.0025693552308980881 0 -0.02331822902613008 0.0023081249780538622 0 -0.023930257268113649 0.0025693552308980881 0 -0.02429252855922226 0.0031422529268234499 0 -0.024125625208906869 0.0024643671535070216 0 -0.023930257268113649 0.0025693552308980881 0 -0.024412675254508867 0.0031162130834294908 0 -0.023930257268113649 0.0025693552308980881 0 -0.02429252855922226 0.0031422529268234499 0 -0.024412675254508867 0.0031162130834294908 0 -0.02429252855922226 0.0031422529268234499 0 -0.024412675254508867 0.0031162130834294908 0 -0.024703274965254998 0.0035561070750022412 0 -0.02429252855922226 0.0031422529268234499 0 -0.025159023666860604 0.0040355818682004047 0 -0.023212257090264043 0.0030067687680654753 0 -0.02429252855922226 0.0031422529268234499 0 -0.025159023666860604 0.0040355818682004047 0 -0.024703274965254998 0.0035561070750022412 0 -0.02469215509668491 0.0027380358258461334 0 -0.024455712817265197 0.0028907021760376712 0 -0.024564175725217154 0.0030633296837956113 0 -0.02469215509668491 0.0027380358258461334 0 -0.024425218467501442 0.0023884515863195487 0 -0.024455712817265197 0.0028907021760376712 0 -0.024125625208906869 0.0024643671535070216 0 -0.024412675254508867 0.0031162130834294908 0 -0.024455712817265197 0.0028907021760376712 0 -0.024412675254508867 0.0031162130834294908 0 -0.024476963336334083 0.0032556356381118613 0 -0.024703274965254998 0.0035561070750022412 0 -0.024412675254508867 0.0031162130834294908 0 -0.024455712817265197 0.0028907021760376712 0 -0.024476963336334083 0.0032556356381118613 0 -0.024455712817265197 0.0028907021760376712 0 -0.024476963336334083 0.0032556356381118613 0 -0.024564175725217154 0.0030633296837956113 0 -0.024476963336334083 0.0032556356381118613 0 -0.024564175725217154 0.0030633296837956113 0 -0.024488465671984594 0.0031842670528038565 0 -0.024649662757609183 0.0031996540172599805 0 -0.024564175725217154 0.0030633296837956113 0 -0.024488465671984594 0.0031842670528038565 0 -0.024476963336334083 0.0032556356381118613 0 -0.024488465671984594 0.0031842670528038565 0 -0.024391914792059943 0.0031625688419581128 0 -0.024476963336334083 0.0032556356381118613 0 -0.024391914792059943 0.0031625688419581128 0 -0.024703274965254998 0.0035561070750022412 0 -0.024603586471295021 0.0020012436388274243 0 -0.024391914792059943 0.0031625688419581128 0 -0.025000492656620528 0.0029103617241627707 0 -0.024603586471295021 0.0020012436388274243 0 -0.024391914792059943 0.0031625688419581128 0 -0.023930049080775 0.0022096238647048199 0 -0.024391914792059943 0.0031625688419581128 0 -0.023930049080775 0.0022096238647048199 0 -0.023182187106581199 0.0025437830764498677 0 -0.024286871235706314 0.0031242933863751612 0 -0.023953506663022071 0.0029659056385306646 0 -0.024649662757609183 0.0031996540172599805 0 -0.024488465671984594 0.0031842670528038565 0 -0.024499775194841585 0.0032799133741379782 0 -0.024488465671984594 0.0031842670528038565 0 -0.024391914792059943 0.0031625688419581128 0 -0.024499775194841585 0.0032799133741379782 0 -0.023378765653077574 0.0016819801849562869 0 -0.023930049080775 0.0022096238647048199 0 -0.023182187106581199 0.0025437830764498677 0 -0.023044315705338391 0.0019067616002313476 0 -0.023953506663022071 0.0029659056385306646 0 -0.025159023666860604 0.0040355818682004047 0 -0.024703274965254998 0.0035561070750022412 0 -0.025000492656620528 0.0029103617241627707 0 -0.024391914792059943 0.0031625688419581128 0 -0.024703274965254998 0.0035561070750022412 0 -0.025000492656620528 0.0029103617241627707 0 -0.025428223030840743 0.0018135214531312318 0 -0.024603586471295021 0.0020012436388274243 0 -0.025000492656620528 0.0029103617241627707 0 -0.025428223030840743 0.0018135214531312318 0 -0.025000492656620528 0.0029103617241627707 0 -0.026112080616989591 0.0023548305029562787 0 -0.025159023666860604 0.0040355818682004047 0 -0.026112080616989591 0.0023548305029562787 0 -0.027629038898606302 0.0030746290440133855 0 -0.025159023666860604 0.0040355818682004047 0 -0.025000492656620528 0.0029103617241627707 0 -0.026112080616989591 0.0023548305029562787 0 -0.027629038898606302 0.0030746290440133855 0 -0.029942816298214894 0.0029650153946563043 0 -0.028991367649330309 0.005143429876263996 0 -0.028350194642564077 0.0013609031526769875 0 -0.026112080616989591 0.0023548305029562787 0 -0.027629038898606302 0.0030746290440133855 0 -0.028350194642564077 0.0013609031526769875 0 -0.027629038898606302 0.0030746290440133855 0 -0.029942816298214894 0.0029650153946563043 0 -0.029942816298214894 0.0029650153946563043 0 -0.028991367649330309 0.005143429876263996 0 -0.031948310580976344 0.0053280684062166012 0 -0.026091887774998334 0.0046839213211160927 0 -0.027389288018917296 0.0038058014980381066 0 -0.025295717186013488 0.0041523371065164179 0 -0.026091887774998334 0.0046839213211160927 0 -0.025159023666860604 0.0040355818682004047 0 -0.027629038898606302 0.0030746290440133855 0 -0.028991367649330309 0.005143429876263996 0 -0.025159023666860604 0.0040355818682004047 0 -0.023317834359347499 0.0041813123679554946 0 -0.023212257090264043 0.0030067687680654753 0 -0.023212257090264043 0.0030067687680654753 0 -0.022263610297079385 0.0028292942707695301 0 -0.022158929049127033 0.0040735296337371654 0 -0.023317834359347499 0.0041813123679554946 0 -0.023212257090264043 0.0030067687680654753 0 -0.022158929049127033 0.0040735296337371654 0 -0.022758984609635109 0.0024310118394492448 0 -0.023212257090264043 0.0030067687680654753 0 -0.022263610297079385 0.0028292942707695301 0 -0.02331822902613008 0.0023081249780538622 0 -0.02429252855922226 0.0031422529268234499 0 -0.023212257090264043 0.0030067687680654753 0 -0.022263610297079385 0.0028292942707695301 0 -0.021892054037933609 0.0029600901055991074 0 -0.021609048281334083 0.0024285673193780661 0 -0.021001263657217228 0.0029270151731591145 0 -0.027389288018917296 0.0038058014980381066 0 -0.022263610297079385 0.0028292942707695301 0 -0.021892054037933609 0.0029600901055991074 0 -0.02224648685437728 0.0032993899561406461 0 -0.021892054037933609 0.0029600901055991074 0 -0.02224648685437728 0.0032993899561406461 0 -0.021808015455047298 0.0032566831706419795 0 -0.027389288018917296 0.0038058014980381066 0 -0.028983354937081436 0.0029152884699805231 0 -0.033696138757883014 0.0025404160905131124 0 -0.034310112042538858 0.0019954177247498753 0 -0.034648962674963937 0.0025448734646345379 0 -0.032525462396345101 0.0022845039463215487 0 -0.029942816298214894 0.0029650153946563043 0 -0.031948310580976344 0.0053280684062166012 0 -0.033896286706177677 0.0014195860019039479 0 -0.033696138757883014 0.0025404160905131124 0 -0.034310112042538858 0.0019954177247498753 0 -0.034024227098010992 0.0017825232771250504 0 -0.027389288018917296 0.0038058014980381066 0 -0.034517569312916718 0.001437663808573514 0 -0.034310112042538858 0.0019954177247498753 0 -0.034958717850377456 0.0018569682830727428 0 -0.034517569312916718 0.001437663808573514 0 -0.033896286706177677 0.0014195860019039479 0 -0.034310112042538858 0.0019954177247498753 0 -0.035104999702594022 0.00098445039262099669 0 -0.034958717850377456 0.0018569682830727428 0 -0.035541548930903451 0.0015147562354302757 0 -0.034310112042538858 0.0019954177247498753 0 -0.034958717850377456 0.0018569682830727428 0 -0.034648962674963937 0.0025448734646345379 0 -0.028983354937081436 0.0029152884699805231 0 -0.025336006308701628 0.0019751795493168503 0 -0.034958717850377456 0.0018569682830727428 0 -0.034648962674963937 0.0025448734646345379 0 -0.035539467675317203 0.0025463069283833562 0 -0.034958717850377456 0.0018569682830727428 0 -0.035539467675317203 0.0025463069283833562 0 -0.035541548930903451 0.0015147562354302757 0 -0.035539467675317203 0.0025463069283833562 0 -0.035541548930903451 0.0015147562354302757 0 -0.036050943406626929 0.0016727641920126169 0 -0.020936150264926227 0.002428670802638499 0 -0.020929844880229403 0.0022251108175088906 0 -0.02065835323317132 0.0023028574427346369 0 -0.021329634480249847 0.0023881873564553101 0 -0.020936150264926227 0.002428670802638499 0 -0.020929844880229403 0.0022251108175088906 0 -0.020929844880229403 0.0022251108175088906 0 -0.02115177122147309 0.0019745596174783118 0 -0.020694723884885795 0.0021016403427926091 0 -0.020212214727592007 0.0020796860150144765 0 -0.021029582347289903 0.0021046851494078214 0 -0.021611896549229584 0.0019661851844865789 0 -0.021329634480249847 0.0023881873564553101 0 -0.02115177122147309 0.0019745596174783118 0 -0.021329634480249847 0.0023881873564553101 0 -0.020929844880229403 0.0022251108175088906 0 -0.02115177122147309 0.0019745596174783118 0 -0.025336006308701628 0.0019751795493168503 0 -0.029062972691871209 0.0018758587390886035 0 -0.025336006308701628 0.0019751795493168503 0 -0.020212214727592007 0.0020796860150144765 0 -0.021062489235992399 0.0022498947038667046 0 -0.020836414166131242 0.0022031780457100864 0 -0.020933542828474889 0.0020767353649632221 0 -0.020836414166131242 0.0022031780457100864 0 -0.020933542828474889 0.0020767353649632221 0 -0.02070291158558361 0.0020283558307280492 0 -0.020836414166131242 0.0022031780457100864 0 -0.02070291158558361 0.0020283558307280492 0 -0.020694723884885795 0.0021016403427926091 0 -0.020933542828474889 0.0020767353649632221 0 -0.02070291158558361 0.0020283558307280492 0 -0.020721331579473222 0.0018794113266694997 0 -0.02070291158558361 0.0020283558307280492 0 -0.020449524080840033 0.001931119652517099 0 -0.020721331579473222 0.0018794113266694997 0 -0.020933542828474889 0.0020767353649632221 0 -0.021079383812329586 0.0019698053418859148 0 -0.020721331579473222 0.0018794113266694997 0 -0.020933542828474889 0.0020767353649632221 0 -0.021079383812329586 0.0019698053418859148 0 -0.021186959912198506 0.0021005718136957729 0 -0.021079383812329586 0.0019698053418859148 0 -0.021186959912198506 0.0021005718136957729 0 -0.021394005168558654 0.0019620105603295824 0 -0.020859784551651352 0.002834572307837506 0 -0.021598845618614845 0.0020770543868827108 0 -0.021892054037933609 0.0029600901055991074 0 -0.021533328654098068 0.0028821891940951582 0 -0.021609048281334083 0.0024285673193780661 0 -0.021892054037933609 0.0029600901055991074 0 -0.021808015455047298 0.0032566831706419795 0 -0.021533328654098068 0.0028821891940951582 0 -0.021808015455047298 0.0032566831706419795 0 -0.02143126787130091 0.0032123726022824364 0 -0.021533328654098068 0.0028821891940951582 0 -0.025336006308701628 0.0019751795493168503 0 -0.020859784551651352 0.002834572307837506 0 -0.021062489235992399 0.0022498947038667046 0 -0.020933542828474889 0.0020767353649632221 0 -0.021186959912198506 0.0021005718136957729 0 -0.020044116365979348 0.0021453456262329014 0 -0.020208905816330568 0.0020790706366646634 0 -0.020278878618769262 0.0022318742580843287 0 -0.020208905816330568 0.0020790706366646634 0 -0.020278878618769262 0.0022318742580843287 0 -0.020341567030364261 0.0022673225327447832 0 -0.020419917502374273 0.0022500502457887409 0 -0.020240164224835201 0.0023516079766763543 0 -0.020278878618769262 0.0022318742580843287 0 -0.020419917502374273 0.0022500502457887409 0 -0.020278878618769262 0.0022318742580843287 0 -0.020341567030364261 0.0022673225327447832 0 -0.02039516541162275 0.0024115307749110765 0 -0.020419917502374273 0.0022500502457887409 0 -0.020341567030364261 0.0022673225327447832 0 -0.02039516541162275 0.0024115307749110765 0 -0.020341567030364261 0.0022673225327447832 0 -0.020432184301742425 0.0021983710470357526 0 -0.020208905816330568 0.0020790706366646634 0 -0.020341567030364261 0.0022673225327447832 0 -0.020432184301742425 0.0021983710470357526 0 -0.020208905816330568 0.0020790706366646634 0 -0.020432184301742425 0.0021983710470357526 0 -0.020372891243999804 0.0020381781220317574 0 -0.020432184301742425 0.0021983710470357526 0 -0.020694723884885795 0.0021016403427926091 0 -0.020372891243999804 0.0020381781220317574 0 -0.02039516541162275 0.0024115307749110765 0 -0.020432184301742425 0.0021983710470357526 0 -0.02065835323317132 0.0023028574427346369 0 -0.020695882953906529 0.0025866405092842609 0 -0.020936150264926227 0.002428670802638499 0 -0.02065835323317132 0.0023028574427346369 0 -0.020432184301742425 0.0021983710470357526 0 -0.02065835323317132 0.0023028574427346369 0 -0.020694723884885795 0.0021016403427926091 0 -0.020929844880229403 0.0022251108175088906 0 -0.02065835323317132 0.0023028574427346369 0 -0.020694723884885795 0.0021016403427926091 0 -0.020449524080840033 0.001931119652517099 0 -0.020114830216085167 0.0018848818803794279 0 -0.020248830237475743 0.0017412898465575793 0 -0.020449524080840033 0.001931119652517099 0 -0.020372891243999804 0.0020381781220317574 0 -0.020114830216085167 0.0018848818803794279 0 -0.020694723884885795 0.0021016403427926091 0 -0.020449524080840033 0.001931119652517099 0 -0.020372891243999804 0.0020381781220317574 0 -0.02070291158558361 0.0020283558307280492 0 -0.020694723884885795 0.0021016403427926091 0 -0.020449524080840033 0.001931119652517099 0 -0.020208905816330568 0.0020790706366646634 0 -0.020372891243999804 0.0020381781220317574 0 -0.020114830216085167 0.0018848818803794279 0 -0.020191531454507892 0.0020656505212252947 0 -0.020116505796188268 0.001797414390949511 0 -0.019868780082791089 0.0019359813550408661 0 -0.020208905816330568 0.0020790706366646634 0 -0.020119739388498863 0.0017094625943292635 0 -0.019638737964410149 0.0014249378640896248 0 -0.020027451787475403 0.0012647218202638398 0 -0.019737239163301959 0.0010065313551269473 0 -0.019638737964410149 0.0014249378640896248 0 -0.020119739388498863 0.0017094625943292635 0 -0.020027451787475403 0.0012647218202638398 0 -0.020116505796188268 0.001797414390949511 0 -0.019988834275559409 0.0014261361934490909 0 -0.020114830216085167 0.0018848818803794279 0 -0.019953345305289485 0.0015969130444458879 0 -0.020248830237475743 0.0017412898465575793 0 -0.019953345305289485 0.0015969130444458879 0 -0.020248830237475743 0.0017412898465575793 0 -0.020323885162650063 0.0015400680067822153 0 -0.020449524080840033 0.001931119652517099 0 -0.020248830237475743 0.0017412898465575793 0 -0.020467443615174687 0.0017515758631336325 0 -0.020449524080840033 0.001931119652517099 0 -0.020467443615174687 0.0017515758631336325 0 -0.020721331579473222 0.0018794113266694997 0 -0.020248830237475743 0.0017412898465575793 0 -0.020467443615174687 0.0017515758631336325 0 -0.020323885162650063 0.0015400680067822153 0 -0.020467443615174687 0.0017515758631336325 0 -0.020323885162650063 0.0015400680067822153 0 -0.020657642604413797 0.0016160423331642217 0 -0.019953345305289485 0.0015969130444458879 0 -0.020323885162650063 0.0015400680067822153 0 -0.020069159125714865 0.0011950744130931525 0 -0.020323885162650063 0.0015400680067822153 0 -0.020422239575841033 0.0012979042808487838 0 -0.020657642604413797 0.0016160423331642217 0 -0.020323885162650063 0.0015400680067822153 0 -0.020422239575841033 0.0012979042808487838 0 -0.020069159125714865 0.0011950744130931525 0 -0.020422239575841033 0.0012979042808487838 0 -0.020069159125714865 0.0011950744130931525 0 -0.020252982702618112 0.00094057184661663147 0 -0.019988834275559409 0.0014261361934490909 0 -0.019842311158893251 0.00099153118963891257 0 -0.019953345305289485 0.0015969130444458879 0 -0.020069159125714865 0.0011950744130931525 0 -0.019784432345975579 0.0011875208073969452 0 -0.020069159125714865 0.0011950744130931525 0 -0.019784432345975579 0.0011875208073969452 0 -0.019629909579329339 0.00068892357792953575 0 -0.019512360241604715 0.00058385342460019524 0 -0.019901417336567459 0.00079623852470295741 0 -0.019737239163301959 0.0010065313551269473 0 -0.020027451787475403 0.0012647218202638398 0 -0.019901417336567459 0.00079623852470295741 0 -0.019737239163301959 0.0010065313551269473 0 -0.021290392649035681 0.0017614405133107116 0 -0.020960326262463972 0.0017774791693256919 0 -0.020992044778123269 0.0015615136177226381 0 -0.021738512291091527 0.0018078465420815189 0 -0.021573283239144141 0.0014874716796281268 0 -0.021290392649035681 0.0017614405133107116 0 -0.021738512291091527 0.0018078465420815189 0 -0.021290392649035681 0.0017614405133107116 0 -0.021394005168558654 0.0019620105603295824 0 -0.021079383812329586 0.0019698053418859148 0 -0.021290392649035681 0.0017614405133107116 0 -0.021394005168558654 0.0019620105603295824 0 -0.021079383812329586 0.0019698053418859148 0 -0.021290392649035681 0.0017614405133107116 0 -0.020960326262463972 0.0017774791693256919 0 -0.020960326262463972 0.0017774791693256919 0 -0.020721331579473222 0.0018794113266694997 0 -0.020657642604413797 0.0016160423331642217 0 -0.021079383812329586 0.0019698053418859148 0 -0.020960326262463972 0.0017774791693256919 0 -0.020721331579473222 0.0018794113266694997 0 -0.020467443615174687 0.0017515758631336325 0 -0.020721331579473222 0.0018794113266694997 0 -0.020657642604413797 0.0016160423331642217 0 -0.020960326262463972 0.0017774791693256919 0 -0.020657642604413797 0.0016160423331642217 0 -0.020992044778123269 0.0015615136177226381 0 -0.020755428118091727 0.0014062135860813739 0 -0.021036022319055436 0.0012583808666698285 0 -0.020992044778123269 0.0015615136177226381 0 -0.020657642604413797 0.0016160423331642217 0 -0.020755428118091727 0.0014062135860813739 0 -0.020992044778123269 0.0015615136177226381 0 -0.020422239575841033 0.0012979042808487838 0 -0.020657642604413797 0.0016160423331642217 0 -0.020755428118091727 0.0014062135860813739 0 -0.020422239575841033 0.0012979042808487838 0 -0.020648805393323422 0.00094457965868255508 0 -0.020252982702618112 0.00094057184661663147 0 -0.020422239575841033 0.0012979042808487838 0 -0.020755428118091727 0.0014062135860813739 0 -0.020648805393323422 0.00094457965868255508 0 -0.020755428118091727 0.0014062135860813739 0 -0.021036022319055436 0.0012583808666698285 0 -0.020648805393323422 0.00094457965868255508 0 -0.021036022319055436 0.0012583808666698285 0 -0.021232705464297685 0.0014513759897082726 0 -0.021405973843033589 0.001217936746521482 0 -0.021036022319055436 0.0012583808666698285 0 -0.021405973843033589 0.001217936746521482 0 -0.021205595229927116 0.00089801580549537055 0 -0.021290392649035681 0.0017614405133107116 0 -0.021232705464297685 0.0014513759897082726 0 -0.020992044778123269 0.0015615136177226381 0 -0.021036022319055436 0.0012583808666698285 0 -0.021232705464297685 0.0014513759897082726 0 -0.020992044778123269 0.0015615136177226381 0 -0.021573283239144141 0.0014874716796281268 0 -0.021290392649035681 0.0017614405133107116 0 -0.021232705464297685 0.0014513759897082726 0 -0.021573283239144141 0.0014874716796281268 0 -0.021232705464297685 0.0014513759897082726 0 -0.021405973843033589 0.001217936746521482 0 -0.021481558550076624 0.00074110348177578594 0 -0.021205595229927116 0.00089801580549537055 0 -0.021655594408157681 0.00096829074547405902 0 -0.021405973843033589 0.001217936746521482 0 -0.021205595229927116 0.00089801580549537055 0 -0.021655594408157681 0.00096829074547405902 0 -0.021481558550076624 0.00074110348177578594 0 -0.021238257065801458 0.00062335102554325248 0 -0.021205595229927116 0.00089801580549537055 0 -0.021481558550076624 0.00074110348177578594 0 -0.021238257065801458 0.00062335102554325248 0 -0.021403136800733968 0.0004576437025910784 0 -0.021238257065801458 0.00062335102554325248 0 -0.020944549744153659 0.00065266607056972995 0 -0.021205595229927116 0.00089801580549537055 0 -0.021238257065801458 0.00062335102554325248 0 -0.020944549744153659 0.00065266607056972995 0 -0.02104592197536231 0.00041365658295805296 0 -0.020944549744153659 0.00065266607056972995 0 -0.021205595229927116 0.00089801580549537055 0 -0.020648805393323422 0.00094457965868255508 0 -0.021036022319055436 0.0012583808666698285 0 -0.021205595229927116 0.00089801580549537055 0 -0.020648805393323422 0.00094457965868255508 0 -0.020648805393323422 0.00094457965868255508 0 -0.020252982702618112 0.00094057184661663147 0 -0.020195121722950748 0.00061345924579486049 0 -0.020412300664800563 0.00040502871123119372 0 -0.020195121722950748 0.00061345924579486049 0 -0.019935542272676882 0.0002967496585976222 0 -0.020648805393323422 0.00094457965868255508 0 -0.020412300664800563 0.00040502871123119372 0 -0.020195121722950748 0.00061345924579486049 0 -0.020944549744153659 0.00065266607056972995 0 -0.020412300664800563 0.00040502871123119372 0 -0.02104592197536231 0.00041365658295805296 0 -0.020944549744153659 0.00065266607056972995 0 -0.020648805393323422 0.00094457965868255508 0 -0.020412300664800563 0.00040502871123119372 0 -0.020412300664800563 0.00040502871123119372 0 -0.020170265745641666 9.7940019328145286e-05 0 -0.020164618200637037 4.7875607043262749e-05 0 -0.020412300664800563 0.00040502871123119372 0 -0.020866901018115044 0.00020849534090039193 0 -0.02104592197536231 0.00041365658295805296 0 -0.020375434494428551 0.00040237851204661648 0 -0.020525716527076743 0.00016638886882694803 0 -0.020412300664800563 0.00040502871123119372 0 -0.020013857675387374 0.00010238693439433449 0 -0.019935542272676882 0.0002967496585976222 0 -0.020412300664800563 0.00040502871123119372 0 -0.020013857675387374 0.00010238693439433449 0 -0.020170265745641666 9.7940019328145286e-05 0 -0.020013857675387374 0.00010238693439433449 0 -0.020170265745641666 9.7940019328145286e-05 0 -0.020031079750577458 -2.0805241217844318e-05 0 -0.020170265745641666 9.7940019328145286e-05 0 -0.020031079750577458 -2.0805241217844318e-05 0 -0.020102497528461497 -1.5308847498809192e-05 0 -0.020013857675387374 0.00010238693439433449 0 -0.020031079750577458 -2.0805241217844318e-05 0 -0.019868658610156145 -4.2154721288113435e-05 0 -0.020164618200637037 4.7875607043262749e-05 0 -0.020102497528461497 -1.5308847498809192e-05 0 -0.020084706649476845 -8.993402497578126e-05 0 -0.020170265745641666 9.7940019328145286e-05 0 -0.020164618200637037 4.7875607043262749e-05 0 -0.020102497528461497 -1.5308847498809192e-05 0 -0.020102497528461497 -1.5308847498809192e-05 0 -0.020084706649476845 -8.993402497578126e-05 0 -0.020018968980739339 -0.00011215764503134407 0 -0.020031079750577458 -2.0805241217844318e-05 0 -0.020102497528461497 -1.5308847498809192e-05 0 -0.020018968980739339 -0.00011215764503134407 0 -0.020164618200637037 4.7875607043262749e-05 0 -0.020084706649476845 -8.993402497578126e-05 0 -0.020112834771216191 -0.00016844583048631367 0 -0.020525716527076743 0.00016638886882694803 0 -0.020355446526515969 -0.00020855436438559977 0 -0.020866901018115044 0.00020849534090039193 0 -0.021191550469072881 0.00026790947008397309 0 -0.02118927682436008 5.8274365383951961e-05 0 -0.020007302804424577 -7.4489047214439441e-05 0 -0.020355446526515969 -0.00020855436438559977 0 -0.021191550469072881 0.00026790947008397309 0 -0.021313333113754943 0.00020351341932582024 0 -0.02118927682436008 5.8274365383951961e-05 0 -0.021313333113754943 0.00020351341932582024 0 -0.021494263049774767 0.00018338306655104353 0 -0.02118927682436008 5.8274365383951961e-05 0 -0.021313333113754943 0.00020351341932582024 0 -0.021494263049774767 0.00018338306655104353 0 -0.021397635946470643 0.00029164372545082464 0 -0.021494263049774767 0.00018338306655104353 0 -0.021397635946470643 0.00029164372545082464 0 -0.021573167524256965 0.00035819807513138197 0 -0.021191550469072881 0.00026790947008397309 0 -0.021313333113754943 0.00020351341932582024 0 -0.021397635946470643 0.00029164372545082464 0 -0.021481558550076624 0.00074110348177578594 0 -0.021403136800733968 0.0004576437025910784 0 -0.021707221530378528 0.00053007144576147625 0 -0.021191550469072881 0.00026790947008397309 0 -0.021397635946470643 0.00029164372545082464 0 -0.021403136800733968 0.0004576437025910784 0 -0.021397635946470643 0.00029164372545082464 0 -0.021403136800733968 0.0004576437025910784 0 -0.021573167524256965 0.00035819807513138197 0 -0.021238257065801458 0.00062335102554325248 0 -0.021403136800733968 0.0004576437025910784 0 -0.02104592197536231 0.00041365658295805296 0 -0.021191550469072881 0.00026790947008397309 0 -0.021403136800733968 0.0004576437025910784 0 -0.02104592197536231 0.00041365658295805296 0 -0.020866901018115044 0.00020849534090039193 0 -0.021191550469072881 0.00026790947008397309 0 -0.02104592197536231 0.00041365658295805296 0 -0.019512360241604715 0.00058385342460019524 0 -0.019739575284540196 0.00038530686420888341 0 -0.019476579774472189 0.0002039727818178399 0 -0.019512360241604715 0.00058385342460019524 0 -0.019901417336567459 0.00079623852470295741 0 -0.019739575284540196 0.00038530686420888341 0 -0.019842311158893251 0.00099153118963891257 0 -0.019684363220358207 0.00053577102516925794 0 -0.019684363220358207 0.00053577102516925794 0 -0.019581478499196264 0.00016066154020479264 0 -0.019629909579329339 0.00068892357792953575 0 -0.019934680696098755 0.000648295363819515 0 -0.019557431795610345 0.00013497790952222776 0 -0.020069159125714865 0.0011950744130931525 0 -0.019629909579329339 0.00068892357792953575 0 -0.019934680696098755 0.000648295363819515 0 -0.019934680696098755 0.000648295363819515 0 -0.020252982702618112 0.00094057184661663147 0 -0.020195121722950748 0.00061345924579486049 0 -0.020069159125714865 0.0011950744130931525 0 -0.019934680696098755 0.000648295363819515 0 -0.020252982702618112 0.00094057184661663147 0 -0.019934680696098755 0.000648295363819515 0 -0.020195121722950748 0.00061345924579486049 0 -0.019935542272676882 0.0002967496585976222 0 -0.020013857675387374 0.00010238693439433449 0 -0.019935542272676882 0.0002967496585976222 0 -0.01968599123375599 1.1965820790232342e-05 0 -0.020013857675387374 0.00010238693439433449 0 -0.01968599123375599 1.1965820790232342e-05 0 -0.019868658610156145 -4.2154721288113435e-05 0 -0.019935542272676882 0.0002967496585976222 0 -0.01968599123375599 1.1965820790232342e-05 0 -0.019557431795610345 0.00013497790952222776 0 -0.01968599123375599 1.1965820790232342e-05 0 -0.019557431795610345 0.00013497790952222776 0 -0.01947570499697069 -5.989036822834732e-05 0 -0.019934680696098755 0.000648295363819515 0 -0.019935542272676882 0.0002967496585976222 0 -0.019557431795610345 0.00013497790952222776 0 -0.019739575284540196 0.00038530686420888341 0 -0.019557431795610345 0.00013497790952222776 0 -0.019476579774472189 0.0002039727818178399 0 -0.019557431795610345 0.00013497790952222776 0 -0.01947570499697069 -5.989036822834732e-05 0 -0.019369048106435287 -8.4809695217227314e-05 0 -0.019335269180783383 -9.3866161956699451e-06 0 -0.019369048106435287 -8.4809695217227314e-05 0 -0.01925097427002222 -0.00017472494295069796 0 -0.019557431795610345 0.00013497790952222776 0 -0.019335269180783383 -9.3866161956699451e-06 0 -0.019369048106435287 -8.4809695217227314e-05 0 -0.019557431795610345 0.00013497790952222776 0 -0.019335269180783383 -9.3866161956699451e-06 0 -0.019476579774472189 0.0002039727818178399 0 -0.01921408214691267 -0.00016361685114491545 0 -0.019199104202958932 -0.00026929530012149744 0 -0.019053651655079953 -5.7824414620834621e-05 0 -0.019300607310752636 -0.0003329218708529675 0 -0.019199104202958932 -0.00026929530012149744 0 -0.01950401896174293 -0.0003569424428996066 0 -0.019695433146202534 -0.00093488587232363161 0 -0.016499685551795585 0.0011310960361192465 0 -0.019300607310752636 -0.0003329218708529675 0 -0.019164821977900402 -0.00037917367814025002 0 -0.01950401896174293 -0.0003569424428996066 0 -0.019274803333764762 -0.00027745841472177966 0 -0.019288863515949901 -0.00023771186886034729 0 -0.019245201900665299 -0.0002960359357962815 0 -0.019300607310752636 -0.0003329218708529675 0 -0.019274803333764762 -0.00027745841472177966 0 -0.019199104202958932 -0.00026929530012149744 0 -0.019300607310752636 -0.0003329218708529675 0 -0.019274803333764762 -0.00027745841472177966 0 -0.019245201900665299 -0.0002960359357962815 0 -0.019274803333764762 -0.00027745841472177966 0 -0.019248912749897359 -0.00023223558405736916 0 -0.019288863515949901 -0.00023771186886034729 0 -0.019274803333764762 -0.00027745841472177966 0 -0.019199104202958932 -0.00026929530012149744 0 -0.019248912749897359 -0.00023223558405736916 0 -0.019199104202958932 -0.00026929530012149744 0 -0.01921366544289671 -0.00026203419270568709 0 -0.019248912749897359 -0.00023223558405736916 0 -0.01921408214691267 -0.00016361685114491545 0 -0.019199104202958932 -0.00026929530012149744 0 -0.01921366544289671 -0.00026203419270568709 0 -0.019248912749897359 -0.00023223558405736916 0 -0.01925097427002222 -0.00017472494295069796 0 -0.019299936130023409 -0.00017776538006360307 0 -0.01921366544289671 -0.00026203419270568709 0 -0.019248912749897359 -0.00023223558405736916 0 -0.01925097427002222 -0.00017472494295069796 0 -0.019369048106435287 -8.4809695217227314e-05 0 -0.01925097427002222 -0.00017472494295069796 0 -0.019299936130023409 -0.00017776538006360307 0 -0.019369048106435287 -8.4809695217227314e-05 0 -0.019299936130023409 -0.00017776538006360307 0 -0.019354283743586338 -0.00017066390270076428 0 -0.019299936130023409 -0.00017776538006360307 0 -0.019288863515949901 -0.00023771186886034729 0 -0.019354283743586338 -0.00017066390270076428 0 -0.019248912749897359 -0.00023223558405736916 0 -0.019299936130023409 -0.00017776538006360307 0 -0.019288863515949901 -0.00023771186886034729 0 -0.01947570499697069 -5.989036822834732e-05 0 -0.019369048106435287 -8.4809695217227314e-05 0 -0.019354283743586338 -0.00017066390270076428 0 -0.01947570499697069 -5.989036822834732e-05 0 -0.019354283743586338 -0.00017066390270076428 0 -0.019427399985660246 -0.00015252199310215867 0 -0.019354283743586338 -0.00017066390270076428 0 -0.019278217317667642 -0.00023281265213365967 0 -0.019427399985660246 -0.00015252199310215867 0 -0.019278217317667642 -0.00023281265213365967 0 -0.019285764639771465 -0.00023065220274055563 0 -0.019427399985660246 -0.00015252199310215867 0 -0.019354283743586338 -0.00017066390270076428 0 -0.019278217317667642 -0.00023281265213365967 0 -0.019245201900665299 -0.0002960359357962815 0 -0.019288863515949901 -0.00023771186886034729 0 -0.019354283743586338 -0.00017066390270076428 0 -0.019245201900665299 -0.0002960359357962815 0 -0.019300607310752636 -0.0003329218708529675 0 -0.019245201900665299 -0.0002960359357962815 0 -0.019164821977900402 -0.00037917367814025002 0 -0.019278217317667642 -0.00023281265213365967 0 -0.019245201900665299 -0.0002960359357962815 0 -0.019112607714235209 -0.00030525382643815707 0 -0.019245201900665299 -0.0002960359357962815 0 -0.019164821977900402 -0.00037917367814025002 0 -0.019112607714235209 -0.00030525382643815707 0 -0.019278217317667642 -0.00023281265213365967 0 -0.019112607714235209 -0.00030525382643815707 0 -0.019285764639771465 -0.00023065220274055563 0 -0.019285764639771465 -0.00023065220274055563 0 -0.019427399985660246 -0.00015252199310215867 0 -0.019675783724257274 -0.00014186429427075518 0 -0.019285764639771465 -0.00023065220274055563 0 -0.019675783724257274 -0.00014186429427075518 0 -0.019657547494410108 -0.00025975462904159779 0 -0.01968599123375599 1.1965820790232342e-05 0 -0.01947570499697069 -5.989036822834732e-05 0 -0.019427399985660246 -0.00015252199310215867 0 -0.01968599123375599 1.1965820790232342e-05 0 -0.019427399985660246 -0.00015252199310215867 0 -0.019675783724257274 -0.00014186429427075518 0 -0.019868658610156145 -4.2154721288113435e-05 0 -0.019675783724257274 -0.00014186429427075518 0 -0.019916030346949221 -0.00013020647567986242 0 -0.01968599123375599 1.1965820790232342e-05 0 -0.019868658610156145 -4.2154721288113435e-05 0 -0.019675783724257274 -0.00014186429427075518 0 -0.019675783724257274 -0.00014186429427075518 0 -0.019916030346949221 -0.00013020647567986242 0 -0.019877313976278066 -0.00023546888005216094 0 -0.019675783724257274 -0.00014186429427075518 0 -0.019657547494410108 -0.00025975462904159779 0 -0.019877313976278066 -0.00023546888005216094 0 -0.019657547494410108 -0.00025975462904159779 0 -0.019705275489626726 -0.00047010060170579575 0 -0.019877313976278066 -0.00023546888005216094 0 -0.015724857253074074 -0.00022182037508278941 0 -0.014784580180499525 0.00072033236996441215 0 -0.015192732646799151 0.00097494653565868372 0 -0.014653891900995039 0.0012802089505636396 0 -0.014723477278813926 0.00095138688929374219 0 -0.015192732646799151 0.00097494653565868372 0 -0.016264983097733034 0.00075471967893100012 0 -0.015283982708135956 0.0010394482589961599 0 -0.015724857253074074 -0.00022182037508278941 0 -0.017649514420863894 0.00054455240121458945 0 -0.015192732646799151 0.00097494653565868372 0 -0.017743678558165988 -0.00030312156207869143 0 -0.01862827282767467 -0.00034677161684665937 0 -0.019285764639771465 -0.00023065220274055563 0 -0.019657547494410108 -0.00025975462904159779 0 -0.019705275489626726 -0.00047010060170579575 0 -0.019285764639771465 -0.00023065220274055563 0 -0.019705275489626726 -0.00047010060170579575 0 -0.018698053177210718 -0.0003218254982715594 0 -0.015724857253074074 -0.00022182037508278941 0 -0.017649514420863894 0.00054455240121458945 0 -0.018698053177210718 -0.0003218254982715594 0 -0.017649514420863894 0.00054455240121458945 0 -0.018698053177210718 -0.0003218254982715594 0 -0.01950401896174293 -0.0003569424428996066 0 -0.016264983097733034 0.00075471967893100012 0 -0.016499685551795585 0.0011310960361192465 0 -0.019112607714235209 -0.00030525382643815707 0 -0.019285764639771465 -0.00023065220274055563 0 -0.018698053177210718 -0.0003218254982715594 0 -0.019164821977900402 -0.00037917367814025002 0 -0.019112607714235209 -0.00030525382643815707 0 -0.018698053177210718 -0.0003218254982715594 0 -0.019164821977900402 -0.00037917367814025002 0 -0.018698053177210718 -0.0003218254982715594 0 -0.01950401896174293 -0.0003569424428996066 0 -0.016499685551795585 0.0011310960361192465 0 -0.013814116933270738 0.0018431773432169305 0 -0.014653891900995039 0.0012802089505636396 0 -0.014479627851956981 0.0010782387579053865 0 -0.014723477278813926 0.00095138688929374219 0 -0.014653891900995039 0.0012802089505636396 0 -0.014385732394802744 0.0014557385751656242 0 -0.014479627851956981 0.0010782387579053865 0 -0.013269379484032869 0.0022899011743520454 0 -0.013401467091876774 0.0017719920662283937 0 -0.013952621986480363 0.0019762913856335956 0 -0.013269379484032869 0.0022899011743520454 0 -0.013571136025077552 0.0029996815837434166 0 -0.013952621986480363 0.0019762913856335956 0 -0.012946565789490903 0.0027901839275986202 0 -0.013269379484032869 0.0022899011743520454 0 -0.013571136025077552 0.0029996815837434166 0 -0.015929928306637 0.0016614331330614747 0 -0.016499685551795585 0.0011310960361192465 0 -0.013067495910696555 0.0033298049127155021 0 -0.012946565789490903 0.0027901839275986202 0 -0.013571136025077552 0.0029996815837434166 0 -0.019706376850485572 -0.00031552076231763178 0 -0.019846163976353106 -0.00022019039343383029 0 -0.019952197596214295 -0.00018966334429505085 0 -0.019706376850485572 -0.00031552076231763178 0 -0.019952197596214295 -0.00018966334429505085 0 -0.019933757185507113 -0.00020659022912069435 0 -0.019706376850485572 -0.00031552076231763178 0 -0.019826440793797546 -0.00022582199920727125 0 -0.019846163976353106 -0.00022019039343383029 0 -0.019706376850485572 -0.00031552076231763178 0 -0.019861960650153752 -0.00030072719618836138 0 -0.019860987870132473 -0.00029859432917543702 0 -0.019706376850485572 -0.00031552076231763178 0 -0.019826440793797546 -0.00022582199920727125 0 -0.019860987870132473 -0.00029859432917543702 0 -0.019879877617094064 -0.00028721974124957449 0 -0.019873733373247899 -0.00030393986455788967 0 -0.019965718149160341 -0.00039351316806297002 0 -0.019860987870132473 -0.00029859432917543702 0 -0.019859875936854163 -0.00039948293907051844 0 -0.021494263049774767 0.00018338306655104353 0 -0.02118927682436008 5.8274365383951961e-05 0 -0.021626344402846828 1.136128791564627e-05 0 -0.020355446526515969 -0.00020855436438559977 0 -0.020804261027449665 -0.00020179365488694128 0 -0.019965718149160341 -0.00039351316806297002 0 -0.020060668226270558 -0.00049566353930394062 0 -0.019859875936854163 -0.00039948293907051844 0 -0.019879877617094064 -0.00028721974124957449 0 -0.020355446526515969 -0.00020855436438559977 0 -0.019826440793797546 -0.00022582199920727125 0 -0.01992700651118522 -0.00018133064853934812 0 -0.019846163976353106 -0.00022019039343383029 0 -0.01992700651118522 -0.00018133064853934812 0 -0.019846163976353106 -0.00022019039343383029 0 -0.019952197596214295 -0.00018966334429505085 0 -0.020084706649476845 -8.993402497578126e-05 0 -0.01992700651118522 -0.00018133064853934812 0 -0.019952197596214295 -0.00018966334429505085 0 -0.020084706649476845 -8.993402497578126e-05 0 -0.020018968980739339 -0.00011215764503134407 0 -0.019952197596214295 -0.00018966334429505085 0 -0.020018968980739339 -0.00011215764503134407 0 -0.019952197596214295 -0.00018966334429505085 0 -0.019956029329894757 -0.00017782405211814624 0 -0.020031079750577458 -2.0805241217844318e-05 0 -0.019868658610156145 -4.2154721288113435e-05 0 -0.019916030346949221 -0.00013020647567986242 0 -0.020031079750577458 -2.0805241217844318e-05 0 -0.020018968980739339 -0.00011215764503134407 0 -0.019916030346949221 -0.00013020647567986242 0 -0.020018968980739339 -0.00011215764503134407 0 -0.019916030346949221 -0.00013020647567986242 0 -0.019956029329894757 -0.00017782405211814624 0 -0.019877313976278066 -0.00023546888005216094 0 -0.019933757185507113 -0.00020659022912069435 0 -0.019956029329894757 -0.00017782405211814624 0 -0.019916030346949221 -0.00013020647567986242 0 -0.019877313976278066 -0.00023546888005216094 0 -0.019956029329894757 -0.00017782405211814624 0 -0.019952197596214295 -0.00018966334429505085 0 -0.019933757185507113 -0.00020659022912069435 0 -0.019956029329894757 -0.00017782405211814624 0 -0.019933757185507113 -0.00020659022912069435 0 -0.019969727154963209 -0.00014014665919676375 0 -0.019559690938827302 0.00035859068214497207 0 -0.01733668749103592 5.6581112110716319e-05 0 -0.017024222465710736 0.00046765852651689993 0 -0.019877313976278066 -0.00023546888005216094 0 -0.019933757185507113 -0.00020659022912069435 0 -0.019969727154963209 -0.00014014665919676375 0 -0.019705275489626726 -0.00047010060170579575 0 -0.019877313976278066 -0.00023546888005216094 0 -0.019969727154963209 -0.00014014665919676375 0 -0.017743678558165988 -0.00030312156207869143 0 -0.01733668749103592 5.6581112110716319e-05 0 -0.015724857253074074 -0.00022182037508278941 0 -0.014709568819394336 0.00026162550579432014 0 -0.014784580180499525 0.00072033236996441215 0 -0.014709568819394336 0.00026162550579432014 0 -0.014784580180499525 0.00072033236996441215 0 -0.014589259420346709 0.00065730526219685479 0 -0.014709568819394336 0.00026162550579432014 0 -0.014535771836848614 0.00057880845782668053 0 -0.014589259420346709 0.00065730526219685479 0 -0.014535771836848614 0.00057880845782668053 0 -0.014551403432743927 0.00065842895129207806 0 -0.014589259420346709 0.00065730526219685479 0 -0.019706376850485572 -0.00031552076231763178 0 -0.019559690938827302 0.00035859068214497207 0 -0.018730082989963977 5.8486911113227875e-05 0 -0.019706376850485572 -0.00031552076231763178 0 -0.019933757185507113 -0.00020659022912069435 0 -0.019559690938827302 0.00035859068214497207 0 -0.019559690938827302 0.00035859068214497207 0 -0.018730082989963977 5.8486911113227875e-05 0 -0.017527730297486135 0.00087332646252664416 0 -0.019587230881076265 -0.00033454188068014409 0 -0.018936078773943734 -0.00030575365419776348 0 -0.019706376850485572 -0.00031552076231763178 0 -0.018730082989963977 5.8486911113227875e-05 0 -0.017903015971038654 -0.00034204264194086806 0 -0.014535771836848614 0.00057880845782668053 0 -0.014576317783601713 0.00067814568250040114 0 -0.014551403432743927 0.00065842895129207806 0 -0.017024222465710736 0.00046765852651689993 0 -0.016081874449278444 0.00078606053947166319 0 -0.014535771836848614 0.00057880845782668053 0 -0.014576317783601713 0.00067814568250040114 0 -0.014645756197445375 0.00078716285424125867 0 -0.014576317783601713 0.00067814568250040114 0 -0.014645756197445375 0.00078716285424125867 0 -0.014655472703637018 0.00068873269532088752 0 -0.014645756197445375 0.00078716285424125867 0 -0.014809468572960864 0.00069141088318038499 0 -0.014655472703637018 0.00068873269532088752 0 -0.017527730297486135 0.00087332646252664416 0 -0.015513204687969422 0.00026344044349185824 0 -0.015101395232262203 0.00072336026413011246 0 -0.014645756197445375 0.00078716285424125867 0 -0.014809468572960864 0.00069141088318038499 0 -0.015101395232262203 0.00072336026413011246 0 -0.016081874449278444 0.00078606053947166319 0 -0.015176627641081858 0.00076139547721256666 0 -0.014809468572960864 0.00069141088318038499 0 -0.015101395232262203 0.00072336026413011246 0 -0.014862436505876722 0.0007224496962679192 0 -0.01726522543650719 7.1079194866942435e-05 0 -0.018936078773943734 -0.00030575365419776348 0 -0.019690813870974808 -0.00019439120126771907 0 -0.019790073759604586 -0.00030361409120370356 0 -0.019693218845111476 -0.0003239200005486005 0 -0.017527730297486135 0.00087332646252664416 0 -0.015513204687969422 0.00026344044349185824 0 -0.017903015971038654 -0.00034204264194086806 0 -0.019690813870974808 -0.00019439120126771907 0 -0.019861960650153752 -0.00030072719618836138 0 -0.019790073759604586 -0.00030361409120370356 0 -0.019861960650153752 -0.00030072719618836138 0 -0.019835652804598529 -0.00030757976896080561 0 -0.019790073759604586 -0.00030361409120370356 0 -0.018730082989963977 5.8486911113227875e-05 0 -0.017527730297486135 0.00087332646252664416 0 -0.017903015971038654 -0.00034204264194086806 0 -0.018816037117580814 0.00049814277709323051 0 -0.020942042989877001 0.00063837402823957695 0 -0.022214918933967445 -0.00015531132371126728 0 -0.022351801245072658 -0.00020301142930884884 0 -0.022315530458232556 -0.00011470232455326741 0 -0.019355725520341434 0.001041224068726347 0 -0.019614275204344438 0.0009861805288160668 0 -0.019493148233441566 0.00080425209407187072 0 -0.022214918933967445 -0.00015531132371126728 0 -0.022298835262642903 -6.5588191771111601e-05 0 -0.022315530458232556 -0.00011470232455326741 0 -0.01726522543650719 7.1079194866942435e-05 0 -0.018816037117580814 0.00049814277709323051 0 -0.015101395232262203 0.00072336026413011246 0 -0.014872507375391641 0.0007640251671783212 0 -0.014862436505876722 0.0007224496962679192 0 -0.015513204687969422 0.00026344044349185824 0 -0.014628084071545677 0.0007249217359945843 0 -0.015101395232262203 0.00072336026413011246 0 -0.014628084071545677 0.0007249217359945843 0 -0.015101395232262203 0.00072336026413011246 0 -0.014872507375391641 0.0007640251671783212 0 -0.019690813870974808 -0.00019439120126771907 0 -0.019508547853278511 -0.00011921180003117094 0 -0.019503407289851522 -0.0002204837381100643 0 -0.02224370499439491 -0.00010794482579221064 0 -0.022157309881920634 6.3228102787963931e-06 0 -0.021962859537332447 -1.5924054501841989e-05 0 -0.019690813870974808 -0.00019439120126771907 0 -0.019503407289851522 -0.0002204837381100643 0 -0.019693218845111476 -0.0003239200005486005 0 -0.021249288351275691 5.6330253686102654e-05 0 -0.02074159090370728 -0.0001864046983183405 0 -0.018816037117580814 0.00049814277709323051 0 -0.021249288351275691 5.6330253686102654e-05 0 -0.022244473303011651 -4.7200256905311954e-05 0 -0.022289187404884614 -1.8686529257521086e-05 0 -0.022271875777802267 6.8065906170247258e-05 0 -0.021249288351275691 5.6330253686102654e-05 0 -0.022166767273698595 5.702090104375631e-05 0 -0.022289187404884614 -1.8686529257521086e-05 0 -0.022298835262642903 -6.5588191771111601e-05 0 -0.022347862060018056 -2.8151798137932883e-05 0 -0.022214918933967445 -0.00015531132371126728 0 -0.022244473303011651 -4.7200256905311954e-05 0 -0.022298835262642903 -6.5588191771111601e-05 0 -0.022244473303011651 -4.7200256905311954e-05 0 -0.022289187404884614 -1.8686529257521086e-05 0 -0.022298835262642903 -6.5588191771111601e-05 0 -0.022271875777802267 6.8065906170247258e-05 0 -0.022240061118181376 0.00020756577662630287 0 -0.022396337336967127 0.00021317500579695064 0 -0.022289187404884614 -1.8686529257521086e-05 0 -0.022271875777802267 6.8065906170247258e-05 0 -0.022382286931787624 7.6164461925347783e-05 0 -0.022271875777802267 6.8065906170247258e-05 0 -0.022150795236772693 8.1136712757987441e-05 0 -0.022157309881920634 6.3228102787963931e-06 0 -0.02224370499439491 -0.00010794482579221064 0 -0.022271875777802267 6.8065906170247258e-05 0 -0.022157309881920634 6.3228102787963931e-06 0 -0.022271875777802267 6.8065906170247258e-05 0 -0.022150795236772693 8.1136712757987441e-05 0 -0.022240061118181376 0.00020756577662630287 0 -0.022150795236772693 8.1136712757987441e-05 0 -0.022065963030921329 0.00016774245990809305 0 -0.021962859537332447 -1.5924054501841989e-05 0 -0.022150795236772693 8.1136712757987441e-05 0 -0.022157309881920634 6.3228102787963931e-06 0 -0.021962859537332447 -1.5924054501841989e-05 0 -0.022065963030921329 0.00016774245990809305 0 -0.021994401205437768 0.00032745861268257051 0 -0.022199253697253236 0.0003368577046926948 0 -0.022150795236772693 8.1136712757987441e-05 0 -0.022065963030921329 0.00016774245990809305 0 -0.022240061118181376 0.00020756577662630287 0 -0.022065963030921329 0.00016774245990809305 0 -0.022240061118181376 0.00020756577662630287 0 -0.022199253697253236 0.0003368577046926948 0 -0.022240061118181376 0.00020756577662630287 0 -0.022355007104772218 0.00037985171473535673 0 -0.022199253697253236 0.0003368577046926948 0 -0.022240061118181376 0.00020756577662630287 0 -0.022355007104772218 0.00037985171473535673 0 -0.022396337336967127 0.00021317500579695064 0 -0.019835652804598529 -0.00030757976896080561 0 -0.019790073759604586 -0.00030361409120370356 0 -0.019859875936854163 -0.00039948293907051844 0 -0.019860987870132473 -0.00029859432917543702 0 -0.019835652804598529 -0.00030757976896080561 0 -0.019859875936854163 -0.00039948293907051844 0 -0.019861960650153752 -0.00030072719618836138 0 -0.019860987870132473 -0.00029859432917543702 0 -0.019835652804598529 -0.00030757976896080561 0 -0.021962859537332447 -1.5924054501841989e-05 0 -0.02188913212495687 0.00015293907317228463 0 -0.021626344402846828 1.136128791564627e-05 0 -0.02074159090370728 -0.0001864046983183405 0 -0.020804261027449665 -0.00020179365488694128 0 -0.019790073759604586 -0.00030361409120370356 0 -0.019693218845111476 -0.0003239200005486005 0 -0.019859875936854163 -0.00039948293907051844 0 -0.022065963030921329 0.00016774245990809305 0 -0.02188913212495687 0.00015293907317228463 0 -0.021994401205437768 0.00032745861268257051 0 -0.022065963030921329 0.00016774245990809305 0 -0.021962859537332447 -1.5924054501841989e-05 0 -0.02188913212495687 0.00015293907317228463 0 -0.02188913212495687 0.00015293907317228463 0 -0.021697154276093509 0.00016679222208699932 0 -0.021626344402846828 1.136128791564627e-05 0 -0.021494263049774767 0.00018338306655104353 0 -0.021697154276093509 0.00016679222208699932 0 -0.021626344402846828 1.136128791564627e-05 0 -0.02188913212495687 0.00015293907317228463 0 -0.021697154276093509 0.00016679222208699932 0 -0.021775928332507098 0.00033009123330562761 0 -0.021494263049774767 0.00018338306655104353 0 -0.021775928332507098 0.00033009123330562761 0 -0.021573167524256965 0.00035819807513138197 0 -0.021494263049774767 0.00018338306655104353 0 -0.021697154276093509 0.00016679222208699932 0 -0.021775928332507098 0.00033009123330562761 0 -0.021775928332507098 0.00033009123330562761 0 -0.021573167524256965 0.00035819807513138197 0 -0.021707221530378528 0.00053007144576147625 0 -0.021403136800733968 0.0004576437025910784 0 -0.021573167524256965 0.00035819807513138197 0 -0.021707221530378528 0.00053007144576147625 0 -0.021707221530378528 0.00053007144576147625 0 -0.022003755540234739 0.00053818159809256797 0 -0.021858500663921268 0.00075751138491136861 0 -0.021775928332507098 0.00033009123330562761 0 -0.021707221530378528 0.00053007144576147625 0 -0.022003755540234739 0.00053818159809256797 0 -0.021775928332507098 0.00033009123330562761 0 -0.022003755540234739 0.00053818159809256797 0 -0.021994401205437768 0.00032745861268257051 0 -0.02188913212495687 0.00015293907317228463 0 -0.021775928332507098 0.00033009123330562761 0 -0.021994401205437768 0.00032745861268257051 0 -0.021994401205437768 0.00032745861268257051 0 -0.022159387938816142 0.00046868337941348648 0 -0.022199253697253236 0.0003368577046926948 0 -0.022003755540234739 0.00053818159809256797 0 -0.021994401205437768 0.00032745861268257051 0 -0.022159387938816142 0.00046868337941348648 0 -0.022355007104772218 0.00037985171473535673 0 -0.022199253697253236 0.0003368577046926948 0 -0.022386837869182784 0.00062238863179100046 0 -0.022159387938816142 0.00046868337941348648 0 -0.022199253697253236 0.0003368577046926948 0 -0.022386837869182784 0.00062238863179100046 0 -0.022159387938816142 0.00046868337941348648 0 -0.022386837869182784 0.00062238863179100046 0 -0.022268546071925941 0.00063684128475189304 0 -0.022386837869182784 0.00062238863179100046 0 -0.022268546071925941 0.00063684128475189304 0 -0.022517198391600386 0.00080875873674936217 0 -0.022003755540234739 0.00053818159809256797 0 -0.022159387938816142 0.00046868337941348648 0 -0.022268546071925941 0.00063684128475189304 0 -0.022003755540234739 0.00053818159809256797 0 -0.022268546071925941 0.00063684128475189304 0 -0.0222294319938665 0.00078302985417577338 0 -0.0222294319938665 0.00078302985417577338 0 -0.022517198391600386 0.00080875873674936217 0 -0.02246474408822639 0.0010018395419367004 0 -0.022268546071925941 0.00063684128475189304 0 -0.0222294319938665 0.00078302985417577338 0 -0.022517198391600386 0.00080875873674936217 0 -0.022811819848494171 0.0011045314088432869 0 -0.022517198391600386 0.00080875873674936217 0 -0.02246474408822639 0.0010018395419367004 0 -0.0222294319938665 0.00078302985417577338 0 -0.02246474408822639 0.0010018395419367004 0 -0.02211163485667509 0.0010506436980169129 0 -0.0222294319938665 0.00078302985417577338 0 -0.02211163485667509 0.0010506436980169129 0 -0.021858500663921268 0.00075751138491136861 0 -0.02211163485667509 0.0010506436980169129 0 -0.021655594408157681 0.00096829074547405902 0 -0.021858500663921268 0.00075751138491136861 0 -0.02179743945696665 0.001221405472769502 0 -0.02211163485667509 0.0010506436980169129 0 -0.021655594408157681 0.00096829074547405902 0 -0.021481558550076624 0.00074110348177578594 0 -0.021707221530378528 0.00053007144576147625 0 -0.021858500663921268 0.00075751138491136861 0 -0.021481558550076624 0.00074110348177578594 0 -0.021655594408157681 0.00096829074547405902 0 -0.021858500663921268 0.00075751138491136861 0 -0.022003755540234739 0.00053818159809256797 0 -0.0222294319938665 0.00078302985417577338 0 -0.021858500663921268 0.00075751138491136861 0 -0.022232144477435781 0.00098572598392972157 0 -0.022151536109782707 0.00090954404847811321 0 -0.021551307739009935 0.0011709112040523594 0 -0.022232144477435781 0.00098572598392972157 0 -0.022151536109782707 0.00090954404847811321 0 -0.022714148045380952 0.00086046733920662867 0 -0.02164344766926992 0.00074347085726857317 0 -0.021594756829158655 0.001018555250661351 0 -0.022151536109782707 0.00090954404847811321 0 -0.021594756829158655 0.001018555250661351 0 -0.022151536109782707 0.00090954404847811321 0 -0.021551307739009935 0.0011709112040523594 0 -0.02164344766926992 0.00074347085726857317 0 -0.02185258941845386 0.00056237812642253963 0 -0.022151536109782707 0.00090954404847811321 0 -0.022151536109782707 0.00090954404847811321 0 -0.022955454449922991 0.00085034871881544901 0 -0.022714148045380952 0.00086046733920662867 0 -0.02185258941845386 0.00056237812642253963 0 -0.022151536109782707 0.00090954404847811321 0 -0.022955454449922991 0.00085034871881544901 0 -0.022811819848494171 0.0011045314088432869 0 -0.022955454449922991 0.00085034871881544901 0 -0.022714148045380952 0.00086046733920662867 0 -0.022811819848494171 0.0011045314088432869 0 -0.022517198391600386 0.00080875873674936217 0 -0.022714148045380952 0.00086046733920662867 0 -0.022517198391600386 0.00080875873674936217 0 -0.022714148045380952 0.00086046733920662867 0 -0.022529711018509174 0.00080163225295911214 0 -0.022232144477435781 0.00098572598392972157 0 -0.022714148045380952 0.00086046733920662867 0 -0.022529711018509174 0.00080163225295911214 0 -0.022529711018509174 0.00080163225295911214 0 -0.022473399332596802 0.00056822346235234009 0 -0.022587173799075804 0.00065746940205595791 0 -0.022232144477435781 0.00098572598392972157 0 -0.022529711018509174 0.00080163225295911214 0 -0.022587173799075804 0.00065746940205595791 0 -0.022163162497049579 0.00092227020973763177 0 -0.021960593042179059 0.00087788435733599781 0 -0.022386837869182784 0.00062238863179100046 0 -0.022529711018509174 0.00080163225295911214 0 -0.022473399332596802 0.00056822346235234009 0 -0.022386837869182784 0.00062238863179100046 0 -0.022517198391600386 0.00080875873674936217 0 -0.022529711018509174 0.00080163225295911214 0 -0.022355007104772218 0.00037985171473535673 0 -0.022386837869182784 0.00062238863179100046 0 -0.022473399332596802 0.00056822346235234009 0 -0.022473399332596802 0.00056822346235234009 0 -0.022587173799075804 0.00065746940205595791 0 -0.022566523022774791 0.00026851017268601318 0 -0.021364098443805796 0.0012160507531175583 0 -0.021551307739009935 0.0011709112040523594 0 -0.021045121336688444 0.0011855158937616695 0 -0.022232144477435781 0.00098572598392972157 0 -0.021364098443805796 0.0012160507531175583 0 -0.021551307739009935 0.0011709112040523594 0 -0.021594756829158655 0.001018555250661351 0 -0.021303200113826439 0.0011399616699676897 0 -0.021551307739009935 0.0011709112040523594 0 -0.021303200113826439 0.0011399616699676897 0 -0.021551307739009935 0.0011709112040523594 0 -0.021102120667158438 0.001175456751829428 0 -0.021551307739009935 0.0011709112040523594 0 -0.021102120667158438 0.001175456751829428 0 -0.021045121336688444 0.0011855158937616695 0 -0.020944951864131978 0.0011320253958151062 0 -0.021102120667158438 0.001175456751829428 0 -0.020864017591205725 0.0011186109167635008 0 -0.021102120667158438 0.001175456751829428 0 -0.021045121336688444 0.0011855158937616695 0 -0.020774855022471422 0.0011112975959731183 0 -0.021045121336688444 0.0011855158937616695 0 -0.020774855022471422 0.0011112975959731183 0 -0.020611885891718525 0.0010850137686842121 0 -0.020774855022471422 0.0011112975959731183 0 -0.020611885891718525 0.0010850137686842121 0 -0.020447496546252553 0.00099392912064527866 0 -0.021102120667158438 0.001175456751829428 0 -0.020774855022471422 0.0011112975959731183 0 -0.020864017591205725 0.0011186109167635008 0 -0.020774855022471422 0.0011112975959731183 0 -0.020864017591205725 0.0011186109167635008 0 -0.020662393004282645 0.0010514181775781793 0 -0.020810610444418884 0.0010906227088762291 0 -0.020864017591205725 0.0011186109167635008 0 -0.020662393004282645 0.0010514181775781793 0 -0.022355007104772218 0.00037985171473535673 0 -0.022473399332596802 0.00056822346235234009 0 -0.022566523022774791 0.00026851017268601318 0 -0.022355007104772218 0.00037985171473535673 0 -0.022396337336967127 0.00021317500579695064 0 -0.022566523022774791 0.00026851017268601318 0 -0.021960593042179059 0.00087788435733599781 0 -0.021640156939786992 0.00070522682474304316 0 -0.021045121336688444 0.0011855158937616695 0 -0.020721053387994921 0.0011686201780170371 0 -0.020611885891718525 0.0010850137686842121 0 -0.021364098443805796 0.0012160507531175583 0 -0.021045121336688444 0.0011855158937616695 0 -0.020721053387994921 0.0011686201780170371 0 -0.020721053387994921 0.0011686201780170371 0 -0.020611885891718525 0.0010850137686842121 0 -0.020251732687118457 0.00099423274934045324 0 -0.021640156939786992 0.00070522682474304316 0 -0.02137325346857059 0.00042092380626948479 0 -0.022566523022774791 0.00026851017268601318 0 -0.022382286931787624 7.6164461925347783e-05 0 -0.022452326970601639 -1.01959843800714e-05 0 -0.022396337336967127 0.00021317500579695064 0 -0.022566523022774791 0.00026851017268601318 0 -0.022382286931787624 7.6164461925347783e-05 0 -0.022271875777802267 6.8065906170247258e-05 0 -0.022396337336967127 0.00021317500579695064 0 -0.022382286931787624 7.6164461925347783e-05 0 -0.022347862060018056 -2.8151798137932883e-05 0 -0.022452326970601639 -1.01959843800714e-05 0 -0.022315530458232556 -0.00011470232455326741 0 -0.022298835262642903 -6.5588191771111601e-05 0 -0.022347862060018056 -2.8151798137932883e-05 0 -0.022315530458232556 -0.00011470232455326741 0 -0.022382286931787624 7.6164461925347783e-05 0 -0.022347862060018056 -2.8151798137932883e-05 0 -0.022452326970601639 -1.01959843800714e-05 0 -0.022289187404884614 -1.8686529257521086e-05 0 -0.022382286931787624 7.6164461925347783e-05 0 -0.022347862060018056 -2.8151798137932883e-05 0 -0.020611885891718525 0.0010850137686842121 0 -0.020251732687118457 0.00099423274934045324 0 -0.020447496546252553 0.00099392912064527866 0 -0.020251732687118457 0.00099423274934045324 0 -0.020136733879070855 0.00090138408307136042 0 -0.020447496546252553 0.00099392912064527866 0 -0.020136733879070855 0.00090138408307136042 0 -0.019991738309522264 0.00086181306384933707 0 -0.019914423060958999 0.00085645817852273245 0 -0.020136733879070855 0.00090138408307136042 0 -0.020447496546252553 0.00099392912064527866 0 -0.020201451148706955 0.00088836327286385345 0 -0.020014691980694974 0.00082490521677748346 0 -0.020136733879070855 0.00090138408307136042 0 -0.019914423060958999 0.00085645817852273245 0 -0.020014691980694974 0.00082490521677748346 0 -0.020136733879070855 0.00090138408307136042 0 -0.020201451148706955 0.00088836327286385345 0 -0.022452326970601639 -1.01959843800714e-05 0 -0.022351801245072658 -0.00020301142930884884 0 -0.022315530458232556 -0.00011470232455326741 0 -0.02137325346857059 0.00042092380626948479 0 -0.020942042989877001 0.00063837402823957695 0 -0.020251732687118457 0.00099423274934045324 0 -0.020136733879070855 0.00090138408307136042 0 -0.019991738309522264 0.00086181306384933707 0 -0.020942042989877001 0.00063837402823957695 0 -0.01964026587359138 0.00098751954403823229 0 -0.02046678118032931 0.00096656401655997881 0 -0.020662393004282645 0.0010514181775781793 0 -0.020447496546252553 0.00099392912064527866 0 -0.020561863408904629 0.00097899165728385367 0 -0.02046678118032931 0.00096656401655997881 0 -0.020662393004282645 0.0010514181775781793 0 -0.020561863408904629 0.00097899165728385367 0 -0.020699665010307722 0.001041172034043869 0 -0.020662393004282645 0.0010514181775781793 0 -0.020774855022471422 0.0011112975959731183 0 -0.020662393004282645 0.0010514181775781793 0 -0.020447496546252553 0.00099392912064527866 0 -0.02046678118032931 0.00096656401655997881 0 -0.020447496546252553 0.00099392912064527866 0 -0.020308207164618956 0.00091038125128948958 0 -0.020447496546252553 0.00099392912064527866 0 -0.020308207164618956 0.00091038125128948958 0 -0.020201451148706955 0.00088836327286385345 0 -0.020014691980694974 0.00082490521677748346 0 -0.020201451148706955 0.00088836327286385345 0 -0.020109079946348467 0.00080158818684005102 0 -0.020308207164618956 0.00091038125128948958 0 -0.020283245082826144 0.00085915855641336282 0 -0.020109079946348467 0.00080158818684005102 0 -0.020308207164618956 0.00091038125128948958 0 -0.020201451148706955 0.00088836327286385345 0 -0.020109079946348467 0.00080158818684005102 0 -0.02046678118032931 0.00096656401655997881 0 -0.020308207164618956 0.00091038125128948958 0 -0.020283245082826144 0.00085915855641336282 0 -0.02046678118032931 0.00096656401655997881 0 -0.020283245082826144 0.00085915855641336282 0 -0.020426418604527818 0.00091475700490113569 0 -0.020561863408904629 0.00097899165728385367 0 -0.020467002765192886 0.00090441877754765705 0 -0.020426418604527818 0.00091475700490113569 0 -0.020561863408904629 0.00097899165728385367 0 -0.02046678118032931 0.00096656401655997881 0 -0.020426418604527818 0.00091475700490113569 0 -0.020283245082826144 0.00085915855641336282 0 -0.020356371442377393 0.00085187415437550931 0 -0.020242153811898079 0.00079009583309462279 0 -0.020467002765192886 0.00090441877754765705 0 -0.020426418604527818 0.00091475700490113569 0 -0.020356371442377393 0.00085187415437550931 0 -0.020283245082826144 0.00085915855641336282 0 -0.020426418604527818 0.00091475700490113569 0 -0.020356371442377393 0.00085187415437550931 0 -0.020242153811898079 0.00079009583309462279 0 -0.020192411683585106 0.00072091975040631422 0 -0.020119759720195092 0.00075164169518705565 0 -0.020356371442377393 0.00085187415437550931 0 -0.020242153811898079 0.00079009583309462279 0 -0.020318184087663404 0.00077867411357069639 0 -0.020242153811898079 0.00079009583309462279 0 -0.020192411683585106 0.00072091975040631422 0 -0.020318184087663404 0.00077867411357069639 0 -0.020192411683585106 0.00072091975040631422 0 -0.020052738042056775 0.00063421031890944406 0 -0.020119759720195092 0.00075164169518705565 0 -0.020052738042056775 0.00063421031890944406 0 -0.020062933173023843 0.00056683525886712762 0 -0.020234090175735756 0.00067241136727072711 0 -0.020192411683585106 0.00072091975040631422 0 -0.020052738042056775 0.00063421031890944406 0 -0.020234090175735756 0.00067241136727072711 0 -0.019955556272521505 0.0006238783596718572 0 -0.020119759720195092 0.00075164169518705565 0 -0.019982540004659356 0.00068935443078781253 0 -0.020052738042056775 0.00063421031890944406 0 -0.019955556272521505 0.0006238783596718572 0 -0.020119759720195092 0.00075164169518705565 0 -0.020283245082826144 0.00085915855641336282 0 -0.020119759720195092 0.00075164169518705565 0 -0.020109079946348467 0.00080158818684005102 0 -0.020283245082826144 0.00085915855641336282 0 -0.020242153811898079 0.00079009583309462279 0 -0.020119759720195092 0.00075164169518705565 0 -0.020109079946348467 0.00080158818684005102 0 -0.019899601821343746 0.00069420462803622364 0 -0.019982540004659356 0.00068935443078781253 0 -0.020119759720195092 0.00075164169518705565 0 -0.020109079946348467 0.00080158818684005102 0 -0.019982540004659356 0.00068935443078781253 0 -0.020014691980694974 0.00082490521677748346 0 -0.020109079946348467 0.00080158818684005102 0 -0.019899601821343746 0.00069420462803622364 0 -0.019899601821343746 0.00069420462803622364 0 -0.019982540004659356 0.00068935443078781253 0 -0.019852226403423823 0.00060644863070718525 0 -0.019955556272521505 0.0006238783596718572 0 -0.019982540004659356 0.00068935443078781253 0 -0.019852226403423823 0.00060644863070718525 0 -0.019852226403423823 0.00060644863070718525 0 -0.019737520725102868 0.00054140953218195808 0 -0.019808237994575185 0.00052032256038566965 0 -0.019852226403423823 0.00060644863070718525 0 -0.019754667061605558 0.00060265435796077473 0 -0.019737520725102868 0.00054140953218195808 0 -0.019955556272521505 0.0006238783596718572 0 -0.019852226403423823 0.00060644863070718525 0 -0.019808237994575185 0.00052032256038566965 0 -0.019899601821343746 0.00069420462803622364 0 -0.019852226403423823 0.00060644863070718525 0 -0.019754667061605558 0.00060265435796077473 0 -0.019899601821343746 0.00069420462803622364 0 -0.019754667061605558 0.00060265435796077473 0 -0.019746519532387801 0.00065932916478989327 0 -0.019754667061605558 0.00060265435796077473 0 -0.019737520725102868 0.00054140953218195808 0 -0.019638494364992438 0.00056016346583877849 0 -0.019737520725102868 0.00054140953218195808 0 -0.019808237994575185 0.00052032256038566965 0 -0.019658034853670129 0.00045859983083126112 0 -0.019737520725102868 0.00054140953218195808 0 -0.019658034853670129 0.00045859983083126112 0 -0.019638494364992438 0.00056016346583877849 0 -0.019759527848239838 0.00042242603222868402 0 -0.019808237994575185 0.00052032256038566965 0 -0.019658034853670129 0.00045859983083126112 0 -0.019759527848239838 0.00042242603222868402 0 -0.019595921634362162 0.00020574065179285712 0 -0.019658034853670129 0.00045859983083126112 0 -0.019883076375076209 0.0004464490335164062 0 -0.019595921634362162 0.00020574065179285712 0 -0.020098823384793012 0.0005006549129185486 0 -0.019883076375076209 0.0004464490335164062 0 -0.019759527848239838 0.00042242603222868402 0 -0.019595921634362162 0.00020574065179285712 0 -0.019883076375076209 0.0004464490335164062 0 -0.019759527848239838 0.00042242603222868402 0 -0.019916812063222489 0.00053611947522486721 0 -0.019883076375076209 0.0004464490335164062 0 -0.020062933173023843 0.00056683525886712762 0 -0.019916812063222489 0.00053611947522486721 0 -0.020052738042056775 0.00063421031890944406 0 -0.020062933173023843 0.00056683525886712762 0 -0.019916812063222489 0.00053611947522486721 0 -0.020052738042056775 0.00063421031890944406 0 -0.019955556272521505 0.0006238783596718572 0 -0.019916812063222489 0.00053611947522486721 0 -0.019955556272521505 0.0006238783596718572 0 -0.019916812063222489 0.00053611947522486721 0 -0.019808237994575185 0.00052032256038566965 0 -0.019759527848239838 0.00042242603222868402 0 -0.019916812063222489 0.00053611947522486721 0 -0.019808237994575185 0.00052032256038566965 0 -0.019493148233441566 0.00080425209407187072 0 -0.019664448200004001 0.00072296445003629457 0 -0.019914423060958999 0.00085645817852273245 0 -0.019614275204344438 0.0009861805288160668 0 -0.019493148233441566 0.00080425209407187072 0 -0.019914423060958999 0.00085645817852273245 0 -0.019664448200004001 0.00072296445003629457 0 -0.019839950969582482 0.00075031402497319699 0 -0.019746519532387801 0.00065932916478989327 0 -0.019664448200004001 0.00072296445003629457 0 -0.019839950969582482 0.00075031402497319699 0 -0.019914423060958999 0.00085645817852273245 0 -0.020014691980694974 0.00082490521677748346 0 -0.019839950969582482 0.00075031402497319699 0 -0.019914423060958999 0.00085645817852273245 0 -0.020014691980694974 0.00082490521677748346 0 -0.019899601821343746 0.00069420462803622364 0 -0.019839950969582482 0.00075031402497319699 0 -0.019899601821343746 0.00069420462803622364 0 -0.019839950969582482 0.00075031402497319699 0 -0.019746519532387801 0.00065932916478989327 0 -0.019754667061605558 0.00060265435796077473 0 -0.019746519532387801 0.00065932916478989327 0 -0.019642650079017266 0.00060913900013072602 0 -0.019754667061605558 0.00060265435796077473 0 -0.019642650079017266 0.00060913900013072602 0 -0.019638494364992438 0.00056016346583877849 0 -0.019746519532387801 0.00065932916478989327 0 -0.019642650079017266 0.00060913900013072602 0 -0.019563361600762205 0.00063992983686442153 0 -0.019642650079017266 0.00060913900013072602 0 -0.019563361600762205 0.00063992983686442153 0 -0.019503780114375924 0.00061407338806515404 0 -0.019664448200004001 0.00072296445003629457 0 -0.019746519532387801 0.00065932916478989327 0 -0.019563361600762205 0.00063992983686442153 0 -0.019493148233441566 0.00080425209407187072 0 -0.019664448200004001 0.00072296445003629457 0 -0.019423347564629927 0.00065864145922591637 0 -0.019664448200004001 0.00072296445003629457 0 -0.019563361600762205 0.00063992983686442153 0 -0.019423347564629927 0.00065864145922591637 0 -0.019563361600762205 0.00063992983686442153 0 -0.019427252746077851 0.00062343118761669586 0 -0.019423347564629927 0.00065864145922591637 0 -0.019427252746077851 0.00062343118761669586 0 -0.019349716016603322 0.00062420664594655404 0 -0.019345468687071606 0.00063039687040172679 0 -0.019427252746077851 0.00062343118761669586 0 -0.019428260307265882 0.00061969771994637118 0 -0.019349716016603322 0.00062420664594655404 0 -0.019427252746077851 0.00062343118761669586 0 -0.019345468687071606 0.00063039687040172679 0 -0.019423347564629927 0.00065864145922591637 0 -0.019563361600762205 0.00063992983686442153 0 -0.019427252746077851 0.00062343118761669586 0 -0.019503780114375924 0.00061407338806515404 0 -0.019427252746077851 0.00062343118761669586 0 -0.019503780114375924 0.00061407338806515404 0 -0.019428260307265882 0.00061969771994637118 0 -0.019503780114375924 0.00061407338806515404 0 -0.019428260307265882 0.00061969771994637118 0 -0.019467831879214633 0.00061372645807068304 0 -0.019503780114375924 0.00061407338806515404 0 -0.019467831879214633 0.00061372645807068304 0 -0.019551045014347804 0.00060071617585217326 0 -0.019642650079017266 0.00060913900013072602 0 -0.019503780114375924 0.00061407338806515404 0 -0.019551045014347804 0.00060071617585217326 0 -0.019551045014347804 0.00060071617585217326 0 -0.019521731152330989 0.00059920238807187809 0 -0.019638494364992438 0.00056016346583877849 0 -0.019642650079017266 0.00060913900013072602 0 -0.019551045014347804 0.00060071617585217326 0 -0.019638494364992438 0.00056016346583877849 0 -0.019467831879214633 0.00061372645807068304 0 -0.019551045014347804 0.00060071617585217326 0 -0.019521731152330989 0.00059920238807187809 0 -0.019467831879214633 0.00061372645807068304 0 -0.019521731152330989 0.00059920238807187809 0 -0.019396839166105087 0.00065445154675437161 0 -0.019396839166105087 0.00065445154675437161 0 -0.019366035183406235 0.00064901624273135789 0 -0.019278345297318613 0.00071748277604678659 0 -0.019428260307265882 0.00061969771994637118 0 -0.019467831879214633 0.00061372645807068304 0 -0.019366035183406235 0.00064901624273135789 0 -0.019467831879214633 0.00061372645807068304 0 -0.019396839166105087 0.00065445154675437161 0 -0.019366035183406235 0.00064901624273135789 0 -0.019428260307265882 0.00061969771994637118 0 -0.019366035183406235 0.00064901624273135789 0 -0.019349716016603322 0.00062420664594655404 0 -0.019366035183406235 0.00064901624273135789 0 -0.019349716016603322 0.00062420664594655404 0 -0.019282348164681162 0.00066153830405862738 0 -0.019539425851790596 0.00047965001798391295 0 -0.019410643311767325 0.00068111633409226931 0 -0.018794200922925365 0.00077718863535071589 0 -0.019539425851790596 0.00047965001798391295 0 -0.019532103762074239 0.00058942840197554499 0 -0.019410643311767325 0.00068111633409226931 0 -0.019539425851790596 0.00047965001798391295 0 -0.019595921634362162 0.00020574065179285712 0 -0.018794200922925365 0.00077718863535071589 0 -0.019539425851790596 0.00047965001798391295 0 -0.019658034853670129 0.00045859983083126112 0 -0.019532103762074239 0.00058942840197554499 0 -0.019539425851790596 0.00047965001798391295 0 -0.019595921634362162 0.00020574065179285712 0 -0.019658034853670129 0.00045859983083126112 0 -0.019658034853670129 0.00045859983083126112 0 -0.019638494364992438 0.00056016346583877849 0 -0.019532103762074239 0.00058942840197554499 0 -0.019521731152330989 0.00059920238807187809 0 -0.019638494364992438 0.00056016346583877849 0 -0.019532103762074239 0.00058942840197554499 0 -0.019521731152330989 0.00059920238807187809 0 -0.019396839166105087 0.00065445154675437161 0 -0.019532103762074239 0.00058942840197554499 0 -0.019532103762074239 0.00058942840197554499 0 -0.019368153464436485 0.00070901800098084155 0 -0.019410643311767325 0.00068111633409226931 0 -0.019396839166105087 0.00065445154675437161 0 -0.019532103762074239 0.00058942840197554499 0 -0.019368153464436485 0.00070901800098084155 0 -0.019396839166105087 0.00065445154675437161 0 -0.019368153464436485 0.00070901800098084155 0 -0.019193561324625807 0.0007514672860879499 0 -0.019410643311767325 0.00068111633409226931 0 -0.01933645108451329 0.00076846430031966308 0 -0.018794200922925365 0.00077718863535071589 0 -0.016547775616280097 -0.0014506163227149366 0 -0.015559525307815018 -0.0016559126517271907 0 -0.015493909174478709 -0.0020762185780262249 0 -0.017943201576508163 -0.00023257818359558648 0 -0.017103272808141039 -0.00075471688786229335 0 -0.019368153464436485 0.00070901800098084155 0 -0.019410643311767325 0.00068111633409226931 0 -0.01933645108451329 0.00076846430031966308 0 -0.016547775616280097 -0.0014506163227149366 0 -0.015896384492602514 -0.00041970861866381969 0 -0.015112264302536751 -0.0010559531878483186 0 -0.016547775616280097 -0.0014506163227149366 0 -0.015896384492602514 -0.00041970861866381969 0 -0.016584967800862809 0.00054244097289721108 0 -0.016547775616280097 -0.0014506163227149366 0 -0.016584967800862809 0.00054244097289721108 0 -0.01745418761572266 0.00072635683658207753 0 -0.016584967800862809 0.00054244097289721108 0 -0.015931371229788133 0.0012127818769891985 0 -0.015261399116317402 0.00045816344215161148 0 -0.015896384492602514 -0.00041970861866381969 0 -0.016584967800862809 0.00054244097289721108 0 -0.015261399116317402 0.00045816344215161148 0 -0.016584967800862809 0.00054244097289721108 0 -0.01745418761572266 0.00072635683658207753 0 -0.016633565837293179 0.0016248175759656718 0 -0.016584967800862809 0.00054244097289721108 0 -0.016633565837293179 0.0016248175759656718 0 -0.015931371229788133 0.0012127818769891985 0 -0.016633565837293179 0.0016248175759656718 0 -0.015931371229788133 0.0012127818769891985 0 -0.015154640671651448 0.0020816439784094847 0 -0.016547775616280097 -0.0014506163227149366 0 -0.01745418761572266 0.00072635683658207753 0 -0.018697128003879911 0.0010716737757411044 0 -0.01745418761572266 0.00072635683658207753 0 -0.016633565837293179 0.0016248175759656718 0 -0.018473180128609809 0.0016660181400162026 0 -0.01745418761572266 0.00072635683658207753 0 -0.018697128003879911 0.0010716737757411044 0 -0.018473180128609809 0.0016660181400162026 0 -0.018697128003879911 0.0010716737757411044 0 -0.019193561324625807 0.0007514672860879499 0 -0.019112198847294638 0.00083766758503918111 0 -0.019368153464436485 0.00070901800098084155 0 -0.01933645108451329 0.00076846430031966308 0 -0.019193561324625807 0.0007514672860879499 0 -0.017943201576508163 -0.00023257818359558648 0 -0.018705934551473038 0.001020255418524175 0 -0.01933645108451329 0.00076846430031966308 0 -0.018697128003879911 0.0010716737757411044 0 -0.019193561324625807 0.0007514672860879499 0 -0.019278345297318613 0.00071748277604678659 0 -0.019336058028971207 0.00086860928325196442 0 -0.019112198847294638 0.00083766758503918111 0 -0.019396839166105087 0.00065445154675437161 0 -0.019193561324625807 0.0007514672860879499 0 -0.019278345297318613 0.00071748277604678659 0 -0.019278345297318613 0.00071748277604678659 0 -0.019306209617415981 0.00071574101270188847 0 -0.019336058028971207 0.00086860928325196442 0 -0.019193561324625807 0.0007514672860879499 0 -0.019278345297318613 0.00071748277604678659 0 -0.019112198847294638 0.00083766758503918111 0 -0.019306209617415981 0.00071574101270188847 0 -0.019336058028971207 0.00086860928325196442 0 -0.01920429911469301 0.00069185783999458034 0 -0.019282348164681162 0.00066153830405862738 0 -0.019306209617415981 0.00071574101270188847 0 -0.01920429911469301 0.00069185783999458034 0 -0.019366035183406235 0.00064901624273135789 0 -0.019282348164681162 0.00066153830405862738 0 -0.019306209617415981 0.00071574101270188847 0 -0.019366035183406235 0.00064901624273135789 0 -0.019278345297318613 0.00071748277604678659 0 -0.019306209617415981 0.00071574101270188847 0 0.026974508963602432 0.0020960343736186947 0 0.027223897036844226 0.0021333520481724294 0 0.027207748122491569 0.0021454250224813083 0 0.017236405926107843 0.0026907470536825253 0 0.0058071199873451331 0.0020359532573382263 0 0.0039693394070163725 0.0023386250076344495 0 0.0039150401148250902 0.0024443479168030301 0 0.0051685104522684279 0.002671955157801859 0 0.026974508963602432 0.0020960343736186947 0 0.027461592535607749 0.0017637597403929598 0 0.027223897036844226 0.0021333520481724294 0 -0.010286225148177199 0.0010646782828104794 0 0.0058071199873451331 0.0020359532573382263 0 -0.018697128003879911 0.0010716737757411044 0 -0.019336058028971207 0.00086860928325196442 0 -0.019112198847294638 0.00083766758503918111 0 -0.018697128003879911 0.0010716737757411044 0 -0.019336058028971207 0.00086860928325196442 0 -0.018473180128609809 0.0016660181400162026 0 0.0039693394070163725 0.0023386250076344495 0 0.0027300491138697106 0.0020987977615593316 0 0.0028448946037719644 0.0018714846097873505 0 -0.010286225148177199 0.0010646782828104794 0 -0.0069353812202767786 0.0019562210751482229 0 0.0039693394070163725 0.0023386250076344495 0 0.0039150401148250902 0.0024443479168030301 0 0.0027300491138697106 0.0020987977615593316 0 0.017236405926107843 0.0026907470536825253 0 0.015076323072039035 0.0019447555987817456 0 0.026974508963602432 0.0020960343736186947 0 0.026905965181439773 0.0014545455527410259 0 0.026050149296962893 0.0017883540913270187 0 0.026905965181439773 0.0014545455527410259 0 0.026213408837527766 0.0009023573083664371 0 0.026050149296962893 0.0017883540913270187 0 0.026974508963602432 0.0020960343736186947 0 0.026905965181439773 0.0014545455527410259 0 0.027461592535607749 0.0017637597403929598 0 0.026905965181439773 0.0014545455527410259 0 0.027461592535607749 0.0017637597403929598 0 0.027470285657987863 0.0011993620663332579 0 0.026905965181439773 0.0014545455527410259 0 0.027470285657987863 0.0011993620663332579 0 0.027064487393940094 0.00075608511264164209 0 0.027470285657987863 0.0011993620663332579 0 0.02801765424763732 0.0013256947541127732 0 0.027766401722895729 0.00056110287203957603 0 0.027470285657987863 0.0011993620663332579 0 0.027064487393940094 0.00075608511264164209 0 0.027766401722895729 0.00056110287203957603 0 0.026905965181439773 0.0014545455527410259 0 0.027064487393940094 0.00075608511264164209 0 0.026213408837527766 0.0009023573083664371 0 0.026213408837527766 0.0009023573083664371 0 0.024942969452262612 0.0012813185008122225 0 0.026050149296962893 0.0017883540913270187 0 0.017718301809870485 0.0030951823590142885 0 0.018303869985596518 0.00051314786801839342 0 0.01681564375161148 0.0016261742918551412 0 0.026213408837527766 0.0009023573083664371 0 0.024942969452262612 0.0012813185008122225 0 0.025591609192397533 7.7785897868775424e-05 0 0.0079340731247108057 0.0010665032696125776 0 0.023919742383967501 -0.00038563464256852588 0 -0.016633565837293179 0.0016248175759656718 0 -0.015599772802388437 0.0032246619669586904 0 -0.018473180128609809 0.0016660181400162026 0 0.0079340731247108057 0.0010665032696125776 0 0.015076323072039035 0.0019447555987817456 0 0.0016276419963963571 0.0012342388500371903 0 0.0014508790139862709 0.0016011498564352841 0 0.0028448946037719644 0.0018714846097873505 0 -0.0095082173747272191 0.0041499395318946837 0 -0.0069353812202767786 0.0019562210751482229 0 0.0079340731247108057 0.0010665032696125776 0 -0.0095082173747272191 0.0041499395318946837 0 -0.016633565837293179 0.0016248175759656718 0 -0.015599772802388437 0.0032246619669586904 0 -0.015154640671651448 0.0020816439784094847 0 0.0014508790139862709 0.0016011498564352841 0 0.0027300491138697106 0.0020987977615593316 0 0.0028448946037719644 0.0018714846097873505 0 0.014207525352801943 -0.0036537512093582046 0 0.014030633779662134 -0.0041929314539522981 0 0.022734396984672337 -0.0043420904754627359 0 0.022301310610431453 -0.0043260194952230661 0 0.025748288544134041 -0.0055031129709693155 0 0.024447164311069518 -0.0040281271307073055 0 0.022734396984672337 -0.0043420904754627359 0 0.025748288544134041 -0.0055031129709693155 0 0.024447164311069518 -0.0040281271307073055 0 0.025664531539218105 -0.003281963722218549 0 0.025748288544134041 -0.0055031129709693155 0 0.003907449343804984 -0.0024760356192704406 0 0.0040491080940250161 -0.0025120092093547717 0 0.0039098245734349854 -0.0025312165241614944 0 0.024447164311069518 -0.0040281271307073055 0 0.022734396984672337 -0.0043420904754627359 0 0.023619008143656996 -0.0029998690752584254 0 0.024447164311069518 -0.0040281271307073055 0 0.023619008143656996 -0.0029998690752584254 0 0.025664531539218105 -0.003281963722218549 0 0.014207525352801943 -0.0036537512093582046 0 0.0048535865733551871 -0.0020997668190371817 0 0.022452013244753641 -0.0041229385844733695 0 0.019741005592527724 -0.0017348409156009565 0 0.0038456053991102264 -0.0025044565851644438 0 0.003907449343804984 -0.0024760356192704406 0 0.0038087720261051582 -0.0024517732588065742 0 0.0038456053991102264 -0.0025044565851644438 0 0.003907449343804984 -0.0024760356192704406 0 0.0039098245734349854 -0.0025312165241614944 0 0.022734396984672337 -0.0043420904754627359 0 0.022301310610431453 -0.0043260194952230661 0 0.018543336942456586 -0.00100069129975366 0 0.022734396984672337 -0.0043420904754627359 0 0.022187532316938201 -0.0028594827015621257 0 0.023619008143656996 -0.0029998690752584254 0 0.02261235629336826 -0.0020842576763022507 0 0.023462838277175966 -0.0014404206670561349 0 0.023619008143656996 -0.0029998690752584254 0 0.022301310610431453 -0.0043260194952230661 0 0.017283210141175044 -0.0018594292614883881 0 0.018543336942456586 -0.00100069129975366 0 0.022187532316938201 -0.0028594827015621257 0 0.02261235629336826 -0.0020842576763022507 0 0.023619008143656996 -0.0029998690752584254 0 0.022734396984672337 -0.0043420904754627359 0 0.022187532316938201 -0.0028594827015621257 0 0.020604027406015375 -0.0024084772425179506 0 0.022187532316938201 -0.0028594827015621257 0 0.021744561900937775 -0.0021947210962304548 0 0.02261235629336826 -0.0020842576763022507 0 0.021744561900937775 -0.0021947210962304548 0 0.021278986504942247 -0.0018343546561829045 0 0.020604027406015375 -0.0024084772425179506 0 0.022187532316938201 -0.0028594827015621257 0 0.021744561900937775 -0.0021947210962304548 0 0.020604027406015375 -0.0024084772425179506 0 0.021744561900937775 -0.0021947210962304548 0 0.021850662797217129 -0.0013870878903755807 0 0.02261235629336826 -0.0020842576763022507 0 0.021744561900937775 -0.0021947210962304548 0 0.021278986504942247 -0.0018343546561829045 0 0.021850662797217129 -0.0013870878903755807 0 0.021278986504942247 -0.0018343546561829045 0 0.021850662797217129 -0.0013870878903755807 0 0.020925839866591661 -0.0013375045438128682 0 0.021850662797217129 -0.0013870878903755807 0 0.02261235629336826 -0.0020842576763022507 0 0.023462838277175966 -0.0014404206670561349 0 0.023462838277175966 -0.0014404206670561349 0 0.023619008143656996 -0.0029998690752584254 0 0.025042292910196513 -0.0016467242319301817 0 0.023619008143656996 -0.0029998690752584254 0 0.025042292910196513 -0.0016467242319301817 0 0.025664531539218105 -0.003281963722218549 0 0.026836736632736176 -0.001179983841746115 0 0.028625920295593875 -0.0030948387603406428 0 0.025664531539218105 -0.003281963722218549 0 0.025042292910196513 -0.0016467242319301817 0 0.026836736632736176 -0.001179983841746115 0 0.025664531539218105 -0.003281963722218549 0 0.02801765424763732 0.0013256947541127732 0 0.027766401722895729 0.00056110287203957603 0 0.028491810529743686 -2.7902443831949666e-05 0 0.029166004429977039 -0.0013584914163379445 0 0.028268650100655421 7.6247494770659546e-05 0 0.026836736632736176 -0.001179983841746115 0 0.028625920295593875 -0.0030948387603406428 0 0.028491810529743686 -2.7902443831949666e-05 0 0.028625920295593875 -0.0030948387603406428 0 0.02726692490083452 -0.0046820935290228559 0 0.028433618970839229 -0.0065398578622112048 0 0.029166004429977039 -0.0013584914163379445 0 0.020791129449800612 -0.00024285923225888251 0 0.027461592535607749 0.0017637597403929598 0 0.02801765424763732 0.0013256947541127732 0 0.027539201855351414 0.0020822150666094663 0 0.027461592535607749 0.0017637597403929598 0 0.027470285657987863 0.0011993620663332579 0 0.02801765424763732 0.0013256947541127732 0 0.02726692490083452 -0.0046820935290228559 0 0.025664531539218105 -0.003281963722218549 0 0.025748288544134041 -0.0055031129709693155 0 0.028625920295593875 -0.0030948387603406428 0 0.02726692490083452 -0.0046820935290228559 0 0.025664531539218105 -0.003281963722218549 0 0.0040491080940250161 -0.0025120092093547717 0 0.0042597045176225685 -0.0025664308295411196 0 0.0041052577690470033 -0.0026249267612545131 0 0.0040491080940250161 -0.0025120092093547717 0 0.0039752617302529474 -0.0026539650500786243 0 0.0041052577690470033 -0.0026249267612545131 0 0.014030633779662134 -0.0041929314539522981 0 0.020791129449800612 -0.00024285923225888251 0 0.02726692490083452 -0.0046820935290228559 0 0.025748288544134041 -0.0055031129709693155 0 0.028433618970839229 -0.0065398578622112048 0 0.027461592535607749 0.0017637597403929598 0 0.027539201855351414 0.0020822150666094663 0 0.027223897036844226 0.0021333520481724294 0 0.027093948574080356 0.0022292746270099048 0 0.027223897036844226 0.0021333520481724294 0 0.027207748122491569 0.0021454250224813083 0 0.020791129449800612 -0.00024285923225888251 0 0.026217418321265527 -7.8874923742694211e-05 0 -0.019282348164681162 0.00066153830405862738 0 -0.019205148370386602 0.00067722918252713675 0 -0.019248333035451964 0.00060493004434990835 0 -0.019034787584832388 0.00049028735406373715 0 -0.019044785243259529 0.00052296109463491488 0 -0.019248333035451964 0.00060493004434990835 0 0.027093948574080356 0.0022292746270099048 0 0.027207748122491569 0.0021454250224813083 0 0.027100220476767925 0.0021061190224827726 0 0.027133900017480287 0.0021229378768094428 0 0.027100220476767925 0.0021061190224827726 0 0.027049780235264321 0.0020807255788663909 0 0.0058071199873451331 0.0020359532573382263 0 -0.001268581820297423 -0.0010817115520120187 0 0.0058071199873451331 0.0020359532573382263 0 0.0090112902346816317 0.0030373780950890407 0 0.020791129449800612 -0.00024285923225888251 0 -0.001268581820297423 -0.0010817115520120187 0 0.0042597045176225685 -0.0025664308295411196 0 0.0042000519568901737 -0.0026759608275946332 0 0.0041052577690470033 -0.0026249267612545131 0 0.027093948574080356 0.0022292746270099048 0 0.027100220476767925 0.0021061190224827726 0 0.027049780235264321 0.0020807255788663909 0 0.0042000519568901737 -0.0026759608275946332 0 0.0041052577690470033 -0.0026249267612545131 0 0.0041118561927391446 -0.0026785833430328417 0 0.0042000519568901737 -0.0026759608275946332 0 0.0041118561927391446 -0.0026785833430328417 0 0.0040500738778474635 -0.0027327596348828333 0 -0.001268581820297423 -0.0010817115520120187 0 -0.0099769555420402087 -0.00045968183565508005 0 -0.019282348164681162 0.00066153830405862738 0 -0.01920429911469301 0.00069185783999458034 0 -0.019205148370386602 0.00067722918252713675 0 0.0039752617302529474 -0.0026539650500786243 0 0.0041052577690470033 -0.0026249267612545131 0 0.0040432964064788272 -0.0026793985728193271 0 0.0039752617302529474 -0.0026539650500786243 0 0.0040432964064788272 -0.0026793985728193271 0 0.0040060261531503858 -0.002711613680002797 0 0.0041052577690470033 -0.0026249267612545131 0 0.0041118561927391446 -0.0026785833430328417 0 0.0040432964064788272 -0.0026793985728193271 0 0.0040432964064788272 -0.0026793985728193271 0 0.0040500738778474635 -0.0027327596348828333 0 0.0040060261531503858 -0.002711613680002797 0 0.0041118561927391446 -0.0026785833430328417 0 0.0040432964064788272 -0.0026793985728193271 0 0.0040500738778474635 -0.0027327596348828333 0 -0.0099769555420402087 -0.00045968183565508005 0 -0.0080153768664262461 -0.00081752310280110044 0 0.0040500738778474635 -0.0027327596348828333 0 0.0040060261531503858 -0.002711613680002797 0 0.0039123818660691222 -0.0027650929024106534 0 0.0039752617302529474 -0.0026539650500786243 0 0.0040060261531503858 -0.002711613680002797 0 0.0039123818660691222 -0.0027650929024106534 0 -0.014399500595103734 0.00053947696193152261 0 -0.014527612677132156 0.00056110002404808203 0 -0.01427564645605795 0.00051092305123363771 0 0.0039752617302529474 -0.0026539650500786243 0 0.00387098638608834 -0.0026107950291864588 0 0.0039123818660691222 -0.0027650929024106534 0 -0.0047504324755794827 -0.001416464485740644 0 -0.0080153768664262461 -0.00081752310280110044 0 0.0040491080940250161 -0.0025120092093547717 0 0.0039752617302529474 -0.0026539650500786243 0 0.00387098638608834 -0.0026107950291864588 0 0.0040491080940250161 -0.0025120092093547717 0 0.00387098638608834 -0.0026107950291864588 0 0.0039098245734349854 -0.0025312165241614944 0 -0.0056735779958356006 -0.0016587834746757595 0 -0.0047504324755794827 -0.001416464485740644 0 0.0038456053991102264 -0.0025044565851644438 0 0.00387098638608834 -0.0026107950291864588 0 0.0039098245734349854 -0.0025312165241614944 0 -0.012908374861056494 -0.0015546477278269321 0 -0.013984206240317222 0.0003117440377275615 0 -0.011082678967714211 -0.00092753329866769433 0 -0.012908374861056494 -0.0015546477278269321 0 -0.014527612677132156 0.00056110002404808203 0 -0.013984206240317222 0.0003117440377275615 0 -0.013984206240317222 0.0003117440377275615 0 -0.014289844628069613 0.00052257778816552631 0 -0.014261226332214921 0.00045236064109398482 0 -0.014527612677132156 0.00056110002404808203 0 -0.013984206240317222 0.0003117440377275615 0 -0.014289844628069613 0.00052257778816552631 0 -0.014399500595103734 0.00053947696193152261 0 -0.014527612677132156 0.00056110002404808203 0 -0.014289844628069613 0.00052257778816552631 0 -0.014289844628069613 0.00052257778816552631 0 -0.014399214872588523 0.0004948365040250537 0 -0.014261226332214921 0.00045236064109398482 0 -0.014399500595103734 0.00053947696193152261 0 -0.014289844628069613 0.00052257778816552631 0 -0.014489038832809784 0.00050527866476791927 0 -0.014289844628069613 0.00052257778816552631 0 -0.014489038832809784 0.00050527866476791927 0 -0.014399214872588523 0.0004948365040250537 0 -0.014399500595103734 0.00053947696193152261 0 -0.014489038832809784 0.00050527866476791927 0 -0.01427564645605795 0.00051092305123363771 0 -0.016798482076335199 0.00030540195772109152 0 -0.0080153768664262461 -0.00081752310280110044 0 -0.014489038832809784 0.00050527866476791927 0 -0.014685747686201315 0.00050957948745340221 0 -0.014687730260369692 0.00034599664636702945 0 -0.014629400412436674 0.00059397442603134989 0 -0.014685747686201315 0.00050957948745340221 0 -0.014759225239900068 0.00063984438423270054 0 -0.014489038832809784 0.00050527866476791927 0 -0.014629400412436674 0.00059397442603134989 0 -0.014685747686201315 0.00050957948745340221 0 -0.014489038832809784 0.00050527866476791927 0 -0.014629400412436674 0.00059397442603134989 0 -0.014557375350862736 0.00060968674643486999 0 -0.001268581820297423 -0.0010817115520120187 0 -0.020602840710669403 0.0010981341239101213 0 -0.019044785243259529 0.00052296109463491488 0 -0.019248333035451964 0.00060493004434990835 0 -0.019267373509726068 0.00064087833284147628 0 -0.019349716016603322 0.00062420664594655404 0 -0.019248333035451964 0.00060493004434990835 0 -0.019345468687071606 0.00063039687040172679 0 -0.019349716016603322 0.00062420664594655404 0 -0.019282348164681162 0.00066153830405862738 0 -0.019248333035451964 0.00060493004434990835 0 -0.014771933598665923 0.00028767517337455797 0 -0.014756528593002279 0.0004700938937689017 0 -0.014863043108167006 0.00052796146163393471 0 -0.014685747686201315 0.00050957948745340221 0 -0.014701748895394832 0.00036217679593984189 0 -0.014687730260369692 0.00034599664636702945 0 -0.0099769555420402087 -0.00045968183565508005 0 -0.017868945983205389 0.00085064662282241239 0 -0.014771933598665923 0.00028767517337455797 0 -0.014701748895394832 0.00036217679593984189 0 -0.014756528593002279 0.0004700938937689017 0 -0.014771933598665923 0.00028767517337455797 0 -0.014701748895394832 0.00036217679593984189 0 -0.014683889671353737 0.00034699313286933617 0 -0.0086981046992366806 -0.00030073366866768678 0 -0.0080153768664262461 -0.00081752310280110044 0 -0.014685747686201315 0.00050957948745340221 0 -0.014701748895394832 0.00036217679593984189 0 -0.014756528593002279 0.0004700938937689017 0 -0.014685747686201315 0.00050957948745340221 0 -0.014794552720556214 0.00058176292355823563 0 -0.014759225239900068 0.00063984438423270054 0 -0.014685747686201315 0.00050957948745340221 0 -0.014756528593002279 0.0004700938937689017 0 -0.014794552720556214 0.00058176292355823563 0 -0.014756528593002279 0.0004700938937689017 0 -0.014794552720556214 0.00058176292355823563 0 -0.014863043108167006 0.00052796146163393471 0 -0.019248333035451964 0.00060493004434990835 0 -0.019267373509726068 0.00064087833284147628 0 -0.019345468687071606 0.00063039687040172679 0 -0.019267373509726068 0.00064087833284147628 0 -0.019345468687071606 0.00063039687040172679 0 -0.019423347564629927 0.00065864145922591637 0 -0.019493148233441566 0.00080425209407187072 0 -0.019332638521453716 0.00072362313632417629 0 -0.019423347564629927 0.00065864145922591637 0 -0.017868945983205389 0.00085064662282241239 0 -0.016807520268525843 0.00071996070750563444 0 -0.019267373509726068 0.00064087833284147628 0 -0.019332638521453716 0.00072362313632417629 0 -0.019423347564629927 0.00065864145922591637 0 -0.014794552720556214 0.00058176292355823563 0 -0.014897226746748293 0.00075006285162846134 0 -0.014759225239900068 0.00063984438423270054 0 -0.014794552720556214 0.00058176292355823563 0 -0.014863043108167006 0.00052796146163393471 0 -0.014897226746748293 0.00075006285162846134 0 -0.014897226746748293 0.00075006285162846134 0 -0.014862436505876722 0.0007224496962679192 0 -0.014759225239900068 0.00063984438423270054 0 -0.014897226746748293 0.00075006285162846134 0 -0.014872507375391641 0.0007640251671783212 0 -0.014862436505876722 0.0007224496962679192 0 -0.018816037117580814 0.00049814277709323051 0 -0.016807520268525843 0.00071996070750563444 0 -0.014628084071545677 0.0007249217359945843 0 -0.014897226746748293 0.00075006285162846134 0 -0.014872507375391641 0.0007640251671783212 0 -0.019355725520341434 0.001041224068726347 0 -0.019493148233441566 0.00080425209407187072 0 -0.019332638521453716 0.00072362313632417629 0 -0.014629400412436674 0.00059397442603134989 0 -0.014557375350862736 0.00060968674643486999 0 -0.014694228390246583 0.00065409953127791912 0 -0.014557375350862736 0.00060968674643486999 0 -0.014694228390246583 0.00065409953127791912 0 -0.014575775273107074 0.00065633055524725605 0 -0.014629400412436674 0.00059397442603134989 0 -0.014759225239900068 0.00063984438423270054 0 -0.014694228390246583 0.00065409953127791912 0 -0.014862436505876722 0.0007224496962679192 0 -0.014759225239900068 0.00063984438423270054 0 -0.014694228390246583 0.00065409953127791912 0 -0.014809468572960864 0.00069141088318038499 0 -0.014862436505876722 0.0007224496962679192 0 -0.014694228390246583 0.00065409953127791912 0 -0.014694228390246583 0.00065409953127791912 0 -0.014655472703637018 0.00068873269532088752 0 -0.014575775273107074 0.00065633055524725605 0 -0.014809468572960864 0.00069141088318038499 0 -0.014694228390246583 0.00065409953127791912 0 -0.014655472703637018 0.00068873269532088752 0 -0.014576317783601713 0.00067814568250040114 0 -0.014655472703637018 0.00068873269532088752 0 -0.014575775273107074 0.00065633055524725605 0 -0.014575775273107074 0.00065633055524725605 0 -0.014536662958536612 0.00066263821889199731 0 -0.014551403432743927 0.00065842895129207806 0 -0.014576317783601713 0.00067814568250040114 0 -0.014575775273107074 0.00065633055524725605 0 -0.014551403432743927 0.00065842895129207806 0 -0.014557375350862736 0.00060968674643486999 0 -0.014575775273107074 0.00065633055524725605 0 -0.014536662958536612 0.00066263821889199731 0 -0.014557375350862736 0.00060968674643486999 0 -0.014536662958536612 0.00066263821889199731 0 -0.014502498451938463 0.00059040790617414184 0 -0.014536662958536612 0.00066263821889199731 0 -0.014553784690724035 0.00068660847353373209 0 -0.014502498451938463 0.00059040790617414184 0 -0.014536662958536612 0.00066263821889199731 0 -0.014551403432743927 0.00065842895129207806 0 -0.014589259420346709 0.00065730526219685479 0 -0.014784580180499525 0.00072033236996441215 0 -0.014589259420346709 0.00065730526219685479 0 -0.014694042678903946 0.00074513155426805279 0 -0.014536662958536612 0.00066263821889199731 0 -0.014589259420346709 0.00065730526219685479 0 -0.014694042678903946 0.00074513155426805279 0 -0.014784580180499525 0.00072033236996441215 0 -0.014694042678903946 0.00074513155426805279 0 -0.015192732646799151 0.00097494653565868372 0 -0.014686900770954312 0.00070744160199488607 0 -0.014694042678903946 0.00074513155426805279 0 -0.014851532985876974 0.0007351935620463271 0 -0.014536662958536612 0.00066263821889199731 0 -0.014694042678903946 0.00074513155426805279 0 -0.014553784690724035 0.00068660847353373209 0 -0.014686900770954312 0.00070744160199488607 0 -0.014694042678903946 0.00074513155426805279 0 -0.014553784690724035 0.00068660847353373209 0 -0.014686900770954312 0.00070744160199488607 0 -0.014553784690724035 0.00068660847353373209 0 -0.014515057157361339 0.0007255915196857811 0 -0.014686900770954312 0.00070744160199488607 0 -0.014515057157361339 0.0007255915196857811 0 -0.014775130163419864 0.00054520725871836533 0 -0.014515057157361339 0.0007255915196857811 0 -0.01422663629162093 0.000522699703699034 0 -0.014476972561527806 0.00054790205088634328 0 -0.01447353233522944 0.00072232198258372418 0 -0.014300736208309486 0.00067646377630294953 0 -0.014515057157361339 0.0007255915196857811 0 -0.01422663629162093 0.000522699703699034 0 -0.013884418134167119 0.00085690989450366059 0 -0.014553784690724035 0.00068660847353373209 0 -0.014476972561527806 0.00054790205088634328 0 -0.014492618118688232 0.00056231989820294435 0 -0.014553784690724035 0.00068660847353373209 0 -0.014515057157361339 0.0007255915196857811 0 -0.014476972561527806 0.00054790205088634328 0 -0.014489038832809784 0.00050527866476791927 0 -0.014399214872588523 0.0004948365040250537 0 -0.014502498451938463 0.00059040790617414184 0 -0.014492618118688232 0.00056231989820294435 0 -0.014399214872588523 0.0004948365040250537 0 -0.014502498451938463 0.00059040790617414184 0 -0.014489038832809784 0.00050527866476791927 0 -0.014557375350862736 0.00060968674643486999 0 -0.014502498451938463 0.00059040790617414184 0 -0.014553784690724035 0.00068660847353373209 0 -0.014492618118688232 0.00056231989820294435 0 -0.014502498451938463 0.00059040790617414184 0 -0.013181370793053825 0.00080246296910928998 0 -0.013468463617486527 0.0012323663161645348 0 -0.013746564014254916 0.0006863080928534934 0 -0.013181370793053825 0.00080246296910928998 0 -0.013468463617486527 0.0012323663161645348 0 -0.012962346459555374 0.001093898851219236 0 -0.013468463617486527 0.0012323663161645348 0 -0.012881915566311204 0.001545372633867509 0 -0.012962346459555374 0.001093898851219236 0 -0.013468463617486527 0.0012323663161645348 0 -0.013401467091876774 0.0017719920662283937 0 -0.013952621986480363 0.0019762913856335956 0 -0.013269379484032869 0.0022899011743520454 0 -0.013401467091876774 0.0017719920662283937 0 -0.012881915566311204 0.001545372633867509 0 -0.013468463617486527 0.0012323663161645348 0 -0.013401467091876774 0.0017719920662283937 0 -0.012881915566311204 0.001545372633867509 0 -0.014479627851956981 0.0010782387579053865 0 -0.014431475229693673 0.00079340551075920572 0 -0.014723477278813926 0.00095138688929374219 0 -0.013814116933270738 0.0018431773432169305 0 -0.014559799010761166 0.00066481708041354296 0 -0.013468463617486527 0.0012323663161645348 0 -0.013952621986480363 0.0019762913856335956 0 -0.014431475229693673 0.00079340551075920572 0 -0.013468463617486527 0.0012323663161645348 0 -0.014431475229693673 0.00079340551075920572 0 -0.013746564014254916 0.0006863080928534934 0 -0.014431475229693673 0.00079340551075920572 0 -0.014851532985876974 0.0007351935620463271 0 -0.014649880149125346 0.00057273222813752965 0 -0.014431475229693673 0.00079340551075920572 0 -0.014723477278813926 0.00095138688929374219 0 -0.014851532985876974 0.0007351935620463271 0 -0.014723477278813926 0.00095138688929374219 0 -0.015192732646799151 0.00097494653565868372 0 -0.014851532985876974 0.0007351935620463271 0 -0.014694042678903946 0.00074513155426805279 0 -0.015192732646799151 0.00097494653565868372 0 -0.014851532985876974 0.0007351935620463271 0 -0.014686900770954312 0.00070744160199488607 0 -0.014851532985876974 0.0007351935620463271 0 -0.014775130163419864 0.00054520725871836533 0 -0.014851532985876974 0.0007351935620463271 0 -0.014775130163419864 0.00054520725871836533 0 -0.014649880149125346 0.00057273222813752965 0 -0.01422663629162093 0.000522699703699034 0 -0.013884418134167119 0.00085690989450366059 0 -0.013745279783002159 0.00052477914246219142 0 -0.014300736208309486 0.00067646377630294953 0 -0.013770391349442605 0.00052278114435564554 0 -0.013884418134167119 0.00085690989450366059 0 -0.013745279783002159 0.00052477914246219142 0 -0.01321960941315763 0.00083265108485445995 0 -0.013745279783002159 0.00052477914246219142 0 -0.01321960941315763 0.00083265108485445995 0 -0.013375809452646327 0.00038134000279114132 0 -0.01321960941315763 0.00083265108485445995 0 -0.013007790173313841 0.0004892013934795174 0 -0.013375809452646327 0.00038134000279114132 0 -0.014431475229693673 0.00079340551075920572 0 -0.014649880149125346 0.00057273222813752965 0 -0.014070687418457926 0.00034838935746839435 0 -0.01444356320462277 0.00015300812693613074 0 -0.014649880149125346 0.00057273222813752965 0 -0.014070687418457926 0.00034838935746839435 0 -0.014775130163419864 0.00054520725871836533 0 -0.01444356320462277 0.00015300812693613074 0 -0.014649880149125346 0.00057273222813752965 0 -0.014070687418457926 0.00034838935746839435 0 -0.013555611759467309 0.00047918921502127404 0 -0.013746564014254916 0.0006863080928534934 0 -0.014431475229693673 0.00079340551075920572 0 -0.014070687418457926 0.00034838935746839435 0 -0.013746564014254916 0.0006863080928534934 0 -0.01321960941315763 0.00083265108485445995 0 -0.012547917590920599 0.00073195656262024669 0 -0.013007790173313841 0.0004892013934795174 0 -0.013770391349442605 0.00052278114435564554 0 -0.013395596214992709 -0.00038192140933491369 0 -0.01444356320462277 0.00015300812693613074 0 -0.014070687418457926 0.00034838935746839435 0 -0.013734019023367683 -0.00016984842319039153 0 -0.014022006368118534 -0.0009513621350196867 0 -0.013065740742169816 -0.00053994953195293479 0 -0.013477822826674066 0.00014351422676809556 0 -0.013395596214992709 -0.00038192140933491369 0 -0.011798259506558894 -0.0012261387804407067 0 -0.014070687418457926 0.00034838935746839435 0 -0.013734019023367683 -0.00016984842319039153 0 -0.013477822826674066 0.00014351422676809556 0 -0.012059250144794319 -0.001198751497687554 0 -0.011957087950250687 -0.0013269264314543035 0 -0.011846321181910899 -0.0011179566368932955 0 -0.014022006368118534 -0.0009513621350196867 0 -0.013065740742169816 -0.00053994953195293479 0 -0.011846321181910899 -0.0011179566368932955 0 -0.013395596214992709 -0.00038192140933491369 0 -0.013505577548082447 -0.00010118058196493011 0 -0.013065740742169816 -0.00053994953195293479 0 -0.012728977080392747 -0.00020490810342880183 0 -0.013477822826674066 0.00014351422676809556 0 -0.013065740742169816 -0.00053994953195293479 0 -0.012728977080392747 -0.00020490810342880183 0 -0.012419570393034363 -0.0005517401884718513 0 -0.012728977080392747 -0.00020490810342880183 0 -0.013144036711842463 0.00035648558645132449 0 -0.013477822826674066 0.00014351422676809556 0 -0.014070687418457926 0.00034838935746839435 0 -0.013477822826674066 0.00014351422676809556 0 -0.013555611759467309 0.00047918921502127404 0 -0.013144036711842463 0.00035648558645132449 0 -0.013477822826674066 0.00014351422676809556 0 -0.013555611759467309 0.00047918921502127404 0 -0.013555611759467309 0.00047918921502127404 0 -0.013746564014254916 0.0006863080928534934 0 -0.013303541247191981 0.00057296151593407951 0 -0.013181370793053825 0.00080246296910928998 0 -0.013746564014254916 0.0006863080928534934 0 -0.013303541247191981 0.00057296151593407951 0 -0.013181370793053825 0.00080246296910928998 0 -0.013303541247191981 0.00057296151593407951 0 -0.01299491935619445 0.00052262332105462944 0 -0.013144036711842463 0.00035648558645132449 0 -0.013303541247191981 0.00057296151593407951 0 -0.01299491935619445 0.00052262332105462944 0 -0.013144036711842463 0.00035648558645132449 0 -0.013555611759467309 0.00047918921502127404 0 -0.013303541247191981 0.00057296151593407951 0 0.0023501438274473583 -0.0020849744035356774 0 0.0021410843057120365 -0.0023013987044710406 0 0.0019107005163537349 -0.0017980097239334119 0 0.0023501438274473583 -0.0020849744035356774 0 0.0026427201645126998 -0.0020366716707050985 0 0.0019107005163537349 -0.0017980097239334119 0 0.0023501438274473583 -0.0020849744035356774 0 0.0021410843057120365 -0.0023013987044710406 0 0.002548760460955442 -0.0020633237046435941 0 -0.011930450313919856 -0.0015482162822633475 0 -0.011957087950250687 -0.0013269264314543035 0 -0.012148592293621994 -0.0015044155225688554 0 -0.012059250144794319 -0.001198751497687554 0 -0.011957087950250687 -0.0013269264314543035 0 -0.012148592293621994 -0.0015044155225688554 0 -0.011930450313919856 -0.0015482162822633475 0 -0.011957087950250687 -0.0013269264314543035 0 -0.011757759517300839 -0.0014016210179684956 0 -0.013395596214992709 -0.00038192140933491369 0 -0.0063768145186624374 -0.0014977857385127275 0 -0.012547917590920599 0.00073195656262024669 0 -0.013007790173313841 0.0004892013934795174 0 -0.012884420553302167 1.391269920535183e-06 0 -0.0049484504976165895 -0.0019080188065126881 0 -0.0063768145186624374 -0.0014977857385127275 0 -0.013007790173313841 0.0004892013934795174 0 -0.012884420553302167 1.391269920535183e-06 0 -0.013375809452646327 0.00038134000279114132 0 -0.0063768145186624374 -0.0014977857385127275 0 0.00015882329537403 -0.0019973170967926986 0 0.002548760460955442 -0.0020633237046435941 0 0.0026427201645126998 -0.0020366716707050985 0 0.0021599671182910662 -0.0020806767666001176 0 0.0023501438274473583 -0.0020849744035356774 0 0.002548760460955442 -0.0020633237046435941 0 0.0026427201645126998 -0.0020366716707050985 0 -0.00053763581169105114 -0.0028372810169864393 0 -0.00060132341484908094 -0.0014789052821706009 0 -0.0018148273872975688 -0.0017004466325407541 0 -0.0024444005492016965 -0.0028638512472043153 0 -0.00053763581169105114 -0.0028372810169864393 0 -0.0018148273872975688 -0.0017004466325407541 0 -0.012884420553302167 1.391269920535183e-06 0 -0.013719161893619969 0.00011638444598968064 0 -0.013763933371386611 5.9451024111991914e-05 0 -0.0063768145186624374 -0.0014977857385127275 0 -0.0068761669852651025 -0.00031487165063970372 0 -0.012884420553302167 1.391269920535183e-06 0 -0.013375809452646327 0.00038134000279114132 0 -0.013719161893619969 0.00011638444598968064 0 -0.013745279783002159 0.00052477914246219142 0 -0.013375809452646327 0.00038134000279114132 0 -0.013705565310333907 0.00033121218689974714 0 -0.013375809452646327 0.00038134000279114132 0 -0.013719161893619969 0.00011638444598968064 0 -0.013705565310333907 0.00033121218689974714 0 -0.013719161893619969 0.00011638444598968064 0 -0.013705565310333907 0.00033121218689974714 0 -0.013959705992111073 0.00030162390586565847 0 -0.01422663629162093 0.000522699703699034 0 -0.013745279783002159 0.00052477914246219142 0 -0.013959705992111073 0.00030162390586565847 0 -0.013719161893619969 0.00011638444598968064 0 -0.013959705992111073 0.00030162390586565847 0 -0.013774155213346217 8.2897765297685916e-05 0 -0.007596614470994782 -0.0007233187864771393 0 -0.0068761669852651025 -0.00031487165063970372 0 -0.013745279783002159 0.00052477914246219142 0 -0.013705565310333907 0.00033121218689974714 0 -0.013959705992111073 0.00030162390586565847 0 -0.00053763581169105114 -0.0028372810169864393 0 -0.00060132341484908094 -0.0014789052821706009 0 0.00048301789301936915 -0.0016654791419299956 0 -0.0068761669852651025 -0.00031487165063970372 0 -0.0016165318307762777 -0.001672281929925969 0 -0.00060132341484908094 -0.0014789052821706009 0 0.00015042711485465472 -0.00052689216107861436 0 0.00048301789301936915 -0.0016654791419299956 0 -0.00060132341484908094 -0.0014789052821706009 0 0.00015042711485465472 -0.00052689216107861436 0 -0.0011781539652989965 -0.00054852083195778471 0 0.005261822255536632 -0.00096886832508890665 0 0.0064856708937619124 -0.0025132133639843694 0 0.0098233326498535327 -0.0015464149157615062 0 0.0097948494427636187 -0.0016980774184153266 0 0.010193675685150056 -0.0015586438323507688 0 0.0098233326498535327 -0.0015464149157615062 0 0.0096181816630131131 -0.0016099514330698492 0 0.0096275504681706311 -0.0015892840661209972 0 0.0097948494427636187 -0.0016980774184153266 0 0.010193675685150056 -0.0015586438323507688 0 0.009998228233653976 -0.0020334318663704255 0 0.0098359159119222762 -0.0015460757393583181 0 0.0098233326498535327 -0.0015464149157615062 0 0.0096181816630131131 -0.0016099514330698492 0 0.010398539978020552 -0.001182457510933843 0 0.014339028471827739 -0.002350491727086043 0 0.0096902119815178867 -0.0015344830845433635 0 0.010398539978020552 -0.001182457510933843 0 0.0098359159119222762 -0.0015460757393583181 0 0.0098233326498535327 -0.0015464149157615062 0 0.0097948494427636187 -0.0016980774184153266 0 0.0098357630542285773 -0.002131677448945637 0 0.0097208848478494061 -0.0023617981254394583 0 0.012868526346082954 -0.0025080175446654382 0 0.010398539978020552 -0.001182457510933843 0 0.016372272803719272 -0.0024723145538534078 0 0.018243269548760838 -0.0022605664228779422 0 0.018386313493488675 -0.0023399811924649564 0 0.018374411382812001 -0.0024364392257000839 0 0.018243269548760838 -0.0022605664228779422 0 0.018386313493488675 -0.0023399811924649564 0 0.01848728619694949 -0.0022860902908171123 0 0.0064856708937619124 -0.0025132133639843694 0 0.010398539978020552 -0.001182457510933843 0 0.0064856708937619124 -0.0025132133639843694 0 0.00015882329537403 -0.0019973170967926986 0 -0.00060132341484908094 -0.0014789052821706009 0 -0.0011781539652989965 -0.00054852083195778471 0 -0.0018148273872975688 -0.0017004466325407541 0 0.0026427201645126998 -0.0020366716707050985 0 0.0021599671182910662 -0.0020806767666001176 0 0.0035215059154499314 -0.0034332986464563758 0 0.0015698431484328864 -0.0033532706827253339 0 0.0021599671182910662 -0.0020806767666001176 0 0.0035215059154499314 -0.0034332986464563758 0 0.0098357630542285773 -0.002131677448945637 0 0.012868526346082954 -0.0025080175446654382 0 0.013921098487799469 -0.0020888836280554515 0 0.0064856708937619124 -0.0025132133639843694 0 0.0085600800261419092 -0.0027822447620726096 0 0.018386313493488675 -0.0023399811924649564 0 0.018490790692993857 -0.0023886776739357549 0 0.018374411382812001 -0.0024364392257000839 0 0.018386313493488675 -0.0023399811924649564 0 0.018490790692993857 -0.0023886776739357549 0 0.01848728619694949 -0.0022860902908171123 0 0.018490790692993857 -0.0023886776739357549 0 0.01848728619694949 -0.0022860902908171123 0 0.018586366974226148 -0.002381118318368851 0 0.018490790692993857 -0.0023886776739357549 0 0.018586366974226148 -0.002381118318368851 0 0.01858913207281402 -0.0024258718673347752 0 0.013921098487799469 -0.0020888836280554515 0 0.015907539629306966 -0.0025928214328137245 0 0.017759713547101656 -0.0019750187477035716 0 0.0085600800261419092 -0.0027822447620726096 0 0.012166908680480691 -0.0027325987834912421 0 0.012868526346082954 -0.0025080175446654382 0 0.013921098487799469 -0.0020888836280554515 0 0.015907539629306966 -0.0025928214328137245 0 0.016372272803719272 -0.0024723145538534078 0 0.017145000934388782 -0.0024544605784319121 0 0.01848728619694949 -0.0022860902908171123 0 0.018586366974226148 -0.002381118318368851 0 0.018669378111880516 -0.0023745686086959765 0 0.018586366974226148 -0.002381118318368851 0 0.018662767255774697 -0.0024253950809359987 0 0.01858913207281402 -0.0024258718673347752 0 0.018586366974226148 -0.002381118318368851 0 0.018662767255774697 -0.0024253950809359987 0 0.018669378111880516 -0.0023745686086959765 0 0.0026452915304654915 -0.0019628334196562288 0 0.003714138770964103 -0.0020956943923217358 0 0.0035215059154499314 -0.0034332986464563758 0 0.0045557310648204124 -0.0032505379782379702 0 0.006466192961153301 -0.0034570339136260264 0 0.0026427201645126998 -0.0020366716707050985 0 0.0035215059154499314 -0.0034332986464563758 0 0.0045557310648204124 -0.0032505379782379702 0 0.0026427201645126998 -0.0020366716707050985 0 0.0045557310648204124 -0.0032505379782379702 0 0.005315543368973507 -0.0020307154958959343 0 0.0047509449799242693 -0.0027373212709380797 0 0.003714138770964103 -0.0020956943923217358 0 -0.0098730585867043558 0.00052539923346677279 0 -0.0084090082415743204 -0.0013961386945441601 0 -0.011082678967714211 -0.00092753329866769433 0 -0.012117580971542051 0.00048192085269236051 0 -0.01041270892373043 0.00048269247095628591 0 -0.0098730585867043558 0.00052539923346677279 0 -0.0084090082415743204 -0.0013961386945441601 0 -0.0059303222577841031 0.00045921950237387012 0 -0.013984206240317222 0.0003117440377275615 0 -0.0098730585867043558 0.00052539923346677279 0 -0.011082678967714211 -0.00092753329866769433 0 -0.01392743798369819 0.00035296716145455148 0 -0.012117580971542051 0.00048192085269236051 0 -0.014399214872588523 0.0004948365040250537 0 -0.014453676419717742 0.00052279952240297191 0 -0.014261226332214921 0.00045236064109398482 0 -0.014492618118688232 0.00056231989820294435 0 -0.014399214872588523 0.0004948365040250537 0 -0.014453676419717742 0.00052279952240297191 0 -0.013984206240317222 0.0003117440377275615 0 -0.014453676419717742 0.00052279952240297191 0 -0.014261226332214921 0.00045236064109398482 0 -0.014476972561527806 0.00054790205088634328 0 -0.014492618118688232 0.00056231989820294435 0 -0.014453676419717742 0.00052279952240297191 0 -0.014476972561527806 0.00054790205088634328 0 -0.014453676419717742 0.00052279952240297191 0 -0.014393013038185206 0.00034583089572669246 0 -0.01422663629162093 0.000522699703699034 0 -0.013959705992111073 0.00030162390586565847 0 -0.014393013038185206 0.00034583089572669246 0 -0.013959705992111073 0.00030162390586565847 0 -0.013774155213346217 8.2897765297685916e-05 0 -0.014393013038185206 0.00034583089572669246 0 -0.01422663629162093 0.000522699703699034 0 -0.014476972561527806 0.00054790205088634328 0 -0.014393013038185206 0.00034583089572669246 0 -0.0023127993186644394 0.00045335341480295152 0 -0.0059303222577841031 0.00045921950237387012 0 -0.004009692247744976 -0.0016561145055563288 0 -0.0059303222577841031 0.00045921950237387012 0 -0.006531086475203552 -0.0017940327497590943 0 -0.004009692247744976 -0.0016561145055563288 0 -0.0068761669852651025 -0.00031487165063970372 0 -0.01041270892373043 0.00048269247095628591 0 -0.0084090082415743204 -0.0013961386945441601 0 -0.0059303222577841031 0.00045921950237387012 0 -0.006531086475203552 -0.0017940327497590943 0 -0.0075689151042730926 -0.0023686881072143419 0 -0.006531086475203552 -0.0017940327497590943 0 -0.007034965902977715 -0.0030415877538754357 0 -0.0084090082415743204 -0.0013961386945441601 0 -0.0075689151042730926 -0.0023686881072143419 0 -0.006531086475203552 -0.0017940327497590943 0 -0.007034965902977715 -0.0030415877538754357 0 -0.0057496152739466714 -0.003863857115685048 0 -0.0079676768697600747 -0.0039533677658508386 0 -0.006531086475203552 -0.0017940327497590943 0 -0.007034965902977715 -0.0030415877538754357 0 -0.0057496152739466714 -0.003863857115685048 0 -0.0075689151042730926 -0.0023686881072143419 0 -0.007034965902977715 -0.0030415877538754357 0 -0.0083105327460022728 -0.0032359030689872023 0 -0.006531086475203552 -0.0017940327497590943 0 -0.004009692247744976 -0.0016561145055563288 0 -0.0057496152739466714 -0.003863857115685048 0 -0.0016165318307762777 -0.001672281929925969 0 0.0016061114300944897 -0.0022515378162744192 0 0.00015042711485465472 -0.00052689216107861436 0 0.00048301789301936915 -0.0016654791419299956 0 0.001472583321770299 -0.00051046394398794614 0 0.0098359159119222762 -0.0015460757393583181 0 0.0097948494427636187 -0.0016980774184153266 0 0.0094147306607558143 -0.0015559445304377843 0 0.0097948494427636187 -0.0016980774184153266 0 0.0094147306607558143 -0.0015559445304377843 0 0.0095744549613114172 -0.0018677291720584875 0 0.005261822255536632 -0.00096886832508890665 0 0.0016061114300944897 -0.0022515378162744192 0 0.0016061114300944897 -0.0022515378162744192 0 -0.0012040551765128739 -0.003232973958957025 0 0.0028185660410279872 -0.0025920084747114132 0 0.0030687837544304693 -0.0023107509650478861 0 0.0031618837281068317 -0.0025843276425211417 0 0.0094147306607558143 -0.0015559445304377843 0 0.0092194420651823174 -0.0018237647424414413 0 0.0095744549613114172 -0.0018677291720584875 0 0.0016061114300944897 -0.0022515378162744192 0 0.008445225531948446 -0.0016755692187588164 0 0.008445225531948446 -0.0016755692187588164 0 -0.0012040551765128739 -0.003232973958957025 0 0.0064505018949772052 -0.0011971146820300733 0 0.0070773630631876354 -0.0019199056796301054 0 0.0073039575601594542 -0.0032610052217572484 0 0.013455193047677033 0.0013992423571521659 0 0.016269680148606636 -0.0018892127020791454 0 0.01404015060233931 0.002714944923078463 0 0.0064505018949772052 -0.0011971146820300733 0 0.0077463188543545761 -0.0012792527470335136 0 0.0070773630631876354 -0.0019199056796301054 0 0.0077463188543545761 -0.0012792527470335136 0 0.0088087983348150972 -0.0012580546570221157 0 0.0082786525469784357 -0.0024420535941421352 0 0.0077463188543545761 -0.0012792527470335136 0 0.0070773630631876354 -0.0019199056796301054 0 0.0082786525469784357 -0.0024420535941421352 0 0.0070665885888498616 -0.0024903368676786812 0 0.0052249018414501028 -0.0020975626668963895 0 0.007051023695370924 -0.0022540533074397956 0 0.0073283503767498015 -0.0016126094602875235 0 0.0061051265630760604 -0.001148716557957016 0 0.0098021933082107545 -0.0010598984195085703 0 0.0048535865733551871 -0.0020997668190371817 0 0.0098021933082107545 -0.0010598984195085703 0 0.0052249018414501028 -0.0020975626668963895 0 -0.008352800660224308 -0.0040728544908440667 0 -0.0087990631027904404 -0.0035865796951918697 0 -0.0096350686227470884 -0.0036881512587901913 0 -0.008352800660224308 -0.0040728544908440667 0 -0.0096350686227470884 -0.0036881512587901913 0 -0.010588213192218686 -0.0041601289971541318 0 -0.0012768496693217118 -0.0030924000756235481 0 0.0048535865733551871 -0.0020997668190371817 0 0.0052249018414501028 -0.0020975626668963895 0 0.0048535865733551871 -0.0020997668190371817 0 0.0026301496533948925 -0.0014941813081417177 0 0.0022780645754498538 -0.0022793858421555858 0 0.0045534656355146075 -0.0022213931424768644 0 0.0070773630631876354 -0.0019199056796301054 0 0.008127585732909089 -0.0024032358240987347 0 0.0073039575601594542 -0.0032610052217572484 0 0.008127585732909089 -0.0024032358240987347 0 0.0077517833793554567 -0.0032470073764621389 0 0.0073039575601594542 -0.0032610052217572484 0 0.0052249018414501028 -0.0020975626668963895 0 -0.0012768496693217118 -0.0030924000756235481 0 -0.008352800660224308 -0.0040728544908440667 0 -0.0081980652626063143 -0.0037168391098264825 0 -0.0087990631027904404 -0.0035865796951918697 0 -0.0012768496693217118 -0.0030924000756235481 0 -0.0019881353977145044 -0.0036868358607413543 0 -0.0083417006773525669 -0.0040802039459992626 0 -0.0078964267419881929 -0.0040714804154809809 0 -0.0081980652626063143 -0.0037168391098264825 0 -0.0012768496693217118 -0.0030924000756235481 0 -0.0012040551765128739 -0.003232973958957025 0 -0.0012040551765128739 -0.003232973958957025 0 -0.0037391406939224544 -0.0022666101130774715 0 -0.0078964267419881929 -0.0040714804154809809 0 -0.0081980652626063143 -0.0037168391098264825 0 -0.0083105327460022728 -0.0032359030689872023 0 -0.007034965902977715 -0.0030415877538754357 0 -0.0079676768697600747 -0.0039533677658508386 0 -0.0083105327460022728 -0.0032359030689872023 0 -0.0084090082415743204 -0.0013961386945441601 0 -0.011082678967714211 -0.00092753329866769433 0 -0.009920775731208158 -0.0026179409833553473 0 -0.0081980652626063143 -0.0037168391098264825 0 -0.0083105327460022728 -0.0032359030689872023 0 -0.0087990631027904404 -0.0035865796951918697 0 -0.0083105327460022728 -0.0032359030689872023 0 -0.0087990631027904404 -0.0035865796951918697 0 -0.009920775731208158 -0.0026179409833553473 0 -0.0087990631027904404 -0.0035865796951918697 0 -0.0096350686227470884 -0.0036881512587901913 0 -0.009920775731208158 -0.0026179409833553473 0 -0.0084090082415743204 -0.0013961386945441601 0 -0.0083105327460022728 -0.0032359030689872023 0 -0.009920775731208158 -0.0026179409833553473 0 -0.0084090082415743204 -0.0013961386945441601 0 -0.0075689151042730926 -0.0023686881072143419 0 -0.0083105327460022728 -0.0032359030689872023 0 0.022301310610431453 -0.0043260194952230661 0 0.017283210141175044 -0.0018594292614883881 0 0.016295022855205652 -0.001916282565296961 0 -0.0056735779958356006 -0.0016587834746757595 0 0.0048535865733551871 -0.0020997668190371817 0 -0.012908374861056494 -0.0015546477278269321 0 -0.011082678967714211 -0.00092753329866769433 0 -0.009920775731208158 -0.0026179409833553473 0 -0.012908374861056494 -0.0015546477278269321 0 -0.009920775731208158 -0.0026179409833553473 0 -0.010588213192218686 -0.0041601289971541318 0 -0.0096350686227470884 -0.0036881512587901913 0 -0.009920775731208158 -0.0026179409833553473 0 -0.010588213192218686 -0.0041601289971541318 0 0.018543336942456586 -0.00100069129975366 0 0.016269680148606636 -0.0018892127020791454 0 0.01404015060233931 0.002714944923078463 0 0.020604027406015375 -0.0024084772425179506 0 0.020040760329634331 -0.00079410281564535929 0 0.018248059033165839 -0.0004524792900669011 0 0.019741005592527724 -0.0017348409156009565 0 0.014902340189833373 0.0003075139746706932 0 0.017283210141175044 -0.0018594292614883881 0 0.018543336942456586 -0.00100069129975366 0 0.016269680148606636 -0.0018892127020791454 0 0.0095480304247730595 -0.0020048449507755386 0 0.0048535865733551871 -0.0020997668190371817 0 0.020604027406015375 -0.0024084772425179506 0 0.020925839866591661 -0.0013375045438128682 0 0.020040760329634331 -0.00079410281564535929 0 0.021278986504942247 -0.0018343546561829045 0 0.020604027406015375 -0.0024084772425179506 0 0.020925839866591661 -0.0013375045438128682 0 0.020019642246847654 0.00059377515079036137 0 0.019296654230889387 0.0018651127807704036 0 0.018248059033165839 -0.0004524792900669011 0 0.020925839866591661 -0.0013375045438128682 0 0.020040760329634331 -0.00079410281564535929 0 0.021270462978462485 6.0667327157543807e-05 0 0.020040760329634331 -0.00079410281564535929 0 0.020019642246847654 0.00059377515079036137 0 0.021270462978462485 6.0667327157543807e-05 0 0.019129929129970309 0.001677700305788275 0 0.014902340189833373 0.0003075139746706932 0 0.020040760329634331 -0.00079410281564535929 0 0.020019642246847654 0.00059377515079036137 0 0.018248059033165839 -0.0004524792900669011 0 0.020019642246847654 0.00059377515079036137 0 0.021270462978462485 6.0667327157543807e-05 0 0.021415142480331308 0.002320576839914506 0 0.019296654230889387 0.0018651127807704036 0 0.020355976492117966 0.0042112988461169608 0 0.021415142480331308 0.002320576839914506 0 0.018810834102850092 0.0010356811608542512 0 0.018340561147907136 0.0014314620123076201 0 0.019800822331526205 0.0031169092074779053 0 0.019129929129970309 0.001677700305788275 0 0.022360070207401699 0.0015102118251572316 0 0.020019642246847654 0.00059377515079036137 0 0.019296654230889387 0.0018651127807704036 0 0.021415142480331308 0.002320576839914506 0 0.019613098449478582 0.00073119625957805863 0 0.022360070207401699 0.0015102118251572316 0 0.020770342868484719 -0.00018263755683965976 0 0.020863049479619564 -2.4476064606183309e-05 0 0.020963481688348641 -0.00025767237538250299 0 0.020770342868484719 -0.00018263755683965976 0 0.020963481688348641 -0.00025767237538250299 0 0.020883655864901977 -0.00034746959535698983 0 0.018810834102850092 0.0010356811608542512 0 0.018340561147907136 0.0014314620123076201 0 0.016933193518805307 -0.00021408889598609717 0 0.019613098449478582 0.00073119625957805863 0 0.015364711378233845 -0.00010273306281375716 0 0.018810834102850092 0.0010356811608542512 0 0.016933193518805307 -0.00021408889598609717 0 0.017872299595249264 -0.0010037614401058057 0 0.015364711378233845 -0.00010273306281375716 0 0.014902340189833373 0.0003075139746706932 0 0.0098021933082107545 -0.0010598984195085703 0 0.014902340189833373 0.0003075139746706932 0 0.0089361700242449413 -0.0013443661140889827 0 0.0093227770898028292 -0.00046705378965238286 0 0.0079160087151751504 -0.00014760917876953465 0 0.0064505018949772052 -0.0011971146820300733 0 0.0077463188543545761 -0.0012792527470335136 0 0.0079160087151751504 -0.00014760917876953465 0 0.0064505018949772052 -0.0011971146820300733 0 0.0079631553685369609 0.00063193206840004722 0 0.0079160087151751504 -0.00014760917876953465 0 0.014326959941736741 0.00026298870308709334 0 0.014068250162573681 -0.00041390741640839207 0 0.013665813406917294 -0.00048584660596740582 0 0.008445225531948446 -0.0016755692187588164 0 0.015364711378233845 -0.00010273306281375716 0 0.0079631553685369609 0.00063193206840004722 0 0.0093227770898028292 -0.00046705378965238286 0 0.0079160087151751504 -0.00014760917876953465 0 0.0077463188543545761 -0.0012792527470335136 0 0.0088087983348150972 -0.0012580546570221157 0 0.0079160087151751504 -0.00014760917876953465 0 0.0098021933082107545 -0.0010598984195085703 0 0.0085731009680076655 -0.00025488861823744121 0 0.014068250162573681 -0.00041390741640839207 0 0.013665813406917294 -0.00048584660596740582 0 0.015145582587899975 -0.0012532187885513422 0 0.014326959941736741 0.00026298870308709334 0 0.014068250162573681 -0.00041390741640839207 0 0.014920554165690195 -0.0011343097606759339 0 0.008445225531948446 -0.0016755692187588164 0 0.015222995930062266 -0.00052666906161972203 0 0.0092194420651823174 -0.0018237647424414413 0 0.0095744549613114172 -0.0018677291720584875 0 0.0094446256709397464 -0.0022273391759565194 0 0.014287681045755443 -0.00054216295083067581 0 0.015222995930062266 -0.00052666906161972203 0 0.0095744549613114172 -0.0018677291720584875 0 0.0094446256709397464 -0.0022273391759565194 0 0.009998228233653976 -0.0020334318663704255 0 0.0097948494427636187 -0.0016980774184153266 0 0.0095744549613114172 -0.0018677291720584875 0 0.009998228233653976 -0.0020334318663704255 0 0.0094446256709397464 -0.0022273391759565194 0 0.0098179411319604826 -0.0025079527775693487 0 0.009998228233653976 -0.0020334318663704255 0 0.020464747299434 0.00030051914188470333 0 0.020229952799276151 0.00073394710838279253 0 0.02120055593680276 5.5954878802162768e-05 0 0.015222995930062266 -0.00052666906161972203 0 0.01546810729778767 -0.0023563909014195474 0 0.013665813406917294 -0.00048584660596740582 0 0.015468954379658046 -0.0019523395634251427 0 0.015145582587899975 -0.0012532187885513422 0 0.015364711378233845 -0.00010273306281375716 0 0.01942486362847351 -0.00075658366386327904 0 0.020863049479619564 -2.4476064606183309e-05 0 0.021160662760294671 -0.0002312800280882869 0 0.020963481688348641 -0.00025767237538250299 0 0.01942486362847351 -0.00075658366386327904 0 0.015222995930062266 -0.00052666906161972203 0 0.021160662760294671 -0.0002312800280882869 0 0.020963481688348641 -0.00025767237538250299 0 0.02108077514529921 -0.00034331638772727463 0 0.021160662760294671 -0.0002312800280882869 0 0.02108077514529921 -0.00034331638772727463 0 0.021191378927420883 -0.00047021095923695559 0 0.020963481688348641 -0.00025767237538250299 0 0.02108077514529921 -0.00034331638772727463 0 0.02101604514785781 -0.00041833359870900789 0 0.02108077514529921 -0.00034331638772727463 0 0.02101604514785781 -0.00041833359870900789 0 0.021191378927420883 -0.00047021095923695559 0 0.02101604514785781 -0.00041833359870900789 0 0.021191378927420883 -0.00047021095923695559 0 0.021126207384406098 -0.00055099787518697 0 0.01942486362847351 -0.00075658366386327904 0 0.021785676917315568 -0.00042864494427900915 0 0.02090715545929769 4.6615725187300198e-05 0 0.021346330547381186 -0.00026718957252270007 0 0.021357348085414823 -0.0006356806955537857 0 0.021160662760294671 -0.0002312800280882869 0 0.021191378927420883 -0.00047021095923695559 0 0.021357348085414823 -0.0006356806955537857 0 0.020464747299434 0.00030051914188470333 0 0.02120055593680276 5.5954878802162768e-05 0 0.021346330547381186 -0.00026718957252270007 0 0.01942486362847351 -0.00075658366386327904 0 0.021453261090150222 -0.00022870820834197013 0 0.021357348085414823 -0.0006356806955537857 0 0.021193976532938089 -0.00067261930116252716 0 0.021496074587809062 -0.00067727649411974543 0 0.026069952673506921 -9.4748180806483766e-05 0 0.026207995444073949 -0.00028404501670703714 0 0.029944773602939227 -4.5145464203250609e-05 0 0.029946817580930794 -4.8146672036804768e-05 0 0.029935296891229618 -7.0321104855195578e-05 0 0.021346330547381186 -0.00026718957252270007 0 0.021357348085414823 -0.0006356806955537857 0 0.021479271583222468 -0.00047117706663469243 0 0.021191378927420883 -0.00047021095923695559 0 0.021357348085414823 -0.0006356806955537857 0 0.021215316445632862 -0.00058246990906065993 0 0.021357348085414823 -0.0006356806955537857 0 0.021215316445632862 -0.00058246990906065993 0 0.021193976532938089 -0.00067261930116252716 0 0.029951911417928769 -4.7700702696909992e-05 0 0.029946817580930794 -4.8146672036804768e-05 0 0.029962672957359725 -3.7662480255127793e-05 0 0.026069952673506921 -9.4748180806483766e-05 0 0.027486673055892644 -0.00044465832105299827 0 0.029946817580930794 -4.8146672036804768e-05 0 0.029935296891229618 -7.0321104855195578e-05 0 0.029951116726543842 -5.2559980117651491e-05 0 0.029946817580930794 -4.8146672036804768e-05 0 0.029951116726543842 -5.2559980117651491e-05 0 0.029956676263023469 -4.3584274197036056e-05 0 0.026069952673506921 -9.4748180806483766e-05 0 0.027422081367446394 0.00090387131960082356 0 0.025817867801582271 5.3627962561424454e-05 0 0.02552540960204415 0.00016803088338751207 0 0.025498894188787563 9.4189304477047388e-06 0 0.029951911417928769 -4.7700702696909992e-05 0 0.029977467433378001 -3.484730567018182e-05 0 0.029972994448848191 -3.1381946398765565e-05 0 0.02101604514785781 -0.00041833359870900789 0 0.020999741601705209 -0.00058019785560433029 0 0.021126207384406098 -0.00055099787518697 0 0.021698626051220894 -0.00075028281795406213 0 0.023481069151462992 -2.1077187982998943e-05 0 0.021193976532938089 -0.00067261930116252716 0 0.020999741601705209 -0.00058019785560433029 0 0.021126207384406098 -0.00055099787518697 0 0.021215316445632862 -0.00058246990906065993 0 0.021193976532938089 -0.00067261930116252716 0 0.021126207384406098 -0.00055099787518697 0 0.021191378927420883 -0.00047021095923695559 0 0.021215316445632862 -0.00058246990906065993 0 0.021126207384406098 -0.00055099787518697 0 0.026069952673506921 -9.4748180806483766e-05 0 0.023481069151462992 -2.1077187982998943e-05 0 0.023481069151462992 -2.1077187982998943e-05 0 0.027422081367446394 0.00090387131960082356 0 0.02698126333006641 0.00088758391162799299 0 0.027015267389948628 0.0010591797969113298 0 0.027080377850827272 0.00098606392746369473 0 0.02698126333006641 0.00088758391162799299 0 0.027222085923144561 0.00083131079141631576 0 0.02728196360786244 0.00078088859432864552 0 0.02698126333006641 0.00088758391162799299 0 0.027080377850827272 0.00098606392746369473 0 0.027147122993024474 0.00092774567823515359 0 0.027007153280674136 0.0010590920542361605 0 0.027046226738429938 0.0010654477648819093 0 0.027174919370852452 0.0011678145709161682 0 0.023481069151462992 -2.1077187982998943e-05 0 0.024744763830800685 0.00039694103741286447 0 0.027422081367446394 0.00090387131960082356 0 0.027390681278234633 0.00090393713177160529 0 0.027015267389948628 0.0010591797969113298 0 0.027046226738429938 0.0010654477648819093 0 0.027080377850827272 0.00098606392746369473 0 0.027046226738429938 0.0010654477648819093 0 0.027184889312645909 0.0010151507584139419 0 0.027174919370852452 0.0011678145709161682 0 0.027046226738429938 0.0010654477648819093 0 0.027080377850827272 0.00098606392746369473 0 0.027184889312645909 0.0010151507584139419 0 0.027080377850827272 0.00098606392746369473 0 0.027147122993024474 0.00092774567823515359 0 0.027184889312645909 0.0010151507584139419 0 0.02698126333006641 0.00088758391162799299 0 0.027147122993024474 0.00092774567823515359 0 0.027222085923144561 0.00083131079141631576 0 0.027222085923144561 0.00083131079141631576 0 0.027317027614999149 0.00087394894109434171 0 0.027282403841921574 0.00077112654229235394 0 0.025612722911415003 0.00010582029176660229 0 0.024744763830800685 0.00039694103741286447 0 0.027147122993024474 0.00092774567823515359 0 0.027222085923144561 0.00083131079141631576 0 0.02725312010529558 0.00092684058827217572 0 0.027222085923144561 0.00083131079141631576 0 0.02725312010529558 0.00092684058827217572 0 0.027317027614999149 0.00087394894109434171 0 0.02725312010529558 0.00092684058827217572 0 0.027184889312645909 0.0010151507584139419 0 0.027357903196548232 0.00098460464426597806 0 0.027147122993024474 0.00092774567823515359 0 0.02725312010529558 0.00092684058827217572 0 0.027184889312645909 0.0010151507584139419 0 0.027357903196548232 0.00098460464426597806 0 0.027506657501788691 0.0010280790949945984 0 0.027480875648661619 0.00085300173363058221 0 0.027357903196548232 0.00098460464426597806 0 0.027506657501788691 0.0010280790949945984 0 0.027408962515138455 0.001203811296784568 0 0.027184889312645909 0.0010151507584139419 0 0.027357903196548232 0.00098460464426597806 0 0.027408962515138455 0.001203811296784568 0 0.027506657501788691 0.0010280790949945984 0 0.027673013197068171 0.0011543339269944556 0 0.027708767766219403 0.00090816155806093285 0 0.027506657501788691 0.0010280790949945984 0 0.027480875648661619 0.00085300173363058221 0 0.027708767766219403 0.00090816155806093285 0 0.027480875648661619 0.00085300173363058221 0 0.027559054465727029 0.00065367821713259249 0 0.027708767766219403 0.00090816155806093285 0 0.027357903196548232 0.00098460464426597806 0 0.027480875648661619 0.00085300173363058221 0 0.027317027614999149 0.00087394894109434171 0 0.027480875648661619 0.00085300173363058221 0 0.027317027614999149 0.00087394894109434171 0 0.027282403841921574 0.00077112654229235394 0 0.02725312010529558 0.00092684058827217572 0 0.027357903196548232 0.00098460464426597806 0 0.027317027614999149 0.00087394894109434171 0 0.025340275983530287 0.0011576913730329244 0 0.024744763830800685 0.00039694103741286447 0 0.027480875648661619 0.00085300173363058221 0 0.027559054465727029 0.00065367821713259249 0 0.027282403841921574 0.00077112654229235394 0 0.020676675632634388 -0.00032995741197896095 0 0.020763362063621359 -0.00032798274509070381 0 0.020811625457146776 -0.00045473968702816717 0 0.022360070207401699 0.0015102118251572316 0 0.024744763830800685 0.00039694103741286447 0 0.023509883595751291 0.00082955184904184159 0 0.02367248491082535 0.0012038156851067469 0 0.024624358653042588 0.00039832776062578162 0 0.024019328062146215 0.0019503644909212739 0 0.02430056805690891 0.0018428430280222014 0 0.023630384348666829 0.0010832204592840053 0 0.025340275983530287 0.0011576913730329244 0 0.02531339325002888 0.0012905781500072372 0 0.02531339325002888 0.0012905781500072372 0 0.022360070207401699 0.0015102118251572316 0 0.025340275983530287 0.0011576913730329244 0 0.022360070207401699 0.0015102118251572316 0 0.020770342868484719 -0.00018263755683965976 0 0.020676675632634388 -0.00032995741197896095 0 0.020763362063621359 -0.00032798274509070381 0 0.02101604514785781 -0.00041833359870900789 0 0.021006349142688424 -0.00053914746523209408 0 0.020883655864901977 -0.00034746959535698983 0 0.021006349142688424 -0.00053914746523209408 0 0.020883655864901977 -0.00034746959535698983 0 0.020811625457146776 -0.00045473968702816717 0 0.020770342868484719 -0.00018263755683965976 0 0.020763362063621359 -0.00032798274509070381 0 0.020883655864901977 -0.00034746959535698983 0 0.020963481688348641 -0.00025767237538250299 0 0.02101604514785781 -0.00041833359870900789 0 0.020883655864901977 -0.00034746959535698983 0 0.020763362063621359 -0.00032798274509070381 0 0.020883655864901977 -0.00034746959535698983 0 0.020811625457146776 -0.00045473968702816717 0 0.018786962113016458 -0.0025899746696234072 0 0.018626096326382006 -0.0025471404577904378 0 0.018570112308440606 -0.0026586452090055206 0 0.018786962113016458 -0.0025899746696234072 0 0.018626096326382006 -0.0025471404577904378 0 0.018670475372096693 -0.0024883975073266055 0 0.018662767255774697 -0.0024253950809359987 0 0.018670475372096693 -0.0024883975073266055 0 0.018748427595709636 -0.0025059187782272146 0 0.018662767255774697 -0.0024253950809359987 0 0.018670475372096693 -0.0024883975073266055 0 0.01858913207281402 -0.0024258718673347752 0 0.018670475372096693 -0.0024883975073266055 0 0.01858913207281402 -0.0024258718673347752 0 0.018534476286888642 -0.0024746881838557814 0 0.018626096326382006 -0.0025471404577904378 0 0.018670475372096693 -0.0024883975073266055 0 0.018534476286888642 -0.0024746881838557814 0 0.018626096326382006 -0.0025471404577904378 0 0.018534476286888642 -0.0024746881838557814 0 0.018473235446026297 -0.0025509399853397203 0 0.018490790692993857 -0.0023886776739357549 0 0.01858913207281402 -0.0024258718673347752 0 0.018534476286888642 -0.0024746881838557814 0 0.018490790692993857 -0.0023886776739357549 0 0.018534476286888642 -0.0024746881838557814 0 0.018374411382812001 -0.0024364392257000839 0 0.018534476286888642 -0.0024746881838557814 0 0.018473235446026297 -0.0025509399853397203 0 0.018374411382812001 -0.0024364392257000839 0 0.018626096326382006 -0.0025471404577904378 0 0.018473235446026297 -0.0025509399853397203 0 0.018570112308440606 -0.0026586452090055206 0 0.018473235446026297 -0.0025509399853397203 0 0.018570112308440606 -0.0026586452090055206 0 0.018417021778698594 -0.0026620705394200779 0 0.018417021778698594 -0.0026620705394200779 0 0.018332614082930829 -0.0025493273207278801 0 0.018254500962092593 -0.002654722544571842 0 0.018473235446026297 -0.0025509399853397203 0 0.018417021778698594 -0.0026620705394200779 0 0.018332614082930829 -0.0025493273207278801 0 0.018332614082930829 -0.0025493273207278801 0 0.018374411382812001 -0.0024364392257000839 0 0.01816764188331578 -0.0024766751116186269 0 0.018473235446026297 -0.0025509399853397203 0 0.018332614082930829 -0.0025493273207278801 0 0.018374411382812001 -0.0024364392257000839 0 0.018243269548760838 -0.0022605664228779422 0 0.018374411382812001 -0.0024364392257000839 0 0.01816764188331578 -0.0024766751116186269 0 0.01546810729778767 -0.0023563909014195474 0 0.014339028471827739 -0.002350491727086043 0 0.018332614082930829 -0.0025493273207278801 0 0.01816764188331578 -0.0024766751116186269 0 0.018254500962092593 -0.002654722544571842 0 0.018062586010473874 -0.0026941847433373908 0 0.01816764188331578 -0.0024766751116186269 0 0.018254500962092593 -0.002654722544571842 0 0.018062586010473874 -0.0026941847433373908 0 0.018254500962092593 -0.002654722544571842 0 0.018207616200929366 -0.0027961441444874567 0 0.01546810729778767 -0.0023563909014195474 0 0.019964965228730695 -0.001673722837697474 0 0.02120055593680276 5.5954878802162768e-05 0 0.021346330547381186 -0.00026718957252270007 0 0.021684294916654752 -0.00035233069818689744 0 0.018254500962092593 -0.002654722544571842 0 0.018207616200929366 -0.0027961441444874567 0 0.01834844854497408 -0.0027583519209077763 0 0.021346330547381186 -0.00026718957252270007 0 0.021684294916654752 -0.00035233069818689744 0 0.021479271583222468 -0.00047117706663469243 0 0.026207995444073949 -0.00028404501670703714 0 0.022764681977911753 -0.0017994716154061594 0 0.021357348085414823 -0.0006356806955537857 0 0.021479271583222468 -0.00047117706663469243 0 0.021496074587809062 -0.00067727649411974543 0 0.021684294916654752 -0.00035233069818689744 0 0.021479271583222468 -0.00047117706663469243 0 0.021496074587809062 -0.00067727649411974543 0 0.029935296891229618 -7.0321104855195578e-05 0 0.02989651942793882 -9.5441470130274144e-05 0 0.029946322423360316 -5.9032158766587998e-05 0 0.021684294916654752 -0.00035233069818689744 0 0.021496074587809062 -0.00067727649411974543 0 0.022027884927193039 -0.00063398215731293606 0 0.029935296891229618 -7.0321104855195578e-05 0 0.029946322423360316 -5.9032158766587998e-05 0 0.029951116726543842 -5.2559980117651491e-05 0 0.019964965228730695 -0.001673722837697474 0 0.022764681977911753 -0.0017994716154061594 0 0.018357619783856242 -0.0029003965572725497 0 0.01834844854497408 -0.0027583519209077763 0 0.0184657105960895 -0.0027636060604338901 0 0.018207616200929366 -0.0027961441444874567 0 0.018357619783856242 -0.0029003965572725497 0 0.01834844854497408 -0.0027583519209077763 0 0.018417021778698594 -0.0026620705394200779 0 0.018254500962092593 -0.002654722544571842 0 0.01834844854497408 -0.0027583519209077763 0 0.018417021778698594 -0.0026620705394200779 0 0.01834844854497408 -0.0027583519209077763 0 0.0184657105960895 -0.0027636060604338901 0 0.018570112308440606 -0.0026586452090055206 0 0.0184657105960895 -0.0027636060604338901 0 0.018636116094785615 -0.0028386921118539357 0 0.018570112308440606 -0.0026586452090055206 0 0.018417021778698594 -0.0026620705394200779 0 0.0184657105960895 -0.0027636060604338901 0 0.018357619783856242 -0.0029003965572725497 0 0.0184657105960895 -0.0027636060604338901 0 0.018636116094785615 -0.0028386921118539357 0 0.022764681977911753 -0.0017994716154061594 0 0.018482046435456128 -0.0029090487607150808 0 0.022764681977911753 -0.0017994716154061594 0 0.025479773240876923 -0.0011963469460965243 0 0.020654803433956124 -0.0025521288462649217 0 0.019871058097670077 -0.0026564045529060684 0 0.020043151559496156 -0.0020979515402000763 0 0.019871058097670077 -0.0026564045529060684 0 0.020043151559496156 -0.0020979515402000763 0 0.019403616470831803 -0.0022060188615855396 0 0.018786962113016458 -0.0025899746696234072 0 0.018636116094785615 -0.0028386921118539357 0 0.019055912750123742 -0.0026605710706728149 0 0.018482046435456128 -0.0029090487607150808 0 0.019398352485335234 -0.0026173599298595493 0 0.018786962113016458 -0.0025899746696234072 0 0.018570112308440606 -0.0026586452090055206 0 0.018636116094785615 -0.0028386921118539357 0 0.029883004986511887 -0.00012295498632582068 0 0.029929890112556482 -3.3746340484551522e-05 0 0.029665546420082487 -0.00012054547984322375 0 0.025479773240876923 -0.0011963469460965243 0 0.0240639317665804 -0.00081620897162863856 0 0.020043151559496156 -0.0020979515402000763 0 0.019403616470831803 -0.0022060188615855396 0 0.019540703676197691 -0.0017805031721553656 0 0.029883004986511887 -0.00012295498632582068 0 0.029929890112556482 -3.3746340484551522e-05 0 0.030009810948346528 -8.3240892732082651e-06 0 0.030009810948346528 -8.3240892732082651e-06 0 0.029952401177276697 -6.2133199750012303e-05 0 0.029991438558374515 -1.4955975266948258e-05 0 0.02989651942793882 -9.5441470130274144e-05 0 0.029952401177276697 -6.2133199750012303e-05 0 0.029946322423360316 -5.9032158766587998e-05 0 0.029883004986511887 -0.00012295498632582068 0 0.030009810948346528 -8.3240892732082651e-06 0 0.029952401177276697 -6.2133199750012303e-05 0 0.02989651942793882 -9.5441470130274144e-05 0 0.029883004986511887 -0.00012295498632582068 0 0.029952401177276697 -6.2133199750012303e-05 0 0.029952401177276697 -6.2133199750012303e-05 0 0.029969423984047058 -3.6129656885278261e-05 0 0.029991438558374515 -1.4955975266948258e-05 0 0.029952401177276697 -6.2133199750012303e-05 0 0.029946322423360316 -5.9032158766587998e-05 0 0.029969423984047058 -3.6129656885278261e-05 0 0.029946322423360316 -5.9032158766587998e-05 0 0.029969423984047058 -3.6129656885278261e-05 0 0.029951116726543842 -5.2559980117651491e-05 0 0.029969423984047058 -3.6129656885278261e-05 0 0.029991438558374515 -1.4955975266948258e-05 0 0.02998361222226132 -1.7905623978601311e-05 0 0.030009810948346528 -8.3240892732082651e-06 0 0.029991438558374515 -1.4955975266948258e-05 0 0.030016493734934986 1.2355316691702902e-05 0 0.029991438558374515 -1.4955975266948258e-05 0 0.030016493734934986 1.2355316691702902e-05 0 0.029998832736212726 -9.2788740361217727e-07 0 0.030016493734934986 1.2355316691702902e-05 0 0.03006223639454168 3.8980464558287085e-05 0 0.030015078754285864 1.2248593875427883e-05 0 0.030009810948346528 -8.3240892732082651e-06 0 0.030016493734934986 1.2355316691702902e-05 0 0.03006223639454168 3.8980464558287085e-05 0 0.030028598384344036 -4.8210403217063274e-06 0 0.03006223639454168 3.8980464558287085e-05 0 0.030015078754285864 1.2248593875427883e-05 0 0.031518621736946736 0.00020445579710391925 0 0.030176792837521407 8.6250536109695248e-05 0 0.030637697745425647 0.00077115650489647993 0 0.030028598384344036 -4.8210403217063274e-06 0 0.03006223639454168 3.8980464558287085e-05 0 0.030176792837521407 8.6250536109695248e-05 0 0.030713448061711491 5.1925516018707929e-05 0 0.030246721052657077 8.892692640411234e-05 0 0.030009810948346528 -8.3240892732082651e-06 0 0.03006223639454168 3.8980464558287085e-05 0 0.030176792837521407 8.6250536109695248e-05 0 0.030176792837521407 8.6250536109695248e-05 0 0.029726781338494455 7.1587851633915506e-05 0 0.029551380535822399 0.00038505976286452165 0 0.030176792837521407 8.6250536109695248e-05 0 0.029551380535822399 0.00038505976286452165 0 0.029894643916672053 0.00084881915176621397 0 0.029929890112556482 -3.3746340484551522e-05 0 0.030009810948346528 -8.3240892732082651e-06 0 0.030176792837521407 8.6250536109695248e-05 0 0.029929890112556482 -3.3746340484551522e-05 0 0.030176792837521407 8.6250536109695248e-05 0 0.029726781338494455 7.1587851633915506e-05 0 0.029929890112556482 -3.3746340484551522e-05 0 0.029726781338494455 7.1587851633915506e-05 0 0.029665546420082487 -0.00012054547984322375 0 0.027164789377104627 0.001611687250694912 0 0.027621452223362646 0.001779494014430565 0 0.027516673562170583 0.0014699306287779738 0 0.028493560597524878 0.00057785821184487898 0 0.030572736324935578 0.0017609747415550645 0 0.027164789377104627 0.001611687250694912 0 0.027621452223362646 0.001779494014430565 0 0.027315636035659608 0.0021509069491681913 0 0.027621452223362646 0.001779494014430565 0 0.027516673562170583 0.0014699306287779738 0 0.027968443280913607 0.0013901068882041494 0 0.030107168621063655 0.0026183526944051935 0 0.02934839520975142 0.0017493496580771371 0 0.027516673562170583 0.0014699306287779738 0 0.027594543372200082 0.0011911748235869735 0 0.027968443280913607 0.0013901068882041494 0 0.027516673562170583 0.0014699306287779738 0 0.027594543372200082 0.0011911748235869735 0 0.027245681356064401 0.0013201971931743471 0 0.027408962515138455 0.001203811296784568 0 0.027673013197068171 0.0011543339269944556 0 0.02773549608956084 0.0014286248896444125 0 0.027309216555556782 0.0010758345875636667 0 0.02934839520975142 0.0017493496580771371 0 0.027506657501788691 0.0010280790949945984 0 0.027408962515138455 0.001203811296784568 0 0.027673013197068171 0.0011543339269944556 0 0.027184889312645909 0.0010151507584139419 0 0.027594543372200082 0.0011911748235869735 0 0.027174919370852452 0.0011678145709161682 0 0.027007153280674136 0.0010590920542361605 0 0.027164789377104627 0.001611687250694912 0 0.027245681356064401 0.0013201971931743471 0 0.027422081367446394 0.00090387131960082356 0 0.028493560597524878 0.00057785821184487898 0 0.027295795344675119 0.0010780128763747791 0 0.027309216555556782 0.0010758345875636667 0 0.027594543372200082 0.0011911748235869735 0 0.027245681356064401 0.0013201971931743471 0 0.027174919370852452 0.0011678145709161682 0 0.027164789377104627 0.001611687250694912 0 0.027516673562170583 0.0014699306287779738 0 0.027245681356064401 0.0013201971931743471 0 0.027007153280674136 0.0010590920542361605 0 0.027245681356064401 0.0013201971931743471 0 0.027174919370852452 0.0011678145709161682 0 0.029977467433378001 -3.484730567018182e-05 0 0.030004995749215144 -3.878603385509799e-06 0 0.029987185142935916 -1.812706788894611e-05 0 0.029977467433378001 -3.484730567018182e-05 0 0.029972994448848191 -3.1381946398765565e-05 0 0.029987185142935916 -1.812706788894611e-05 0 0.029972994448848191 -3.1381946398765565e-05 0 0.029979040998314853 -2.2452299272553145e-05 0 0.029962672957359725 -3.7662480255127793e-05 0 0.029951911417928769 -4.7700702696909992e-05 0 0.029972994448848191 -3.1381946398765565e-05 0 0.029962672957359725 -3.7662480255127793e-05 0 0.029972994448848191 -3.1381946398765565e-05 0 0.029979040998314853 -2.2452299272553145e-05 0 0.029987185142935916 -1.812706788894611e-05 0 0.029969423984047058 -3.6129656885278261e-05 0 0.029951116726543842 -5.2559980117651491e-05 0 0.02996711888820908 -3.4804265834295495e-05 0 0.029951116726543842 -5.2559980117651491e-05 0 0.02996711888820908 -3.4804265834295495e-05 0 0.029956676263023469 -4.3584274197036056e-05 0 0.029979040998314853 -2.2452299272553145e-05 0 0.02996711888820908 -3.4804265834295495e-05 0 0.029962672957359725 -3.7662480255127793e-05 0 0.02996711888820908 -3.4804265834295495e-05 0 0.029956676263023469 -4.3584274197036056e-05 0 0.029962672957359725 -3.7662480255127793e-05 0 0.029946817580930794 -4.8146672036804768e-05 0 0.029956676263023469 -4.3584274197036056e-05 0 0.029962672957359725 -3.7662480255127793e-05 0 0.029979040998314853 -2.2452299272553145e-05 0 0.02996711888820908 -3.4804265834295495e-05 0 0.02998361222226132 -1.7905623978601311e-05 0 0.029969423984047058 -3.6129656885278261e-05 0 0.02996711888820908 -3.4804265834295495e-05 0 0.02998361222226132 -1.7905623978601311e-05 0 0.029991438558374515 -1.4955975266948258e-05 0 0.02998361222226132 -1.7905623978601311e-05 0 0.029998832736212726 -9.2788740361217727e-07 0 0.029979040998314853 -2.2452299272553145e-05 0 0.02998361222226132 -1.7905623978601311e-05 0 0.029996253615115258 -2.3973481597555371e-06 0 0.02998361222226132 -1.7905623978601311e-05 0 0.029998832736212726 -9.2788740361217727e-07 0 0.029996253615115258 -2.3973481597555371e-06 0 0.029998832736212726 -9.2788740361217727e-07 0 0.029996253615115258 -2.3973481597555371e-06 0 0.030006267939657542 8.9836779446185836e-06 0 0.030004995749215144 -3.878603385509799e-06 0 0.029996253615115258 -2.3973481597555371e-06 0 0.030010287398157174 1.0658425434749004e-05 0 0.030004995749215144 -3.878603385509799e-06 0 0.029987185142935916 -1.812706788894611e-05 0 0.029996253615115258 -2.3973481597555371e-06 0 0.029979040998314853 -2.2452299272553145e-05 0 0.029987185142935916 -1.812706788894611e-05 0 0.029996253615115258 -2.3973481597555371e-06 0 0.030010287398157174 1.0658425434749004e-05 0 0.030010163889787236 1.315725299939729e-05 0 0.03001782443955631 1.968626315815968e-05 0 0.029996253615115258 -2.3973481597555371e-06 0 0.030010287398157174 1.0658425434749004e-05 0 0.030010163889787236 1.315725299939729e-05 0 0.029996253615115258 -2.3973481597555371e-06 0 0.030010163889787236 1.315725299939729e-05 0 0.030006267939657542 8.9836779446185836e-06 0 0.030010163889787236 1.315725299939729e-05 0 0.03001329359293782 1.5152052054866096e-05 0 0.030017263324226853 1.913349011181739e-05 0 0.030010163889787236 1.315725299939729e-05 0 0.03001782443955631 1.968626315815968e-05 0 0.030017263324226853 1.913349011181739e-05 0 0.030016493734934986 1.2355316691702902e-05 0 0.029998832736212726 -9.2788740361217727e-07 0 0.030006267939657542 8.9836779446185836e-06 0 0.030010163889787236 1.315725299939729e-05 0 0.030006267939657542 8.9836779446185836e-06 0 0.03001329359293782 1.5152052054866096e-05 0 0.030006267939657542 8.9836779446185836e-06 0 0.03001329359293782 1.5152052054866096e-05 0 0.030015078754285864 1.2248593875427883e-05 0 0.030016493734934986 1.2355316691702902e-05 0 0.030006267939657542 8.9836779446185836e-06 0 0.030015078754285864 1.2248593875427883e-05 0 0.030713448061711491 5.1925516018707929e-05 0 0.03148219531022798 0.00069159157792301725 0 0.030028598384344036 -4.8210403217063274e-06 0 0.030020341304680894 2.0629041361536055e-05 0 0.03002423735573256 2.3899407372258935e-05 0 0.030028598384344036 -4.8210403217063274e-06 0 0.030015078754285864 1.2248593875427883e-05 0 0.030020341304680894 2.0629041361536055e-05 0 0.03001329359293782 1.5152052054866096e-05 0 0.030015078754285864 1.2248593875427883e-05 0 0.030020341304680894 2.0629041361536055e-05 0 0.03001782443955631 1.968626315815968e-05 0 0.030024807077806047 2.5434070245139164e-05 0 0.030017263324226853 1.913349011181739e-05 0 0.030020341304680894 2.0629041361536055e-05 0 0.030024807077806047 2.5434070245139164e-05 0 0.030017263324226853 1.913349011181739e-05 0 0.03001329359293782 1.5152052054866096e-05 0 0.030020341304680894 2.0629041361536055e-05 0 0.030017263324226853 1.913349011181739e-05 0 0.030020341304680894 2.0629041361536055e-05 0 0.030024807077806047 2.5434070245139164e-05 0 0.030029319483335384 3.1903947487988711e-05 0 0.030024807077806047 2.5434070245139164e-05 0 0.030031394664504961 3.3689358312081437e-05 0 0.030029319483335384 3.1903947487988711e-05 0 0.030641909321482003 -0.00013230037558038135 0 0.03148219531022798 0.00069159157792301725 0 0.031497078043084312 0.0013147419042076277 0 0.032157489007815732 0.0014422140031068488 0 0.032917644955607228 0.002716057774689854 0 0.032843613695306854 0.0027042385300578291 0 0.03284587365101406 0.0025897542397336428 0 0.032843613695306854 0.0027042385300578291 0 0.032886089532222308 0.0029256441447662027 0 0.032727943341240823 0.0028629564046057732 0 0.032820265918966536 0.0032030929082664766 0 0.030572736324935578 0.0017609747415550645 0 0.031497078043084312 0.0013147419042076277 0 0.030572736324935578 0.0017609747415550645 0 0.032917644955607228 0.002716057774689854 0 0.032843613695306854 0.0027042385300578291 0 0.032847518540134769 0.0027740721029990709 0 0.03001782443955631 1.968626315815968e-05 0 0.030024807077806047 2.5434070245139164e-05 0 0.030024591494709013 2.4965509599640371e-05 0 0.030010287398157174 1.0658425434749004e-05 0 0.03001782443955631 1.968626315815968e-05 0 0.030024591494709013 2.4965509599640371e-05 0 0.030004995749215144 -3.878603385509799e-06 0 0.030010287398157174 1.0658425434749004e-05 0 0.030024591494709013 2.4965509599640371e-05 0 0.030107168621063655 0.0026183526944051935 0 0.030572736324935578 0.0017609747415550645 0 0.032699219660783395 0.003154988036381597 0 0.032727943341240823 0.0028629564046057732 0 0.032562791904702265 0.0028986130845418158 0 0.032699219660783395 0.003154988036381597 0 0.032562791904702265 0.0028986130845418158 0 0.032468806891975822 0.003142986413010666 0 0.032699219660783395 0.003154988036381597 0 0.032886089532222308 0.0029256441447662027 0 0.032727943341240823 0.0028629564046057732 0 0.032843613695306854 0.0027042385300578291 0 0.032727943341240823 0.0028629564046057732 0 0.032658423276343128 0.0026634541156681625 0 0.032727943341240823 0.0028629564046057732 0 0.032658423276343128 0.0026634541156681625 0 0.032562791904702265 0.0028986130845418158 0 0.032658423276343128 0.0026634541156681625 0 0.032431302828476179 0.0026635412809104318 0 0.032562791904702265 0.0028986130845418158 0 0.032431302828476179 0.0026635412809104318 0 0.032345891354540912 0.0029586576837162802 0 0.032562791904702265 0.0028986130845418158 0 0.032431302828476179 0.0026635412809104318 0 0.032104976301085872 0.0027612818490218662 0 0.03218625298117473 0.0024944491823506473 0 0.032431302828476179 0.0026635412809104318 0 0.032345891354540912 0.0029586576837162802 0 0.032104976301085872 0.0027612818490218662 0 0.032345891354540912 0.0029586576837162802 0 0.031836689751026673 0.0031335838999834668 0 0.032104976301085872 0.0027612818490218662 0 0.032345891354540912 0.0029586576837162802 0 0.032207767000974795 0.0032626283642530128 0 0.031836689751026673 0.0031335838999834668 0 0.032345891354540912 0.0029586576837162802 0 0.032562791904702265 0.0028986130845418158 0 0.032468806891975822 0.003142986413010666 0 0.032699219660783395 0.003154988036381597 0 0.032468806891975822 0.003142986413010666 0 0.032496506759970206 0.0033852862136515786 0 0.032468806891975822 0.003142986413010666 0 0.032207767000974795 0.0032626283642530128 0 0.032496506759970206 0.0033852862136515786 0 0.030473768567305642 0.002772404996600432 0 0.02934839520975142 0.0017493496580771371 0 0.032345891354540912 0.0029586576837162802 0 0.032468806891975822 0.003142986413010666 0 0.032207767000974795 0.0032626283642530128 0 0.028400878021952736 0.0020539388096560648 0 0.028329796474076702 0.0015140522694692615 0 0.028976479195217703 0.0018371834920999578 0 0.028400878021952736 0.0020539388096560648 0 0.028329796474076702 0.0015140522694692615 0 0.027638100333639271 0.0015763309981212726 0 0.028329796474076702 0.0015140522694692615 0 0.028819794037237025 0.0013259791322072663 0 0.028976479195217703 0.0018371834920999578 0 0.028329796474076702 0.0015140522694692615 0 0.028819794037237025 0.0013259791322072663 0 0.028305306540122213 0.0011027008079455977 0 0.028329796474076702 0.0015140522694692615 0 0.02791231035508842 0.001257643773700043 0 0.028305306540122213 0.0011027008079455977 0 0.028329796474076702 0.0015140522694692615 0 0.02791231035508842 0.001257643773700043 0 0.027638100333639271 0.0015763309981212726 0 0.02791231035508842 0.001257643773700043 0 0.027673013197068171 0.0011543339269944556 0 0.02773549608956084 0.0014286248896444125 0 0.028191013674226304 0.0017402147034044737 0 0.02934839520975142 0.0017493496580771371 0 0.029784339847123989 0.0013085942915819506 0 0.029522840839714102 0.0016500990066593817 0 0.029177075075541729 0.0010317725224560075 0 0.029784339847123989 0.0013085942915819506 0 0.029522840839714102 0.0016500990066593817 0 0.030356870122999473 0.0020571495559720578 0 0.029522840839714102 0.0016500990066593817 0 0.028819794037237025 0.0013259791322072663 0 0.029177075075541729 0.0010317725224560075 0 0.029522840839714102 0.0016500990066593817 0 0.028819794037237025 0.0013259791322072663 0 0.028976479195217703 0.0018371834920999578 0 0.029522840839714102 0.0016500990066593817 0 0.028976479195217703 0.0018371834920999578 0 0.029431765268152926 0.0025296268218961806 0 0.030473768567305642 0.002772404996600432 0 0.030595793868080222 0.0027718632962683435 0 0.028400878021952736 0.0020539388096560648 0 0.028976479195217703 0.0018371834920999578 0 0.029431765268152926 0.0025296268218961806 0 0.029522840839714102 0.0016500990066593817 0 0.030356870122999473 0.0020571495559720578 0 0.029431765268152926 0.0025296268218961806 0 0.03103776909957626 0.0027734054369720211 0 0.031836689751026673 0.0031335838999834668 0 0.031717286316936148 0.0025512169100251922 0 0.030356870122999473 0.0020571495559720578 0 0.03103776909957626 0.0027734054369720211 0 0.029431765268152926 0.0025296268218961806 0 0.030965930244058536 0.0028052659700205729 0 0.030595793868080222 0.0027718632962683435 0 0.032104976301085872 0.0027612818490218662 0 0.031717286316936148 0.0025512169100251922 0 0.03218625298117473 0.0024944491823506473 0 0.031836689751026673 0.0031335838999834668 0 0.032104976301085872 0.0027612818490218662 0 0.031717286316936148 0.0025512169100251922 0 0.03103776909957626 0.0027734054369720211 0 0.031717286316936148 0.0025512169100251922 0 0.031396683967918469 0.0025321734677874021 0 0.03103776909957626 0.0027734054369720211 0 0.031396683967918469 0.0025321734677874021 0 0.031168157689791771 0.0024710793598784501 0 0.031396683967918469 0.0025321734677874021 0 0.031168157689791771 0.0024710793598784501 0 0.031453747806695659 0.0024162003061799771 0 0.031168157689791771 0.0024710793598784501 0 0.031453747806695659 0.0024162003061799771 0 0.031398360036741568 0.0021186295142984991 0 0.030356870122999473 0.0020571495559720578 0 0.03103776909957626 0.0027734054369720211 0 0.031168157689791771 0.0024710793598784501 0 0.031719571265907708 0.0023766620140241715 0 0.031632233178105811 0.0024756314361493834 0 0.03176889651295025 0.0024649837611185987 0 0.031453747806695659 0.0024162003061799771 0 0.031719571265907708 0.0023766620140241715 0 0.031632233178105811 0.0024756314361493834 0 0.031396683967918469 0.0025321734677874021 0 0.031453747806695659 0.0024162003061799771 0 0.031632233178105811 0.0024756314361493834 0 0.031453747806695659 0.0024162003061799771 0 0.03167943414211933 0.0021340332818130122 0 0.031398360036741568 0.0021186295142984991 0 0.031453747806695659 0.0024162003061799771 0 0.031730800201017137 0.002373729555156778 0 0.03167943414211933 0.0021340332818130122 0 0.03144047082880274 0.0024168557389848697 0 0.031791995665068754 0.0023313173472967719 0 0.031791995665068754 0.0023313173472967719 0 0.031686581929633188 0.0021441258619237184 0 0.03167943414211933 0.0021340332818130122 0 0.031551162604815518 0.0019760125711673938 0 0.031683586849077447 0.0018547419539127056 0 0.03167943414211933 0.0021340332818130122 0 0.031551162604815518 0.0019760125711673938 0 0.031398360036741568 0.0021186295142984991 0 0.031551162604815518 0.0019760125711673938 0 0.031398360036741568 0.0021186295142984991 0 0.03127725294462079 0.0018195810050774441 0 0.03127725294462079 0.0018195810050774441 0 0.031233477844270174 0.0015007876285290937 0 0.031500477379152292 0.0017001134934199057 0 0.031233477844270174 0.0015007876285290937 0 0.031500477379152292 0.0017001134934199057 0 0.031422305081294379 0.00124457787992183 0 0.031551162604815518 0.0019760125711673938 0 0.03127725294462079 0.0018195810050774441 0 0.031500477379152292 0.0017001134934199057 0 0.031551162604815518 0.0019760125711673938 0 0.031500477379152292 0.0017001134934199057 0 0.031683586849077447 0.0018547419539127056 0 0.031366097436688029 0.0017973057848857873 0 0.032121761704410105 0.0011042140672128116 0 0.031500477379152292 0.0017001134934199057 0 0.031683586849077447 0.0018547419539127056 0 0.031646478945687569 0.0016911177789963427 0 0.030356870122999473 0.0020571495559720578 0 0.030941318921213098 0.0019841093057036902 0 0.030442983702626381 0.001645088354521602 0 0.030356870122999473 0.0020571495559720578 0 0.031168157689791771 0.0024710793598784501 0 0.030941318921213098 0.0019841093057036902 0 0.031398360036741568 0.0021186295142984991 0 0.03127725294462079 0.0018195810050774441 0 0.030941318921213098 0.0019841093057036902 0 0.031168157689791771 0.0024710793598784501 0 0.031398360036741568 0.0021186295142984991 0 0.030941318921213098 0.0019841093057036902 0 0.030941318921213098 0.0019841093057036902 0 0.030871506159197815 0.001525725175512711 0 0.030442983702626381 0.001645088354521602 0 0.03127725294462079 0.0018195810050774441 0 0.030941318921213098 0.0019841093057036902 0 0.030871506159197815 0.001525725175512711 0 0.03127725294462079 0.0018195810050774441 0 0.031233477844270174 0.0015007876285290937 0 0.030871506159197815 0.001525725175512711 0 0.029784339847123989 0.0013085942915819506 0 0.030356870122999473 0.0020571495559720578 0 0.030442983702626381 0.001645088354521602 0 0.029784339847123989 0.0013085942915819506 0 0.030442983702626381 0.001645088354521602 0 0.030361869448857846 0.0011867968901489463 0 0.030871506159197815 0.001525725175512711 0 0.030442983702626381 0.001645088354521602 0 0.030361869448857846 0.0011867968901489463 0 0.030361869448857846 0.0011867968901489463 0 0.030623333164473094 0.00066188540246257766 0 0.029502075842627092 0.00063519794106403334 0 0.029784339847123989 0.0013085942915819506 0 0.030361869448857846 0.0011867968901489463 0 0.029502075842627092 0.00063519794106403334 0 0.030871506159197815 0.001525725175512711 0 0.030361869448857846 0.0011867968901489463 0 0.030748512833913111 0.0010899396769468988 0 0.030871506159197815 0.001525725175512711 0 0.030748512833913111 0.0010899396769468988 0 0.031108748055537427 0.0011462910880580589 0 0.031233477844270174 0.0015007876285290937 0 0.030871506159197815 0.001525725175512711 0 0.031108748055537427 0.0011462910880580589 0 0.030928149644417625 0.00088431899356256147 0 0.030623333164473094 0.00066188540246257766 0 0.03132891420130899 0.00060349925428522186 0 0.030748512833913111 0.0010899396769468988 0 0.031108748055537427 0.0011462910880580589 0 0.030928149644417625 0.00088431899356256147 0 0.031108748055537427 0.0011462910880580589 0 0.030928149644417625 0.00088431899356256147 0 0.03132891420130899 0.00060349925428522186 0 0.030748512833913111 0.0010899396769468988 0 0.030928149644417625 0.00088431899356256147 0 0.030623333164473094 0.00066188540246257766 0 0.030361869448857846 0.0011867968901489463 0 0.030748512833913111 0.0010899396769468988 0 0.030623333164473094 0.00066188540246257766 0 0.029404103612929704 -0.00030662800888891167 0 0.025954090598070783 -0.00085269529368605984 0 0.030380303918327977 -1.2641932790126834e-05 0 0.03132891420130899 0.00060349925428522186 0 0.031452678137386461 0.00026983691416853956 0 0.030623333164473094 0.00066188540246257766 0 0.030380303918327977 -1.2641932790126834e-05 0 0.03132891420130899 0.00060349925428522186 0 0.030380303918327977 -1.2641932790126834e-05 0 0.029502075842627092 0.00063519794106403334 0 0.028776252008077284 -0.00019367713770627264 0 0.030623333164473094 0.00066188540246257766 0 0.030380303918327977 -1.2641932790126834e-05 0 0.029502075842627092 0.00063519794106403334 0 0.029319535324177651 0.00023581385460127305 0 0.02661997105096171 0.00030547818472322346 0 0.031791305005333691 0.0013167878775738524 0 0.031656241762762535 0.0010367148646073688 0 0.031987084008625967 0.0010960571437756061 0 0.031500477379152292 0.0017001134934199057 0 0.031791305005333691 0.0013167878775738524 0 0.031422305081294379 0.00124457787992183 0 0.031791305005333691 0.0013167878775738524 0 0.031422305081294379 0.00124457787992183 0 0.031656241762762535 0.0010367148646073688 0 0.031422305081294379 0.00124457787992183 0 0.031204021161722065 0.00094275414127233624 0 0.031656241762762535 0.0010367148646073688 0 0.031233477844270174 0.0015007876285290937 0 0.031108748055537427 0.0011462910880580589 0 0.031422305081294379 0.00124457787992183 0 0.031108748055537427 0.0011462910880580589 0 0.031422305081294379 0.00124457787992183 0 0.031204021161722065 0.00094275414127233624 0 0.030296679351365402 0.00073378967023155352 0 0.028909214854263704 -0.00041360339004555078 0 0.025954090598070783 -0.00085269529368605984 0 0.021098812124599981 -0.0020789521549164653 0 0.026733135622078949 -0.00062433886881317082 0 0.026648507856382231 -0.00043875188856864995 0 0.02617216661632912 -0.0006606787056707195 0 0.028909214854263704 -0.00041360339004555078 0 0.029319535324177651 0.00023581385460127305 0 0.028909214854263704 -0.00041360339004555078 0 0.025954090598070783 -0.00085269529368605984 0 0.02617216661632912 -0.0006606787056707195 0 0.026123494975368675 -0.00056763098704192938 0 0.025701993595605307 -0.00064278133457916194 0 0.026648507856382231 -0.00043875188856864995 0 0.02617216661632912 -0.0006606787056707195 0 0.026123494975368675 -0.00056763098704192938 0 0.020119873054582994 -0.0024957250295169699 0 0.018706647665725998 -0.0021246930325515274 0 0.018767310939198392 -0.0012881063731451667 0 0.020119873054582994 -0.0024957250295169699 0 0.018706647665725998 -0.0021246930325515274 0 0.01862117382513365 -0.0028267837213612045 0 0.018706647665725998 -0.0021246930325515274 0 0.018104437951282283 -0.0023009191647160206 0 0.017915692840597939 -0.0017394141714347044 0 0.018706647665725998 -0.0021246930325515274 0 0.018104437951282283 -0.0023009191647160206 0 0.01862117382513365 -0.0028267837213612045 0 0.018104437951282283 -0.0023009191647160206 0 0.01862117382513365 -0.0028267837213612045 0 0.017647392460055152 -0.0026018588683122154 0 0.018767310939198392 -0.0012881063731451667 0 0.017989112080682605 -0.00034121262335790563 0 0.017821048787607655 -0.0010258802068110202 0 0.018706647665725998 -0.0021246930325515274 0 0.018767310939198392 -0.0012881063731451667 0 0.017915692840597939 -0.0017394141714347044 0 0.018767310939198392 -0.0012881063731451667 0 0.017915692840597939 -0.0017394141714347044 0 0.017821048787607655 -0.0010258802068110202 0 0.018767310939198392 -0.0012881063731451667 0 0.019218680659639067 -0.00028483374331548855 0 0.017989112080682605 -0.00034121262335790563 0 0.026188151689012569 -0.0012448727344954232 0 0.025591609192397533 7.7785897868775424e-05 0 0.026613177626794923 -2.0323692774759646e-05 0 0.025954090598070783 -0.00085269529368605984 0 0.023919742383967501 -0.00038563464256852588 0 0.020119873054582994 -0.0024957250295169699 0 0.018767310939198392 -0.0012881063731451667 0 0.019218680659639067 -0.00028483374331548855 0 0.026213408837527766 0.0009023573083664371 0 0.025591609192397533 7.7785897868775424e-05 0 0.026613177626794923 -2.0323692774759646e-05 0 0.017718301809870485 0.0030951823590142885 0 0.019218680659639067 -0.00028483374331548855 0 0.018303869985596518 0.00051314786801839342 0 0.019218680659639067 -0.00028483374331548855 0 0.018303869985596518 0.00051314786801839342 0 0.017989112080682605 -0.00034121262335790563 0 0.018303869985596518 0.00051314786801839342 0 0.017989112080682605 -0.00034121262335790563 0 0.017504648470522733 0.00031706953710053051 0 0.029404103612929704 -0.00030662800888891167 0 0.028571914438399359 -0.00032735013093570256 0 0.027306689750521404 -0.00093864178487036677 0 0.028083217268563745 -0.00013556786260197226 0 0.028776252008077284 -0.00019367713770627264 0 0.027306689750521404 -0.00093864178487036677 0 0.028083217268563745 -0.00013556786260197226 0 0.027511808788573275 7.6316795714048599e-05 0 0.028083217268563745 -0.00013556786260197226 0 0.028089601532708751 9.6057445861954269e-05 0 0.028456393458000578 -8.7990288030597687e-06 0 0.028083217268563745 -0.00013556786260197226 0 0.027511808788573275 7.6316795714048599e-05 0 0.028089601532708751 9.6057445861954269e-05 0 0.027306689750521404 -0.00093864178487036677 0 0.026613177626794923 -2.0323692774759646e-05 0 0.027511808788573275 7.6316795714048599e-05 0 0.027306689750521404 -0.00093864178487036677 0 0.026188151689012569 -0.0012448727344954232 0 0.026613177626794923 -2.0323692774759646e-05 0 0.027064487393940094 0.00075608511264164209 0 0.026613177626794923 -2.0323692774759646e-05 0 0.027511808788573275 7.6316795714048599e-05 0 0.027064487393940094 0.00075608511264164209 0 0.026213408837527766 0.0009023573083664371 0 0.026613177626794923 -2.0323692774759646e-05 0 0.027064487393940094 0.00075608511264164209 0 0.027511808788573275 7.6316795714048599e-05 0 0.027766401722895729 0.00056110287203957603 0 0.027511808788573275 7.6316795714048599e-05 0 0.028089601532708751 9.6057445861954269e-05 0 0.027766401722895729 0.00056110287203957603 0 0.028491810529743686 -2.7902443831949666e-05 0 0.028424834552626517 0.00016116519751090393 0 0.027630280270909392 -0.00021383079507435808 0 0.028089601532708751 9.6057445861954269e-05 0 0.028491810529743686 -2.7902443831949666e-05 0 0.028456393458000578 -8.7990288030597687e-06 0 0.028089601532708751 9.6057445861954269e-05 0 0.027766401722895729 0.00056110287203957603 0 0.028491810529743686 -2.7902443831949666e-05 0 0.028083217268563745 -0.00013556786260197226 0 0.028456393458000578 -8.7990288030597687e-06 0 0.028776252008077284 -0.00019367713770627264 0 0.028491810529743686 -2.7902443831949666e-05 0 0.028456393458000578 -8.7990288030597687e-06 0 0.028424834552626517 0.00016116519751090393 0 0.028456393458000578 -8.7990288030597687e-06 0 0.028424834552626517 0.00016116519751090393 0 0.028776252008077284 -0.00019367713770627264 0 0.028424834552626517 0.00016116519751090393 0 0.028762463704466921 0.0001732293201427398 0 0.028595153373493814 0.00024559908651687379 0 0.028424834552626517 0.00016116519751090393 0 0.028776252008077284 -0.00019367713770627264 0 0.028762463704466921 0.0001732293201427398 0 0.028424834552626517 0.00016116519751090393 0 0.026782907025525011 6.301530141261296e-05 0 0.027630280270909392 -0.00021383079507435808 0 0.028322476002782947 0.0002203105377264662 0 0.02731636903282636 0.00069922739003417701 0 0.028424834552626517 0.00016116519751090393 0 0.028431531807695691 0.00020413175263244067 0 0.028595153373493814 0.00024559908651687379 0 0.028424834552626517 0.00016116519751090393 0 0.026782907025525011 6.301530141261296e-05 0 0.026004909251932707 0.0012755987107518072 0 0.026836736632736176 -0.001179983841746115 0 0.028491810529743686 -2.7902443831949666e-05 0 0.027630280270909392 -0.00021383079507435808 0 0.026836736632736176 -0.001179983841746115 0 0.026782907025525011 6.301530141261296e-05 0 0.027630280270909392 -0.00021383079507435808 0 0.026836736632736176 -0.001179983841746115 0 0.026782907025525011 6.301530141261296e-05 0 0.025408636499709262 0.0002419922130598803 0 0.025042292910196513 -0.0016467242319301817 0 0.026836736632736176 -0.001179983841746115 0 0.023471470391579576 0.0016581109428656876 0 0.023462838277175966 -0.0014404206670561349 0 0.025042292910196513 -0.0016467242319301817 0 0.023471470391579576 0.0016581109428656876 0 0.026804807047079299 -0.0011726259990214425 0 0.024322157621213446 0.0011921704144885281 0 0.023462838277175966 -0.0014404206670561349 0 0.022461618657254465 -1.5633148481218078e-05 0 0.023471470391579576 0.0016581109428656876 0 0.021850662797217129 -0.0013870878903755807 0 0.020925839866591661 -0.0013375045438128682 0 0.021270462978462485 6.0667327157543807e-05 0 0.021850662797217129 -0.0013870878903755807 0 0.021270462978462485 6.0667327157543807e-05 0 0.022461618657254465 -1.5633148481218078e-05 0 0.021850662797217129 -0.0013870878903755807 0 0.023462838277175966 -0.0014404206670561349 0 0.022461618657254465 -1.5633148481218078e-05 0 0.022461618657254465 -1.5633148481218078e-05 0 0.022186616095684682 0.0010146227211344228 0 0.023471470391579576 0.0016581109428656876 0 0.021270462978462485 6.0667327157543807e-05 0 0.022186616095684682 0.0010146227211344228 0 0.021415142480331308 0.002320576839914506 0 0.021270462978462485 6.0667327157543807e-05 0 0.022461618657254465 -1.5633148481218078e-05 0 0.022186616095684682 0.0010146227211344228 0 0.020355976492117966 0.0042112988461169608 0 0.021415142480331308 0.002320576839914506 0 0.023471470391579576 0.0016581109428656876 0 0.022360070207401699 0.0015102118251572316 0 0.024322157621213446 0.0011921704144885281 0 0.02366301252957748 0.001718288526505426 0 0.024854501367200771 0.0013008454369813915 0 0.025408636499709262 0.0002419922130598803 0 0.022186616095684682 0.0010146227211344228 0 0.021415142480331308 0.002320576839914506 0 0.023471470391579576 0.0016581109428656876 0 0.026782907025525011 6.301530141261296e-05 0 0.025408636499709262 0.0002419922130598803 0 0.026004909251932707 0.0012755987107518072 0 0.024854501367200771 0.0013008454369813915 0 0.025408636499709262 0.0002419922130598803 0 0.026004909251932707 0.0012755987107518072 0 0.028431531807695691 0.00020413175263244067 0 0.02833864813366643 0.00045682283724416149 0 0.028533060309190481 0.00044074616978104729 0 0.028431531807695691 0.00020413175263244067 0 0.02833864813366643 0.00045682283724416149 0 0.028081575794948094 0.00044193662502250194 0 0.02833864813366643 0.00045682283724416149 0 0.028081575794948094 0.00044193662502250194 0 0.028280755898128073 0.00070845579184010258 0 0.028081575794948094 0.00044193662502250194 0 0.027975709806010583 0.00073254230562450724 0 0.028280755898128073 0.00070845579184010258 0 0.02833864813366643 0.00045682283724416149 0 0.028280755898128073 0.00070845579184010258 0 0.028533060309190481 0.00044074616978104729 0 0.02755079511193349 0.00043386591269693579 0 0.028431531807695691 0.00020413175263244067 0 0.028081575794948094 0.00044193662502250194 0 0.02755079511193349 0.00043386591269693579 0 0.028081575794948094 0.00044193662502250194 0 0.027827773654019929 0.00055833512077597307 0 0.02531339325002888 0.0012905781500072372 0 0.02731636903282636 0.00069922739003417701 0 0.023959436671136349 0.0020363284130700673 0 0.024854501367200771 0.0013008454369813915 0 0.026004909251932707 0.0012755987107518072 0 0.023959436671136349 0.0020363284130700673 0 0.02366301252957748 0.001718288526505426 0 0.024854501367200771 0.0013008454369813915 0 0.028081575794948094 0.00044193662502250194 0 0.027827773654019929 0.00055833512077597307 0 0.027975709806010583 0.00073254230562450724 0 0.027827773654019929 0.00055833512077597307 0 0.027695138410509312 0.00061392009739148952 0 0.027975709806010583 0.00073254230562450724 0 0.02748607845751749 0.00046324703797516193 0 0.027695138410509312 0.00061392009739148952 0 0.027708767766219403 0.00090816155806093285 0 0.02755079511193349 0.00043386591269693579 0 0.027827773654019929 0.00055833512077597307 0 0.027695138410509312 0.00061392009739148952 0 0.02748607845751749 0.00046324703797516193 0 0.027538660380332678 0.00044279947119421712 0 0.027695138410509312 0.00061392009739148952 0 0.02531339325002888 0.0012905781500072372 0 0.026383085390438821 0.0013772636266933269 0 0.027695138410509312 0.00061392009739148952 0 0.027708767766219403 0.00090816155806093285 0 0.027975709806010583 0.00073254230562450724 0 0.025340275983530287 0.0011576913730329244 0 0.02745353950422175 0.0010555938778159782 0 0.027708767766219403 0.00090816155806093285 0 0.027975709806010583 0.00073254230562450724 0 0.02796350977564728 0.00098158391881714418 0 0.027975709806010583 0.00073254230562450724 0 0.02796350977564728 0.00098158391881714418 0 0.028280755898128073 0.00070845579184010258 0 0.02791231035508842 0.001257643773700043 0 0.027673013197068171 0.0011543339269944556 0 0.02796350977564728 0.00098158391881714418 0 0.02791231035508842 0.001257643773700043 0 0.02796350977564728 0.00098158391881714418 0 0.028305306540122213 0.0011027008079455977 0 0.027673013197068171 0.0011543339269944556 0 0.027708767766219403 0.00090816155806093285 0 0.02796350977564728 0.00098158391881714418 0 0.028280755898128073 0.00070845579184010258 0 0.028654847092817359 0.00083369371698186487 0 0.028533060309190481 0.00044074616978104729 0 0.02796350977564728 0.00098158391881714418 0 0.028280755898128073 0.00070845579184010258 0 0.028305306540122213 0.0011027008079455977 0 0.028819794037237025 0.0013259791322072663 0 0.028305306540122213 0.0011027008079455977 0 0.028654847092817359 0.00083369371698186487 0 0.028280755898128073 0.00070845579184010258 0 0.028305306540122213 0.0011027008079455977 0 0.028654847092817359 0.00083369371698186487 0 0.028819794037237025 0.0013259791322072663 0 0.028654847092817359 0.00083369371698186487 0 0.029177075075541729 0.0010317725224560075 0 0.028654847092817359 0.00083369371698186487 0 0.029177075075541729 0.0010317725224560075 0 0.028836215065664726 0.00054804818251612893 0 0.029502075842627092 0.00063519794106403334 0 0.029177075075541729 0.0010317725224560075 0 0.028836215065664726 0.00054804818251612893 0 0.029784339847123989 0.0013085942915819506 0 0.029502075842627092 0.00063519794106403334 0 0.029177075075541729 0.0010317725224560075 0 0.029502075842627092 0.00063519794106403334 0 0.028762463704466921 0.0001732293201427398 0 0.028836215065664726 0.00054804818251612893 0 0.029502075842627092 0.00063519794106403334 0 0.028776252008077284 -0.00019367713770627264 0 0.028762463704466921 0.0001732293201427398 0 0.028762463704466921 0.0001732293201427398 0 0.028595153373493814 0.00024559908651687379 0 0.028836215065664726 0.00054804818251612893 0 0.028431531807695691 0.00020413175263244067 0 0.028595153373493814 0.00024559908651687379 0 0.028533060309190481 0.00044074616978104729 0 0.028654847092817359 0.00083369371698186487 0 0.028533060309190481 0.00044074616978104729 0 0.028836215065664726 0.00054804818251612893 0 0.028595153373493814 0.00024559908651687379 0 0.028533060309190481 0.00044074616978104729 0 0.028836215065664726 0.00054804818251612893 0 0.015474415750825836 -0.0014754084400990007 0 0.014889678885656649 -0.0013683911067843212 0 0.012403133378429817 -0.00093975790045931773 0 0.015474415750825836 -0.0014754084400990007 0 0.016079623413004888 -0.0016343045851081501 0 0.012403133378429817 -0.00093975790045931773 0 0.013226763445625959 -0.0007001861738728999 0 0.012601398739404182 -0.0011467873379935481 0 0.0086055510518758885 3.5862170848614331e-06 0 0.010357092451599801 0.00047155651408530052 0 0.012403133378429817 -0.00093975790045931773 0 0.0086055510518758885 3.5862170848614331e-06 0 0.010736898829894133 2.1057616876747656e-07 0 0.010357092451599801 0.00047155651408530052 0 0.013226763445625959 -0.0007001861738728999 0 0.014179634496302074 -0.00078902601372493652 0 0.010736898829894133 2.1057616876747656e-07 0 0.010357092451599801 0.00047155651408530052 0 0.012123217470339506 -9.9212849478644851e-06 0 0.016079623413004888 -0.0016343045851081501 0 0.016238493024789091 -0.0017866625636803698 0 0.016389486032051981 -0.0018620314839569013 0 0.015474415750825836 -0.0014754084400990007 0 0.016079623413004888 -0.0016343045851081501 0 0.016238493024789091 -0.0017866625636803698 0 0.016238493024789091 -0.0017866625636803698 0 0.016857601928192766 -0.0017989024236616587 0 0.016090608835023845 -0.0015690662468528678 0 0.016238493024789091 -0.0017866625636803698 0 0.016857601928192766 -0.0017989024236616587 0 0.017096820079273194 -0.0018224992634523487 0 0.015474415750825836 -0.0014754084400990007 0 0.016238493024789091 -0.0017866625636803698 0 0.016090608835023845 -0.0015690662468528678 0 0.016857601928192766 -0.0017989024236616587 0 0.017736009830556097 -0.0020111036637900951 0 0.017730484929996432 -0.0019845734486112531 0 0.016857601928192766 -0.0017989024236616587 0 0.017736009830556097 -0.0020111036637900951 0 0.016962696836837623 -0.001825371622349328 0 0.016962696836837623 -0.001825371622349328 0 0.017232856804106311 -0.0021579469000167655 0 0.017885401886273109 -0.0020295171347469655 0 0.017736009830556097 -0.0020111036637900951 0 0.016962696836837623 -0.001825371622349328 0 0.017885401886273109 -0.0020295171347469655 0 0.016090608835023845 -0.0015690662468528678 0 0.014889678885656649 -0.0013683911067843212 0 0.015528273361299076 -0.0018286060916881722 0 0.016857601928192766 -0.0017989024236616587 0 0.016962696836837623 -0.001825371622349328 0 0.016090608835023845 -0.0015690662468528678 0 0.016962696836837623 -0.001825371622349328 0 0.016090608835023845 -0.0015690662468528678 0 0.015528273361299076 -0.0018286060916881722 0 0.015474415750825836 -0.0014754084400990007 0 0.016090608835023845 -0.0015690662468528678 0 0.014889678885656649 -0.0013683911067843212 0 0.015528273361299076 -0.0018286060916881722 0 0.014386031089525712 -0.0034156040820485078 0 0.012403133378429817 -0.00093975790045931773 0 0.014889678885656649 -0.0013683911067843212 0 0.015528273361299076 -0.0018286060916881722 0 0.012403133378429817 -0.00093975790045931773 0 0.016962696836837623 -0.001825371622349328 0 0.015528273361299076 -0.0018286060916881722 0 0.017232856804106311 -0.0021579469000167655 0 0.015528273361299076 -0.0018286060916881722 0 0.017232856804106311 -0.0021579469000167655 0 0.01648303238292417 -0.0027719434447296414 0 0.017232856804106311 -0.0021579469000167655 0 0.01648303238292417 -0.0027719434447296414 0 0.017666721229716607 -0.0028060102125010301 0 0.01648303238292417 -0.0027719434447296414 0 0.016289536006059983 -0.004337466662481808 0 0.017666721229716607 -0.0028060102125010301 0 0.0088353212154617666 -0.0025036611143720638 0 0.010365797444700292 -0.0012815116701872572 0 0.01648303238292417 -0.0027719434447296414 0 0.014386031089525712 -0.0034156040820485078 0 0.016289536006059983 -0.004337466662481808 0 0.015528273361299076 -0.0018286060916881722 0 0.01648303238292417 -0.0027719434447296414 0 0.014386031089525712 -0.0034156040820485078 0 0.014386031089525712 -0.0034156040820485078 0 0.012403133378429817 -0.00093975790045931773 0 0.011082872145172114 -0.004657598481481626 0 0.0086055510518758885 3.5862170848614331e-06 0 0.012403133378429817 -0.00093975790045931773 0 0.0064828262866878138 -1.0537925360749368e-05 0 0.0064752205152038408 -4.418616182816508e-07 0 0.007567465770349769 -0.0026603616247540349 0 0.012403133378429817 -0.00093975790045931773 0 0.0064828262866878138 -1.0537925360749368e-05 0 0.011082872145172114 -0.004657598481481626 0 0.0034801880756881206 -0.00045018078008159741 0 0.0041073476310677605 5.8648044503643419e-07 0 0.0030157818233246089 -6.3303102584394626e-07 0 0.0064726660758082939 -2.1445676190674562e-06 0 0.0034801880756881206 -0.00045018078008159741 0 0.0041073476310677605 5.8648044503643419e-07 0 0.014386031089525712 -0.0034156040820485078 0 0.011082872145172114 -0.004657598481481626 0 0.013929489468716189 -0.0067436080819298022 0 0.0034801880756881206 -0.00045018078008159741 0 0.0023752891084645408 8.0259710017392745e-05 0 0.0030157818233246089 -6.3303102584394626e-07 0 0.0034801880756881206 -0.00045018078008159741 0 0.001984268147225549 1.2179587579286047e-05 0 0.0017786729663856349 -0.0002081220706872875 0 0.007567465770349769 -0.0026603616247540349 0 0.0064864298560771139 -0.0016312151304511489 0 0.0034801880756881206 -0.00045018078008159741 0 0.001984268147225549 1.2179587579286047e-05 0 0.0023752891084645408 8.0259710017392745e-05 0 0.0023752891084645408 8.0259710017392745e-05 0 0.0020769723326320333 0.00022681887414896084 0 0.0017716313558240658 0.00025186399985069666 0 0.0023752891084645408 8.0259710017392745e-05 0 0.0030157818233246089 -6.3303102584394626e-07 0 0.0020769723326320333 0.00022681887414896084 0 0.0023752891084645408 8.0259710017392745e-05 0 0.0018856423757040912 0.00014069850955584392 0 0.0017716313558240658 0.00025186399985069666 0 0.001984268147225549 1.2179587579286047e-05 0 0.0023752891084645408 8.0259710017392745e-05 0 0.0018856423757040912 0.00014069850955584392 0 0.0018856423757040912 0.00014069850955584392 0 0.0017716313558240658 0.00025186399985069666 0 0.0016474320960198632 0.00020208723873188367 0 0.001984268147225549 1.2179587579286047e-05 0 0.0018856423757040912 0.00014069850955584392 0 0.0017094787193354909 8.0286839742577405e-05 0 0.0041073476310677605 5.8648044503643419e-07 0 0.0030157818233246089 -6.3303102584394626e-07 0 0.0020769723326320333 0.00022681887414896084 0 0.0041073476310677605 5.8648044503643419e-07 0 0.0017389874279719417 5.7974487570154591e-07 0 0.0020769723326320333 0.00022681887414896084 0 0.0017389874279719417 5.7974487570154591e-07 0 0.0020769723326320333 0.00022681887414896084 0 0.0012888895597849225 0.0003183761647553432 0 0.0020769723326320333 0.00022681887414896084 0 0.0017716313558240658 0.00025186399985069666 0 0.0012888895597849225 0.0003183761647553432 0 0.0017716313558240658 0.00025186399985069666 0 0.0012888895597849225 0.0003183761647553432 0 0.0014761689756855063 0.00030207298047339487 0 0.00060389123929713219 7.3544880162425215e-05 0 0.00041854025937262257 0.00026760031272887573 0 0.0010715691523526846 0.00029004225674174414 0 0.0012888895597849225 0.0003183761647553432 0 0.00041854025937262257 0.00026760031272887573 0 0.0010715691523526846 0.00029004225674174414 0 0.0017389874279719417 5.7974487570154591e-07 0 0.0012888895597849225 0.0003183761647553432 0 0.00041854025937262257 0.00026760031272887573 0 -0.00062834905391999591 5.1147481758472666e-07 0 0.0017389874279719417 5.7974487570154591e-07 0 0.00041854025937262257 0.00026760031272887573 0 -0.0083455261588009314 -0.0028406139278810976 0 -0.0082453303913549783 -0.0036728613282308305 0 -0.0088710394004315046 -0.0034974742302538364 0 -0.001440729911063417 -0.0015291000810127699 0 -0.0028747217394999515 -0.0014673429598004986 0 -0.0028747217394999515 -0.0014673429598004986 0 -0.0062889261331435442 -0.0027054946332575034 0 0.0013519601563187239 0.0003173999384867524 0 0.0014140162475175402 0.00029579540323093362 0 0.0010715691523526846 0.00029004225674174414 0 -0.0035765867068535155 -0.0013280956914718306 0 -0.0028747217394999515 -0.0014673429598004986 0 0.00060389123929713219 7.3544880162425215e-05 0 0.0014140162475175402 0.00029579540323093362 0 0.0010715691523526846 0.00029004225674174414 0 0.0012888895597849225 0.0003183761647553432 0 0.0010715691523526846 0.00029004225674174414 0 0.0012946684671351907 0.00031514674962186901 0 0.0013519601563187239 0.0003173999384867524 0 0.0010715691523526846 0.00029004225674174414 0 0.0012946684671351907 0.00031514674962186901 0 0.0013519601563187239 0.0003173999384867524 0 0.0013838721678716178 0.00029719526077368573 0 0.0013897462240887565 0.00021637081710134068 0 0.0013519601563187239 0.0003173999384867524 0 0.0013838721678716178 0.00029719526077368573 0 0.0012946684671351907 0.00031514674962186901 0 0.0013838721678716178 0.00029719526077368573 0 0.0012946684671351907 0.00031514674962186901 0 0.0014761689756855063 0.00030207298047339487 0 0.0012888895597849225 0.0003183761647553432 0 0.0012946684671351907 0.00031514674962186901 0 0.0014761689756855063 0.00030207298047339487 0 0.0017716313558240658 0.00025186399985069666 0 0.0014761689756855063 0.00030207298047339487 0 0.0016474320960198632 0.00020208723873188367 0 0.0013838721678716178 0.00029719526077368573 0 0.0014761689756855063 0.00030207298047339487 0 0.0014704098034539585 0.00023326327362710637 0 0.0014761689756855063 0.00030207298047339487 0 0.0014704098034539585 0.00023326327362710637 0 0.0016474320960198632 0.00020208723873188367 0 0.0014704098034539585 0.00023326327362710637 0 0.0013897462240887565 0.00021637081710134068 0 0.0014745577665944542 0.00013023943032190944 0 0.0013838721678716178 0.00029719526077368573 0 0.0014704098034539585 0.00023326327362710637 0 0.0013897462240887565 0.00021637081710134068 0 0.0013315698179582017 0.00031967937760918807 0 0.0013897462240887565 0.00021637081710134068 0 0.0013144154258378415 0.00011450393578638803 0 -0.0031012978706056096 -0.0021610035735868146 0 -0.0033443626949213544 -0.0025321008052783304 0 -0.0033679057105843245 -0.0020858820106534125 0 -0.0028747217394999515 -0.0014673429598004986 0 -0.0012110224577107213 -0.0012805675030455653 0 0.0013519601563187239 0.0003173999384867524 0 0.0013315698179582017 0.00031967937760918807 0 0.0013897462240887565 0.00021637081710134068 0 0.0013897462240887565 0.00021637081710134068 0 0.0014295140091390628 3.1649922648967368e-05 0 0.0013144154258378415 0.00011450393578638803 0 0.0013897462240887565 0.00021637081710134068 0 0.0014295140091390628 3.1649922648967368e-05 0 0.0014745577665944542 0.00013023943032190944 0 0.0018856423757040912 0.00014069850955584392 0 0.0017094787193354909 8.0286839742577405e-05 0 0.0016474320960198632 0.00020208723873188367 0 0.0014704098034539585 0.00023326327362710637 0 0.0016474320960198632 0.00020208723873188367 0 0.0015639829326941157 0.00013880055466935722 0 0.0017094787193354909 8.0286839742577405e-05 0 0.0015639829326941157 0.00013880055466935722 0 0.0015615704976586113 3.5410365495669471e-05 0 0.0017094787193354909 8.0286839742577405e-05 0 0.0016474320960198632 0.00020208723873188367 0 0.0015639829326941157 0.00013880055466935722 0 0.0015639829326941157 0.00013880055466935722 0 0.0014745577665944542 0.00013023943032190944 0 0.0015615704976586113 3.5410365495669471e-05 0 0.0014704098034539585 0.00023326327362710637 0 0.0015639829326941157 0.00013880055466935722 0 0.0014745577665944542 0.00013023943032190944 0 0.0014295140091390628 3.1649922648967368e-05 0 0.0014745577665944542 0.00013023943032190944 0 0.0015615704976586113 3.5410365495669471e-05 0 0.0017094787193354909 8.0286839742577405e-05 0 0.0015615704976586113 3.5410365495669471e-05 0 0.0017472994036577651 -0.00016998104423087852 0 0.0032262870464026907 0.00025762392142206209 0 0.0064864298560771139 -0.0016312151304511489 0 0.001984268147225549 1.2179587579286047e-05 0 0.0017094787193354909 8.0286839742577405e-05 0 0.0017472994036577651 -0.00016998104423087852 0 0.00435811636389503 -0.0018418207835984356 0 0.0064864298560771139 -0.0016312151304511489 0 0.014386031089525712 -0.0034156040820485078 0 0.013929489468716189 -0.0067436080819298022 0 0.016289536006059983 -0.004337466662481808 0 0.0064864298560771139 -0.0016312151304511489 0 0.0088353212154617666 -0.0025036611143720638 0 0.0015615704976586113 3.5410365495669471e-05 0 0.0016150580678542773 1.8418357103519632e-06 0 0.0015086846062464488 -0.00010968427945594453 0 0.0014295140091390628 3.1649922648967368e-05 0 0.0015615704976586113 3.5410365495669471e-05 0 0.0015086846062464488 -0.00010968427945594453 0 0.0014295140091390628 3.1649922648967368e-05 0 0.0015086846062464488 -0.00010968427945594453 0 0.0012881042556237494 -7.3121478219063707e-05 0 0.0058808923764049701 -0.0020146238907837039 0 0.0057217721466107981 -0.0015148040427930855 0 0.0052174087115964126 -0.002132183462729391 0 0.0022903148487886668 -0.00084546838340238551 0 0.0011147353210346376 -0.0022124186488804184 0 -0.0035253684628701472 -0.0028233171223183929 0 -0.0036872043539303411 -0.0026234303683489277 0 -0.0033443626949213544 -0.0025321008052783304 0 -0.0036872043539303411 -0.0026234303683489277 0 -0.0036817338518909939 -0.0025417481476969284 0 -0.0033443626949213544 -0.0025321008052783304 0 -0.0036872043539303411 -0.0026234303683489277 0 -0.0036817338518909939 -0.0025417481476969284 0 -0.003731436668094668 -0.0024727039113604478 0 0.0011147353210346376 -0.0022124186488804184 0 -0.0011622226614176753 -0.0021836616487909454 0 0.0022903148487886668 -0.00084546838340238551 0 -0.0012110224577107213 -0.0012805675030455653 0 0.0014295140091390628 3.1649922648967368e-05 0 0.0012881042556237494 -7.3121478219063707e-05 0 0.0013144154258378415 0.00011450393578638803 0 -0.0036817338518909939 -0.0025417481476969284 0 -0.0033443626949213544 -0.0025321008052783304 0 -0.0035157567261119072 -0.0023812164530159614 0 -0.0033443626949213544 -0.0025321008052783304 0 -0.0035157567261119072 -0.0023812164530159614 0 -0.0033679057105843245 -0.0020858820106534125 0 -0.0035157567261119072 -0.0023812164530159614 0 -0.0033679057105843245 -0.0020858820106534125 0 -0.0035696332614106427 -0.0021718639330412259 0 -0.0036817338518909939 -0.0025417481476969284 0 -0.0035157567261119072 -0.0023812164530159614 0 -0.0037762357478445139 -0.002405005031639324 0 -0.0038120640629315575 -0.0019211211284555867 0 -0.0011622226614176753 -0.0021836616487909454 0 -0.0036817338518909939 -0.0025417481476969284 0 -0.0037762357478445139 -0.002405005031639324 0 -0.004022755598584957 -0.002445592584242698 0 -0.0037762357478445139 -0.002405005031639324 0 -0.003745187654487074 -0.002223715638829003 0 -0.0039777910943172203 -0.0021368009254783909 0 -0.0037762357478445139 -0.002405005031639324 0 -0.0039777910943172203 -0.0021368009254783909 0 -0.004022755598584957 -0.002445592584242698 0 -0.0035157567261119072 -0.0023812164530159614 0 -0.0037762357478445139 -0.002405005031639324 0 -0.003745187654487074 -0.002223715638829003 0 -0.0035157567261119072 -0.0023812164530159614 0 -0.003745187654487074 -0.002223715638829003 0 -0.0035696332614106427 -0.0021718639330412259 0 -0.003745187654487074 -0.002223715638829003 0 -0.0036475225530003424 -0.0020035935017312365 0 -0.0035696332614106427 -0.0021718639330412259 0 -0.0036965047149484665 -0.0011258473141896475 0 -0.0079321054868460843 -0.0038166073354082147 0 -0.009214112412752367 -0.0040141542161799141 0 -0.0079321054868460843 -0.0038166073354082147 0 -0.003745187654487074 -0.002223715638829003 0 -0.0035405670409924392 -0.0017846430681078295 0 -0.0039777910943172203 -0.0021368009254783909 0 -0.0035405670409924392 -0.0017846430681078295 0 -0.0040787778269558549 -0.0018504216603205926 0 -0.0039777910943172203 -0.0021368009254783909 0 -0.0079321054868460843 -0.0038166073354082147 0 -0.0062889261331435442 -0.0027054946332575034 0 -0.0036475225530003424 -0.0020035935017312365 0 -0.0033679057105843245 -0.0020858820106534125 0 -0.0035696332614106427 -0.0021718639330412259 0 -0.0044754284497095049 -0.0014338762860814566 0 -0.0040787778269558549 -0.0018504216603205926 0 -0.0043096121514582504 -0.0019874676267844539 0 -0.0044754284497095049 -0.0014338762860814566 0 -0.0048954485007869745 -0.002007838697342799 0 -0.0043096121514582504 -0.0019874676267844539 0 -0.0044754284497095049 -0.0014338762860814566 0 -0.0035405670409924392 -0.0017846430681078295 0 -0.0040787778269558549 -0.0018504216603205926 0 -0.0048954485007869745 -0.002007838697342799 0 -0.0043096121514582504 -0.0019874676267844539 0 -0.0041327921485244286 -0.0023316938625370415 0 -0.0040787778269558549 -0.0018504216603205926 0 -0.0043096121514582504 -0.0019874676267844539 0 -0.0039777910943172203 -0.0021368009254783909 0 -0.0048954485007869745 -0.002007838697342799 0 -0.0041327921485244286 -0.0023316938625370415 0 -0.0040171965527414592 -0.0024936467471601701 0 -0.00033498918215060092 -0.00058317821198788065 0 -0.0011622226614176753 -0.0021836616487909454 0 -0.0039777910943172203 -0.0021368009254783909 0 -0.0041327921485244286 -0.0023316938625370415 0 -0.004022755598584957 -0.002445592584242698 0 -0.0043096121514582504 -0.0019874676267844539 0 -0.0039777910943172203 -0.0021368009254783909 0 -0.0041327921485244286 -0.0023316938625370415 0 -0.0020770168918482269 -0.0017880648972542687 0 -0.0011622226614176753 -0.0021836616487909454 0 0.0038959203267787683 0.00079183440606618507 0 0.0054843897650643679 -0.00056455778976146123 0 0.0035423758244434332 -0.00070448168042557815 0 0.0035423758244434332 -0.00070448168042557815 0 0.0048135938125575721 -0.0016308328908151977 0 0.0031322522233725929 -0.0030782739461742872 0 0.0057217721466107981 -0.0015148040427930855 0 0.0054843897650643679 -0.00056455778976146123 0 0.0048135938125575721 -0.0016308328908151977 0 0.0054843897650643679 -0.00056455778976146123 0 0.0035423758244434332 -0.00070448168042557815 0 0.0048135938125575721 -0.0016308328908151977 0 0.0057217721466107981 -0.0015148040427930855 0 0.0048135938125575721 -0.0016308328908151977 0 0.0052174087115964126 -0.002132183462729391 0 0.0047196716673130598 -0.0017508299658298954 0 0.0040926651221239634 -0.0024633744380126413 0 0.0048135938125575721 -0.0016308328908151977 0 0.0052174087115964126 -0.002132183462729391 0 0.0047014082666958388 -0.0021263873559428971 0 0.0052174087115964126 -0.002132183462729391 0 0.005057141534920968 -0.0024491782701844436 0 0.0047014082666958388 -0.0021263873559428971 0 0.005057141534920968 -0.0024491782701844436 0 0.0048039806304987359 -0.0026092368566108456 0 0.0047014082666958388 -0.0021263873559428971 0 0.005057141534920968 -0.0024491782701844436 0 0.0051044289892496165 -0.0027288252242131904 0 0.0048039806304987359 -0.0026092368566108456 0 0.0051044289892496165 -0.0027288252242131904 0 0.0048856965022795896 -0.0029026990307017084 0 0.0048039806304987359 -0.0026092368566108456 0 0.0066402944454401671 -0.0018944369021734252 0 0.0050328350429395445 -0.0031570045004512283 0 0.005057141534920968 -0.0024491782701844436 0 0.0051044289892496165 -0.0027288252242131904 0 0.0053685624261100356 -0.002614170876672298 0 0.0051044289892496165 -0.0027288252242131904 0 0.0053685624261100356 -0.002614170876672298 0 0.0052850453096525687 -0.003080665066560359 0 0.0063888506371905752 -0.0014822948048939741 0 0.0052850453096525687 -0.003080665066560359 0 0.0061935270471421217 -0.0025828307420917743 0 0.0052174087115964126 -0.002132183462729391 0 0.005057141534920968 -0.0024491782701844436 0 0.0053685624261100356 -0.002614170876672298 0 0.0022903148487886668 -0.00084546838340238551 0 0.0066402944454401671 -0.0018944369021734252 0 0.0074205712322894099 1.8445014663243232e-05 0 0.0063888506371905752 -0.0014822948048939741 0 0.007312897496536774 -0.0014317925138550684 0 0.0058808923764049701 -0.0020146238907837039 0 0.0052174087115964126 -0.002132183462729391 0 0.0053685624261100356 -0.002614170876672298 0 0.0015086846062464488 -0.00010968427945594453 0 0.0012881042556237494 -7.3121478219063707e-05 0 0.0014467803439888684 -0.00023644597396907995 0 0.0022903148487886668 -0.00084546838340238551 0 0.010365797444700292 -0.0012815116701872572 0 0.0074205712322894099 1.8445014663243232e-05 0 0.0082332106117322564 -0.0013545635379489428 0 0.007312897496536774 -0.0014317925138550684 0 0.010365797444700292 -0.0012815116701872572 0 0.012856796971906838 -0.0021558757299889914 0 0.017232856804106311 -0.0021579469000167655 0 0.017449071584681387 -0.0026316556854369152 0 0.018084262834801027 -0.0021585830247228747 0 0.017275771966236513 -0.003726985027530019 0 0.010365797444700292 -0.0012815116701872572 0 0.0063888506371905752 -0.0014822948048939741 0 0.00721065879054572 -0.0023509288069468088 0 0.0061935270471421217 -0.0025828307420917743 0 0.0082332106117322564 -0.0013545635379489428 0 0.007312897496536774 -0.0014317925138550684 0 0.00721065879054572 -0.0023509288069468088 0 0.0063888506371905752 -0.0014822948048939741 0 0.007312897496536774 -0.0014317925138550684 0 0.00721065879054572 -0.0023509288069468088 0 0.018084262834801027 -0.0021585830247228747 0 0.018356827248589835 -0.002165502476345056 0 0.018115284437851379 -0.0021491235728641131 0 0.018084262834801027 -0.0021585830247228747 0 0.017885401886273109 -0.0020295171347469655 0 0.018356827248589835 -0.002165502476345056 0 0.018084262834801027 -0.0021585830247228747 0 0.018115284437851379 -0.0021491235728641131 0 0.018024739093754502 -0.0021107855010310201 0 0.012856796971906838 -0.0021558757299889914 0 0.012964342513864179 -0.0034901147345847406 0 0.017232856804106311 -0.0021579469000167655 0 0.018084262834801027 -0.0021585830247228747 0 0.017885401886273109 -0.0020295171347469655 0 0.017885401886273109 -0.0020295171347469655 0 0.018405438119095403 -0.0022321120034989534 0 0.018356827248589835 -0.002165502476345056 0 0.017736009830556097 -0.0020111036637900951 0 0.018405438119095403 -0.0022321120034989534 0 0.018512904271294092 -0.0022256008673790391 0 0.017736009830556097 -0.0020111036637900951 0 0.017885401886273109 -0.0020295171347469655 0 0.018405438119095403 -0.0022321120034989534 0 0.018356827248589835 -0.002165502476345056 0 0.01781120921343475 -0.0023037726281486168 0 0.019066016103612037 -0.0026479428409782735 0 0.018405438119095403 -0.0022321120034989534 0 0.018356827248589835 -0.002165502476345056 0 0.019066016103612037 -0.0026479428409782735 0 0.018356827248589835 -0.002165502476345056 0 0.018115284437851379 -0.0021491235728641131 0 0.01781120921343475 -0.0023037726281486168 0 0.018115284437851379 -0.0021491235728641131 0 0.01781120921343475 -0.0023037726281486168 0 0.018024739093754502 -0.0021107855010310201 0 0.019703173180789912 -0.0051830992776725456 0 0.012964342513864179 -0.0034901147345847406 0 0.016297781792030515 -0.0037987752440429776 0 0.015856556072545418 -0.0035726390542291818 0 0.015679067716448478 -0.0043734158478523832 0 0.015374975611663103 -0.0041318783926349422 0 0.012964342513864179 -0.0034901147345847406 0 0.0055805838907017416 -0.0037093275749086416 0 0.0061023532555172936 -0.0033449666156537619 0 0.0058076734097098287 -0.0032073969406148121 0 0.025119876488300424 -0.010141306789503517 0 0.024441900844614454 -0.0097888663643476495 0 0.025451205247420592 -0.0087737002152973951 0 0.015374975611663103 -0.0041318783926349422 0 0.019703173180789912 -0.0051830992776725456 0 0.015374975611663103 -0.0041318783926349422 0 0.0097598637240372405 -0.0027375931130783617 0 0.015764585399739853 -0.0027498757816311306 0 0.016574981876235233 -0.0026886792229012875 0 0.016510955353380152 -0.0019948581691770391 0 0.015764585399739853 -0.0027498757816311306 0 0.016486225789290928 -0.0030655495060762871 0 0.016574981876235233 -0.0026886792229012875 0 0.0051044289892496165 -0.0027288252242131904 0 0.0052850453096525687 -0.003080665066560359 0 0.0048856965022795896 -0.0029026990307017084 0 0.0055805838907017416 -0.0037093275749086416 0 0.0052850453096525687 -0.003080665066560359 0 0.0048471463944197721 -0.0032021537302860462 0 0.0052850453096525687 -0.003080665066560359 0 0.0048856965022795896 -0.0029026990307017084 0 0.0048471463944197721 -0.0032021537302860462 0 0.00721065879054572 -0.0023509288069468088 0 0.0061484788700448181 -0.0032142788372386891 0 0.006121843666312984 -0.0033609150308352479 0 0.00721065879054572 -0.0023509288069468088 0 0.0061935270471421217 -0.0025828307420917743 0 0.0061484788700448181 -0.0032142788372386891 0 0.012591252052435874 -0.0036223082019226018 0 0.012964342513864179 -0.0034901147345847406 0 0.0061484788700448181 -0.0032142788372386891 0 0.0061023532555172936 -0.0033449666156537619 0 0.0058076734097098287 -0.0032073969406148121 0 0.0061935270471421217 -0.0025828307420917743 0 0.0061484788700448181 -0.0032142788372386891 0 0.0058076734097098287 -0.0032073969406148121 0 0.0052850453096525687 -0.003080665066560359 0 0.0061935270471421217 -0.0025828307420917743 0 0.0058076734097098287 -0.0032073969406148121 0 0.0055805838907017416 -0.0037093275749086416 0 0.0052850453096525687 -0.003080665066560359 0 0.0058076734097098287 -0.0032073969406148121 0 0.01683506315335933 -0.0029305969547135974 0 0.016270823933844641 -0.0029722707595612463 0 0.015895375930494688 -0.0022902473939147875 0 0.016889251957177075 -0.0030717895469971768 0 0.01683506315335933 -0.0029305969547135974 0 0.016270823933844641 -0.0029722707595612463 0 0.016889251957177075 -0.0030717895469971768 0 0.01683506315335933 -0.0029305969547135974 0 0.016486225789290928 -0.0030655495060762871 0 0.0045045402311657788 -0.0029557844779774601 0 0.0048856965022795896 -0.0029026990307017084 0 0.0048471463944197721 -0.0032021537302860462 0 0.01128385125774059 -0.0031374919532250476 0 0.0097598637240372405 -0.0027375931130783617 0 0.016889251957177075 -0.0030717895469971768 0 0.016486225789290928 -0.0030655495060762871 0 0.016574981876235233 -0.0026886792229012875 0 0.016889251957177075 -0.0030717895469971768 0 0.016574981876235233 -0.0026886792229012875 0 0.01709452196519725 -0.002477847765054031 0 0.016574981876235233 -0.0026886792229012875 0 0.01709452196519725 -0.002477847765054031 0 0.016510955353380152 -0.0019948581691770391 0 0.016889251957177075 -0.0030717895469971768 0 0.01709452196519725 -0.002477847765054031 0 0.017598984548337873 -0.0025809812787803625 0 0.016889251957177075 -0.0030717895469971768 0 0.017598984548337873 -0.0025809812787803625 0 0.018250595730747186 -0.0030921631554438654 0 0.018138027788126256 -0.0026130001852241232 0 0.018464383299311216 -0.0025843436309074931 0 0.018225023189325899 -0.0022027431587644201 0 0.017598984548337873 -0.0025809812787803625 0 0.018138027788126256 -0.0026130001852241232 0 0.018225023189325899 -0.0022027431587644201 0 0.018138027788126256 -0.0026130001852241232 0 0.018464383299311216 -0.0025843436309074931 0 0.018250595730747186 -0.0030921631554438654 0 0.017598984548337873 -0.0025809812787803625 0 0.018138027788126256 -0.0026130001852241232 0 0.018250595730747186 -0.0030921631554438654 0 0.018743649614891545 -0.0028868873941776826 0 0.018934340941564595 -0.0023205266145768901 0 0.018464383299311216 -0.0025843436309074931 0 0.018713973592594919 -0.002936819566358502 0 0.019136171337823804 -0.0019459989356954888 0 0.018464383299311216 -0.0025843436309074931 0 0.018713973592594919 -0.002936819566358502 0 0.018250595730747186 -0.0030921631554438654 0 0.018713973592594919 -0.002936819566358502 0 0.018799340910568344 -0.0029847125675875577 0 0.018785818234254726 -0.002829809034326902 0 0.016551480230171056 -0.0028191954273017882 0 0.017045752971357464 -0.0031668998290462231 0 0.015107451979913554 -0.0033061890164339763 0 0.015516027846093187 -0.0029538923330257416 0 0.015764791115799138 -0.0033039109107564284 0 0.012943757212242692 -0.0033608635550158375 0 0.014199990231626302 -0.0022865049432196248 0 0.011290884362878293 -0.0020870086858231804 0 0.018713973592594919 -0.002936819566358502 0 0.018799340910568344 -0.0029847125675875577 0 0.018250595730747186 -0.0030921631554438654 0 0.016551480230171056 -0.0028191954273017882 0 0.012650158488152482 -0.0029156545463947304 0 0.016889251957177075 -0.0030717895469971768 0 0.015764791115799138 -0.0033039109107564284 0 0.016270823933844641 -0.0029722707595612463 0 0.012650158488152482 -0.0029156545463947304 0 0.017101564341124427 -0.0030293164205091581 0 0.016869541890264662 -0.0031018692228378087 0 0.017045752971357464 -0.0031668998290462231 0 0.015082938123052989 -0.0029367577307647282 0 0.016270823933844641 -0.0029722707595612463 0 0.015895375930494688 -0.0022902473939147875 0 0.015516027846093187 -0.0029538923330257416 0 0.015764791115799138 -0.0033039109107564284 0 0.016270823933844641 -0.0029722707595612463 0 0.012650158488152482 -0.0029156545463947304 0 0.0066389251723290256 -0.0034272450561529102 0 -9.9267475215410161e-06 -0.0057697758443191046 0 -0.00056382685557373113 -0.004636197346031011 0 0.0015355621134676767 -0.0044306793162551946 0 0.0068673245252574315 -0.0036230380998490482 0 0.0059898263089052523 -0.0018413440082163061 0 0.0049780735176319967 -0.0035019163610377053 0 -9.9267475215410161e-06 -0.0057697758443191046 0 -0.0020659498059446444 -0.0047674310337285268 0 -0.0019307838715017607 -0.0047643067069873275 0 0.0066389251723290256 -0.0034272450561529102 0 0.0012585731207244047 -0.003335018770799184 0 -9.9267475215410161e-06 -0.0057697758443191046 0 -0.0019307838715017607 -0.0047643067069873275 0 -0.00056382685557373113 -0.004636197346031011 0 0.0068673245252574315 -0.0036230380998490482 0 0.0078452100993017491 -0.0027788391074790972 0 0.0059898263089052523 -0.0018413440082163061 0 -0.0019307838715017607 -0.0047643067069873275 0 -0.001390813921375644 -0.0041311010833285436 0 -0.00056382685557373113 -0.004636197346031011 0 -0.0020690187066495025 -0.0047673064702598369 0 -0.001390813921375644 -0.0041311010833285436 0 -0.0020454644124725889 -0.0030505386918380471 0 -0.0020690187066495025 -0.0047673064702598369 0 -0.0019307838715017607 -0.0047643067069873275 0 -0.001390813921375644 -0.0041311010833285436 0 0.0012585731207244047 -0.003335018770799184 0 0.00096303347882182742 -0.0033723779982923687 0 -0.00056382685557373113 -0.004636197346031011 0 0.0015355621134676767 -0.0044306793162551946 0 -0.0003542685235531252 -0.0034406382124662115 0 -0.001390813921375644 -0.0041311010833285436 0 -0.00056382685557373113 -0.004636197346031011 0 -0.0003542685235531252 -0.0034406382124662115 0 0.01128385125774059 -0.0031374919532250476 0 0.0066389251723290256 -0.0034272450561529102 0 0.0066389251723290256 -0.0034272450561529102 0 0.0022014460706079727 -0.0038427839595499631 0 0.0045045402311657788 -0.0029557844779774601 0 0.0041944326947578759 -0.0027853095740689102 0 0.0044683838220133526 -0.0024815733044079575 0 0.0045045402311657788 -0.0029557844779774601 0 0.0048856965022795896 -0.0029026990307017084 0 0.0048039806304987359 -0.0026092368566108456 0 0.0045045402311657788 -0.0029557844779774601 0 0.0044683838220133526 -0.0024815733044079575 0 0.0048039806304987359 -0.0026092368566108456 0 0.0044683838220133526 -0.0024815733044079575 0 0.0048039806304987359 -0.0026092368566108456 0 0.0047014082666958388 -0.0021263873559428971 0 0.0022014460706079727 -0.0038427839595499631 0 0.0040926651221239634 -0.0024633744380126413 0 0.0031322522233725929 -0.0030782739461742872 0 0.0011365790856459415 -0.0025345801664889518 0 0.0019436162463980222 -0.0012081677137192105 0 0.0015355621134676767 -0.0044306793162551946 0 0.0031322522233725929 -0.0030782739461742872 0 0.0011365790856459415 -0.0025345801664889518 0 0.0015355621134676767 -0.0044306793162551946 0 0.0011365790856459415 -0.0025345801664889518 0 -0.0003542685235531252 -0.0034406382124662115 0 0.0011365790856459415 -0.0025345801664889518 0 0.0019436162463980222 -0.0012081677137192105 0 0.00039654132090366642 -0.00063991967566480728 0 0.0035423758244434332 -0.00070448168042557815 0 0.0031322522233725929 -0.0030782739461742872 0 0.0019436162463980222 -0.0012081677137192105 0 0.0035423758244434332 -0.00070448168042557815 0 0.0019436162463980222 -0.0012081677137192105 0 0.0019795265084922718 0.00024508137782865651 0 0.0038959203267787683 0.00079183440606618507 0 0.0035423758244434332 -0.00070448168042557815 0 0.0019795265084922718 0.00024508137782865651 0 0.0019436162463980222 -0.0012081677137192105 0 0.0019795265084922718 0.00024508137782865651 0 0.00039654132090366642 -0.00063991967566480728 0 0.0019795265084922718 0.00024508137782865651 0 -1.118968864415055e-05 0.0011030693029702894 0 0.00039654132090366642 -0.00063991967566480728 0 0.0020801550633521627 0.0021140327462661115 0 0.0019795265084922718 0.00024508137782865651 0 -1.118968864415055e-05 0.0011030693029702894 0 0.0020801550633521627 0.0021140327462661115 0 0.0038959203267787683 0.00079183440606618507 0 0.0019795265084922718 0.00024508137782865651 0 -0.001195981617953108 0.00048633971685410631 0 -0.00033498918215060092 -0.00058317821198788065 0 -0.0021424679825639481 0.0020605961657404353 0 -0.001393633969198331 -8.9337409111766412e-05 0 -0.0032007168243749925 0.00034704344681383637 0 -0.0021424679825639481 0.0020605961657404353 0 -1.118968864415055e-05 0.0011030693029702894 0 -0.001393633969198331 -8.9337409111766412e-05 0 -1.118968864415055e-05 0.0011030693029702894 0 0.00039654132090366642 -0.00063991967566480728 0 -0.001393633969198331 -8.9337409111766412e-05 0 0.00039654132090366642 -0.00063991967566480728 0 -0.001393633969198331 -8.9337409111766412e-05 0 -0.00080290469329165153 -0.0018158006939253946 0 -0.00080290469329165153 -0.0018158006939253946 0 -0.0020454644124725889 -0.0030505386918380471 0 -0.0025526615913520406 -0.0013642155854492197 0 -0.001393633969198331 -8.9337409111766412e-05 0 -0.00080290469329165153 -0.0018158006939253946 0 -0.0025526615913520406 -0.0013642155854492197 0 0.0011365790856459415 -0.0025345801664889518 0 0.00039654132090366642 -0.00063991967566480728 0 -0.00080290469329165153 -0.0018158006939253946 0 0.0011365790856459415 -0.0025345801664889518 0 -0.00080290469329165153 -0.0018158006939253946 0 -0.0003542685235531252 -0.0034406382124662115 0 -0.001390813921375644 -0.0041311010833285436 0 -0.0003542685235531252 -0.0034406382124662115 0 -0.0020454644124725889 -0.0030505386918380471 0 -0.00080290469329165153 -0.0018158006939253946 0 -0.0003542685235531252 -0.0034406382124662115 0 -0.0020454644124725889 -0.0030505386918380471 0 -0.0020454644124725889 -0.0030505386918380471 0 -0.0034782504884781906 -0.0025441635889932928 0 -0.0037383380694820615 -0.0039424406523956125 0 -0.0020454644124725889 -0.0030505386918380471 0 -0.0034782504884781906 -0.0025441635889932928 0 -0.0025526615913520406 -0.0013642155854492197 0 -0.0034782504884781906 -0.0025441635889932928 0 -0.0042856084139990475 -0.0013673017017791788 0 -0.0053984462067037829 -0.0031020735809243962 0 -0.0034782504884781906 -0.0025441635889932928 0 -0.0053984462067037829 -0.0031020735809243962 0 -0.0037383380694820615 -0.0039424406523956125 0 -0.007975544632191061 -0.0004674170884170671 0 -0.00771960545064367 -0.0017462966164834115 0 -0.00771960545064367 -0.0017462966164834115 0 -0.0018469119787595093 -0.00330827492573854 0 -0.0034782504884781906 -0.0025441635889932928 0 -0.0042856084139990475 -0.0013673017017791788 0 -0.0025526615913520406 -0.0013642155854492197 0 -0.0042856084139990475 -0.0013673017017791788 0 -0.0025526615913520406 -0.0013642155854492197 0 -0.0032007168243749925 0.00034704344681383637 0 -0.001393633969198331 -8.9337409111766412e-05 0 -0.0025526615913520406 -0.0013642155854492197 0 -0.0032007168243749925 0.00034704344681383637 0 -0.011456032005597146 0.00048192499468221361 0 -0.010950276086952189 0.0012866182557607706 0 -0.011881225611413269 0.0010027744794454552 0 -0.007975544632191061 -0.0004674170884170671 0 -0.0071474205286769397 0.00072747126017754632 0 -0.010950276086952189 0.0012866182557607706 0 -0.011876215900034463 0.0016660022432171343 0 -0.011881225611413269 0.0010027744794454552 0 -0.011340461654144528 0.0021097538593386096 0 -0.010950276086952189 0.0012866182557607706 0 -0.011876215900034463 0.0016660022432171343 0 -0.011340461654144528 0.0021097538593386096 0 -0.010437187757684287 0.0020958368662731919 0 -0.010950276086952189 0.0012866182557607706 0 -0.0057738492559026638 0.0025098378910624734 0 -0.0071474205286769397 0.00072747126017754632 0 -0.01254806619009558 0.0020648742776252231 0 -0.013269379484032869 0.0022899011743520454 0 -0.012881915566311204 0.001545372633867509 0 -0.01254806619009558 0.0020648742776252231 0 -0.012881915566311204 0.001545372633867509 0 -0.012370452028341057 0.0014758649168647724 0 -0.011876215900034463 0.0016660022432171343 0 -0.012370452028341057 0.0014758649168647724 0 -0.011881225611413269 0.0010027744794454552 0 -0.01254806619009558 0.0020648742776252231 0 -0.011876215900034463 0.0016660022432171343 0 -0.012370452028341057 0.0014758649168647724 0 -0.012370452028341057 0.0014758649168647724 0 -0.011881225611413269 0.0010027744794454552 0 -0.012482617388342962 0.0010172285945170764 0 -0.011881225611413269 0.0010027744794454552 0 -0.012482617388342962 0.0010172285945170764 0 -0.012182419553142969 0.00046297443725105931 0 -0.012482617388342962 0.0010172285945170764 0 -0.012962346459555374 0.001093898851219236 0 -0.012713457758823425 0.00064164248725277447 0 -0.012881915566311204 0.001545372633867509 0 -0.012370452028341057 0.0014758649168647724 0 -0.012482617388342962 0.0010172285945170764 0 -0.012881915566311204 0.001545372633867509 0 -0.012482617388342962 0.0010172285945170764 0 -0.012962346459555374 0.001093898851219236 0 -0.013181370793053825 0.00080246296910928998 0 -0.012962346459555374 0.001093898851219236 0 -0.012713457758823425 0.00064164248725277447 0 -0.012713457758823425 0.00064164248725277447 0 -0.012182419553142969 0.00046297443725105931 0 -0.012601818131390734 9.674459885840246e-06 0 -0.01299491935619445 0.00052262332105462944 0 -0.012713457758823425 0.00064164248725277447 0 -0.012601818131390734 9.674459885840246e-06 0 -0.013181370793053825 0.00080246296910928998 0 -0.01299491935619445 0.00052262332105462944 0 -0.012713457758823425 0.00064164248725277447 0 -0.012482617388342962 0.0010172285945170764 0 -0.012713457758823425 0.00064164248725277447 0 -0.012182419553142969 0.00046297443725105931 0 -0.01280632853365167 0.00017804102742227478 0 -0.012697148129574396 9.9949950204713742e-05 0 -0.013144036711842463 0.00035648558645132449 0 -0.01299491935619445 0.00052262332105462944 0 -0.012601818131390734 9.674459885840246e-06 0 -0.012728977080392747 -0.00020490810342880183 0 -0.013144036711842463 0.00035648558645132449 0 -0.011518634401876495 -0.00043937738068113301 0 -0.011456032005597146 0.00048192499468221361 0 -0.011881225611413269 0.0010027744794454552 0 -0.012182419553142969 0.00046297443725105931 0 -0.011456032005597146 0.00048192499468221361 0 -0.012182419553142969 0.00046297443725105931 0 -0.011952764102559773 -0.00032752023615947005 0 -0.012182419553142969 0.00046297443725105931 0 -0.011952764102559773 -0.00032752023615947005 0 -0.012601818131390734 9.674459885840246e-06 0 -0.00771960545064367 -0.0017462966164834115 0 -0.012697148129574396 9.9949950204713742e-05 0 -0.010770610368334779 -0.00098226726041395905 0 -0.011518634401876495 -0.00043937738068113301 0 -0.011467404173801644 -0.0012214365390244575 0 -0.012419570393034363 -0.0005517401884718513 0 -0.011518634401876495 -0.00043937738068113301 0 -0.011846321181910899 -0.0011179566368932955 0 -0.013065740742169816 -0.00053994953195293479 0 -0.012419570393034363 -0.0005517401884718513 0 -0.011846321181910899 -0.0011179566368932955 0 -0.012728977080392747 -0.00020490810342880183 0 -0.012419570393034363 -0.0005517401884718513 0 -0.011518634401876495 -0.00043937738068113301 0 -0.011518634401876495 -0.00043937738068113301 0 -0.011846321181910899 -0.0011179566368932955 0 -0.011467404173801644 -0.0012214365390244575 0 -0.011846321181910899 -0.0011179566368932955 0 -0.011757759517300839 -0.0014016210179684956 0 -0.011467404173801644 -0.0012214365390244575 0 -0.011930450313919856 -0.0015482162822633475 0 -0.011757759517300839 -0.0014016210179684956 0 -0.011419932787029805 -0.0017395722762642896 0 -0.0049484504976165895 -0.0019080188065126881 0 -0.0030854410342843861 -0.0026899076957643637 0 -0.011957087950250687 -0.0013269264314543035 0 -0.011846321181910899 -0.0011179566368932955 0 -0.011757759517300839 -0.0014016210179684956 0 -0.011757759517300839 -0.0014016210179684956 0 -0.011467404173801644 -0.0012214365390244575 0 -0.011419932787029805 -0.0017395722762642896 0 -0.0030854410342843861 -0.0026899076957643637 0 0.003714138770964103 -0.0020956943923217358 0 0.0020843402773994329 -0.0019120499863039249 0 0.0012635712579311292 -0.0032476764991959425 0 0.0031008301786043788 -0.0033769792133321983 0 0.0021410843057120365 -0.0023013987044710406 0 0.0014920004169461066 -0.002339064302361994 0 0.0019107005163537349 -0.0017980097239334119 0 0.0020843402773994329 -0.0019120499863039249 0 0.0040303925617050989 -0.0018740831339240866 0 0.0031008301786043788 -0.0033769792133321983 0 -0.0028390729584668352 -0.0012038521876370817 0 -0.0042125525336225034 -0.0034055068563224452 0 -0.0014240776299924462 -0.0033734525389509926 0 -0.00771960545064367 -0.0017462966164834115 0 -0.0030854410342843861 -0.0026899076957643637 0 -0.010770610368334779 -0.00098226726041395905 0 -0.011467404173801644 -0.0012214365390244575 0 -0.011419932787029805 -0.0017395722762642896 0 -0.0030854410342843861 -0.0026899076957643637 0 0.0022276929225967679 -0.00253627876722912 0 -0.0028390729584668352 -0.0012038521876370817 0 -0.00072845135970645448 -0.0022675189543942625 0 -0.0014240776299924462 -0.0033734525389509926 0 0.0013757087470037748 -0.0033418418434083053 0 -0.00072845135970645448 -0.0022675189543942625 0 -0.0014240776299924462 -0.0033734525389509926 0 -0.0020690187066495025 -0.0047673064702598369 0 -0.0020454644124725889 -0.0030505386918380471 0 -0.0037383380694820615 -0.0039424406523956125 0 0.0012585731207244047 -0.003335018770799184 0 -0.0018469119787595093 -0.00330827492573854 0 0.0012585731207244047 -0.003335018770799184 0 0.0022276929225967679 -0.00253627876722912 0 0.0059898263089052523 -0.0018413440082163061 0 0.0040303925617050989 -0.0018740831339240866 0 0.0049780735176319967 -0.0035019163610377053 0 0.0040303925617050989 -0.0018740831339240866 0 0.0049780735176319967 -0.0035019163610377053 0 0.0031008301786043788 -0.0033769792133321983 0 0.0097229037198736136 -0.0034381609409847515 0 0.011290884362878293 -0.0020870086858231804 0 0.0083414908855490577 -0.0018896521968297401 0 0.0076979676794587965 -0.0027794019253694082 0 0.0057447429759525746 -0.0026753101046570822 0 0.0099140526492148898 -0.0034340427895348216 0 0.0097229037198736136 -0.0034381609409847515 0 0.011290884362878293 -0.0020870086858231804 0 0.014289334255053274 -0.00289277717422309 0 0.01426004013261321 -0.0028837583639059498 0 0.016551480230171056 -0.0028191954273017882 0 0.014289334255053274 -0.00289277717422309 0 0.012650158488152482 -0.0029156545463947304 0 0.0076979676794587965 -0.0027794019253694082 0 0.012943757212242692 -0.0033608635550158375 0 0.0099140526492148898 -0.0034340427895348216 0 0.011290884362878293 -0.0020870086858231804 0 0.016551480230171056 -0.0028191954273017882 0 0.019315628051988189 -0.0024398152079742478 0 0.018713973592594919 -0.002936819566358502 0 0.018785818234254726 -0.002829809034326902 0 0.018760893617291781 -0.0026726392144017699 0 0.018799340910568344 -0.0029847125675875577 0 0.018785818234254726 -0.002829809034326902 0 0.018860130336946959 -0.0027477315281401286 0 0.018947855021399531 -0.0024201343820784028 0 0.019032257381575046 -0.0023679349184745637 0 0.019003066354542665 -0.0024000164437754466 0 0.018947855021399531 -0.0024201343820784028 0 0.019003066354542665 -0.0024000164437754466 0 0.019006057663765223 -0.0024354374085666206 0 0.019032257381575046 -0.0023679349184745637 0 0.018912381589065365 -0.0023962393922785158 0 0.01876137694677486 -0.0023171673995681691 0 0.019032257381575046 -0.0023679349184745637 0 0.018912381589065365 -0.0023962393922785158 0 0.019003066354542665 -0.0024000164437754466 0 0.019032257381575046 -0.0023679349184745637 0 0.019002600997827249 -0.0023562412651369604 0 0.01876137694677486 -0.0023171673995681691 0 0.019003066354542665 -0.0024000164437754466 0 0.019006057663765223 -0.0024354374085666206 0 0.018869392547188484 -0.002450294125572074 0 0.018912381589065365 -0.0023962393922785158 0 0.019003066354542665 -0.0024000164437754466 0 0.018869392547188484 -0.002450294125572074 0 0.018912381589065365 -0.0023962393922785158 0 0.018869392547188484 -0.002450294125572074 0 0.018816621102027805 -0.0023953940932645011 0 0.018869392547188484 -0.002450294125572074 0 0.018732199819810495 -0.0024131837648880636 0 0.018733560640444378 -0.0024647912795187485 0 0.019002600997827249 -0.0023562412651369604 0 0.01876137694677486 -0.0023171673995681691 0 0.018240402629430531 -0.002000357175645237 0 0.018869392547188484 -0.002450294125572074 0 0.018732199819810495 -0.0024131837648880636 0 0.018816621102027805 -0.0023953940932645011 0 0.018912381589065365 -0.0023962393922785158 0 0.018816621102027805 -0.0023953940932645011 0 0.01876137694677486 -0.0023171673995681691 0 0.018732199819810495 -0.0024131837648880636 0 0.018816621102027805 -0.0023953940932645011 0 0.01876137694677486 -0.0023171673995681691 0 0.018732199819810495 -0.0024131837648880636 0 0.01876137694677486 -0.0023171673995681691 0 0.018619743239162184 -0.0023414598968320086 0 0.01876137694677486 -0.0023171673995681691 0 0.018619743239162184 -0.0023414598968320086 0 0.018240402629430531 -0.002000357175645237 0 0.018619743239162184 -0.0023414598968320086 0 0.018619443332043288 -0.0024117398998365664 0 0.018240402629430531 -0.002000357175645237 0 0.018732199819810495 -0.0024131837648880636 0 0.018619743239162184 -0.0023414598968320086 0 0.018619443332043288 -0.0024117398998365664 0 0.018732199819810495 -0.0024131837648880636 0 0.018619443332043288 -0.0024117398998365664 0 0.018733560640444378 -0.0024647912795187485 0 0.018619443332043288 -0.0024117398998365664 0 0.018733560640444378 -0.0024647912795187485 0 0.018684751400854082 -0.0024235473144653581 0 0.018669378111880516 -0.0023745686086959765 0 0.018619443332043288 -0.0024117398998365664 0 0.018684751400854082 -0.0024235473144653581 0 0.015907539629306966 -0.0025928214328137245 0 0.018619443332043288 -0.0024117398998365664 0 0.017759713547101656 -0.0019750187477035716 0 0.017145000934388782 -0.0024544605784319121 0 0.018533633607231221 -0.0024431996776193435 0 0.018662767255774697 -0.0024253950809359987 0 0.018669378111880516 -0.0023745686086959765 0 0.018684751400854082 -0.0024235473144653581 0 0.018619443332043288 -0.0024117398998365664 0 0.018240402629430531 -0.002000357175645237 0 0.017759713547101656 -0.0019750187477035716 0 0.003714138770964103 -0.0020956943923217358 0 0.0057447429759525746 -0.0026753101046570822 0 0.0045557310648204124 -0.0032505379782379702 0 0.006466192961153301 -0.0034570339136260264 0 0.0054641686956686383 -0.0017421191162011276 0 0.006466192961153301 -0.0034570339136260264 0 0.0054641686956686383 -0.0017421191162011276 0 0.0083414908855490577 -0.0018896521968297401 0 0.012511081133109283 -0.0027443846277498385 0 0.012166908680480691 -0.0027325987834912421 0 0.01426004013261321 -0.0028837583639059498 0 0.012511081133109283 -0.0027443846277498385 0 0.0097229037198736136 -0.0034381609409847515 0 0.006851503511080906 -0.0034575868831984409 0 0.0083414908855490577 -0.0018896521968297401 0 0.006851503511080906 -0.0034575868831984409 0 0.006466192961153301 -0.0034570339136260264 0 0.0083414908855490577 -0.0018896521968297401 0 0.018922374124858518 -0.0026200424869731597 0 0.018868137155156249 -0.0026038783771859296 0 0.018840684486665215 -0.0026314303092550922 0 0.018922374124858518 -0.0026200424869731597 0 0.018748427595709636 -0.0025059187782272146 0 0.018868137155156249 -0.0026038783771859296 0 0.018786962113016458 -0.0025899746696234072 0 0.018922374124858518 -0.0026200424869731597 0 0.018748427595709636 -0.0025059187782272146 0 0.018786962113016458 -0.0025899746696234072 0 0.018670475372096693 -0.0024883975073266055 0 0.018748427595709636 -0.0025059187782272146 0 0.018662767255774697 -0.0024253950809359987 0 0.018684751400854082 -0.0024235473144653581 0 0.018748427595709636 -0.0025059187782272146 0 0.018733560640444378 -0.0024647912795187485 0 0.018684751400854082 -0.0024235473144653581 0 0.018748427595709636 -0.0025059187782272146 0 0.018733560640444378 -0.0024647912795187485 0 0.018748427595709636 -0.0025059187782272146 0 0.018868137155156249 -0.0026038783771859296 0 0.018869392547188484 -0.002450294125572074 0 0.018733560640444378 -0.0024647912795187485 0 0.018868137155156249 -0.0026038783771859296 0 0.018860130336946959 -0.0027477315281401286 0 0.018868137155156249 -0.0026038783771859296 0 0.018840684486665215 -0.0026314303092550922 0 0.019006057663765223 -0.0024354374085666206 0 0.018869392547188484 -0.002450294125572074 0 0.018868137155156249 -0.0026038783771859296 0 0.019315628051988189 -0.0024398152079742478 0 0.018731289593536128 -0.0026978317109042612 0 0.018785818234254726 -0.002829809034326902 0 0.018860130336946959 -0.0027477315281401286 0 0.018760893617291781 -0.0026726392144017699 0 0.018860130336946959 -0.0027477315281401286 0 0.018760893617291781 -0.0026726392144017699 0 0.018840684486665215 -0.0026314303092550922 0 0.018760893617291781 -0.0026726392144017699 0 0.018840684486665215 -0.0026314303092550922 0 0.01875514695845603 -0.0025692565984404003 0 0.018934340941564595 -0.0023205266145768901 0 0.019222600201158364 -0.0016600953634444806 0 0.018922374124858518 -0.0026200424869731597 0 0.018840684486665215 -0.0026314303092550922 0 0.018877915693018131 -0.0025596425824770197 0 0.018877915693018131 -0.0025596425824770197 0 0.01875514695845603 -0.0025692565984404003 0 0.018721016842268717 -0.0023265592838340554 0 0.018840684486665215 -0.0026314303092550922 0 0.018877915693018131 -0.0025596425824770197 0 0.01875514695845603 -0.0025692565984404003 0 0.019539952185372262 -0.00084962432593040397 0 0.019287951640335092 -0.00012493490085193446 0 0.019951027265271079 0.00030273705331357662 0 0.019222600201158364 -0.0016600953634444806 0 0.018719798659182829 -0.0010933881857726042 0 0.019287951640335092 -0.00012493490085193446 0 0.019951027265271079 0.00030273705331357662 0 0.019301528187916639 0.00060515892258176658 0 0.018877915693018131 -0.0025596425824770197 0 0.018721016842268717 -0.0023265592838340554 0 0.018988010954611299 -0.0022752759758087157 0 0.018877915693018131 -0.0025596425824770197 0 0.019055912750123742 -0.0026605710706728149 0 0.018988010954611299 -0.0022752759758087157 0 0.018922374124858518 -0.0026200424869731597 0 0.018877915693018131 -0.0025596425824770197 0 0.019055912750123742 -0.0026605710706728149 0 0.018786962113016458 -0.0025899746696234072 0 0.018922374124858518 -0.0026200424869731597 0 0.019055912750123742 -0.0026605710706728149 0 0.019871058097670077 -0.0026564045529060684 0 0.019055912750123742 -0.0026605710706728149 0 0.019403616470831803 -0.0022060188615855396 0 0.019055912750123742 -0.0026605710706728149 0 0.019403616470831803 -0.0022060188615855396 0 0.018988010954611299 -0.0022752759758087157 0 0.019403616470831803 -0.0022060188615855396 0 0.018988010954611299 -0.0022752759758087157 0 0.019168708282509515 -0.0019000408219389728 0 0.018988010954611299 -0.0022752759758087157 0 0.019168708282509515 -0.0019000408219389728 0 0.018804898796990478 -0.0018803046815455151 0 0.019168708282509515 -0.0019000408219389728 0 0.019218223703467183 -0.0014909238135462027 0 0.018804898796990478 -0.0018803046815455151 0 0.019403616470831803 -0.0022060188615855396 0 0.019168708282509515 -0.0019000408219389728 0 0.019540703676197691 -0.0017805031721553656 0 0.019168708282509515 -0.0019000408219389728 0 0.019540703676197691 -0.0017805031721553656 0 0.019218223703467183 -0.0014909238135462027 0 0.0240639317665804 -0.00081620897162863856 0 0.026808035539662465 -0.00053747919178022494 0 0.029726781338494455 7.1587851633915506e-05 0 0.029665546420082487 -0.00012054547984322375 0 0.029280831558142643 8.7477949439153805e-05 0 0.033515098987475317 -0.00057307857393178088 0 0.033582110751158446 -8.8190403734701918e-06 0 0.033146701564983352 -0.00023826355854230069 0 0.026808035539662465 -0.00053747919178022494 0 0.033365669101998958 0.0004572497250646688 0 0.033515098987475317 -0.00057307857393178088 0 0.033582110751158446 -8.8190403734701918e-06 0 0.034073597629106639 -8.6989232759191156e-05 0 0.026808035539662465 -0.00053747919178022494 0 0.032572272061453703 0.00048159615497874705 0 0.029726781338494455 7.1587851633915506e-05 0 0.029280831558142643 8.7477949439153805e-05 0 0.029551380535822399 0.00038505976286452165 0 0.035134719711158301 0.0012830419705688878 0 0.034320794147044968 0.0015503555402311276 0 0.035157878369257843 0.0018655846205472221 0 0.033365669101998958 0.0004572497250646688 0 0.035758582772091638 0.0019714740421820404 0 0.035134719711158301 0.0012830419705688878 0 0.035760048604371007 0.0014086346748687782 0 0.035157878369257843 0.0018655846205472221 0 0.029096556863207501 -3.2838249405966284e-05 0 0.028724462275459526 0.00029931117590424952 0 0.028584017066159144 -0.00016276247845150994 0 0.029096556863207501 -3.2838249405966284e-05 0 0.028584017066159144 -0.00016276247845150994 0 0.028445253056253662 -0.00062945714513280469 0 0.026808035539662465 -0.00053747919178022494 0 0.024958076217616098 -0.00039639590678129622 0 0.033365669101998958 0.0004572497250646688 0 0.03209144966495369 0.00057010381909664888 0 0.035134719711158301 0.0012830419705688878 0 0.035760048604371007 0.0014086346748687782 0 0.035716153461097987 0.00075806774305175377 0 0.035134719711158301 0.0012830419705688878 0 0.035716153461097987 0.00075806774305175377 0 0.034694968287091288 0.00053338161507257022 0 0.035134719711158301 0.0012830419705688878 0 0.034694968287091288 0.00053338161507257022 0 0.034320794147044968 0.0015503555402311276 0 0.034694968287091288 0.00053338161507257022 0 0.035631952496284619 -0.00025669114491409469 0 0.034290260685778874 -0.001863399928117419 0 0.035716153461097987 0.00075806774305175377 0 0.034694968287091288 0.00053338161507257022 0 0.035631952496284619 -0.00025669114491409469 0 0.03209144966495369 0.00057010381909664888 0 0.024958076217616098 -0.00039639590678129622 0 0.018719798659182829 -0.0010933881857726042 0 0.024958076217616098 -0.00039639590678129622 0 0.018721016842268717 -0.0023265592838340554 0 0.018988010954611299 -0.0022752759758087157 0 0.018804898796990478 -0.0018803046815455151 0 0.019951027265271079 0.00030273705331357662 0 0.020346429098346948 0.0015029277767484946 0 0.019301528187916639 0.00060515892258176658 0 0.024958076217616098 -0.00039639590678129622 0 0.027358752430721577 -0.00031686608547164643 0 0.034290260685778874 -0.001863399928117419 0 0.03123102727959846 -0.0015038533171886719 0 0.03335927618881885 0.0003353499984624763 0 0.03123102727959846 -0.0015038533171886719 0 0.03335927618881885 0.0003353499984624763 0 0.030854992510897298 4.2602489725864228e-05 0 0.034694968287091288 0.00053338161507257022 0 0.034290260685778874 -0.001863399928117419 0 0.03335927618881885 0.0003353499984624763 0 0.033453937895423932 0.0004054501186183478 0 0.033845392981435081 0.0020727985698991446 0 0.034694968287091288 0.00053338161507257022 0 0.03335927618881885 0.0003353499984624763 0 0.034320794147044968 0.0015503555402311276 0 0.03335927618881885 0.0003353499984624763 0 0.033413670289038029 0.0027714732036897638 0 0.031447169204392715 0.0017939550815681585 0 0.03335927618881885 0.0003353499984624763 0 0.031447169204392715 0.0017939550815681585 0 0.030854992510897298 4.2602489725864228e-05 0 0.033413670289038029 0.0027714732036897638 0 0.031447169204392715 0.0017939550815681585 0 0.032475607700253643 0.0033608482753063663 0 0.030808046057685785 0.0029153787487212453 0 0.027998098703522822 0.0030468921194794817 0 0.030016353247676871 0.0038903086517184772 0 0.029113276292457003 0.0019288622858268294 0 0.027062172288900628 0.0019882099852225931 0 0.027998098703522822 0.0030468921194794817 0 0.030808046057685785 0.0029153787487212453 0 0.029113276292457003 0.0019288622858268294 0 0.027998098703522822 0.0030468921194794817 0 0.030808046057685785 0.0029153787487212453 0 0.031447169204392715 0.0017939550815681585 0 0.029113276292457003 0.0019288622858268294 0 0.030808046057685785 0.0029153787487212453 0 0.031447169204392715 0.0017939550815681585 0 0.032475607700253643 0.0033608482753063663 0 0.031447169204392715 0.0017939550815681585 0 0.029399067200647947 0.0006449400702657459 0 0.030854992510897298 4.2602489725864228e-05 0 0.031447169204392715 0.0017939550815681585 0 0.029113276292457003 0.0019288622858268294 0 0.029399067200647947 0.0006449400702657459 0 0.029113276292457003 0.0019288622858268294 0 0.029399067200647947 0.0006449400702657459 0 0.026751350439990162 0.00060067882853692613 0 0.029399067200647947 0.0006449400702657459 0 0.028553969011117109 -0.0011538802138435856 0 0.026751350439990162 0.00060067882853692613 0 0.029399067200647947 0.0006449400702657459 0 0.030854992510897298 4.2602489725864228e-05 0 0.028553969011117109 -0.0011538802138435856 0 0.03123102727959846 -0.0015038533171886719 0 0.030854992510897298 4.2602489725864228e-05 0 0.028553969011117109 -0.0011538802138435856 0 0.03123102727959846 -0.0015038533171886719 0 0.028553969011117109 -0.0011538802138435856 0 0.028972239408766816 -0.0037410737947310029 0 0.028553969011117109 -0.0011538802138435856 0 0.026729002310410213 -0.004064934308692255 0 0.025393373812437826 -0.001495902038818619 0 0.028553969011117109 -0.0011538802138435856 0 0.026729002310410213 -0.004064934308692255 0 0.028972239408766816 -0.0037410737947310029 0 0.02913086005471718 -0.0033593620308061114 0 0.029908164145195589 -0.0059825386720685015 0 0.027025858005847104 -0.0053862043125398077 0 0.029099524921959889 -0.0034752065563949989 0 0.026764435238461004 -0.0062116547439406205 0 0.026729002310410213 -0.004064934308692255 0 0.028972239408766816 -0.0037410737947310029 0 0.026493036133806869 -0.0062792348417005477 0 0.02913086005471718 -0.0033593620308061114 0 0.032230996842242142 -0.0038890764403160948 0 0.029908164145195589 -0.0059825386720685015 0 0.031053340485467443 -0.0016351962568999382 0 0.029099524921959889 -0.0034752065563949989 0 0.03123102727959846 -0.0015038533171886719 0 0.02913086005471718 -0.0033593620308061114 0 0.032230996842242142 -0.0038890764403160948 0 0.034290260685778874 -0.001863399928117419 0 0.03123102727959846 -0.0015038533171886719 0 0.032230996842242142 -0.0038890764403160948 0 0.019287951640335092 -0.00012493490085193446 0 0.019301528187916639 0.00060515892258176658 0 0.018310071297435102 -0.00028576975604252097 0 0.027358752430721577 -0.00031686608547164643 0 0.025171674054650837 -0.0021603494781517693 0 0.019539952185372262 -0.00084962432593040397 0 0.018310071297435102 -0.00028576975604252097 0 0.018387882741657459 -0.0013948080291859705 0 0.019539952185372262 -0.00084962432593040397 0 0.019287951640335092 -0.00012493490085193446 0 0.018310071297435102 -0.00028576975604252097 0 0.025171674054650837 -0.0021603494781517693 0 0.023535884111511269 -0.0035562373671630862 0 0.018310071297435102 -0.00028576975604252097 0 0.018387882741657459 -0.0013948080291859705 0 0.017369455959633656 -0.0011501425545085151 0 0.018387882741657459 -0.0013948080291859705 0 0.01768239860850615 -0.0019113377656246574 0 0.017369455959633656 -0.0011501425545085151 0 0.019136171337823804 -0.0019459989356954888 0 0.019539952185372262 -0.00084962432593040397 0 0.018387882741657459 -0.0013948080291859705 0 0.019136171337823804 -0.0019459989356954888 0 0.018387882741657459 -0.0013948080291859705 0 0.018225023189325899 -0.0022027431587644201 0 0.018464383299311216 -0.0025843436309074931 0 0.019136171337823804 -0.0019459989356954888 0 0.018225023189325899 -0.0022027431587644201 0 0.017598984548337873 -0.0025809812787803625 0 0.01768239860850615 -0.0019113377656246574 0 0.018225023189325899 -0.0022027431587644201 0 0.018387882741657459 -0.0013948080291859705 0 0.01768239860850615 -0.0019113377656246574 0 0.018225023189325899 -0.0022027431587644201 0 0.01709452196519725 -0.002477847765054031 0 0.01768239860850615 -0.0019113377656246574 0 0.016510955353380152 -0.0019948581691770391 0 0.01709452196519725 -0.002477847765054031 0 0.017598984548337873 -0.0025809812787803625 0 0.01768239860850615 -0.0019113377656246574 0 0.027500140262329942 -0.0080746664174062548 0 0.029908164145195589 -0.0059825386720685015 0 0.027025858005847104 -0.0053862043125398077 0 0.022792708089503018 -0.0051772291016312973 0 0.023535884111511269 -0.0035562373671630862 0 0.01768239860850615 -0.0019113377656246574 0 0.016510955353380152 -0.0019948581691770391 0 0.017369455959633656 -0.0011501425545085151 0 0.021731185155052016 -0.0020434335701498114 0 0.022230697630305937 -0.0027537747174968693 0 0.023219761476854298 -0.0019155251116581994 0 0.021731185155052016 -0.0020434335701498114 0 0.022230697630305937 -0.0027537747174968693 0 0.020823993749998049 -0.0025050321741594676 0 0.023634300467729154 -0.0055446829013589541 0 0.026764435238461004 -0.0062116547439406205 0 0.027500140262329942 -0.0080746664174062548 0 0.024988299597837584 -0.0074469598687262935 0 0.027025858005847104 -0.0053862043125398077 0 0.023634300467729154 -0.0055446829013589541 0 0.024068191994463108 -0.0035868206786678633 0 0.024185164165369973 -0.0087292197675543221 0 0.026493036133806869 -0.0062792348417005477 0 0.024847191638266701 -0.00534692791742247 0 0.025119876488300424 -0.010141306789503517 0 0.027500140262329942 -0.0080746664174062548 0 0.025451205247420592 -0.0087737002152973951 0 0.027500140262329942 -0.0080746664174062548 0 0.025451205247420592 -0.0087737002152973951 0 0.024988299597837584 -0.0074469598687262935 0 0.015374975611663103 -0.0041318783926349422 0 0.022792708089503018 -0.0051772291016312973 0 0.022184371792456192 -0.0047272586686828667 0 0.022770186651297458 -0.0019935363525307934 0 0.021257449385387438 -0.0036195406371902251 0 0.019703173180789912 -0.0051830992776725456 0 0.023634300467729154 -0.0055446829013589541 0 0.024441900844614454 -0.0097888663643476495 0 0.025451205247420592 -0.0087737002152973951 0 0.024988299597837584 -0.0074469598687262935 0 0.022230697630305937 -0.0027537747174968693 0 0.021257449385387438 -0.0036195406371902251 0 0.020823993749998049 -0.0025050321741594676 0 0.023634300467729154 -0.0055446829013589541 0 0.021771316497961057 -0.0030943064395872917 0 0.019703173180789912 -0.0051830992776725456 0 0.019103670781174528 -0.002242501758461162 0 0.019066016103612037 -0.0026479428409782735 0 0.019720668482124407 -0.0019928890626074829 0 0.020823993749998049 -0.0025050321741594676 0 0.021257449385387438 -0.0036195406371902251 0 0.019066016103612037 -0.0026479428409782735 0 0.020823993749998049 -0.0025050321741594676 0 0.022184371792456192 -0.0047272586686828667 0 0.021257449385387438 -0.0036195406371902251 0 0.019066016103612037 -0.0026479428409782735 0 0.019066016103612037 -0.0026479428409782735 0 0.018512904271294092 -0.0022256008673790391 0 0.019720668482124407 -0.0019928890626074829 0 0.018405438119095403 -0.0022321120034989534 0 0.019066016103612037 -0.0026479428409782735 0 0.018512904271294092 -0.0022256008673790391 0 0.019720668482124407 -0.0019928890626074829 0 0.019542030312485741 -0.0015141659970384896 0 0.018464954159904415 -0.001881663285228867 0 0.018512904271294092 -0.0022256008673790391 0 0.019720668482124407 -0.0019928890626074829 0 0.018464954159904415 -0.001881663285228867 0 0.021731185155052016 -0.0020434335701498114 0 0.019720668482124407 -0.0019928890626074829 0 0.020823993749998049 -0.0025050321741594676 0 0.021731185155052016 -0.0020434335701498114 0 0.021074445405910715 -0.001571957318964769 0 0.022217250098172294 -0.0017031722462607351 0 0.021731185155052016 -0.0020434335701498114 0 0.019720668482124407 -0.0019928890626074829 0 0.021074445405910715 -0.001571957318964769 0 0.021074445405910715 -0.001571957318964769 0 0.022728351795964288 -0.0012958745344138929 0 0.022217250098172294 -0.0017031722462607351 0 0.019542030312485741 -0.0015141659970384896 0 0.020725039454577369 -0.00097801863754653552 0 0.019082973697558563 -0.001028916017985508 0 0.019720668482124407 -0.0019928890626074829 0 0.021074445405910715 -0.001571957318964769 0 0.019542030312485741 -0.0015141659970384896 0 0.021074445405910715 -0.001571957318964769 0 0.019542030312485741 -0.0015141659970384896 0 0.020725039454577369 -0.00097801863754653552 0 0.020725039454577369 -0.00097801863754653552 0 0.020902562351902011 -0.00013026465209218385 0 0.019517104513075114 -0.00050666420237260033 0 0.020725039454577369 -0.00097801863754653552 0 0.022728351795964288 -0.0012958745344138929 0 0.02284330356156361 -0.0004124123181789924 0 0.021074445405910715 -0.001571957318964769 0 0.020725039454577369 -0.00097801863754653552 0 0.022728351795964288 -0.0012958745344138929 0 0.022728351795964288 -0.0012958745344138929 0 0.023219761476854298 -0.0019155251116581994 0 0.025393373812437826 -0.001495902038818619 0 0.022728351795964288 -0.0012958745344138929 0 0.022217250098172294 -0.0017031722462607351 0 0.023219761476854298 -0.0019155251116581994 0 0.021731185155052016 -0.0020434335701498114 0 0.022217250098172294 -0.0017031722462607351 0 0.023219761476854298 -0.0019155251116581994 0 0.026729002310410213 -0.004064934308692255 0 0.026493036133806869 -0.0062792348417005477 0 0.024847191638266701 -0.00534692791742247 0 0.026729002310410213 -0.004064934308692255 0 0.024847191638266701 -0.00534692791742247 0 0.025393373812437826 -0.001495902038818619 0 0.024068191994463108 -0.0035868206786678633 0 0.025224078802773914 -0.0014528251797974591 0 0.028553969011117109 -0.0011538802138435856 0 0.025393373812437826 -0.001495902038818619 0 0.026751350439990162 0.00060067882853692613 0 0.022728351795964288 -0.0012958745344138929 0 0.025393373812437826 -0.001495902038818619 0 0.02284330356156361 -0.0004124123181789924 0 0.025393373812437826 -0.001495902038818619 0 0.024201972681237353 0.00061121372666856971 0 0.02284330356156361 -0.0004124123181789924 0 0.024201972681237353 0.00061121372666856971 0 0.026751350439990162 0.00060067882853692613 0 0.025368705180514445 0.0015790842389651399 0 0.025393373812437826 -0.001495902038818619 0 0.024201972681237353 0.00061121372666856971 0 0.026751350439990162 0.00060067882853692613 0 0.029113276292457003 0.0019288622858268294 0 0.026751350439990162 0.00060067882853692613 0 0.027062172288900628 0.0019882099852225931 0 0.026751350439990162 0.00060067882853692613 0 0.027062172288900628 0.0019882099852225931 0 0.025368705180514445 0.0015790842389651399 0 0.027062172288900628 0.0019882099852225931 0 0.025368705180514445 0.0015790842389651399 0 0.026031926743918733 0.002527946653912443 0 0.024201972681237353 0.00061121372666856971 0 0.025368705180514445 0.0015790842389651399 0 0.023621875464762635 0.0015281789264859581 0 0.025368705180514445 0.0015790842389651399 0 0.024437297053468237 0.0024051667916009235 0 0.023621875464762635 0.0015281789264859581 0 0.025368705180514445 0.0015790842389651399 0 0.026031926743918733 0.002527946653912443 0 0.024437297053468237 0.0024051667916009235 0 0.026031926743918733 0.002527946653912443 0 0.024437297053468237 0.0024051667916009235 0 0.025350889420152293 0.0037493882211312559 0 0.024437297053468237 0.0024051667916009235 0 0.024015007759849858 0.0034485063547283158 0 0.025350889420152293 0.0037493882211312559 0 0.026031926743918733 0.002527946653912443 0 0.027998098703522822 0.0030468921194794817 0 0.025350889420152293 0.0037493882211312559 0 0.027062172288900628 0.0019882099852225931 0 0.026031926743918733 0.002527946653912443 0 0.027998098703522822 0.0030468921194794817 0 0.021697892951285252 0.0015746618355854079 0 0.022454046516770531 0.0041661650262629513 0 0.020651374829174049 0.0028023677289942183 0 0.021216934060871058 0.0015100040086817618 0 0.022131978713562303 0.0040364975932487782 0 0.023407697476781859 0.0025845933098984793 0 0.02223150333626368 0.0016898207468707754 0 0.022798872969799502 0.0041317645065567371 0 0.024015007759849858 0.0034485063547283158 0 0.023407697476781859 0.0025845933098984793 0 0.022798872969799502 0.0041317645065567371 0 0.024437297053468237 0.0024051667916009235 0 0.024015007759849858 0.0034485063547283158 0 0.023407697476781859 0.0025845933098984793 0 0.023407697476781859 0.0025845933098984793 0 0.023621875464762635 0.0015281789264859581 0 0.02223150333626368 0.0016898207468707754 0 0.023621875464762635 0.0015281789264859581 0 0.02223150333626368 0.0016898207468707754 0 0.022686448765388494 0.00066818283270074182 0 0.024437297053468237 0.0024051667916009235 0 0.023407697476781859 0.0025845933098984793 0 0.023621875464762635 0.0015281789264859581 0 0.020651374829174049 0.0028023677289942183 0 0.021216934060871058 0.0015100040086817618 0 0.02042074097785548 0.0018991982950723571 0 0.021216934060871058 0.0015100040086817618 0 0.02042074097785548 0.0018991982950723571 0 0.020889036348325087 0.00098589777601444965 0 0.021216934060871058 0.0015100040086817618 0 0.020889036348325087 0.00098589777601444965 0 0.020902562351902011 -0.00013026465209218385 0 0.020889036348325087 0.00098589777601444965 0 0.020154219741910156 0.00050172316062202223 0 0.019979308771155765 0.00081342797794707665 0 0.021697892951285252 0.0015746618355854079 0 0.021005038381306917 -0.00011354571676422313 0 0.02223150333626368 0.0016898207468707754 0 0.022686448765388494 0.00066818283270074182 0 0.020902562351902011 -0.00013026465209218385 0 0.020889036348325087 0.00098589777601444965 0 0.020902562351902011 -0.00013026465209218385 0 0.020154219741910156 0.00050172316062202223 0 0.024201972681237353 0.00061121372666856971 0 0.022686448765388494 0.00066818283270074182 0 0.02284330356156361 -0.0004124123181789924 0 0.024201972681237353 0.00061121372666856971 0 0.023621875464762635 0.0015281789264859581 0 0.022686448765388494 0.00066818283270074182 0 0.020725039454577369 -0.00097801863754653552 0 0.02284330356156361 -0.0004124123181789924 0 0.020902562351902011 -0.00013026465209218385 0 0.022686448765388494 0.00066818283270074182 0 0.02284330356156361 -0.0004124123181789924 0 0.020902562351902011 -0.00013026465209218385 0 0.020902562351902011 -0.00013026465209218385 0 0.019884678220139191 6.9575766045775123e-05 0 0.020154219741910156 0.00050172316062202223 0 0.020902562351902011 -0.00013026465209218385 0 0.019884678220139191 6.9575766045775123e-05 0 0.019517104513075114 -0.00050666420237260033 0 0.019320966417341292 5.0871364099983393e-05 0 0.019884678220139191 6.9575766045775123e-05 0 0.019517104513075114 -0.00050666420237260033 0 0.019320966417341292 5.0871364099983393e-05 0 0.019017264952162109 -0.00019645290907529181 0 0.019517104513075114 -0.00050666420237260033 0 0.019320966417341292 5.0871364099983393e-05 0 0.019155708414138023 0.00034888359691424305 0 0.019645110054985038 0.00041784784325857126 0 0.019320966417341292 5.0871364099983393e-05 0 0.019884678220139191 6.9575766045775123e-05 0 0.019645110054985038 0.00041784784325857126 0 0.018797900712919369 0.00010835108601859831 0 0.018118472057097663 7.4587096119273669e-05 0 0.018485371974797021 -0.00047426593326341406 0 0.019320966417341292 5.0871364099983393e-05 0 0.018797900712919369 0.00010835108601859831 0 0.019017264952162109 -0.00019645290907529181 0 0.019320966417341292 5.0871364099983393e-05 0 0.018797900712919369 0.00010835108601859831 0 0.019155708414138023 0.00034888359691424305 0 0.018797900712919369 0.00010835108601859831 0 0.018756788251213092 0.0003428244673502377 0 0.018118472057097663 7.4587096119273669e-05 0 0.018797900712919369 0.00010835108601859831 0 0.019155708414138023 0.00034888359691424305 0 0.018756788251213092 0.0003428244673502377 0 0.019155708414138023 0.00034888359691424305 0 0.019134629616314347 0.0005113407298783896 0 0.018756788251213092 0.0003428244673502377 0 0.019155708414138023 0.00034888359691424305 0 0.019134629616314347 0.0005113407298783896 0 0.019392425830252004 0.0006188519569711884 0 0.019134629616314347 0.0005113407298783896 0 0.019392425830252004 0.0006188519569711884 0 0.019340753742989446 0.00069650530060701241 0 0.020154219741910156 0.00050172316062202223 0 0.019645110054985038 0.00041784784325857126 0 0.019723838693716009 0.00061541994552506132 0 0.019884678220139191 6.9575766045775123e-05 0 0.020154219741910156 0.00050172316062202223 0 0.019645110054985038 0.00041784784325857126 0 0.019155708414138023 0.00034888359691424305 0 0.019645110054985038 0.00041784784325857126 0 0.019392425830252004 0.0006188519569711884 0 0.019645110054985038 0.00041784784325857126 0 0.019392425830252004 0.0006188519569711884 0 0.019723838693716009 0.00061541994552506132 0 0.019392425830252004 0.0006188519569711884 0 0.019723838693716009 0.00061541994552506132 0 0.019558547451750376 0.00076668232478381603 0 0.020154219741910156 0.00050172316062202223 0 0.019723838693716009 0.00061541994552506132 0 0.019979308771155765 0.00081342797794707665 0 0.019723838693716009 0.00061541994552506132 0 0.019979308771155765 0.00081342797794707665 0 0.019558547451750376 0.00076668232478381603 0 0.019636089337616243 0.001504447537077775 0 0.022312352384890551 0.00046121198595651879 0 0.020889036348325087 0.00098589777601444965 0 0.019979308771155765 0.00081342797794707665 0 0.019275812066823831 0.0010741631134940889 0 0.02042074097785548 0.0018991982950723571 0 0.020889036348325087 0.00098589777601444965 0 0.019372640915379453 0.0019532184130012604 0 0.02042074097785548 0.0018991982950723571 0 0.019372640915379453 0.0019532184130012604 0 0.019988109964530307 0.002560246722939731 0 0.019275812066823831 0.0010741631134940889 0 0.019278534276878468 0.00080523861679102548 0 0.019558547451750376 0.00076668232478381603 0 0.022312352384890551 0.00046121198595651879 0 0.021610304341518685 0.00054244938648151083 0 0.019278534276878468 0.00080523861679102548 0 0.019558547451750376 0.00076668232478381603 0 0.019373759041085601 0.00072800573483738126 0 0.019979308771155765 0.00081342797794707665 0 0.019275812066823831 0.0010741631134940889 0 0.019558547451750376 0.00076668232478381603 0 0.019392425830252004 0.0006188519569711884 0 0.019558547451750376 0.00076668232478381603 0 0.019373759041085601 0.00072800573483738126 0 0.019193791511006218 0.00059689138505444449 0 0.019340753742989446 0.00069650530060701241 0 0.01964961241679054 0.00040476261209827904 0 0.019392425830252004 0.0006188519569711884 0 0.019373759041085601 0.00072800573483738126 0 0.019340753742989446 0.00069650530060701241 0 0.019278534276878468 0.00080523861679102548 0 0.019373759041085601 0.00072800573483738126 0 0.019340753742989446 0.00069650530060701241 0 0.019340753742989446 0.00069650530060701241 0 0.01964961241679054 0.00040476261209827904 0 0.019370261460586298 0.00048817239473753269 0 0.019134629616314347 0.0005113407298783896 0 0.019340753742989446 0.00069650530060701241 0 0.019370261460586298 0.00048817239473753269 0 0.019193791511006218 0.00059689138505444449 0 0.019278534276878468 0.00080523861679102548 0 0.019340753742989446 0.00069650530060701241 0 0.028746108813589327 -0.0032796421375994884 0 0.027015388387492026 -0.0022826978005880774 0 0.029015532994281515 -0.0016148224213379703 0 0.022312352384890551 0.00046121198595651879 0 0.023981352753277448 -0.0014972237090287563 0 0.019193791511006218 0.00059689138505444449 0 0.020170741168939198 -0.00023583807713843208 0 0.01964961241679054 0.00040476261209827904 0 0.020651374829174049 0.0028023677289942183 0 0.019988109964530307 0.002560246722939731 0 0.019460350538555538 0.0040081705742837188 0 0.022312352384890551 0.00046121198595651879 0 0.024386317789299037 0.00093661937197628633 0 0.019372640915379453 0.0019532184130012604 0 0.019988109964530307 0.002560246722939731 0 0.019460350538555538 0.0040081705742837188 0 0.020651374829174049 0.0028023677289942183 0 0.02042074097785548 0.0018991982950723571 0 0.019988109964530307 0.002560246722939731 0 0.021577219449387723 9.8884618046377233e-07 0 0.020170741168939198 -0.00023583807713843208 0 0.020211323336716706 0.00027448748182240361 0 0.020170741168939198 -0.00023583807713843208 0 0.01964961241679054 0.00040476261209827904 0 0.020211323336716706 0.00027448748182240361 0 0.01964961241679054 0.00040476261209827904 0 0.020211323336716706 0.00027448748182240361 0 0.019349432709212758 0.00038969475869553218 0 0.01964961241679054 0.00040476261209827904 0 0.019370261460586298 0.00048817239473753269 0 0.019349432709212758 0.00038969475869553218 0 0.021577219449387723 9.8884618046377233e-07 0 0.020211323336716706 0.00027448748182240361 0 0.019383354886713364 4.9606666926681094e-07 0 0.020211323336716706 0.00027448748182240361 0 0.019383354886713364 4.9606666926681094e-07 0 0.019349432709212758 0.00038969475869553218 0 0.019383354886713364 4.9606666926681094e-07 0 0.019349432709212758 0.00038969475869553218 0 0.018348394506730828 0.000251834783278793 0 0.019134629616314347 0.0005113407298783896 0 0.019349432709212758 0.00038969475869553218 0 0.018756788251213092 0.0003428244673502377 0 0.019349432709212758 0.00038969475869553218 0 0.018756788251213092 0.0003428244673502377 0 0.018348394506730828 0.000251834783278793 0 0.019134629616314347 0.0005113407298783896 0 0.019370261460586298 0.00048817239473753269 0 0.019349432709212758 0.00038969475869553218 0 0.018348394506730828 0.000251834783278793 0 0.018118472057097663 7.4587096119273669e-05 0 0.017209913685682338 8.8679271035480896e-06 0 0.018756788251213092 0.0003428244673502377 0 0.018348394506730828 0.000251834783278793 0 0.018118472057097663 7.4587096119273669e-05 0 0.019383354886713364 4.9606666926681094e-07 0 0.018348394506730828 0.000251834783278793 0 0.01718975070681324 1.1697447400677229e-06 0 0.018348394506730828 0.000251834783278793 0 0.01718975070681324 1.1697447400677229e-06 0 0.017209913685682338 8.8679271035480896e-06 0 0.01718975070681324 1.1697447400677229e-06 0 0.017209913685682338 8.8679271035480896e-06 0 0.015001631247408474 -3.00020751665496e-06 0 0.017209913685682338 8.8679271035480896e-06 0 0.015001631247408474 -3.00020751665496e-06 0 0.016994141346336877 -0.00059936782450104823 0 0.015001631247408474 -3.00020751665496e-06 0 0.016994141346336877 -0.00059936782450104823 0 0.016516678857987757 -0.0012095586838404811 0 0.017697072011552427 -0.00091811089761924378 0 0.016994141346336877 -0.00059936782450104823 0 0.017153778883020134 -0.001387224585475307 0 0.016994141346336877 -0.00059936782450104823 0 0.016516678857987757 -0.0012095586838404811 0 0.017153778883020134 -0.001387224585475307 0 0.017697072011552427 -0.00091811089761924378 0 0.016994141346336877 -0.00059936782450104823 0 0.017692090942661859 -0.00036054129886525907 0 0.017209913685682338 8.8679271035480896e-06 0 0.016994141346336877 -0.00059936782450104823 0 0.017692090942661859 -0.00036054129886525907 0 0.018118472057097663 7.4587096119273669e-05 0 0.017209913685682338 8.8679271035480896e-06 0 0.017692090942661859 -0.00036054129886525907 0 0.018118472057097663 7.4587096119273669e-05 0 0.017692090942661859 -0.00036054129886525907 0 0.018485371974797021 -0.00047426593326341406 0 0.018797900712919369 0.00010835108601859831 0 0.019017264952162109 -0.00019645290907529181 0 0.018485371974797021 -0.00047426593326341406 0 0.017697072011552427 -0.00091811089761924378 0 0.017692090942661859 -0.00036054129886525907 0 0.018485371974797021 -0.00047426593326341406 0 0.020725039454577369 -0.00097801863754653552 0 0.019517104513075114 -0.00050666420237260033 0 0.019082973697558563 -0.001028916017985508 0 0.019017264952162109 -0.00019645290907529181 0 0.018485371974797021 -0.00047426593326341406 0 0.019517104513075114 -0.00050666420237260033 0 0.018485371974797021 -0.00047426593326341406 0 0.019517104513075114 -0.00050666420237260033 0 0.019082973697558563 -0.001028916017985508 0 0.019082973697558563 -0.001028916017985508 0 0.018338907226557462 -0.0011384565158779377 0 0.018537980601524291 -0.0014975898382076813 0 0.019542030312485741 -0.0015141659970384896 0 0.019082973697558563 -0.001028916017985508 0 0.018537980601524291 -0.0014975898382076813 0 0.017697072011552427 -0.00091811089761924378 0 0.018485371974797021 -0.00047426593326341406 0 0.018338907226557462 -0.0011384565158779377 0 0.018485371974797021 -0.00047426593326341406 0 0.019082973697558563 -0.001028916017985508 0 0.018338907226557462 -0.0011384565158779377 0 0.017697072011552427 -0.00091811089761924378 0 0.018338907226557462 -0.0011384565158779377 0 0.017767766370140159 -0.0016189400580413856 0 0.017767766370140159 -0.0016189400580413856 0 0.018464954159904415 -0.001881663285228867 0 0.017096820079273194 -0.0018224992634523487 0 0.017697072011552427 -0.00091811089761924378 0 0.017767766370140159 -0.0016189400580413856 0 0.017153778883020134 -0.001387224585475307 0 0.017767766370140159 -0.0016189400580413856 0 0.017153778883020134 -0.001387224585475307 0 0.017123215872708902 -0.001685901876021348 0 0.018338907226557462 -0.0011384565158779377 0 0.017767766370140159 -0.0016189400580413856 0 0.018537980601524291 -0.0014975898382076813 0 0.017767766370140159 -0.0016189400580413856 0 0.018464954159904415 -0.001881663285228867 0 0.018537980601524291 -0.0014975898382076813 0 0.019542030312485741 -0.0015141659970384896 0 0.018464954159904415 -0.001881663285228867 0 0.018537980601524291 -0.0014975898382076813 0 0.017736009830556097 -0.0020111036637900951 0 0.018512904271294092 -0.0022256008673790391 0 0.017730484929996432 -0.0019845734486112531 0 0.018512904271294092 -0.0022256008673790391 0 0.018464954159904415 -0.001881663285228867 0 0.017730484929996432 -0.0019845734486112531 0 0.018464954159904415 -0.001881663285228867 0 0.017730484929996432 -0.0019845734486112531 0 0.017096820079273194 -0.0018224992634523487 0 0.017767766370140159 -0.0016189400580413856 0 0.017096820079273194 -0.0018224992634523487 0 0.017123215872708902 -0.001685901876021348 0 0.017096820079273194 -0.0018224992634523487 0 0.016730109662534302 -0.0017990137984161361 0 0.017123215872708902 -0.001685901876021348 0 0.016857601928192766 -0.0017989024236616587 0 0.017730484929996432 -0.0019845734486112531 0 0.017096820079273194 -0.0018224992634523487 0 0.016238493024789091 -0.0017866625636803698 0 0.017096820079273194 -0.0018224992634523487 0 0.016730109662534302 -0.0017990137984161361 0 0.016238493024789091 -0.0017866625636803698 0 0.016730109662534302 -0.0017990137984161361 0 0.016389486032051981 -0.0018620314839569013 0 0.016730109662534302 -0.0017990137984161361 0 0.017123215872708902 -0.001685901876021348 0 0.016657071177237338 -0.0016756940679598139 0 0.016730109662534302 -0.0017990137984161361 0 0.016389486032051981 -0.0018620314839569013 0 0.016657071177237338 -0.0016756940679598139 0 0.016079623413004888 -0.0016343045851081501 0 0.016389486032051981 -0.0018620314839569013 0 0.016315363722525882 -0.0019791002625188831 0 0.010736898829894133 2.1057616876747656e-07 0 0.012123217470339506 -9.9212849478644851e-06 0 0.012865770617388143 -4.1954268342094603e-08 0 0.016389486032051981 -0.0018620314839569013 0 0.016315363722525882 -0.0019791002625188831 0 0.016657071177237338 -0.0016756940679598139 0 0.01499644719985521 -2.3183756845948153e-07 0 0.012123217470339506 -9.9212849478644851e-06 0 0.012865770617388143 -4.1954268342094603e-08 0 0.016315363722525882 -0.0019791002625188831 0 0.016516678857987757 -0.0012095586838404811 0 0.016657071177237338 -0.0016756940679598139 0 0.01499644056187615 2.7512381980723116e-07 0 0.014179634496302074 -0.00078902601372493652 0 0.015001631247408474 -3.00020751665496e-06 0 0.016315363722525882 -0.0019791002625188831 0 0.016516678857987757 -0.0012095586838404811 0 0.016516678857987757 -0.0012095586838404811 0 0.017153778883020134 -0.001387224585475307 0 0.016657071177237338 -0.0016756940679598139 0 0.017153778883020134 -0.001387224585475307 0 0.017123215872708902 -0.001685901876021348 0 0.016657071177237338 -0.0016756940679598139 0 0.031151733809510095 0.00043306574392712417 0 0.031750495781766447 0.00052556096558178684 0 0.031093779959474304 0.00079483768832180445 0 0.031151733809510095 0.00043306574392712417 0 0.031093779959474304 0.00079483768832180445 0 0.030308635063253986 0.00047029772794865871 0 0.031151733809510095 0.00043306574392712417 0 0.031606191608845167 1.7380700533296223e-06 0 0.031750495781766447 0.00052556096558178684 0 0.031151733809510095 0.00043306574392712417 0 0.031606191608845167 1.7380700533296223e-06 0 0.030308635063253986 0.00047029772794865871 0 0.031606191608845167 1.7380700533296223e-06 0 0.031750495781766447 0.00052556096558178684 0 0.034213853418876401 -9.424147872838125e-07 0 0.031750495781766447 0.00052556096558178684 0 0.031419553140585046 0.00099174199352224969 0 0.031841902324184525 0.00017978391111177273 0 0.031750495781766447 0.00052556096558178684 0 0.031419553140585046 0.00099174199352224969 0 0.031093779959474304 0.00079483768832180445 0 0.031419553140585046 0.00099174199352224969 0 0.031539815090971569 0.0010438265163366714 0 0.031093779959474304 0.00079483768832180445 0 0.031419553140585046 0.00099174199352224969 0 0.031935808476226409 0.0014280185256299392 0 0.031539815090971569 0.0010438265163366714 0 0.031935808476226409 0.0014280185256299392 0 0.031539815090971569 0.0010438265163366714 0 0.032447098608038225 0.0013801755246172526 0 0.031539815090971569 0.0010438265163366714 0 0.031903949465877303 0.00097734759093740897 0 0.032447098608038225 0.0013801755246172526 0 0.031539815090971569 0.0010438265163366714 0 0.030872569798139574 0.00060797292361409235 0 0.031488923333254239 0.00076752788217559207 0 0.031539815090971569 0.0010438265163366714 0 0.031903949465877303 0.00097734759093740897 0 0.031488923333254239 0.00076752788217559207 0 0.031903949465877303 0.00097734759093740897 0 0.032085810119230743 0.00070629466215052169 0 0.031488923333254239 0.00076752788217559207 0 0.031903949465877303 0.00097734759093740897 0 0.032085810119230743 0.00070629466215052169 0 0.032327189518507174 0.0008812607079705893 0 0.031093779959474304 0.00079483768832180445 0 0.030872569798139574 0.00060797292361409235 0 0.030308635063253986 0.00047029772794865871 0 0.031539815090971569 0.0010438265163366714 0 0.031093779959474304 0.00079483768832180445 0 0.030872569798139574 0.00060797292361409235 0 0.030157221565503455 7.7442729916537349e-05 0 0.029532441863144247 0.00024305583240442135 0 0.030308635063253986 0.00047029772794865871 0 0.030872569798139574 0.00060797292361409235 0 0.030157221565503455 7.7442729916537349e-05 0 0.030308635063253986 0.00047029772794865871 0 0.032085810119230743 0.00070629466215052169 0 0.032131405524105219 4.0603695625369533e-05 0 0.032419883878066762 0.00065125087099506874 0 0.032085810119230743 0.00070629466215052169 0 0.03118957517802309 0.00036051866232950363 0 0.0316620659336923 -0.0006400740905965097 0 0.032124707818412868 0.00034624929613584357 0 0.03063593715353035 0.00065822278416895435 0 0.032085810119230743 0.00070629466215052169 0 0.031488923333254239 0.00076752788217559207 0 0.03118957517802309 0.00036051866232950363 0 0.030872569798139574 0.00060797292361409235 0 0.031488923333254239 0.00076752788217559207 0 0.03118957517802309 0.00036051866232950363 0 0.030872569798139574 0.00060797292361409235 0 0.03118957517802309 0.00036051866232950363 0 0.030157221565503455 7.7442729916537349e-05 0 0.03118957517802309 0.00036051866232950363 0 0.0316620659336923 -0.0006400740905965097 0 0.030157221565503455 7.7442729916537349e-05 0 0.03063593715353035 0.00065822278416895435 0 0.030244851133175796 3.0672163956263158e-05 0 0.029304986831537431 0.00016393136988509082 0 0.029458631632871032 0.00033699477130894008 0 0.030157221565503455 7.7442729916537349e-05 0 0.030157221565503455 7.7442729916537349e-05 0 0.029376963296693676 0.00030577904878764228 0 0.029532441863144247 0.00024305583240442135 0 0.029458631632871032 0.00033699477130894008 0 0.030157221565503455 7.7442729916537349e-05 0 0.029376963296693676 0.00030577904878764228 0 0.029376963296693676 0.00030577904878764228 0 0.029532441863144247 0.00024305583240442135 0 0.028552332315253 0.00029798193570696201 0 0.029532441863144247 0.00024305583240442135 0 0.028994747273725634 8.5965308491904784e-08 0 0.028552332315253 0.00029798193570696201 0 0.029532441863144247 0.00024305583240442135 0 0.030308635063253986 0.00047029772794865871 0 0.028994747273725634 8.5965308491904784e-08 0 0.031606191608845167 1.7380700533296223e-06 0 0.030308635063253986 0.00047029772794865871 0 0.028994747273725634 8.5965308491904784e-08 0 0.026381945107885826 1.8955867610107051e-06 0 0.026663362201833966 -0.00029490208169468692 0 0.028143937861157996 7.2908077024814844e-05 0 0.028552332315253 0.00029798193570696201 0 0.026381945107885826 1.8955867610107051e-06 0 0.028143937861157996 7.2908077024814844e-05 0 0.028994747273725634 8.5965308491904784e-08 0 0.028552332315253 0.00029798193570696201 0 0.026381945107885826 1.8955867610107051e-06 0 0.028552332315253 0.00029798193570696201 0 0.028143937861157996 7.2908077024814844e-05 0 0.028864077367969025 0.00028123136116950186 0 0.026381945107885826 1.8955867610107051e-06 0 0.026663362201833966 -0.00029490208169468692 0 0.023776026375746478 -4.5256416650759756e-06 0 0.026663362201833966 -0.00029490208169468692 0 0.028202791668296218 -0.00046366733094711977 0 0.028143937861157996 7.2908077024814844e-05 0 0.027015388387492026 -0.0022826978005880774 0 0.026663362201833966 -0.00029490208169468692 0 0.028202791668296218 -0.00046366733094711977 0 0.023981352753277448 -0.0014972237090287563 0 0.02376898967165026 3.1715703973217504e-07 0 0.021577219449387723 9.8884618046377233e-07 0 0.020170741168939198 -0.00023583807713843208 0 0.023766216233770746 -2.2491295119141842e-06 0 0.027015388387492026 -0.0022826978005880774 0 0.026663362201833966 -0.00029490208169468692 0 0.023776026375746478 -4.5256416650759756e-06 0 0.027015388387492026 -0.0022826978005880774 0 0.029015532994281515 -0.0016148224213379703 0 0.028202791668296218 -0.00046366733094711977 0 0.028202791668296218 -0.00046366733094711977 0 0.029109543971105677 -0.00016682161946695402 0 0.028928983092422238 0.00014782350183598211 0 0.024386317789299037 0.00093661937197628633 0 0.024289101652967097 0.0035309140288430443 0 0.029015532994281515 -0.0016148224213379703 0 0.028202791668296218 -0.00046366733094711977 0 0.029109543971105677 -0.00016682161946695402 0 0.019460350538555538 0.0040081705742837188 0 0.019743205926051173 0.0065336656624662114 0 0.021245549585534124 0.0058253755614938417 0 0.029109543971105677 -0.00016682161946695402 0 0.028928983092422238 0.00014782350183598211 0 0.029278418932687636 0.00040442598833836176 0 0.019743205926051173 0.0065336656624662114 0 0.020074498160292512 0.009173863098775591 0 0.021131382032565343 0.0077128365000414647 0 0.024289101652967097 0.0035309140288430443 0 0.026472053863058103 0.0031207196456927064 0 0.028202791668296218 -0.00046366733094711977 0 0.028928983092422238 0.00014782350183598211 0 0.028143937861157996 7.2908077024814844e-05 0 0.028928983092422238 0.00014782350183598211 0 0.028143937861157996 7.2908077024814844e-05 0 0.028864077367969025 0.00028123136116950186 0 0.028928983092422238 0.00014782350183598211 0 0.028864077367969025 0.00028123136116950186 0 0.029225919372059445 0.00037739005479024788 0 0.029458631632871032 0.00033699477130894008 0 0.029376963296693676 0.00030577904878764228 0 0.029225919372059445 0.00037739005479024788 0 0.029376963296693676 0.00030577904878764228 0 0.028864077367969025 0.00028123136116950186 0 0.029225919372059445 0.00037739005479024788 0 0.029376963296693676 0.00030577904878764228 0 0.028552332315253 0.00029798193570696201 0 0.028864077367969025 0.00028123136116950186 0 0.03063593715353035 0.00065822278416895435 0 0.026472053863058103 0.0031207196456927064 0 0.029304986831537431 0.00016393136988509082 0 0.029458631632871032 0.00033699477130894008 0 0.02924647363964878 0.00045322876336531255 0 0.028928983092422238 0.00014782350183598211 0 0.029278418932687636 0.00040442598833836176 0 0.029225919372059445 0.00037739005479024788 0 0.026472053863058103 0.0031207196456927064 0 0.029028366036898914 0.0017599518965447562 0 0.029458631632871032 0.00033699477130894008 0 0.02924647363964878 0.00045322876336531255 0 0.029225919372059445 0.00037739005479024788 0 0.028698020772286215 0.003535810053004176 0 0.028616453273564359 0.0030283864981679163 0 0.029306041780372029 0.0033511189107528374 0 0.026472053863058103 0.0031207196456927064 0 0.025589165199009486 0.0061181961640589437 0 0.028616453273564359 0.0030283864981679163 0 0.029244318687504756 0.0028931004694066425 0 0.029306041780372029 0.0033511189107528374 0 0.029244318687504756 0.0028931004694066425 0 0.02998425048654867 0.0031540953368158387 0 0.029306041780372029 0.0033511189107528374 0 0.034014624200935172 0.0011121487726856727 0 0.030515319615310704 0.0018703103364920725 0 0.025589165199009486 0.0061181961640589437 0 0.027547543752450998 0.0055550702916361766 0 0.022771992798768775 0.0086657686092376611 0 0.025713112340616268 0.0082232953300181363 0 0.024555738856101416 0.0071242140559519733 0 0.022771992798768775 0.0086657686092376611 0 0.022949322078046785 0.0072949010052582022 0 0.024555738856101416 0.0071242140559519733 0 0.020074498160292512 0.009173863098775591 0 0.022771992798768775 0.0086657686092376611 0 0.021131382032565343 0.0077128365000414647 0 0.022949322078046785 0.0072949010052582022 0 0.021131382032565343 0.0077128365000414647 0 0.021245549585534124 0.0058253755614938417 0 0.022771992798768775 0.0086657686092376611 0 0.022949322078046785 0.0072949010052582022 0 0.021131382032565343 0.0077128365000414647 0 0.019743205926051173 0.0065336656624662114 0 0.021131382032565343 0.0077128365000414647 0 0.021245549585534124 0.0058253755614938417 0 0.022949322078046785 0.0072949010052582022 0 0.021245549585534124 0.0058253755614938417 0 0.022131978713562303 0.0040364975932487782 0 0.022949322078046785 0.0072949010052582022 0 0.024057431628853689 0.0047909485975239675 0 0.022798872969799502 0.0041317645065567371 0 0.022949322078046785 0.0072949010052582022 0 0.024057431628853689 0.0047909485975239675 0 0.025072916654124339 0.0055810780529861308 0 0.022922256193026867 0.0071646152015915751 0 0.022454046516770531 0.0041661650262629513 0 0.022949322078046785 0.0072949010052582022 0 0.025072916654124339 0.0055810780529861308 0 0.024555738856101416 0.0071242140559519733 0 0.024015007759849858 0.0034485063547283158 0 0.024057431628853689 0.0047909485975239675 0 0.022798872969799502 0.0041317645065567371 0 0.020651374829174049 0.0028023677289942183 0 0.019460350538555538 0.0040081705742837188 0 0.022131978713562303 0.0040364975932487782 0 0.019460350538555538 0.0040081705742837188 0 0.021245549585534124 0.0058253755614938417 0 0.022131978713562303 0.0040364975932487782 0 0.027998098703522822 0.0030468921194794817 0 0.027425989786747516 0.0045808895122897691 0 0.030016353247676871 0.0038903086517184772 0 0.027998098703522822 0.0030468921194794817 0 0.027425989786747516 0.0045808895122897691 0 0.025350889420152293 0.0037493882211312559 0 0.024057431628853689 0.0047909485975239675 0 0.025350889420152293 0.0037493882211312559 0 0.025072916654124339 0.0055810780529861308 0 0.027425989786747516 0.0045808895122897691 0 0.025350889420152293 0.0037493882211312559 0 0.025072916654124339 0.0055810780529861308 0 0.024015007759849858 0.0034485063547283158 0 0.024057431628853689 0.0047909485975239675 0 0.025350889420152293 0.0037493882211312559 0 0.025072916654124339 0.0055810780529861308 0 0.026864984777629018 0.0063648205930572667 0 0.024555738856101416 0.0071242140559519733 0 0.027425989786747516 0.0045808895122897691 0 0.025072916654124339 0.0055810780529861308 0 0.026864984777629018 0.0063648205930572667 0 0.027425989786747516 0.0045808895122897691 0 0.026864984777629018 0.0063648205930572667 0 0.02915608804550569 0.00529380037080207 0 0.026864984777629018 0.0063648205930572667 0 0.029186433978999834 0.0076811562149497166 0 0.02915608804550569 0.00529380037080207 0 0.037336958055182494 0.0010177873458525736 0 0.036544914899830798 0.0016130762125634813 0 0.03633438477101867 0.0031548135882208785 0 0.027547543752450998 0.0055550702916361766 0 0.031837936225900677 0.0044476978639570652 0 0.034014624200935172 0.0011121487726856727 0 0.031837936225900677 0.0044476978639570652 0 0.029943361987128825 0.0027482985224046336 0 0.02998425048654867 0.0031540953368158387 0 0.030658714757824349 0.0026193058999064026 0 0.026864984777629018 0.0063648205930572667 0 0.025713112340616268 0.0082232953300181363 0 0.029186433978999834 0.0076811562149497166 0 0.026864984777629018 0.0063648205930572667 0 0.025713112340616268 0.0082232953300181363 0 0.024555738856101416 0.0071242140559519733 0 0.029244318687504756 0.0028931004694066425 0 0.029943361987128825 0.0027482985224046336 0 0.02998425048654867 0.0031540953368158387 0 0.034014624200935172 0.0011121487726856727 0 0.037072478841315953 0.001058099635874165 0 0.035974631328111628 0.00075931103104049508 0 0.036544914899830798 0.0016130762125634813 0 0.03628646676650734 0.0010285441882488973 0 0.036544914899830798 0.0016130762125634813 0 0.03628646676650734 0.0010285441882488973 0 0.036124876975719901 0.0015471416309117141 0 0.03628646676650734 0.0010285441882488973 0 0.036037080560568695 0.00099877450708683001 0 0.036458329153871323 0.0011145913413218064 0 0.03628646676650734 0.0010285441882488973 0 0.036037080560568695 0.00099877450708683001 0 0.035586375356454279 0.00076782261149856005 0 0.036037080560568695 0.00099877450708683001 0 0.035866417343831621 0.0014503577805396733 0 0.037098043217137222 0.0013495433887789913 0 0.036037080560568695 0.00099877450708683001 0 0.035866417343831621 0.0014503577805396733 0 0.034945474565700019 0.00086604164996601776 0 0.035866417343831621 0.0014503577805396733 0 0.034945474565700019 0.00086604164996601776 0 0.0351079599333683 0.001747255836049298 0 0.035974631328111628 0.00075931103104049508 0 0.035586375356454279 0.00076782261149856005 0 0.034487982977735893 0.00035713716092508391 0 0.034014624200935172 0.0011121487726856727 0 0.033785376743122986 0.00012557168863904056 0 0.034945474565700019 0.00086604164996601776 0 0.035586375356454279 0.00076782261149856005 0 0.034487982977735893 0.00035713716092508391 0 0.036037080560568695 0.00099877450708683001 0 0.034945474565700019 0.00086604164996601776 0 0.035586375356454279 0.00076782261149856005 0 0.035974631328111628 0.00075931103104049508 0 0.03628646676650734 0.0010285441882488973 0 0.035586375356454279 0.00076782261149856005 0 0.033350494991538228 -0.00024748027497440702 0 0.032822385498956268 -0.00010349069282933228 0 0.032910924304968406 0.00011280510534293869 0 0.032822385498956268 -0.00010349069282933228 0 0.032910924304968406 0.00011280510534293869 0 0.032576552583321587 0.00016801744673094224 0 0.032131405524105219 4.0603695625369533e-05 0 0.032822385498956268 -0.00010349069282933228 0 0.032576552583321587 0.00016801744673094224 0 0.03063593715353035 0.00065822278416895435 0 0.030515319615310704 0.0018703103364920725 0 0.034487982977735893 0.00035713716092508391 0 0.032419883878066762 0.00065125087099506874 0 0.033876044706271938 0.00077294506855316546 0 0.033785376743122986 0.00012557168863904056 0 0.032433232691176185 0.00078107868163513272 0 0.032910924304968406 0.00011280510534293869 0 0.032576552583321587 0.00016801744673094224 0 0.032419883878066762 0.00065125087099506874 0 0.032131405524105219 4.0603695625369533e-05 0 0.032576552583321587 0.00016801744673094224 0 0.032419883878066762 0.00065125087099506874 0 0.033300020679140563 0.0009060972539354056 0 0.032419883878066762 0.00065125087099506874 0 0.032713467839020405 0.00096169342592856467 0 0.033300020679140563 0.0009060972539354056 0 0.032419883878066762 0.00065125087099506874 0 0.033876044706271938 0.00077294506855316546 0 0.032419883878066762 0.00065125087099506874 0 0.032327189518507174 0.0008812607079705893 0 0.032713467839020405 0.00096169342592856467 0 0.032085810119230743 0.00070629466215052169 0 0.032419883878066762 0.00065125087099506874 0 0.032327189518507174 0.0008812607079705893 0 0.034945474565700019 0.00086604164996601776 0 0.034011554780429588 0.0010539841320339595 0 0.0351079599333683 0.001747255836049298 0 0.034945474565700019 0.00086604164996601776 0 0.034487982977735893 0.00035713716092508391 0 0.033876044706271938 0.00077294506855316546 0 0.034945474565700019 0.00086604164996601776 0 0.033876044706271938 0.00077294506855316546 0 0.034011554780429588 0.0010539841320339595 0 0.033300020679140563 0.0009060972539354056 0 0.034011554780429588 0.0010539841320339595 0 0.033115519825559658 0.0011986869476995137 0 0.033300020679140563 0.0009060972539354056 0 0.033876044706271938 0.00077294506855316546 0 0.034011554780429588 0.0010539841320339595 0 0.033920278161042906 0.0015366883174909643 0 0.033085550699201903 0.0019536451857474556 0 0.0351079599333683 0.001747255836049298 0 0.034011554780429588 0.0010539841320339595 0 0.033920278161042906 0.0015366883174909643 0 0.0351079599333683 0.001747255836049298 0 0.034011554780429588 0.0010539841320339595 0 0.033920278161042906 0.0015366883174909643 0 0.033115519825559658 0.0011986869476995137 0 0.033920278161042906 0.0015366883174909643 0 0.033115519825559658 0.0011986869476995137 0 0.033186123466259432 0.0015335117587164215 0 0.032415270888985902 0.0010856913599917603 0 0.032713467839020405 0.00096169342592856467 0 0.033115519825559658 0.0011986869476995137 0 0.032415270888985902 0.0010856913599917603 0 0.033115519825559658 0.0011986869476995137 0 0.032447098608038225 0.0013801755246172526 0 0.031903949465877303 0.00097734759093740897 0 0.032415270888985902 0.0010856913599917603 0 0.032447098608038225 0.0013801755246172526 0 0.031903949465877303 0.00097734759093740897 0 0.032415270888985902 0.0010856913599917603 0 0.032327189518507174 0.0008812607079705893 0 0.032415270888985902 0.0010856913599917603 0 0.032327189518507174 0.0008812607079705893 0 0.032713467839020405 0.00096169342592856467 0 0.033300020679140563 0.0009060972539354056 0 0.032713467839020405 0.00096169342592856467 0 0.033115519825559658 0.0011986869476995137 0 0.033115519825559658 0.0011986869476995137 0 0.033186123466259432 0.0015335117587164215 0 0.032447098608038225 0.0013801755246172526 0 0.031935808476226409 0.0014280185256299392 0 0.032447098608038225 0.0013801755246172526 0 0.033085550699201903 0.0019536451857474556 0 0.033186123466259432 0.0015335117587164215 0 0.032447098608038225 0.0013801755246172526 0 0.033085550699201903 0.0019536451857474556 0 0.034663891490164835 0.0024824472013404183 0 0.0351079599333683 0.001747255836049298 0 0.03522627881816031 0.0026683757718336319 0 0.033427744966508473 0.0025040779031346456 0 0.035257421190115844 0.001521476392794604 0 0.033920278161042906 0.0015366883174909643 0 0.033186123466259432 0.0015335117587164215 0 0.033085550699201903 0.0019536451857474556 0 0.035999809364062864 0.0021040893692505593 0 0.0351079599333683 0.001747255836049298 0 0.03522627881816031 0.0026683757718336319 0 0.03744642458676771 0.0017156176479651588 0 0.037539231859882678 0.0020307556084810711 0 0.039171371125125864 0.0012508638104768014 0 0.038768097953546 0.0015563505125271348 0 0.040146635527508516 0.0012247553124827481 0 0.039171371125125864 0.0012508638104768014 0 0.038768097953546 0.0015563505125271348 0 0.037999132770521311 0.0013026010126429748 0 0.035866417343831621 0.0014503577805396733 0 0.035999809364062864 0.0021040893692505593 0 0.0351079599333683 0.001747255836049298 0 0.035866417343831621 0.0014503577805396733 0 0.035999809364062864 0.0021040893692505593 0 0.037098043217137222 0.0013495433887789913 0 0.037999132770521311 0.0013026010126429748 0 0.03792476928013893 0.0010578062691882894 0 0.037234376461615502 0.0011378320097202316 0 0.037999132770521311 0.0013026010126429748 0 0.037234376461615502 0.0011378320097202316 0 0.037098043217137222 0.0013495433887789913 0 0.03744642458676771 0.0017156176479651588 0 0.037219034352314474 0.0013735289144309847 0 0.038768097953546 0.0015563505125271348 0 0.037999132770521311 0.0013026010126429748 0 0.037098043217137222 0.0013495433887789913 0 0.039171371125125864 0.0012508638104768014 0 0.037999132770521311 0.0013026010126429748 0 0.038866888503605722 0.0010634576521180075 0 0.037999132770521311 0.0013026010126429748 0 0.038270825090960532 0.0011987445960115444 0 0.038866888503605722 0.0010634576521180075 0 0.037999132770521311 0.0013026010126429748 0 0.038270825090960532 0.0011987445960115444 0 0.03792476928013893 0.0010578062691882894 0 0.038270825090960532 0.0011987445960115444 0 0.038934364125812707 0.0011166043500463844 0 0.03792476928013893 0.0010578062691882894 0 0.038270825090960532 0.0011987445960115444 0 0.038934364125812707 0.0011166043500463844 0 0.040230880160783716 0.0014349442181187451 0 0.038934364125812707 0.0011166043500463844 0 0.039789068578726702 0.0011735721950992763 0 0.040230880160783716 0.0014349442181187451 0 0.038934364125812707 0.0011166043500463844 0 0.038337423203054645 0.00095493805117484302 0 0.039789068578726702 0.0011735721950992763 0 0.038934364125812707 0.0011166043500463844 0 0.038337423203054645 0.00095493805117484302 0 0.03792476928013893 0.0010578062691882894 0 0.038337423203054645 0.00095493805117484302 0 0.03792476928013893 0.0010578062691882894 0 0.037151536592736213 0.00094237845817653969 0 0.03792476928013893 0.0010578062691882894 0 0.037151536592736213 0.00094237845817653969 0 0.037234376461615502 0.0011378320097202316 0 0.037151536592736213 0.00094237845817653969 0 0.036528860928523615 0.001177619598907946 0 0.037234376461615502 0.0011378320097202316 0 0.037151536592736213 0.00094237845817653969 0 0.036795803199214612 0.00076386864403417236 0 0.036423357798681971 0.0011219628992668277 0 0.037151536592736213 0.00094237845817653969 0 0.036423357798681971 0.0011219628992668277 0 0.036528860928523615 0.001177619598907946 0 0.038337423203054645 0.00095493805117484302 0 0.037151536592736213 0.00094237845817653969 0 0.036795803199214612 0.00076386864403417236 0 0.038337423203054645 0.00095493805117484302 0 0.036795803199214612 0.00076386864403417236 0 0.039906599211107535 0.000756445926685023 0 0.036795803199214612 0.00076386864403417236 0 0.036135869485202012 0.0011354759111632106 0 0.036534301655614054 0.00070267315925236988 0 0.036075581320396559 0.0012462965644011999 0 0.035721463996279526 0.0014827826742631845 0 0.036135869485202012 0.0011354759111632106 0 0.036795803199214612 0.00076386864403417236 0 0.036075581320396559 0.0012462965644011999 0 0.036135869485202012 0.0011354759111632106 0 0.036795803199214612 0.00076386864403417236 0 0.036075581320396559 0.0012462965644011999 0 0.036423357798681971 0.0011219628992668277 0 0.036075581320396559 0.0012462965644011999 0 0.036423357798681971 0.0011219628992668277 0 0.035551169534746824 0.0017535300567072419 0 0.036423357798681971 0.0011219628992668277 0 0.036528860928523615 0.001177619598907946 0 0.035551169534746824 0.0017535300567072419 0 0.036528860928523615 0.001177619598907946 0 0.035917195709582406 0.0015767854429518014 0 0.035551169534746824 0.0017535300567072419 0 0.036687209447993092 0.001196232847925472 0 0.036528860928523615 0.001177619598907946 0 0.035917195709582406 0.0015767854429518014 0 0.036687209447993092 0.001196232847925472 0 0.037234376461615502 0.0011378320097202316 0 0.037098043217137222 0.0013495433887789913 0 0.036687209447993092 0.001196232847925472 0 0.036528860928523615 0.001177619598907946 0 0.037234376461615502 0.0011378320097202316 0 0.036037080560568695 0.00099877450708683001 0 0.037098043217137222 0.0013495433887789913 0 0.036458329153871323 0.0011145913413218064 0 0.036687209447993092 0.001196232847925472 0 0.036458329153871323 0.0011145913413218064 0 0.035917195709582406 0.0015767854429518014 0 0.036687209447993092 0.001196232847925472 0 0.037098043217137222 0.0013495433887789913 0 0.036458329153871323 0.0011145913413218064 0 0.036458329153871323 0.0011145913413218064 0 0.036124876975719901 0.0015471416309117141 0 0.035917195709582406 0.0015767854429518014 0 0.03628646676650734 0.0010285441882488973 0 0.036458329153871323 0.0011145913413218064 0 0.036124876975719901 0.0015471416309117141 0 0.036124876975719901 0.0015471416309117141 0 0.035917195709582406 0.0015767854429518014 0 0.035304156016184203 0.0024572766416998833 0 0.035917195709582406 0.0015767854429518014 0 0.035304156016184203 0.0024572766416998833 0 0.034691668863202539 0.0027206071375732045 0 0.035917195709582406 0.0015767854429518014 0 0.034691668863202539 0.0027206071375732045 0 0.035551169534746824 0.0017535300567072419 0 0.034406248456337246 0.003277589262663522 0 0.035304156016184203 0.0024572766416998833 0 0.034691668863202539 0.0027206071375732045 0 0.034406248456337246 0.003277589262663522 0 0.03363695474115664 0.0040249743766288554 0 0.034691668863202539 0.0027206071375732045 0 0.034406248456337246 0.003277589262663522 0 0.035304156016184203 0.0024572766416998833 0 0.033535172009144881 0.0044937180985039652 0 0.034406248456337246 0.003277589262663522 0 0.033535172009144881 0.0044937180985039652 0 0.03363695474115664 0.0040249743766288554 0 0.031837936225900677 0.0044476978639570652 0 0.034142146075961492 0.0043985343132013164 0 0.036544914899830798 0.0016130762125634813 0 0.036124876975719901 0.0015471416309117141 0 0.03633438477101867 0.0031548135882208785 0 0.035304156016184203 0.0024572766416998833 0 0.03633438477101867 0.0031548135882208785 0 0.033535172009144881 0.0044937180985039652 0 0.036124876975719901 0.0015471416309117141 0 0.035304156016184203 0.0024572766416998833 0 0.03633438477101867 0.0031548135882208785 0 0.031030884106224378 0.0056889339581886675 0 0.033535172009144881 0.0044937180985039652 0 0.032095883786338826 0.0047422287683483947 0 0.029186433978999834 0.0076811562149497166 0 0.02915608804550569 0.00529380037080207 0 0.032095883786338826 0.0047422287683483947 0 0.02915608804550569 0.00529380037080207 0 0.032095883786338826 0.0047422287683483947 0 0.030016353247676871 0.0038903086517184772 0 0.031837936225900677 0.0044476978639570652 0 0.031185094724619552 0.005644551936736999 0 0.033535172009144881 0.0044937180985039652 0 0.03288999742000611 0.0043766736236965495 0 0.032095883786338826 0.0047422287683483947 0 0.033535172009144881 0.0044937180985039652 0 0.03288999742000611 0.0043766736236965495 0 0.03363695474115664 0.0040249743766288554 0 0.03288999742000611 0.0043766736236965495 0 0.031833552530571713 0.0039946922677932296 0 0.032959651610974451 0.0041055227341637475 0 0.03288999742000611 0.0043766736236965495 0 0.032095883786338826 0.0047422287683483947 0 0.031833552530571713 0.0039946922677932296 0 0.030808046057685785 0.0029153787487212453 0 0.031833552530571713 0.0039946922677932296 0 0.032475607700253643 0.0033608482753063663 0 0.030808046057685785 0.0029153787487212453 0 0.031833552530571713 0.0039946922677932296 0 0.030016353247676871 0.0038903086517184772 0 0.031833552530571713 0.0039946922677932296 0 0.032475607700253643 0.0033608482753063663 0 0.032959651610974451 0.0041055227341637475 0 0.027425989786747516 0.0045808895122897691 0 0.02915608804550569 0.00529380037080207 0 0.030016353247676871 0.0038903086517184772 0 0.032095883786338826 0.0047422287683483947 0 0.031833552530571713 0.0039946922677932296 0 0.030016353247676871 0.0038903086517184772 0 0.033845392981435081 0.0020727985698991446 0 0.034258200134750665 0.0029850085493776436 0 0.034320794147044968 0.0015503555402311276 0 0.035123255047722714 0.0019199330893514279 0 0.035157878369257843 0.0018655846205472221 0 0.032475607700253643 0.0033608482753063663 0 0.032959651610974451 0.0041055227341637475 0 0.033388571920271254 0.0041673210256247114 0 0.033413670289038029 0.0027714732036897638 0 0.032475607700253643 0.0033608482753063663 0 0.033388571920271254 0.0041673210256247114 0 0.03363695474115664 0.0040249743766288554 0 0.033388571920271254 0.0041673210256247114 0 0.033851435812313799 0.0030882851830336174 0 0.032959651610974451 0.0041055227341637475 0 0.03363695474115664 0.0040249743766288554 0 0.033388571920271254 0.0041673210256247114 0 0.03288999742000611 0.0043766736236965495 0 0.032959651610974451 0.0041055227341637475 0 0.03363695474115664 0.0040249743766288554 0 0.035123255047722714 0.0019199330893514279 0 0.035670347902058495 0.001689605622334663 0 0.035346792268128237 0.0018236294452917013 0 0.034258200134750665 0.0029850085493776436 0 0.034865761058770345 0.0024107350721151782 0 0.03363695474115664 0.0040249743766288554 0 0.033851435812313799 0.0030882851830336174 0 0.034691668863202539 0.0027206071375732045 0 0.033851435812313799 0.0030882851830336174 0 0.034691668863202539 0.0027206071375732045 0 0.035551169534746824 0.0017535300567072419 0 0.036075581320396559 0.0012462965644011999 0 0.035670347902058495 0.001689605622334663 0 0.035721463996279526 0.0014827826742631845 0 0.036075581320396559 0.0012462965644011999 0 0.033851435812313799 0.0030882851830336174 0 0.035551169534746824 0.0017535300567072419 0 0.035810286382328561 0.0014260857257267013 0 0.034865761058770345 0.0024107350721151782 0 0.035721463996279526 0.0014827826742631845 0 0.035317347455152651 0.001551097754118149 0 0.03540469901345502 0.0011389696664189969 0 0.035317347455152651 0.001551097754118149 0 0.035346792268128237 0.0018236294452917013 0 0.035154067376374276 0.0017458852555137837 0 0.035721463996279526 0.0014827826742631845 0 0.035317347455152651 0.001551097754118149 0 0.035346792268128237 0.0018236294452917013 0 0.035670347902058495 0.001689605622334663 0 0.035721463996279526 0.0014827826742631845 0 0.035346792268128237 0.0018236294452917013 0 0.035123255047722714 0.0019199330893514279 0 0.035346792268128237 0.0018236294452917013 0 0.035157878369257843 0.0018655846205472221 0 0.035346792268128237 0.0018236294452917013 0 0.035157878369257843 0.0018655846205472221 0 0.035210572849965455 0.0018737081821181291 0 0.035346792268128237 0.0018236294452917013 0 0.035210572849965455 0.0018737081821181291 0 0.035154067376374276 0.0017458852555137837 0 0.033365669101998958 0.0004572497250646688 0 0.034388281300727158 0.0012241105709307821 0 0.035187680990683416 0.0018085162317566553 0 0.035157878369257843 0.0018655846205472221 0 0.035210572849965455 0.0018737081821181291 0 0.034073597629106639 -8.6989232759191156e-05 0 0.033824188707692965 0.00042228858381735041 0 0.03420831993042097 0.00045295462096854925 0 0.033582110751158446 -8.8190403734701918e-06 0 0.034073597629106639 -8.6989232759191156e-05 0 0.033824188707692965 0.00042228858381735041 0 0.033582110751158446 -8.8190403734701918e-06 0 0.033824188707692965 0.00042228858381735041 0 0.033355633067901735 0.00042661693413032392 0 0.033582110751158446 -8.8190403734701918e-06 0 0.033146701564983352 -0.00023826355854230069 0 0.033355633067901735 0.00042661693413032392 0 0.033824188707692965 0.00042228858381735041 0 0.033355633067901735 0.00042661693413032392 0 0.033567411493899343 0.0010718645996127833 0 0.034388281300727158 0.0012241105709307821 0 0.034121224887820469 0.0014626466048615475 0 0.033824188707692965 0.00042228858381735041 0 0.034112846443388044 0.00078305220556064144 0 0.033567411493899343 0.0010718645996127833 0 0.033824188707692965 0.00042228858381735041 0 0.034112846443388044 0.00078305220556064144 0 0.03420831993042097 0.00045295462096854925 0 0.034112846443388044 0.00078305220556064144 0 0.033567411493899343 0.0010718645996127833 0 0.034365798996471124 0.0013307564583619157 0 0.034121224887820469 0.0014626466048615475 0 0.03691274943468241 0.00080714469868700732 0 0.035317347455152651 0.001551097754118149 0 0.035035038993257328 0.0014099044114734057 0 0.03540469901345502 0.0011389696664189969 0 0.035317347455152651 0.001551097754118149 0 0.035154067376374276 0.0017458852555137837 0 0.035035038993257328 0.0014099044114734057 0 0.03691274943468241 0.00080714469868700732 0 0.038176824842438756 0.0011857910200019613 0 0.033567411493899343 0.0010718645996127833 0 0.033766315995092611 0.0016935094266657517 0 0.034365798996471124 0.0013307564583619157 0 0.04125102099046659 0.0012236352263908245 0 0.041387145916606312 0.0011537592373468753 0 0.041456163034149736 0.0013133531294776876 0 0.04125102099046659 0.0012236352263908245 0 0.041333624613380561 0.0013661585447416543 0 0.041456163034149736 0.0013133531294776876 0 0.03691274943468241 0.00080714469868700732 0 0.040301712468750556 0.0007418904635533456 0 0.038750758080615136 0.00026425132156615534 0 0.037961523585325806 0.00027980680220878189 0 0.038414247224727423 0.00088359436293005084 0 0.03691274943468241 0.00080714469868700732 0 0.036421155624283053 0.00039260451226751152 0 0.038427563130271077 -0.00088702983423179194 0 0.037961523585325806 0.00027980680220878189 0 0.037381426767944766 -0.00027295171954513562 0 0.038427563130271077 -0.00088702983423179194 0 0.038750758080615136 0.00026425132156615534 0 0.037961523585325806 0.00027980680220878189 0 0.03540469901345502 0.0011389696664189969 0 0.036135869485202012 0.0011354759111632106 0 0.036534301655614054 0.00070267315925236988 0 0.035721463996279526 0.0014827826742631845 0 0.03540469901345502 0.0011389696664189969 0 0.036135869485202012 0.0011354759111632106 0 0.037381426767944766 -0.00027295171954513562 0 0.036534301655614054 0.00070267315925236988 0 0.037185944281426589 0.00043789855466587317 0 0.036421155624283053 0.00039260451226751152 0 0.036501828418807086 0.00065789014810297135 0 0.036795803199214612 0.00076386864403417236 0 0.036534301655614054 0.00070267315925236988 0 0.036626113031739543 0.00073224168015770263 0 0.036534301655614054 0.00070267315925236988 0 0.037185944281426589 0.00043789855466587317 0 0.036626113031739543 0.00073224168015770263 0 0.037062807062858076 0.00073492887476029223 0 0.038215541414207722 0.00084696377818778098 0 0.037961523585325806 0.00027980680220878189 0 0.037381426767944766 -0.00027295171954513562 0 0.037185944281426589 0.00043789855466587317 0 0.037961523585325806 0.00027980680220878189 0 0.037185944281426589 0.00043789855466587317 0 0.037755330694391687 0.00085608092419211211 0 0.040064065550663996 0.00098589225014652018 0 0.039906599211107535 0.000756445926685023 0 0.040078455888586453 0.0012653856636429472 0 0.038215541414207722 0.00084696377818778098 0 0.038955812101034694 0.0013594625461428834 0 0.037185944281426589 0.00043789855466587317 0 0.037755330694391687 0.00085608092419211211 0 0.036626113031739543 0.00073224168015770263 0 0.037755330694391687 0.00085608092419211211 0 0.036626113031739543 0.00073224168015770263 0 0.037936863013115225 0.0015620474088515214 0 0.040064065550663996 0.00098589225014652018 0 0.039906599211107535 0.000756445926685023 0 0.039789068578726702 0.0011735721950992763 0 0.038337423203054645 0.00095493805117484302 0 0.039906599211107535 0.000756445926685023 0 0.039789068578726702 0.0011735721950992763 0 0.040064065550663996 0.00098589225014652018 0 0.039789068578726702 0.0011735721950992763 0 0.040624611990434642 0.0011394253792559503 0 0.039789068578726702 0.0011735721950992763 0 0.040624611990434642 0.0011394253792559503 0 0.040230880160783716 0.0014349442181187451 0 0.040064065550663996 0.00098589225014652018 0 0.040078455888586453 0.0012653856636429472 0 0.039804800120728699 0.0015058440511482888 0 0.040216366358539417 0.0010557255255936441 0 0.040367905287380726 0.0013128739900910742 0 0.040064065550663996 0.00098589225014652018 0 0.041270744670829362 0.00098693113133139468 0 0.040624611990434642 0.0011394253792559503 0 0.038955812101034694 0.0013594625461428834 0 0.039120773682631255 0.0015961069274025407 0 0.037936863013115225 0.0015620474088515214 0 0.038664971481458331 0.0014936058046114361 0 0.039182453432210773 0.0016638991274527928 0 0.040078455888586453 0.0012653856636429472 0 0.039182453432210773 0.0016638991274527928 0 0.039804800120728699 0.0015058440511482888 0 0.037936863013115225 0.0015620474088515214 0 0.038664971481458331 0.0014936058046114361 0 0.038307035823350225 0.0012353927971940628 0 0.038671226432209847 0.0012805447049726783 0 0.038664971481458331 0.0014936058046114361 0 0.038307035823350225 0.0012353927971940628 0 0.040807601693962109 0.0013643170479089122 0 0.041695488322635497 0.001460575380160886 0 0.040807601693962109 0.0013643170479089122 0 0.040327171812560896 0.0016092385584410708 0 0.041719289068705583 0.001307184453854502 0 0.041745416040489279 0.0012480925203900066 0 0.04172471478562411 0.0012323460730814049 0 0.038664971481458331 0.0014936058046114361 0 0.038946997209816925 0.0015401108487521128 0 0.039182453432210773 0.0016638991274527928 0 0.038946997209816925 0.0015401108487521128 0 0.039023795119454148 0.0012734892803128233 0 0.039108238096170464 0.0017030375192062634 0 0.038946997209816925 0.0015401108487521128 0 0.038834245333330353 0.0014016228010712509 0 0.039023795119454148 0.0012734892803128233 0 0.038671226432209847 0.0012805447049726783 0 0.038834245333330353 0.0014016228010712509 0 0.039023795119454148 0.0012734892803128233 0 0.038671226432209847 0.0012805447049726783 0 0.038664971481458331 0.0014936058046114361 0 0.038834245333330353 0.0014016228010712509 0 0.038664971481458331 0.0014936058046114361 0 0.038946997209816925 0.0015401108487521128 0 0.038834245333330353 0.0014016228010712509 0 0.038750758080615136 0.00026425132156615534 0 0.039023795119454148 0.0012734892803128233 0 0.038414247224727423 0.00088359436293005084 0 0.041333624613380561 0.0013661585447416543 0 0.041407519304749327 0.0015058205362505188 0 0.041464859610924235 0.0014118857539331573 0 0.040301712468750556 0.0007418904635533456 0 0.040807601693962109 0.0013643170479089122 0 0.038671226432209847 0.0012805447049726783 0 0.039023795119454148 0.0012734892803128233 0 0.038414247224727423 0.00088359436293005084 0 0.037755330694391687 0.00085608092419211211 0 0.038414247224727423 0.00088359436293005084 0 0.038307035823350225 0.0012353927971940628 0 0.037961523585325806 0.00027980680220878189 0 0.037755330694391687 0.00085608092419211211 0 0.038414247224727423 0.00088359436293005084 0 0.037755330694391687 0.00085608092419211211 0 0.037936863013115225 0.0015620474088515214 0 0.038307035823350225 0.0012353927971940628 0 0.038671226432209847 0.0012805447049726783 0 0.038414247224727423 0.00088359436293005084 0 0.038307035823350225 0.0012353927971940628 0 0.041595991857362458 0.00090076129466662175 0 0.041692186866913568 0.00084924309643769243 0 0.041984231141648183 0.00070610799402122859 0 0.041763164787136063 0.0011941135140957787 0 0.04172471478562411 0.0012323460730814049 0 0.041738388905930235 0.0011734088037964085 0 0.04172194386829866 0.00051652702634267438 0 0.040327171812560896 0.0016092385584410708 0 0.041763164787136063 0.0011941135140957787 0 0.041745416040489279 0.0012480925203900066 0 0.04172471478562411 0.0012323460730814049 0 0.039217459159890916 0.0011939775213701577 0 0.039108238096170464 0.0017030375192062634 0 0.039182453432210773 0.0016638991274527928 0 0.038946997209816925 0.0015401108487521128 0 0.039108238096170464 0.0017030375192062634 0 0.039182453432210773 0.0016638991274527928 0 0.041595991857362458 0.00090076129466662175 0 0.041692186866913568 0.00084924309643769243 0 0.041270744670829362 0.00098693113133139468 0 0.04172194386829866 0.00051652702634267438 0 0.040367905287380726 0.0013128739900910742 0 0.039217459159890916 0.0011939775213701577 0 0.039182453432210773 0.0016638991274527928 0 0.039804800120728699 0.0015058440511482888 0 0.041595991857362458 0.00090076129466662175 0 0.041270744670829362 0.00098693113133139468 0 0.041256867641636788 0.00099119621612235088 0 0.041270744670829362 0.00098693113133139468 0 0.041256867641636788 0.00099119621612235088 0 0.040624611990434642 0.0011394253792559503 0 0.041256867641636788 0.00099119621612235088 0 0.040624611990434642 0.0011394253792559503 0 0.041125265980870698 0.00096073288131950604 0 0.040624611990434642 0.0011394253792559503 0 0.041125265980870698 0.00096073288131950604 0 0.040230880160783716 0.0014349442181187451 0 0.041256867641636788 0.00099119621612235088 0 0.041125265980870698 0.00096073288131950604 0 0.041847019099272957 0.00072433911555018677 0 0.041125265980870698 0.00096073288131950604 0 0.041847019099272957 0.00072433911555018677 0 0.042240173995864709 0.0003860106778835742 0 0.041595991857362458 0.00090076129466662175 0 0.041847019099272957 0.00072433911555018677 0 0.041984231141648183 0.00070610799402122859 0 0.041595991857362458 0.00090076129466662175 0 0.041256867641636788 0.00099119621612235088 0 0.041847019099272957 0.00072433911555018677 0 0.041847019099272957 0.00072433911555018677 0 0.042874906658545431 0.00025032184976856895 0 0.042447681169889159 0.0004527047178021155 0 0.041847019099272957 0.00072433911555018677 0 0.042447681169889159 0.0004527047178021155 0 0.041984231141648183 0.00070610799402122859 0 0.041847019099272957 0.00072433911555018677 0 0.04278538695671346 0.00026005343313269068 0 0.042240173995864709 0.0003860106778835742 0 0.041847019099272957 0.00072433911555018677 0 0.04278538695671346 0.00026005343313269068 0 0.042874906658545431 0.00025032184976856895 0 0.04278538695671346 0.00026005343313269068 0 0.042874906658545431 0.00025032184976856895 0 0.043383141600828207 0.0001328144900757837 0 0.042874906658545431 0.00025032184976856895 0 0.042447681169889159 0.0004527047178021155 0 0.043626303755410815 -5.1465304671671744e-05 0 0.042447681169889159 0.0004527047178021155 0 0.042241485966565892 0.0004622734989095348 0 0.043626303755410815 -5.1465304671671744e-05 0 0.043236140119538941 -0.00033075605142158843 0 0.043457014761341207 8.9825478480709157e-05 0 0.042447681169889159 0.0004527047178021155 0 0.042241485966565892 0.0004622734989095348 0 0.041984231141648183 0.00070610799402122859 0 0.041692186866913568 0.00084924309643769243 0 0.042241485966565892 0.0004622734989095348 0 0.041984231141648183 0.00070610799402122859 0 0.041763164787136063 0.0011941135140957787 0 0.041738388905930235 0.0011734088037964085 0 0.041752572467638055 0.0011619301489062877 0 0.043967603435579407 -0.0014218740581817251 0 0.043862550380049693 -0.0008248172074753566 0 0.044314681407121914 -0.0010074597714638648 0 0.04172194386829866 0.00051652702634267438 0 0.043114417213205476 -3.6714504914549544e-05 0 0.04172194386829866 0.00051652702634267438 0 0.043236140119538941 -0.00033075605142158843 0 0.043862550380049693 -0.0008248172074753566 0 0.044213628822692017 -0.00051868101364354539 0 0.043626303755410815 -5.1465304671671744e-05 0 0.043862550380049693 -0.0008248172074753566 0 0.044213628822692017 -0.00051868101364354539 0 0.044314681407121914 -0.0010074597714638648 0 0.044213628822692017 -0.00051868101364354539 0 0.043626303755410815 -5.1465304671671744e-05 0 0.044397882952370807 -6.9907448087203864e-05 0 0.043626303755410815 -5.1465304671671744e-05 0 0.04434237903596927 0.00010194974641453476 0 0.043975776775917824 8.9697177703857141e-05 0 0.043626303755410815 -5.1465304671671744e-05 0 0.044397882952370807 -6.9907448087203864e-05 0 0.04434237903596927 0.00010194974641453476 0 0.044397882952370807 -6.9907448087203864e-05 0 0.04434237903596927 0.00010194974641453476 0 0.044713263699951517 6.8575968938875708e-05 0 0.04434237903596927 0.00010194974641453476 0 0.044748660993943319 8.2695327343454962e-05 0 0.044713263699951517 6.8575968938875708e-05 0 0.04434237903596927 0.00010194974641453476 0 0.044999245740898516 1.2685364599552435e-07 0 0.044520523623429668 6.7996760141985412e-05 0 0.04434237903596927 0.00010194974641453476 0 0.044999245740898516 1.2685364599552435e-07 0 0.044748660993943319 8.2695327343454962e-05 0 0.044999245740898516 1.2685364599552435e-07 0 0.044748660993943319 8.2695327343454962e-05 0 0.044999607966089261 1.1797582078360984e-07 0 0.044999129545861979 4.4636751711910203e-08 0 0.044520523623429668 6.7996760141985412e-05 0 0.04439810621621481 8.2332948638999572e-05 0 0.044999245740898516 1.2685364599552435e-07 0 0.044999129545861979 4.4636751711910203e-08 0 0.044520523623429668 6.7996760141985412e-05 0 0.04434237903596927 0.00010194974641453476 0 0.044520523623429668 6.7996760141985412e-05 0 0.043975776775917824 8.9697177703857141e-05 0 0.044520523623429668 6.7996760141985412e-05 0 0.043975776775917824 8.9697177703857141e-05 0 0.04439810621621481 8.2332948638999572e-05 0 0.043975776775917824 8.9697177703857141e-05 0 0.043785919070351439 0.00012639395845712064 0 0.04439810621621481 8.2332948638999572e-05 0 0.042874906658545431 0.00025032184976856895 0 0.043626303755410815 -5.1465304671671744e-05 0 0.043383141600828207 0.0001328144900757837 0 0.043975776775917824 8.9697177703857141e-05 0 0.043383141600828207 0.0001328144900757837 0 0.043785919070351439 0.00012639395845712064 0 0.043626303755410815 -5.1465304671671744e-05 0 0.043975776775917824 8.9697177703857141e-05 0 0.043383141600828207 0.0001328144900757837 0 0.043383141600828207 0.0001328144900757837 0 0.043302814653674318 0.00016008347040300815 0 0.043785919070351439 0.00012639395845712064 0 0.043302814653674318 0.00016008347040300815 0 0.043486251169065689 0.00017788223116585483 0 0.043785919070351439 0.00012639395845712064 0 0.04278538695671346 0.00026005343313269068 0 0.043383141600828207 0.0001328144900757837 0 0.043302814653674318 0.00016008347040300815 0 0.043302814653674318 0.00016008347040300815 0 0.043486251169065689 0.00017788223116585483 0 0.042983566406533759 0.0001576961945068944 0 0.043486251169065689 0.00017788223116585483 0 0.044002076494311697 0.00017502099312473817 0 0.043785919070351439 0.00012639395845712064 0 0.044002076494311697 0.00017502099312473817 0 0.043785919070351439 0.00012639395845712064 0 0.04439810621621481 8.2332948638999572e-05 0 0.044002076494311697 0.00017502099312473817 0 0.04439810621621481 8.2332948638999572e-05 0 0.044517384778734875 0.00011226255071019358 0 0.04439810621621481 8.2332948638999572e-05 0 0.044999157777868802 7.5212169929909473e-08 0 0.044517384778734875 0.00011226255071019358 0 0.044999129545861979 4.4636751711910203e-08 0 0.04439810621621481 8.2332948638999572e-05 0 0.044999157777868802 7.5212169929909473e-08 0 0.044998889444650698 2.022581464105312e-07 0 0.044517384778734875 0.00011226255071019358 0 0.044541788261593274 0.00014564959286838023 0 0.044999157777868802 7.5212169929909473e-08 0 0.044998889444650698 2.022581464105312e-07 0 0.044517384778734875 0.00011226255071019358 0 0.044002076494311697 0.00017502099312473817 0 0.044517384778734875 0.00011226255071019358 0 0.04400042807131934 0.00025372791304941708 0 0.044517384778734875 0.00011226255071019358 0 0.044541788261593274 0.00014564959286838023 0 0.04400042807131934 0.00025372791304941708 0 0.044541788261593274 0.00014564959286838023 0 0.04400042807131934 0.00025372791304941708 0 0.04400710116511624 0.00016871687777059781 0 0.04400042807131934 0.00025372791304941708 0 0.043452154927034178 0.00048600405902289378 0 0.04400710116511624 0.00016871687777059781 0 0.04400042807131934 0.00025372791304941708 0 0.043452154927034178 0.00048600405902289378 0 0.043572149946877976 0.00029631238502739627 0 0.044002076494311697 0.00017502099312473817 0 0.04400042807131934 0.00025372791304941708 0 0.043572149946877976 0.00029631238502739627 0 0.043486251169065689 0.00017788223116585483 0 0.044002076494311697 0.00017502099312473817 0 0.043572149946877976 0.00029631238502739627 0 0.043486251169065689 0.00017788223116585483 0 0.043572149946877976 0.00029631238502739627 0 0.043170067684094218 0.00010731082405939468 0 0.043572149946877976 0.00029631238502739627 0 0.04267047704806632 0.00018284574249091175 0 0.043170067684094218 0.00010731082405939468 0 0.043452154927034178 0.00048600405902289378 0 0.043572149946877976 0.00029631238502739627 0 0.04267047704806632 0.00018284574249091175 0 0.04267047704806632 0.00018284574249091175 0 0.042852745116085597 -0.00018708234797854223 0 0.043170067684094218 0.00010731082405939468 0 0.042852745116085597 -0.00018708234797854223 0 0.042796057842889638 0.0001690957673454039 0 0.043170067684094218 0.00010731082405939468 0 0.042796057842889638 0.0001690957673454039 0 0.043170067684094218 0.00010731082405939468 0 0.042983566406533759 0.0001576961945068944 0 0.043486251169065689 0.00017788223116585483 0 0.043170067684094218 0.00010731082405939468 0 0.042983566406533759 0.0001576961945068944 0 0.04278538695671346 0.00026005343313269068 0 0.043302814653674318 0.00016008347040300815 0 0.042983566406533759 0.0001576961945068944 0 0.04278538695671346 0.00026005343313269068 0 0.042983566406533759 0.0001576961945068944 0 0.042240173995864709 0.0003860106778835742 0 0.042796057842889638 0.0001690957673454039 0 0.042983566406533759 0.0001576961945068944 0 0.042240173995864709 0.0003860106778835742 0 0.041125265980870698 0.00096073288131950604 0 0.040230880160783716 0.0014349442181187451 0 0.042441474323316061 0.00070847659426759768 0 0.041125265980870698 0.00096073288131950604 0 0.042240173995864709 0.0003860106778835742 0 0.042441474323316061 0.00070847659426759768 0 0.042796057842889638 0.0001690957673454039 0 0.042240173995864709 0.0003860106778835742 0 0.042441474323316061 0.00070847659426759768 0 0.038270825090960532 0.0011987445960115444 0 0.040230880160783716 0.0014349442181187451 0 0.038371699044683662 0.0012784765612332029 0 0.040298752854914209 0.0013421787817959731 0 0.040447104488608727 0.00094286611714715113 0 0.038270825090960532 0.0011987445960115444 0 0.038866888503605722 0.0010634576521180075 0 0.038371699044683662 0.0012784765612332029 0 0.039052847037307339 0.00021932686549751569 0 0.038866888503605722 0.0010634576521180075 0 0.039998849736234326 0.00034739664401623729 0 0.039052847037307339 0.00021932686549751569 0 0.038866888503605722 0.0010634576521180075 0 0.038371699044683662 0.0012784765612332029 0 0.042852745116085597 -0.00018708234797854223 0 0.042796057842889638 0.0001690957673454039 0 0.042441474323316061 0.00070847659426759768 0 0.040922956070430394 8.2075141949041296e-05 0 0.040447104488608727 0.00094286611714715113 0 0.040691062021011422 0.00028189680192097278 0 0.040639019875837915 0.00011118530285943778 0 0.040030803774520889 0.00069099027695895669 0 0.040639019875837915 0.00011118530285943778 0 0.039998849736234326 0.00034739664401623729 0 0.040030803774520889 0.00069099027695895669 0 0.040691062021011422 0.00028189680192097278 0 0.040639019875837915 0.00011118530285943778 0 0.040831466396120196 -4.3941149360057276e-06 0 0.038866888503605722 0.0010634576521180075 0 0.039998849736234326 0.00034739664401623729 0 0.040030803774520889 0.00069099027695895669 0 0.039171371125125864 0.0012508638104768014 0 0.038866888503605722 0.0010634576521180075 0 0.040030803774520889 0.00069099027695895669 0 0.040691062021011422 0.00028189680192097278 0 0.040030803774520889 0.00069099027695895669 0 0.040146635527508516 0.0012247553124827481 0 0.039171371125125864 0.0012508638104768014 0 0.040030803774520889 0.00069099027695895669 0 0.040146635527508516 0.0012247553124827481 0 0.034663891490164835 0.0024824472013404183 0 0.03522627881816031 0.0026683757718336319 0 0.034834487650764932 0.002765930767529126 0 0.03522627881816031 0.0026683757718336319 0 0.034834487650764932 0.002765930767529126 0 0.034819787491379914 0.0030318596854887734 0 0.040691062021011422 0.00028189680192097278 0 0.040146635527508516 0.0012247553124827481 0 0.041163956052850774 0.00037447883357536414 0 0.037539231859882678 0.0020307556084810711 0 0.038853797074647485 0.0012463363742937839 0 0.034834487650764932 0.002765930767529126 0 0.034819787491379914 0.0030318596854887734 0 0.034298587780806432 0.0029244094473391195 0 0.034663891490164835 0.0024824472013404183 0 0.034834487650764932 0.002765930767529126 0 0.034298587780806432 0.0029244094473391195 0 0.033427744966508473 0.0025040779031346456 0 0.035667893891287404 0.0012592943645367673 0 0.031935808476226409 0.0014280185256299392 0 0.033085550699201903 0.0019536451857474556 0 0.032049936841101877 0.0017782310912935306 0 0.040828419881560919 1.909803617077482e-05 0 0.040794944252087149 6.171967580954832e-05 0 0.040595417806113518 -7.315559819632826e-05 0 0.038853797074647485 0.0012463363742937839 0 0.035667893891287404 0.0012592943645367673 0 0.040794944252087149 6.171967580954832e-05 0 0.040664812870618572 4.3916646221008567e-05 0 0.040595417806113518 -7.315559819632826e-05 0 0.040841162408398315 0.00080866838882748422 0 0.038853797074647485 0.0012463363742937839 0 0.040691062021011422 0.00028189680192097278 0 0.040815688352591972 0.0001658262503955758 0 0.040810301300348045 0.00010248509416409458 0 0.038853797074647485 0.0012463363742937839 0 0.040182419456077097 7.3991474926516967e-05 0 0.040794944252087149 6.171967580954832e-05 0 0.040810301300348045 0.00010248509416409458 0 0.040795329181174629 4.3205147724354271e-05 0 0.040815688352591972 0.0001658262503955758 0 0.040794944252087149 6.171967580954832e-05 0 0.040810301300348045 0.00010248509416409458 0 0.040691062021011422 0.00028189680192097278 0 0.040810301300348045 0.00010248509416409458 0 0.040831466396120196 -4.3941149360057276e-06 0 0.040810301300348045 0.00010248509416409458 0 0.040831466396120196 -4.3941149360057276e-06 0 0.040795329181174629 4.3205147724354271e-05 0 0.040831466396120196 -4.3941149360057276e-06 0 0.040795329181174629 4.3205147724354271e-05 0 0.0409059123282687 2.2603551366341391e-05 0 0.040795329181174629 4.3205147724354271e-05 0 0.040664812870618572 4.3916646221008567e-05 0 0.04065442715599777 0.00014720750902746 0 0.040794944252087149 6.171967580954832e-05 0 0.040795329181174629 4.3205147724354271e-05 0 0.040664812870618572 4.3916646221008567e-05 0 0.040662717306529553 0.00020285367681112238 0 0.040691156734850839 0.00029084492179631014 0 0.040603944907207465 0.0001933766276427411 0 0.04065442715599777 0.00014720750902746 0 0.040752142941551737 0.00014743130875039955 0 0.040662717306529553 0.00020285367681112238 0 0.04065442715599777 0.00014720750902746 0 0.040662717306529553 0.00020285367681112238 0 0.040630893520358424 0.00017988514869314465 0 0.040795329181174629 4.3205147724354271e-05 0 0.04065442715599777 0.00014720750902746 0 0.040752142941551737 0.00014743130875039955 0 0.040752142941551737 0.00014743130875039955 0 0.040882728326284569 0.00022399259971277356 0 0.040691156734850839 0.00029084492179631014 0 0.040752142941551737 0.00014743130875039955 0 0.040662717306529553 0.00020285367681112238 0 0.040691156734850839 0.00029084492179631014 0 0.040795329181174629 4.3205147724354271e-05 0 0.040752142941551737 0.00014743130875039955 0 0.0409059123282687 2.2603551366341391e-05 0 0.040752142941551737 0.00014743130875039955 0 0.0409059123282687 2.2603551366341391e-05 0 0.040882728326284569 0.00022399259971277356 0 0.0409059123282687 2.2603551366341391e-05 0 0.040882728326284569 0.00022399259971277356 0 0.041261169337366822 0.00016775502908220825 0 0.0409059123282687 2.2603551366341391e-05 0 0.041261169337366822 0.00016775502908220825 0 0.041264947739529281 -0.00027726231569832167 0 0.040831466396120196 -4.3941149360057276e-06 0 0.0409059123282687 2.2603551366341391e-05 0 0.041264947739529281 -0.00027726231569832167 0 0.040639019875837915 0.00011118530285943778 0 0.040831466396120196 -4.3941149360057276e-06 0 0.041264947739529281 -0.00027726231569832167 0 0.040639019875837915 0.00011118530285943778 0 0.039998849736234326 0.00034739664401623729 0 0.041264947739529281 -0.00027726231569832167 0 0.039052847037307339 0.00021932686549751569 0 0.039998849736234326 0.00034739664401623729 0 0.041264947739529281 -0.00027726231569832167 0 0.040922956070430394 8.2075141949041296e-05 0 0.041175719448713212 -0.00021518172454815113 0 0.04267047704806632 0.00018284574249091175 0 0.041261169337366822 0.00016775502908220825 0 0.041264947739529281 -0.00027726231569832167 0 0.04267047704806632 0.00018284574249091175 0 0.042852745116085597 -0.00018708234797854223 0 0.041264947739529281 -0.00027726231569832167 0 0.043452154927034178 0.00048600405902289378 0 0.04267047704806632 0.00018284574249091175 0 0.041948779963834275 0.00076747879069714257 0 0.04267047704806632 0.00018284574249091175 0 0.041261169337366822 0.00016775502908220825 0 0.041948779963834275 0.00076747879069714257 0 0.042910320014488898 0.00047581158058526815 0 0.042721759028875067 4.824040460631284e-06 0 0.041261169337366822 0.00016775502908220825 0 0.041948779963834275 0.00076747879069714257 0 0.0410081257650853 0.0005618386143369852 0 0.043999398228001439 0.0002635744370334874 0 0.043960503589978966 0.00019802350157291471 0 0.043898603712491845 6.6993599530622535e-05 0 0.043960503589978966 0.00019802350157291471 0 0.043847171879068232 0.00014831445096938136 0 0.043898603712491845 6.6993599530622535e-05 0 0.043999398228001439 0.0002635744370334874 0 0.043960503589978966 0.00019802350157291471 0 0.04400710116511624 0.00016871687777059781 0 0.043452154927034178 0.00048600405902289378 0 0.043999398228001439 0.0002635744370334874 0 0.04400710116511624 0.00016871687777059781 0 0.04334481839428609 0.00050362080171344322 0 0.042910320014488898 0.00047581158058526815 0 0.044518185372998648 0.00015366032567221344 0 0.044456351022882243 0.00017841684697237993 0 0.044541788261593274 0.00014564959286838023 0 0.04400710116511624 0.00016871687777059781 0 0.043924077992692781 0.00027371333432070206 0 0.043960503589978966 0.00019802350157291471 0 0.04400710116511624 0.00016871687777059781 0 0.043924077992692781 0.00027371333432070206 0 0.043960503589978966 0.00019802350157291471 0 0.043924077992692781 0.00027371333432070206 0 0.043847171879068232 0.00014831445096938136 0 0.04499224809550683 0.00010796702781491182 0 0.045000111738338323 -1.8808186690497947e-07 0 0.044999836097168767 3.8052395008260949e-07 0 0.044998889444650698 2.022581464105312e-07 0 0.044541788261593274 0.00014564959286838023 0 0.045000111738338323 -1.8808186690497947e-07 0 0.044541788261593274 0.00014564959286838023 0 0.04499224809550683 0.00010796702781491182 0 0.045000111738338323 -1.8808186690497947e-07 0 0.044999836097168767 3.8052395008260949e-07 0 0.044961839832310613 2.7920642243363906e-05 0 0.044678416652747605 0.00032875817534047837 0 0.04499224809550683 0.00010796702781491182 0 0.044999836097168767 3.8052395008260949e-07 0 0.044961839832310613 2.7920642243363906e-05 0 0.043924077992692781 0.00027371333432070206 0 0.043729158347730682 0.00021785745251020147 0 0.043847171879068232 0.00014831445096938136 0 0.044456351022882243 0.00017841684697237993 0 0.044323930406731257 0.00013761594007441128 0 0.043729158347730682 0.00021785745251020147 0 0.043703739132987522 5.9483950724343652e-05 0 0.043496123454790675 -5.3334039305748721e-06 0 0.043729158347730682 0.00021785745251020147 0 0.043703739132987522 5.9483950724343652e-05 0 0.043847171879068232 0.00014831445096938136 0 0.043703739132987522 5.9483950724343652e-05 0 0.043790827823787591 2.8963044925824373e-05 0 0.043714245409273787 -2.645363224607694e-05 0 0.043703739132987522 5.9483950724343652e-05 0 0.043633547868803038 -6.1837596314346681e-05 0 0.043714245409273787 -2.645363224607694e-05 0 0.043703739132987522 5.9483950724343652e-05 0 0.043633547868803038 -6.1837596314346681e-05 0 0.043496123454790675 -5.3334039305748721e-06 0 0.043703739132987522 5.9483950724343652e-05 0 0.043847171879068232 0.00014831445096938136 0 0.043790827823787591 2.8963044925824373e-05 0 0.043847171879068232 0.00014831445096938136 0 0.043790827823787591 2.8963044925824373e-05 0 0.043898603712491845 6.6993599530622535e-05 0 0.042721759028875067 4.824040460631284e-06 0 0.041697245219304048 -0.00015846109579220621 0 0.042721759028875067 4.824040460631284e-06 0 0.043466460278480848 -0.00034526122266943543 0 0.043790827823787591 2.8963044925824373e-05 0 0.043898603712491845 6.6993599530622535e-05 0 0.043718454894022284 -0.00013792974520636191 0 0.040882728326284569 0.00022399259971277356 0 0.0410081257650853 0.0005618386143369852 0 0.040691156734850839 0.00029084492179631014 0 0.040882728326284569 0.00022399259971277356 0 0.041261169337366822 0.00016775502908220825 0 0.0410081257650853 0.0005618386143369852 0 0.04316014720591331 -0.00046318694360821021 0 0.042950679357760757 -0.00056720988732943502 0 0.042912895466701913 -0.00053459829016441599 0 0.042950679357760757 -0.00056720988732943502 0 0.042912895466701913 -0.00053459829016441599 0 0.042653691980320291 -0.00071293639210882691 0 0.043633547868803038 -6.1837596314346681e-05 0 0.043718454894022284 -0.00013792974520636191 0 0.043499134959773172 -0.00017719561205818972 0 0.043633547868803038 -6.1837596314346681e-05 0 0.043714245409273787 -2.645363224607694e-05 0 0.043718454894022284 -0.00013792974520636191 0 0.043790827823787591 2.8963044925824373e-05 0 0.043714245409273787 -2.645363224607694e-05 0 0.043718454894022284 -0.00013792974520636191 0 0.043718454894022284 -0.00013792974520636191 0 0.043499134959773172 -0.00017719561205818972 0 0.043280340096594087 -0.00048393235968810142 0 0.042912895466701913 -0.00053459829016441599 0 0.042532586706655273 -0.00060479510561912563 0 0.042653691980320291 -0.00071293639210882691 0 0.043466460278480848 -0.00034526122266943543 0 0.042825123429752449 -0.00053123663178474012 0 0.041697245219304048 -0.00015846109579220621 0 0.041740942676992833 -0.00025713753022783614 0 0.043321623935116807 -0.0002099163413123528 0 0.043182439313257423 -7.7085267813528757e-05 0 0.043496123454790675 -5.3334039305748721e-06 0 0.043321623935116807 -0.0002099163413123528 0 0.043499134959773172 -0.00017719561205818972 0 0.043280340096594087 -0.00048393235968810142 0 0.043321623935116807 -0.0002099163413123528 0 0.043499134959773172 -0.00017719561205818972 0 0.043496123454790675 -5.3334039305748721e-06 0 0.043633547868803038 -6.1837596314346681e-05 0 0.043499134959773172 -0.00017719561205818972 0 0.043496123454790675 -5.3334039305748721e-06 0 0.042497942420359008 -0.00033048139619805617 0 0.043280340096594087 -0.00048393235968810142 0 0.041874520869319615 -0.00065576897097963647 0 0.042825123429752449 -0.00053123663178474012 0 0.041976420110564676 -0.00066034597237272011 0 0.043321623935116807 -0.0002099163413123528 0 0.043280340096594087 -0.00048393235968810142 0 0.042975092753299152 -0.00022678809585039336 0 0.042497942420359008 -0.00033048139619805617 0 0.043280340096594087 -0.00048393235968810142 0 0.042975092753299152 -0.00022678809585039336 0 0.043321623935116807 -0.0002099163413123528 0 0.042975092753299152 -0.00022678809585039336 0 0.043182439313257423 -7.7085267813528757e-05 0 0.042497942420359008 -0.00033048139619805617 0 0.042975092753299152 -0.00022678809585039336 0 0.042661135830860952 1.6516097752347147e-05 0 0.042975092753299152 -0.00022678809585039336 0 0.043182439313257423 -7.7085267813528757e-05 0 0.042661135830860952 1.6516097752347147e-05 0 0.043182439313257423 -7.7085267813528757e-05 0 0.042661135830860952 1.6516097752347147e-05 0 0.043463088276400205 0.00010747343875303944 0 0.042661135830860952 1.6516097752347147e-05 0 0.043463088276400205 0.00010747343875303944 0 0.042810690298451949 0.00035165909564557635 0 0.043729158347730682 0.00021785745251020147 0 0.043496123454790675 -5.3334039305748721e-06 0 0.043463088276400205 0.00010747343875303944 0 0.043182439313257423 -7.7085267813528757e-05 0 0.043496123454790675 -5.3334039305748721e-06 0 0.043463088276400205 0.00010747343875303944 0 0.044323930406731257 0.00013761594007441128 0 0.043533452574008716 9.4855588744811623e-05 0 0.044961839832310613 2.7920642243363906e-05 0 0.044200807919084498 0.00025755046811729541 0 0.043463088276400205 0.00010747343875303944 0 0.044961839832310613 2.7920642243363906e-05 0 0.044200807919084498 0.00025755046811729541 0 0.044678416652747605 0.00032875817534047837 0 0.043463088276400205 0.00010747343875303944 0 0.04329674906329016 0.00081463989328133403 0 0.042810690298451949 0.00035165909564557635 0 0.044200807919084498 0.00025755046811729541 0 0.043463088276400205 0.00010747343875303944 0 0.04329674906329016 0.00081463989328133403 0 0.045033051545988537 9.0925307286957545e-05 0 0.044999290851992536 2.3548208979280351e-07 0 0.0450005003520597 1.7914167492089129e-08 0 0.044200807919084498 0.00025755046811729541 0 0.04329674906329016 0.00081463989328133403 0 0.044678416652747605 0.00032875817534047837 0 0.045033051545988537 9.0925307286957545e-05 0 0.044678416652747605 0.00032875817534047837 0 0.044999290851992536 2.3548208979280351e-07 0 0.044999836097168767 3.8052395008260949e-07 0 0.044678416652747605 0.00032875817534047837 0 0.044999290851992536 2.3548208979280351e-07 0 0.044167369297887588 0.00043447243145639398 0 0.044544967041583866 0.00036918206871544779 0 0.043599338324887195 -2.1675275099352476e-07 0 0.043669626121988561 0.00012444412395575408 0 0.044998204872067814 3.6987131374015456e-07 0 0.044688914415045515 4.7151940011773366e-05 0 0.045000349429031777 1.6227490115227905e-07 0 0.043602589204869181 -8.9870788224061461e-07 0 0.044688914415045515 4.7151940011773366e-05 0 0.045135177624997067 -0.00030915497577455628 0 0.043602589204869181 -8.9870788224061461e-07 0 0.044998204872067814 3.6987131374015456e-07 0 0.044688914415045515 4.7151940011773366e-05 0 0.045033051545988537 9.0925307286957545e-05 0 0.0450005003520597 1.7914167492089129e-08 0 0.045011403065043136 3.9601384769865901e-05 0 0.044167369297887588 0.00043447243145639398 0 0.043669626121988561 0.00012444412395575408 0 0.044688914415045515 4.7151940011773366e-05 0 0.045000349429031777 1.6227490115227905e-07 0 0.045135177624997067 -0.00030915497577455628 0 0.044999681902974986 -1.1021290866351761e-07 0 0.043669626121988561 0.00012444412395575408 0 0.04329674906329016 0.00081463989328133403 0 0.042492044978833167 0.00081437831375911649 0 0.042810690298451949 0.00035165909564557635 0 0.042066908841450742 -0.00029336117063117045 0 0.042389297965612076 0.00011013153188921126 0 0.041892122046582506 0.00020713195838029786 0 0.042492044978833167 0.00081437831375911649 0 0.042810690298451949 0.00035165909564557635 0 0.042219838095531224 0.00022834662184526176 0 0.043669626121988561 0.00012444412395575408 0 0.041822802673015406 0.00021101197523765616 0 0.043596445361238974 -1.6793463571176276e-06 0 0.042066908841450742 -0.00029336117063117045 0 0.042389297965612076 0.00011013153188921126 0 0.043596445361238974 -1.6793463571176276e-06 0 0.042389297965612076 0.00011013153188921126 0 0.041216379462020128 2.1838806424589257e-06 0 0.042389297965612076 0.00011013153188921126 0 0.041216379462020128 2.1838806424589257e-06 0 0.041892122046582506 0.00020713195838029786 0 0.041216379462020128 2.1838806424589257e-06 0 0.041892122046582506 0.00020713195838029786 0 0.041018139512153738 -0.0001637444608206054 0 0.042661135830860952 1.6516097752347147e-05 0 0.042219838095531224 0.00022834662184526176 0 0.042022807765400919 -9.1579541731940094e-05 0 0.042661135830860952 1.6516097752347147e-05 0 0.042810690298451949 0.00035165909564557635 0 0.042219838095531224 0.00022834662184526176 0 0.042219838095531224 0.00022834662184526176 0 0.042022807765400919 -9.1579541731940094e-05 0 0.041018139512153738 -0.0001637444608206054 0 0.041822802673015406 0.00021101197523765616 0 0.041271485090649221 -0.00017131359354262402 0 0.042497942420359008 -0.00033048139619805617 0 0.042661135830860952 1.6516097752347147e-05 0 0.042022807765400919 -9.1579541731940094e-05 0 0.042022807765400919 -9.1579541731940094e-05 0 0.041018139512153738 -0.0001637444608206054 0 0.041874520869319615 -0.00065576897097963647 0 0.042497942420359008 -0.00033048139619805617 0 0.042022807765400919 -9.1579541731940094e-05 0 0.041874520869319615 -0.00065576897097963647 0 0.041216379462020128 2.1838806424589257e-06 0 0.041018139512153738 -0.0001637444608206054 0 0.038836847446572342 -3.4342827992956622e-06 0 0.037449132156358082 -2.77121052362608e-08 0 0.038833757176102941 -7.5010147624432266e-05 0 0.038397101880908995 0.00016847347901159326 0 0.03883359494097554 -2.6755717769716966e-07 0 0.039814371918608996 -0.00036317261767097718 0 0.041018139512153738 -0.0001637444608206054 0 0.038836847446572342 -3.4342827992956622e-06 0 0.04120289328804283 -0.0010900555990044328 0 0.038828392737224549 2.3717183844167546e-08 0 0.037449132156358082 -2.77121052362608e-08 0 0.038397101880908995 0.00016847347901159326 0 0.037443125781007877 -5.9609081462664464e-07 0 0.038255943844712252 -7.347429254528334e-06 0 0.037441059474181089 -1.451388738252643e-06 0 0.035932791801473969 -0.0006017714319019855 0 0.036049893207253707 0.00012916584578667452 0 0.037441059474181089 -1.451388738252643e-06 0 0.035831410241701361 1.4881871419295368e-06 0 0.036049893207253707 0.00012916584578667452 0 0.035932791801473969 -0.0006017714319019855 0 0.035603606658160057 -2.9627335587804971e-05 0 0.036049893207253707 0.00012916584578667452 0 0.039638751080375359 -0.00033478299546069325 0 0.0407479675332671 -2.2956456001441588e-05 0 0.039343264995310087 -0.00030365277226239998 0 0.039009709106664056 8.7072969131394935e-05 0 0.040092720349599799 -3.2190722970437242e-05 0 0.038255943844712252 -7.347429254528334e-06 0 0.039638751080375359 -0.00033478299546069325 0 0.038255943844712252 -7.347429254528334e-06 0 0.0407479675332671 -2.2956456001441588e-05 0 0.038833757176102941 -7.5010147624432266e-05 0 0.038694664832448933 0.00011254626220114766 0 0.038397101880908995 0.00016847347901159326 0 0.039638751080375359 -0.00033478299546069325 0 0.039814371918608996 -0.00036317261767097718 0 0.041018139512153738 -0.0001637444608206054 0 0.04120289328804283 -0.0010900555990044328 0 0.041874520869319615 -0.00065576897097963647 0 0.041769464852715904 -0.001052764599971862 0 0.04120289328804283 -0.0010900555990044328 0 0.041874520869319615 -0.00065576897097963647 0 0.041769464852715904 -0.001052764599971862 0 0.041874520869319615 -0.00065576897097963647 0 0.042172242219768445 -0.00096667212150232937 0 0.042532586706655273 -0.00060479510561912563 0 0.042172242219768445 -0.00096667212150232937 0 0.042653691980320291 -0.00071293639210882691 0 0.042532586706655273 -0.00060479510561912563 0 0.041874520869319615 -0.00065576897097963647 0 0.042172242219768445 -0.00096667212150232937 0 0.040560526295891644 0.00016468150839503117 0 0.040603944907207465 0.0001933766276427411 0 0.040592583913514807 0.00016610682793075955 0 0.0407479675332671 -2.2956456001441588e-05 0 0.041740942676992833 -0.00025713753022783614 0 0.0407479675332671 -2.2956456001441588e-05 0 0.04049625979277087 0.00018007966228387193 0 0.040662717306529553 0.00020285367681112238 0 0.040630893520358424 0.00017988514869314465 0 0.040603944907207465 0.0001933766276427411 0 0.040630893520358424 0.00017988514869314465 0 0.040603944907207465 0.0001933766276427411 0 0.040592583913514807 0.00016610682793075955 0 0.040653135626049733 0.00015635403143487148 0 0.04049625979277087 0.00018007966228387193 0 0.04065442715599777 0.00014720750902746 0 0.040502458475595936 0.00020433539176774708 0 0.040572116374261044 0.0001071527427888158 0 0.04065442715599777 0.00014720750902746 0 0.040630893520358424 0.00017988514869314465 0 0.040592583913514807 0.00016610682793075955 0 0.040502458475595936 0.00020433539176774708 0 0.040572116374261044 0.0001071527427888158 0 0.040445971709548417 3.2953048317069327e-05 0 0.040664812870618572 4.3916646221008567e-05 0 0.04065442715599777 0.00014720750902746 0 0.040572116374261044 0.0001071527427888158 0 0.040664812870618572 4.3916646221008567e-05 0 0.040572116374261044 0.0001071527427888158 0 0.040445971709548417 3.2953048317069327e-05 0 0.0403279646079285 0.00022782909846715682 0 0.040502458475595936 0.00020433539176774708 0 0.040445971709548417 3.2953048317069327e-05 0 0.040247978916999355 0.00020018446475618984 0 0.0403279646079285 0.00022782909846715682 0 0.040445971709548417 3.2953048317069327e-05 0 0.038255943844712252 -7.347429254528334e-06 0 0.038431157547084281 -0.00033850575077575869 0 0.035603606658160057 -2.9627335587804971e-05 0 0.035677339961594209 0.00021795410217480884 0 0.036049893207253707 0.00012916584578667452 0 0.040664812870618572 4.3916646221008567e-05 0 0.040445971709548417 3.2953048317069327e-05 0 0.040595417806113518 -7.315559819632826e-05 0 0.035603606658160057 -2.9627335587804971e-05 0 0.035427872938085227 0.00018415358479379081 0 0.035677339961594209 0.00021795410217480884 0 0.038431157547084281 -0.00033850575077575869 0 0.035667893891287404 0.0012592943645367673 0 0.031935808476226409 0.0014280185256299392 0 0.032049936841101877 0.0017782310912935306 0 0.031555434529803396 0.0011250778372891453 0 0.035667893891287404 0.0012592943645367673 0 0.033305083386153456 0.00057976067449879321 0 0.031419553140585046 0.00099174199352224969 0 0.031935808476226409 0.0014280185256299392 0 0.031555434529803396 0.0011250778372891453 0 0.031419553140585046 0.00099174199352224969 0 0.031555434529803396 0.0011250778372891453 0 0.031841902324184525 0.00017978391111177273 0 0.033305083386153456 0.00057976067449879321 0 0.033913633944200779 0.00020926149488254995 0 0.031750495781766447 0.00052556096558178684 0 0.031841902324184525 0.00017978391111177273 0 0.034213853418876401 -9.424147872838125e-07 0 0.035720600949642543 9.5251280000150602e-05 0 0.034221577990800875 -1.5211803469387192e-06 0 0.035831410241701361 1.4881871419295368e-06 0 0.033913633944200779 0.00020926149488254995 0 0.03421820491451729 8.1000387141718987e-08 0 0.035720600949642543 9.5251280000150602e-05 0 0.035831410241701361 1.4881871419295368e-06 0 0.036049893207253707 0.00012916584578667452 0 0.035677339961594209 0.00021795410217480884 0 0.035720600949642543 9.5251280000150602e-05 0 0.036049893207253707 0.00012916584578667452 0 0.03292749717354878 0.0023896259467220972 0 0.032641390287321388 0.0024219841706027974 0 0.032871461109165827 0.0022617489769268919 0 0.03292749717354878 0.0023896259467220972 0 0.032641390287321388 0.0024219841706027974 0 0.032612994915166359 0.002496646580109584 0 0.03292749717354878 0.0023896259467220972 0 0.032959362058519071 0.0024933080672208115 0 0.032612994915166359 0.002496646580109584 0 0.032959362058519071 0.0024933080672208115 0 0.03326657058460087 0.0026174964292238474 0 0.033348045428887065 0.002531437450187155 0 0.032959362058519071 0.0024933080672208115 0 0.033305673441154801 0.0024286282724255643 0 0.033348045428887065 0.002531437450187155 0 0.03292749717354878 0.0023896259467220972 0 0.032959362058519071 0.0024933080672208115 0 0.033305673441154801 0.0024286282724255643 0 0.03292749717354878 0.0023896259467220972 0 0.033305673441154801 0.0024286282724255643 0 0.033206632886703689 0.0022324349078163405 0 0.033305673441154801 0.0024286282724255643 0 0.033206632886703689 0.0022324349078163405 0 0.03348350020609734 0.0022258707154756687 0 0.03348350020609734 0.0022258707154756687 0 0.033477794800820193 0.002371925412887433 0 0.033645874218956193 0.0022770715212651607 0 0.033305673441154801 0.0024286282724255643 0 0.03348350020609734 0.0022258707154756687 0 0.033477794800820193 0.002371925412887433 0 0.03348350020609734 0.0022258707154756687 0 0.033653069586797958 0.0020061124049366298 0 0.033701139258320398 0.0021019797106841304 0 0.03348350020609734 0.0022258707154756687 0 0.033653069586797958 0.0020061124049366298 0 0.033482983784812549 0.0020170772505971246 0 0.033653069586797958 0.0020061124049366298 0 0.033701139258320398 0.0021019797106841304 0 0.033798198258754956 0.0019101304657851378 0 0.033206632886703689 0.0022324349078163405 0 0.03348350020609734 0.0022258707154756687 0 0.033482983784812549 0.0020170772505971246 0 0.033206632886703689 0.0022324349078163405 0 0.033482983784812549 0.0020170772505971246 0 0.033162142916658123 0.0020624342677548401 0 0.033206632886703689 0.0022324349078163405 0 0.033162142916658123 0.0020624342677548401 0 0.032871461109165827 0.0022617489769268919 0 0.03292749717354878 0.0023896259467220972 0 0.033206632886703689 0.0022324349078163405 0 0.032871461109165827 0.0022617489769268919 0 0.033162142916658123 0.0020624342677548401 0 0.032871461109165827 0.0022617489769268919 0 0.032789531554304883 0.0020875789902191915 0 0.032789531554304883 0.0020875789902191915 0 0.032524236266455973 0.00201158209024547 0 0.03254631210806553 0.002229893271301824 0 0.032805473729059197 0.0018512912648506262 0 0.032530452349306412 0.0020862696780683232 0 0.032524236266455973 0.00201158209024547 0 0.03254631210806553 0.002229893271301824 0 0.032285308225843176 0.0022257486074361288 0 0.032871461109165827 0.0022617489769268919 0 0.032789531554304883 0.0020875789902191915 0 0.03254631210806553 0.002229893271301824 0 0.032506282613658025 0.0018383879592172459 0 0.032784106687639473 0.0019695884706442826 0 0.032252705422617239 0.0022166240831854038 0 0.032506282613658025 0.0018383879592172459 0 0.032784106687639473 0.0019695884706442826 0 0.032901714691367261 0.0015770325819689757 0 0.033096959469338411 0.0016809973055818114 0 0.032784106687639473 0.0019695884706442826 0 0.032901714691367261 0.0015770325819689757 0 0.032252705422617239 0.0022166240831854038 0 0.032299451863936852 0.0023576033408076558 0 0.032083638516512823 0.0023535717827792052 0 0.032285308225843176 0.0022257486074361288 0 0.032252705422617239 0.0022166240831854038 0 0.032299451863936852 0.0023576033408076558 0 0.032530452349306412 0.0020862696780683232 0 0.032288473165275965 0.0022142526309827893 0 0.032252705422617239 0.0022166240831854038 0 0.032032217894221483 0.0023280462800992587 0 0.032083638516512823 0.0023535717827792052 0 0.032252705422617239 0.0022166240831854038 0 0.032032217894221483 0.0023280462800992587 0 0.032044888887731646 0.0021953946158603157 0 0.032641390287321388 0.0024219841706027974 0 0.032871461109165827 0.0022617489769268919 0 0.03254631210806553 0.002229893271301824 0 0.032641390287321388 0.0024219841706027974 0 0.03254631210806553 0.002229893271301824 0 0.032299451863936852 0.0023576033408076558 0 0.03254631210806553 0.002229893271301824 0 0.032285308225843176 0.0022257486074361288 0 0.032299451863936852 0.0023576033408076558 0 0.032276349381154014 0.0023499005494958479 0 0.032197418594485466 0.0024441693373180268 0 0.032641390287321388 0.0024219841706027974 0 0.032299451863936852 0.0023576033408076558 0 0.032481050794529162 0.0025331063949453358 0 0.031929934674702988 0.0023901628522330345 0 0.031818673211608486 0.0024330578661755126 0 0.031670995404335864 0.0024013161389753439 0 0.032299451863936852 0.0023576033408076558 0 0.031929934674702988 0.0023901628522330345 0 0.032083638516512823 0.0023535717827792052 0 0.031929934674702988 0.0023901628522330345 0 0.032083638516512823 0.0023535717827792052 0 0.031818673211608486 0.0024330578661755126 0 0.032197418594485466 0.0024441693373180268 0 0.031975414504241441 0.0024557473461905848 0 0.032032217894221483 0.0023280462800992587 0 0.031818673211608486 0.0024330578661755126 0 0.031902616648590086 0.0024024061238920396 0 0.032032217894221483 0.0023280462800992587 0 0.032083638516512823 0.0023535717827792052 0 0.031818673211608486 0.0024330578661755126 0 0.031818673211608486 0.0024330578661755126 0 0.03176889651295025 0.0024649837611185987 0 0.031902616648590086 0.0024024061238920396 0 0.031396683967918469 0.0025321734677874021 0 0.031818673211608486 0.0024330578661755126 0 0.031632233178105811 0.0024756314361493834 0 0.031818673211608486 0.0024330578661755126 0 0.031632233178105811 0.0024756314361493834 0 0.03176889651295025 0.0024649837611185987 0 0.031396683967918469 0.0025321734677874021 0 0.031818673211608486 0.0024330578661755126 0 0.031670995404335864 0.0024013161389753439 0 0.031717286316936148 0.0025512169100251922 0 0.031396683967918469 0.0025321734677874021 0 0.031670995404335864 0.0024013161389753439 0 0.031769032162915628 0.0025576087443275573 0 0.031975414504241441 0.0024557473461905848 0 0.031717286316936148 0.0025512169100251922 0 0.03218625298117473 0.0024944491823506473 0 0.0322923286870824 0.0024739370238540735 0 0.03218625298117473 0.0024944491823506473 0 0.032422704711859138 0.0024503266979410947 0 0.0322923286870824 0.0024739370238540735 0 0.032481050794529162 0.0025331063949453358 0 0.0322923286870824 0.0024739370238540735 0 0.032612994915166359 0.002496646580109584 0 0.032422704711859138 0.0024503266979410947 0 0.032612994915166359 0.002496646580109584 0 0.032624165417135358 0.0024383723456524137 0 0.032422704711859138 0.0024503266979410947 0 0.0322923286870824 0.0024739370238540735 0 0.032612994915166359 0.002496646580109584 0 0.032959362058519071 0.0024933080672208115 0 0.032612994915166359 0.002496646580109584 0 0.032624165417135358 0.0024383723456524137 0 0.032641390287321388 0.0024219841706027974 0 0.032481050794529162 0.0025331063949453358 0 0.032612994915166359 0.002496646580109584 0 0.032939295220237773 0.0024845037652557844 0 0.032937881459032661 0.0025023997528219612 0 0.032959362058519071 0.0024933080672208115 0 0.032607099377591195 0.0024210588374325441 0 0.032624165417135358 0.0024383723456524137 0 0.032422704711859138 0.0024503266979410947 0 0.032624165417135358 0.0024383723456524137 0 0.032547064346275162 0.0024101962434045477 0 0.032607099377591195 0.0024210588374325441 0 0.032547064346275162 0.0024101962434045477 0 0.032675326744326778 0.00236239663794084 0 0.032607099377591195 0.0024210588374325441 0 0.032624165417135358 0.0024383723456524137 0 0.032547064346275162 0.0024101962434045477 0 0.032547064346275162 0.0024101962434045477 0 0.032585682541700314 0.0024899525723849304 0 0.032675326744326778 0.00236239663794084 0 0.032547064346275162 0.0024101962434045477 0 0.032585682541700314 0.0024899525723849304 0 0.032422812156462283 0.0024724351217992714 0 0.03218625298117473 0.0024944491823506473 0 0.032422704711859138 0.0024503266979410947 0 0.032422812156462283 0.0024724351217992714 0 0.032422704711859138 0.0024503266979410947 0 0.032547064346275162 0.0024101962434045477 0 0.032422812156462283 0.0024724351217992714 0 0.032431302828476179 0.0026635412809104318 0 0.03218625298117473 0.0024944491823506473 0 0.032422812156462283 0.0024724351217992714 0 0.032658423276343128 0.0026634541156681625 0 0.032431302828476179 0.0026635412809104318 0 0.032585682541700314 0.0024899525723849304 0 0.032431302828476179 0.0026635412809104318 0 0.032585682541700314 0.0024899525723849304 0 0.032422812156462283 0.0024724351217992714 0 0.032658423276343128 0.0026634541156681625 0 0.032585682541700314 0.0024899525723849304 0 0.032699947184806011 0.0025580355146258425 0 0.032658423276343128 0.0026634541156681625 0 0.032699947184806011 0.0025580355146258425 0 0.03284587365101406 0.0025897542397336428 0 0.032843613695306854 0.0027042385300578291 0 0.032658423276343128 0.0026634541156681625 0 0.03284587365101406 0.0025897542397336428 0 0.032699947184806011 0.0025580355146258425 0 0.032738555204106082 0.0024868451597559555 0 0.03284587365101406 0.0025897542397336428 0 0.032585682541700314 0.0024899525723849304 0 0.032699947184806011 0.0025580355146258425 0 0.032738555204106082 0.0024868451597559555 0 0.032738555204106082 0.0024868451597559555 0 0.033003765195922033 0.0024892793433296582 0 0.032675326744326778 0.00236239663794084 0 0.032585682541700314 0.0024899525723849304 0 0.032738555204106082 0.0024868451597559555 0 0.032675326744326778 0.00236239663794084 0 0.033003765195922033 0.0024892793433296582 0 0.03324509187488927 0.0025099608649537804 0 0.033147119687440912 0.0025050534573479847 0 0.033013918141860672 0.0024969056564465219 0 0.032964119777842728 0.0024536456263776264 0 0.033003765195922033 0.0024892793433296582 0 0.033072577825809885 0.0024649700011149856 0 0.033147119687440912 0.0025050534573479847 0 0.0330457663349705 0.0025195595587085098 0 0.033003765195922033 0.0024892793433296582 0 0.033072577825809885 0.0024649700011149856 0 0.033279226002461443 0.0029088336983256326 0 0.032157489007815732 0.0014422140031068488 0 0.0330457663349705 0.0025195595587085098 0 0.033003765195922033 0.0024892793433296582 0 0.03284587365101406 0.0025897542397336428 0 0.0330457663349705 0.0025195595587085098 0 0.03284587365101406 0.0025897542397336428 0 0.033096797733983774 0.0025569707218279281 0 0.032917644955607228 0.002716057774689854 0 0.03284587365101406 0.0025897542397336428 0 0.032982918649089886 0.002627026361857009 0 0.032738555204106082 0.0024868451597559555 0 0.033003765195922033 0.0024892793433296582 0 0.03284587365101406 0.0025897542397336428 0 0.032688262736273545 0.00052107520870864029 0 0.032316910000432887 0.00094274490076631215 0 0.032961811662878843 0.0012716677751461259 0 0.03284587365101406 0.0025897542397336428 0 0.033096797733983774 0.0025569707218279281 0 0.033175931811743081 0.0025908202459162728 0 0.032157489007815732 0.0014422140031068488 0 0.033105084282264378 0.0019228922029549075 0 0.033096797733983774 0.0025569707218279281 0 0.033175931811743081 0.0025908202459162728 0 0.033072577825809885 0.0024649700011149856 0 0.032157489007815732 0.0014422140031068488 0 0.03148219531022798 0.00069159157792301725 0 0.031518621736946736 0.00020445579710391925 0 0.032578153628892582 0.00048803641005631162 0 0.032220064574243999 0.00065215673461718293 0 0.03260121093764419 0.00056205134602583065 0 0.032578153628892582 0.00048803641005631162 0 0.032220064574243999 0.00065215673461718293 0 0.03260121093764419 0.00056205134602583065 0 0.032220064574243999 0.00065215673461718293 0 0.032174735148061996 0.0010178958556608133 0 0.032157489007815732 0.0014422140031068488 0 0.032354057455871256 0.0008660915570268625 0 0.032220064574243999 0.00065215673461718293 0 0.032174735148061996 0.0010178958556608133 0 0.03184269555938761 0.00081551749047654434 0 0.032316910000432887 0.00094274490076631215 0 0.032476950321374237 0.0015223584781787309 0 0.031883685782384222 0.0014070271357161867 0 0.032174735148061996 0.0010178958556608133 0 0.03184269555938761 0.00081551749047654434 0 0.031883685782384222 0.0014070271357161867 0 0.032316910000432887 0.00094274490076631215 0 0.032961811662878843 0.0012716677751461259 0 0.032476950321374237 0.0015223584781787309 0 0.032354057455871256 0.0008660915570268625 0 0.031890395286271259 0.0013969303766686548 0 0.0330457663349705 0.0025195595587085098 0 0.033096797733983774 0.0025569707218279281 0 0.033072577825809885 0.0024649700011149856 0 0.033105084282264378 0.0019228922029549075 0 0.033183167030609785 0.0022329230722776092 0 0.032961811662878843 0.0012716677751461259 0 0.032820010220613309 0.0018241013544607371 0 0.033192971180416891 0.0019657530177358811 0 0.032961811662878843 0.0012716677751461259 0 0.032820010220613309 0.0018241013544607371 0 0.032476950321374237 0.0015223584781787309 0 0.032476950321374237 0.0015223584781787309 0 0.03209224095725257 0.0017962573049490507 0 0.031883685782384222 0.0014070271357161867 0 0.032820010220613309 0.0018241013544607371 0 0.032476950321374237 0.0015223584781787309 0 0.032528447123350838 0.0019911977690636436 0 0.032476950321374237 0.0015223584781787309 0 0.03209224095725257 0.0017962573049490507 0 0.032528447123350838 0.0019911977690636436 0 0.033032233246023703 0.0026672791246188945 0 0.033225171219944123 0.0026842859866278521 0 0.032238261290247323 0.0021479577133442953 0 0.031731768035537421 0.0020730016801290582 0 0.03265508503093497 0.0025951986896548258 0 0.032238261290247323 0.0021479577133442953 0 0.032596770439907885 0.0022572439257770335 0 0.03265508503093497 0.0025951986896548258 0 0.03209224095725257 0.0017962573049490507 0 0.032238261290247323 0.0021479577133442953 0 0.032528447123350838 0.0019911977690636436 0 0.032238261290247323 0.0021479577133442953 0 0.032528447123350838 0.0019911977690636436 0 0.032596770439907885 0.0022572439257770335 0 0.032820010220613309 0.0018241013544607371 0 0.032528447123350838 0.0019911977690636436 0 0.032946093382946462 0.0022871975612562675 0 0.032820010220613309 0.0018241013544607371 0 0.032946093382946462 0.0022871975612562675 0 0.033192971180416891 0.0019657530177358811 0 0.032528447123350838 0.0019911977690636436 0 0.032596770439907885 0.0022572439257770335 0 0.032946093382946462 0.0022871975612562675 0 0.033193071119710191 0.0025513424653685886 0 0.033272077171883803 0.0025632199221782095 0 0.033351319789154399 0.0025060253545831444 0 0.033183167030609785 0.0022329230722776092 0 0.03332985922121684 0.0024893044555881314 0 0.032946093382946462 0.0022871975612562675 0 0.033192971180416891 0.0019657530177358811 0 0.033351319789154399 0.0025060253545831444 0 0.03326657058460087 0.0026174964292238474 0 0.033272077171883803 0.0025632199221782095 0 0.033348045428887065 0.002531437450187155 0 0.032937881459032661 0.0025023997528219612 0 0.032964119777842728 0.0024536456263776264 0 0.033272077171883803 0.0025632199221782095 0 0.03324509187488927 0.0025099608649537804 0 0.033147119687440912 0.0025050534573479847 0 0.03326657058460087 0.0026174964292238474 0 0.033272077171883803 0.0025632199221782095 0 0.03324509187488927 0.0025099608649537804 0 0.033193071119710191 0.0025513424653685886 0 0.033272077171883803 0.0025632199221782095 0 0.033147119687440912 0.0025050534573479847 0 0.033072577825809885 0.0024649700011149856 0 0.033193071119710191 0.0025513424653685886 0 0.033147119687440912 0.0025050534573479847 0 0.034424360194615575 0.00074642448661797246 0 0.034607257858194219 0.00039366681779239612 0 0.034792955591673926 0.00078684672836101517 0 0.034424360194615575 0.00074642448661797246 0 0.03420831993042097 0.00045295462096854925 0 0.034607257858194219 0.00039366681779239612 0 0.034112846443388044 0.00078305220556064144 0 0.034424360194615575 0.00074642448661797246 0 0.03420831993042097 0.00045295462096854925 0 0.034073597629106639 -8.6989232759191156e-05 0 0.03420831993042097 0.00045295462096854925 0 0.034607257858194219 0.00039366681779239612 0 0.032572272061453703 0.00048159615497874705 0 0.03209472478013569 0.0004532593799531826 0 0.030176792837521407 8.6250536109695248e-05 0 0.029894643916672053 0.00084881915176621397 0 0.030637697745425647 0.00077115650489647993 0 0.03209472478013569 0.0004532593799531826 0 0.032820881296463038 0.0018450462411388796 0 0.029894643916672053 0.00084881915176621397 0 0.030537071828598297 0.0016045149135061804 0 0.030637697745425647 0.00077115650489647993 0 0.034607257858194219 0.00039366681779239612 0 0.034792955591673926 0.00078684672836101517 0 0.035123581954569848 0.00088318189947029558 0 0.035188349108426699 0.00043600069849960383 0 0.037177471959207981 0.0015547082917147306 0 0.034792955591673926 0.00078684672836101517 0 0.035123581954569848 0.00088318189947029558 0 0.034980341629739238 0.00097242294626654962 0 0.032820881296463038 0.0018450462411388796 0 0.037177471959207981 0.0015547082917147306 0 0.030537071828598297 0.0016045149135061804 0 0.030637697745425647 0.00077115650489647993 0 0.031530819990282552 0.0010701747573133166 0 0.031034380162217795 0.0014342645849623934 0 0.031530819990282552 0.0010701747573133166 0 0.031528626002235806 0.0013981576205832037 0 0.032820881296463038 0.0018450462411388796 0 0.030804892437204783 0.00120219367329999 0 0.031518621736946736 0.00020445579710391925 0 0.03184269555938761 0.00081551749047654434 0 0.031530819990282552 0.0010701747573133166 0 0.031518621736946736 0.00020445579710391925 0 0.030637697745425647 0.00077115650489647993 0 0.031530819990282552 0.0010701747573133166 0 0.031518621736946736 0.00020445579710391925 0 0.032220064574243999 0.00065215673461718293 0 0.03184269555938761 0.00081551749047654434 0 0.03184269555938761 0.00081551749047654434 0 0.031530819990282552 0.0010701747573133166 0 0.031883685782384222 0.0014070271357161867 0 0.031530819990282552 0.0010701747573133166 0 0.031528626002235806 0.0013981576205832037 0 0.031883685782384222 0.0014070271357161867 0 0.03209224095725257 0.0017962573049490507 0 0.031883685782384222 0.0014070271357161867 0 0.031750164028723354 0.0016529058079790156 0 0.031528626002235806 0.0013981576205832037 0 0.031750164028723354 0.0016529058079790156 0 0.03150897305613113 0.0016561237786210871 0 0.031528626002235806 0.0013981576205832037 0 0.031883685782384222 0.0014070271357161867 0 0.031750164028723354 0.0016529058079790156 0 0.031750164028723354 0.0016529058079790156 0 0.03150897305613113 0.0016561237786210871 0 0.031731768035537421 0.0020730016801290582 0 0.03209224095725257 0.0017962573049490507 0 0.031750164028723354 0.0016529058079790156 0 0.031731768035537421 0.0020730016801290582 0 0.038236401088698281 0.0022899227406714667 0 0.037818613995291094 0.0020325016609876543 0 0.034292341289134387 0.0030904890792937331 0 0.034418816945256572 0.0030665896381604544 0 0.034059337035038301 0.0028554293272219939 0 0.0416850582833787 0.0012725954666141562 0 0.041653316314335345 0.0011893761554546676 0 0.04178151055292003 0.0013309871336178519 0 0.03209224095725257 0.0017962573049490507 0 0.032238261290247323 0.0021479577133442953 0 0.031731768035537421 0.0020730016801290582 0 0.041653316314335345 0.0011893761554546676 0 0.041611931806238435 0.001251498813335693 0 0.041544058322576599 0.001172296142154604 0 0.0416850582833787 0.0012725954666141562 0 0.041653316314335345 0.0011893761554546676 0 0.041611931806238435 0.001251498813335693 0 0.034617083627545238 0.0032853882982775617 0 0.034292341289134387 0.0030904890792937331 0 0.034418816945256572 0.0030665896381604544 0 0.031034380162217795 0.0014342645849623934 0 0.031528626002235806 0.0013981576205832037 0 0.03150897305613113 0.0016561237786210871 0 0.034617083627545238 0.0032853882982775617 0 0.034418816945256572 0.0030665896381604544 0 0.034686127827233716 0.0032440040731596675 0 0.038236401088698281 0.0022899227406714667 0 0.037177471959207981 0.0015547082917147306 0 0.031034380162217795 0.0014342645849623934 0 0.03150897305613113 0.0016561237786210871 0 0.031731768035537421 0.0020730016801290582 0 0.041653316314335345 0.0011893761554546676 0 0.041501817168310522 0.0010766212197366976 0 0.041544058322576599 0.001172296142154604 0 0.032820881296463038 0.0018450462411388796 0 0.033032233246023703 0.0026672791246188945 0 0.041501817168310522 0.0010766212197366976 0 0.041544058322576599 0.001172296142154604 0 0.041387145916606312 0.0011537592373468753 0 0.034792955591673926 0.00078684672836101517 0 0.034986620312677311 0.00096370828206739502 0 0.034365798996471124 0.0013307564583619157 0 0.041544058322576599 0.001172296142154604 0 0.041520463718782159 0.0012416524664376665 0 0.041387145916606312 0.0011537592373468753 0 0.041611931806238435 0.001251498813335693 0 0.041544058322576599 0.001172296142154604 0 0.041520463718782159 0.0012416524664376665 0 0.041520463718782159 0.0012416524664376665 0 0.041387145916606312 0.0011537592373468753 0 0.041456163034149736 0.0013133531294776876 0 0.034112846443388044 0.00078305220556064144 0 0.034424360194615575 0.00074642448661797246 0 0.034365798996471124 0.0013307564583619157 0 0.034424360194615575 0.00074642448661797246 0 0.034792955591673926 0.00078684672836101517 0 0.034365798996471124 0.0013307564583619157 0 0.037177471959207981 0.0015547082917147306 0 0.038176824842438756 0.0011857910200019613 0 0.041464859610924235 0.0014118857539331573 0 0.041456163034149736 0.0013133531294776876 0 0.041595992889896162 0.0014001271672916418 0 0.041333624613380561 0.0013661585447416543 0 0.041464859610924235 0.0014118857539331573 0 0.041456163034149736 0.0013133531294776876 0 0.041520463718782159 0.0012416524664376665 0 0.041456163034149736 0.0013133531294776876 0 0.041592773802891399 0.0013217166688676988 0 0.041611931806238435 0.001251498813335693 0 0.041520463718782159 0.0012416524664376665 0 0.041592773802891399 0.0013217166688676988 0 0.041456163034149736 0.0013133531294776876 0 0.041592773802891399 0.0013217166688676988 0 0.041595992889896162 0.0014001271672916418 0 0.041595992889896162 0.0014001271672916418 0 0.041701028113295145 0.0014056135544603897 0 0.04172173317962611 0.0014739819325052619 0 0.041592773802891399 0.0013217166688676988 0 0.041595992889896162 0.0014001271672916418 0 0.041701028113295145 0.0014056135544603897 0 0.041592773802891399 0.0013217166688676988 0 0.041701028113295145 0.0014056135544603897 0 0.041677088125108536 0.0013251484043497097 0 0.041611931806238435 0.001251498813335693 0 0.041592773802891399 0.0013217166688676988 0 0.041677088125108536 0.0013251484043497097 0 0.0416850582833787 0.0012725954666141562 0 0.041611931806238435 0.001251498813335693 0 0.041677088125108536 0.0013251484043497097 0 0.041677088125108536 0.0013251484043497097 0 0.041722505081031772 0.0013275436809010758 0 0.041746048784975405 0.0013808888938142518 0 0.0416850582833787 0.0012725954666141562 0 0.041722505081031772 0.0013275436809010758 0 0.04178151055292003 0.0013309871336178519 0 0.041746048784975405 0.0013808888938142518 0 0.04178151055292003 0.0013309871336178519 0 0.041800029228039756 0.0014312698232777732 0 0.0416850582833787 0.0012725954666141562 0 0.041677088125108536 0.0013251484043497097 0 0.041722505081031772 0.0013275436809010758 0 0.041722505081031772 0.0013275436809010758 0 0.041746048784975405 0.0013808888938142518 0 0.04178151055292003 0.0013309871336178519 0 0.041701028113295145 0.0014056135544603897 0 0.041746048784975405 0.0013808888938142518 0 0.041798840650860924 0.0014724805864306208 0 0.041746048784975405 0.0013808888938142518 0 0.041798840650860924 0.0014724805864306208 0 0.041800029228039756 0.0014312698232777732 0 0.041701028113295145 0.0014056135544603897 0 0.041677088125108536 0.0013251484043497097 0 0.041746048784975405 0.0013808888938142518 0 0.041798840650860924 0.0014724805864306208 0 0.041859743928978864 0.0015508240634504009 0 0.04172173317962611 0.0014739819325052619 0 0.041798840650860924 0.0014724805864306208 0 0.041859743928978864 0.0015508240634504009 0 0.041846956603617397 0.0015351626670431742 0 0.041859743928978864 0.0015508240634504009 0 0.041738465825484392 0.0015410390798821626 0 0.041839479245255697 0.001616774625622984 0 0.041859743928978864 0.0015508240634504009 0 0.041738465825484392 0.0015410390798821626 0 0.04172173317962611 0.0014739819325052619 0 0.041701028113295145 0.0014056135544603897 0 0.041798840650860924 0.0014724805864306208 0 0.04172173317962611 0.0014739819325052619 0 0.041464859610924235 0.0014118857539331573 0 0.041595992889896162 0.0014001271672916418 0 0.041575424686328341 0.0014806551735093263 0 0.041738465825484392 0.0015410390798821626 0 0.04172173317962611 0.0014739819325052619 0 0.041575424686328341 0.0014806551735093263 0 0.041595992889896162 0.0014001271672916418 0 0.04172173317962611 0.0014739819325052619 0 0.041575424686328341 0.0014806551735093263 0 0.041738465825484392 0.0015410390798821626 0 0.041575424686328341 0.0014806551735093263 0 0.041615906988174467 0.0015821213961099926 0 0.041738465825484392 0.0015410390798821626 0 0.041615906988174467 0.0015821213961099926 0 0.041839479245255697 0.001616774625622984 0 0.041407519304749327 0.0015058205362505188 0 0.041615906988174467 0.0015821213961099926 0 0.041464400193343826 0.0016716975140392521 0 0.041407519304749327 0.0015058205362505188 0 0.041575424686328341 0.0014806551735093263 0 0.041615906988174467 0.0015821213961099926 0 0.041407519304749327 0.0015058205362505188 0 0.041464859610924235 0.0014118857539331573 0 0.041575424686328341 0.0014806551735093263 0 0.033383081110035802 0.0026590767080977508 0 0.033508165608847944 0.0025264484603313292 0 0.033351319789154399 0.0025060253545831444 0 0.033305673441154801 0.0024286282724255643 0 0.033508165608847944 0.0025264484603313292 0 0.033477794800820193 0.002371925412887433 0 0.033305673441154801 0.0024286282724255643 0 0.033508165608847944 0.0025264484603313292 0 0.033348045428887065 0.002531437450187155 0 0.033508165608847944 0.0025264484603313292 0 0.033348045428887065 0.002531437450187155 0 0.033351319789154399 0.0025060253545831444 0 0.033272077171883803 0.0025632199221782095 0 0.033348045428887065 0.002531437450187155 0 0.033351319789154399 0.0025060253545831444 0 0.033383081110035802 0.0026590767080977508 0 0.033351319789154399 0.0025060253545831444 0 0.033103334921680182 0.0025335433940451065 0 0.032946093382946462 0.0022871975612562675 0 0.033351319789154399 0.0025060253545831444 0 0.033103334921680182 0.0025335433940451065 0 0.033383081110035802 0.0026590767080977508 0 0.033103334921680182 0.0025335433940451065 0 0.03265508503093497 0.0025951986896548258 0 0.032946093382946462 0.0022871975612562675 0 0.033103334921680182 0.0025335433940451065 0 0.03265508503093497 0.0025951986896548258 0 0.032596770439907885 0.0022572439257770335 0 0.032946093382946462 0.0022871975612562675 0 0.03265508503093497 0.0025951986896548258 0 0.034059337035038301 0.0028554293272219939 0 0.033841029292781717 0.0028631241356032273 0 0.033634206679592507 0.0026617572385874682 0 0.037818613995291094 0.0020325016609876543 0 0.038077863312898128 0.0021612677685831846 0 0.034292341289134387 0.0030904890792937331 0 0.034059337035038301 0.0028554293272219939 0 0.033841029292781717 0.0028631241356032273 0 0.041800029228039756 0.0014312698232777732 0 0.041833535139336436 0.0014700904249290386 0 0.041825680846380414 0.0014851771701334989 0 0.04178151055292003 0.0013309871336178519 0 0.041800029228039756 0.0014312698232777732 0 0.041833535139336436 0.0014700904249290386 0 0.041798840650860924 0.0014724805864306208 0 0.041800029228039756 0.0014312698232777732 0 0.041825680846380414 0.0014851771701334989 0 0.03335181910810335 0.0026647642622875277 0 0.033225171219944123 0.0026842859866278521 0 0.033383081110035802 0.0026590767080977508 0 0.033841029292781717 0.0028631241356032273 0 0.033634206679592507 0.0026617572385874682 0 0.041833535139336436 0.0014700904249290386 0 0.041828006050040084 0.0015190971749967364 0 0.041800591442738538 0.001531469099383667 0 0.038077863312898128 0.0021612677685831846 0 0.035600756343519273 0.0021783520464182292 0 0.041833535139336436 0.0014700904249290386 0 0.041828006050040084 0.0015190971749967364 0 0.041825680846380414 0.0014851771701334989 0 0.033383081110035802 0.0026590767080977508 0 0.033634206679592507 0.0026617572385874682 0 0.033352909299518868 0.0025916121684340303 0 0.041798840650860924 0.0014724805864306208 0 0.041825680846380414 0.0014851771701334989 0 0.041846956603617397 0.0015351626670431742 0 0.041828006050040084 0.0015190971749967364 0 0.041825680846380414 0.0014851771701334989 0 0.041846956603617397 0.0015351626670431742 0 0.041846956603617397 0.0015351626670431742 0 0.041825762362267878 0.0015573613310069785 0 0.041883003170173266 0.0015765983338317364 0 0.041859743928978864 0.0015508240634504009 0 0.041846956603617397 0.0015351626670431742 0 0.041883003170173266 0.0015765983338317364 0 0.041828006050040084 0.0015190971749967364 0 0.041846956603617397 0.0015351626670431742 0 0.041825762362267878 0.0015573613310069785 0 0.041828006050040084 0.0015190971749967364 0 0.041825762362267878 0.0015573613310069785 0 0.041800591442738538 0.001531469099383667 0 0.034314698482479547 0.0020310339215260185 0 0.03403012541396578 0.002076260337595079 0 0.034000110671294187 0.0019168688252931007 0 0.038094834479421226 0.0017411932476913417 0 0.035600756343519273 0.0021783520464182292 0 0.034314698482479547 0.0020310339215260185 0 0.03403012541396578 0.002076260337595079 0 0.034044235844790563 0.0023267019180561992 0 0.03403012541396578 0.002076260337595079 0 0.033863664721979179 0.0021738435716466024 0 0.033858323134750214 0.0020157129821723528 0 0.03403012541396578 0.002076260337595079 0 0.033858323134750214 0.0020157129821723528 0 0.034000110671294187 0.0019168688252931007 0 0.03403012541396578 0.002076260337595079 0 0.033863664721979179 0.0021738435716466024 0 0.034044235844790563 0.0023267019180561992 0 0.033097980247862042 0.0028266071542737085 0 0.035600756343519273 0.0021783520464182292 0 0.033383081110035802 0.0026590767080977508 0 0.033508165608847944 0.0025264484603313292 0 0.033352909299518868 0.0025916121684340303 0 0.03409003303428515 0.0017997163370321787 0 0.035600756343519273 0.0021783520464182292 0 0.033863664721979179 0.0021738435716466024 0 0.033934833331367438 0.0022706168505873194 0 0.033645874218956193 0.0022770715212651607 0 0.03348350020609734 0.0022258707154756687 0 0.033645874218956193 0.0022770715212651607 0 0.033701139258320398 0.0021019797106841304 0 0.033508165608847944 0.0025264484603313292 0 0.033934833331367438 0.0022706168505873194 0 0.033645874218956193 0.0022770715212651607 0 0.033508165608847944 0.0025264484603313292 0 0.033477794800820193 0.002371925412887433 0 0.033645874218956193 0.0022770715212651607 0 0.033863664721979179 0.0021738435716466024 0 0.033645874218956193 0.0022770715212651607 0 0.033701139258320398 0.0021019797106841304 0 0.033863664721979179 0.0021738435716466024 0 0.033701139258320398 0.0021019797106841304 0 0.033858323134750214 0.0020157129821723528 0 0.033701139258320398 0.0021019797106841304 0 0.033858323134750214 0.0020157129821723528 0 0.033798198258754956 0.0019101304657851378 0 0.033858323134750214 0.0020157129821723528 0 0.033798198258754956 0.0019101304657851378 0 0.034000110671294187 0.0019168688252931007 0 0.033798198258754956 0.0019101304657851378 0 0.033892301138160566 0.0018081948272290406 0 0.034000110671294187 0.0019168688252931007 0 0.033892301138160566 0.0018081948272290406 0 0.03411536871633554 0.001680065802712754 0 0.033869895436702296 0.0017594437477244844 0 0.03768738086745884 0.0023635877721961589 0 0.03671065775617692 0.0024380687811425793 0 0.033892301138160566 0.0018081948272290406 0 0.03411536871633554 0.001680065802712754 0 0.034000110671294187 0.0019168688252931007 0 0.034314698482479547 0.0020310339215260185 0 0.03411536871633554 0.001680065802712754 0 0.034000110671294187 0.0019168688252931007 0 0.034314698482479547 0.0020310339215260185 0 0.03411536871633554 0.001680065802712754 0 0.0346004609483214 0.0017530724962638625 0 0.038094834479421226 0.0017411932476913417 0 0.040505916617228251 0.0016983628372009593 0 0.041883003170173266 0.0015765983338317364 0 0.041862367597320205 0.0015347197697824378 0 0.041998716655173497 0.0016185733337668428 0 0.040505916617228251 0.0016983628372009593 0 0.042594463209428564 0.001716705360967973 0 0.041825762362267878 0.0015573613310069785 0 0.041883003170173266 0.0015765983338317364 0 0.041862367597320205 0.0015347197697824378 0 0.042966596826890337 0.002786738413555867 0 0.042860031088380761 0.0022686391877443941 0 0.043097947010271094 0.0021175853766337814 0 0.040505916617228251 0.0016983628372009593 0 0.042817061220820761 0.0019978704416063709 0 0.042408783279235654 0.0016978956149026111 0 0.04228180711587938 0.0019502237523036832 0 0.041998716655173497 0.0016185733337668428 0 0.03768738086745884 0.0023635877721961589 0 0.040505916617228251 0.0016983628372009593 0 0.04206212286729246 0.0029476158474750136 0 0.042966596826890337 0.002786738413555867 0 0.042860031088380761 0.0022686391877443941 0 0.04206212286729246 0.0029476158474750136 0 0.042860031088380761 0.0022686391877443941 0 0.042095232821742455 0.0015836456352982494 0 0.042860031088380761 0.0022686391877443941 0 0.042754223772096506 0.0015853592463658814 0 0.042095232821742455 0.0015836456352982494 0 0.042860031088380761 0.0022686391877443941 0 0.043141276675863663 0.0020483016602658569 0 0.043097947010271094 0.0021175853766337814 0 0.042860031088380761 0.0022686391877443941 0 0.043141276675863663 0.0020483016602658569 0 0.042754223772096506 0.0015853592463658814 0 0.043141276675863663 0.0020483016602658569 0 0.044269030754084969 0.0010361317902121989 0 0.043193860330363619 0.0011227991536075013 0 0.043141276675863663 0.0020483016602658569 0 0.042754223772096506 0.0015853592463658814 0 0.043193860330363619 0.0011227991536075013 0 0.042754223772096506 0.0015853592463658814 0 0.042465693611348262 0.00082173442453463668 0 0.043193860330363619 0.0011227991536075013 0 0.042754223772096506 0.0015853592463658814 0 0.042095232821742455 0.0015836456352982494 0 0.042465693611348262 0.00082173442453463668 0 0.042095232821742455 0.0015836456352982494 0 0.041570142089114692 0.00066342410308137842 0 0.042465693611348262 0.00082173442453463668 0 0.042095232821742455 0.0015836456352982494 0 0.040876924993301846 0.00068641601312257445 0 0.041570142089114692 0.00066342410308137842 0 0.040876924993301846 0.00068641601312257445 0 0.041257168977685145 0.00056873118997386883 0 0.041570142089114692 0.00066342410308137842 0 0.040876924993301846 0.00068641601312257445 0 0.041257168977685145 0.00056873118997386883 0 0.041362416673639296 0.00046816761217255832 0 0.040876924993301846 0.00068641601312257445 0 0.041270531882887415 0.0021173756743084683 0 0.039523983060159147 0.0032737091297382085 0 0.04206212286729246 0.0029476158474750136 0 0.041270531882887415 0.0021173756743084683 0 0.039523983060159147 0.0032737091297382085 0 0.04206212286729246 0.0029476158474750136 0 0.042095232821742455 0.0015836456352982494 0 0.041270531882887415 0.0021173756743084683 0 0.042095232821742455 0.0015836456352982494 0 0.040876924993301846 0.00068641601312257445 0 0.041270531882887415 0.0021173756743084683 0 0.041695488322635497 0.001460575380160886 0 0.04147735761669915 0.001689239595490302 0 0.041464400193343826 0.0016716975140392521 0 0.041695685541980672 0.0017166941766371374 0 0.041495770923640658 0.0019436701426937466 0 0.041615906988174467 0.0015821213961099926 0 0.041464400193343826 0.0016716975140392521 0 0.041695685541980672 0.0017166941766371374 0 0.041615906988174467 0.0015821213961099926 0 0.041695685541980672 0.0017166941766371374 0 0.041839479245255697 0.001616774625622984 0 0.041695685541980672 0.0017166941766371374 0 0.041762267458420509 0.0019111886668228724 0 0.041495770923640658 0.0019436701426937466 0 0.041695685541980672 0.0017166941766371374 0 0.041762267458420509 0.0019111886668228724 0 0.041976641213189676 0.00184033214006997 0 0.041695685541980672 0.0017166941766371374 0 0.041976641213189676 0.00184033214006997 0 0.041839479245255697 0.001616774625622984 0 0.041976641213189676 0.00184033214006997 0 0.041839479245255697 0.001616774625622984 0 0.041998716655173497 0.0016185733337668428 0 0.041859743928978864 0.0015508240634504009 0 0.041883003170173266 0.0015765983338317364 0 0.041998716655173497 0.0016185733337668428 0 0.041859743928978864 0.0015508240634504009 0 0.041839479245255697 0.001616774625622984 0 0.041998716655173497 0.0016185733337668428 0 0.04228180711587938 0.0019502237523036832 0 0.041976641213189676 0.00184033214006997 0 0.041998716655173497 0.0016185733337668428 0 0.042817061220820761 0.0019978704416063709 0 0.04236534363077734 0.002267383603184279 0 0.04228180711587938 0.0019502237523036832 0 0.041976641213189676 0.00184033214006997 0 0.042381181112776715 0.0021828269433473036 0 0.043141276675863663 0.0020483016602658569 0 0.043097947010271094 0.0021175853766337814 0 0.042381181112776715 0.0021828269433473036 0 0.043205115121453294 0.0019588289386978553 0 0.043314951310914847 0.0020007209315633604 0 0.042381181112776715 0.0021828269433473036 0 0.042069415895229119 0.0025237302777110161 0 0.042464393407839619 0.0026841098532456682 0 0.043141276675863663 0.0020483016602658569 0 0.042381181112776715 0.0021828269433473036 0 0.042464393407839619 0.0026841098532456682 0 0.042381181112776715 0.0021828269433473036 0 0.041884781840360409 0.0021732853171369162 0 0.042069415895229119 0.0025237302777110161 0 0.041762267458420509 0.0019111886668228724 0 0.041976641213189676 0.00184033214006997 0 0.041884781840360409 0.0021732853171369162 0 0.041976641213189676 0.00184033214006997 0 0.042381181112776715 0.0021828269433473036 0 0.041884781840360409 0.0021732853171369162 0 0.041884781840360409 0.0021732853171369162 0 0.041568800781113358 0.0023961503074906923 0 0.041495770923640658 0.0019436701426937466 0 0.041762267458420509 0.0019111886668228724 0 0.041884781840360409 0.0021732853171369162 0 0.041495770923640658 0.0019436701426937466 0 0.041884781840360409 0.0021732853171369162 0 0.041568800781113358 0.0023961503074906923 0 0.042069415895229119 0.0025237302777110161 0 0.044213628822692017 -0.00051868101364354539 0 0.044668380455330003 -0.00053546289753371033 0 0.044314681407121914 -0.0010074597714638648 0 0.042953069677192209 0.00099488179957587988 0 0.043114417213205476 -3.6714504914549544e-05 0 0.042953069677192209 0.00099488179957587988 0 0.04147735761669915 0.001689239595490302 0 0.041766758573707236 0.0011424870750402262 0 0.041738388905930235 0.0011734088037964085 0 0.041752572467638055 0.0011619301489062877 0 0.044397882952370807 -6.9907448087203864e-05 0 0.044796263051564811 -2.6211039347081339e-05 0 0.044713263699951517 6.8575968938875708e-05 0 0.044397882952370807 -6.9907448087203864e-05 0 0.044668380455330003 -0.00053546289753371033 0 0.044796263051564811 -2.6211039347081339e-05 0 0.044213628822692017 -0.00051868101364354539 0 0.044397882952370807 -6.9907448087203864e-05 0 0.044668380455330003 -0.00053546289753371033 0 0.041568800781113358 0.0023961503074906923 0 0.041830274740009103 0.0027811851783230901 0 0.042069415895229119 0.0025237302777110161 0 0.042953069677192209 0.00099488179957587988 0 0.04442771390174638 0.00025302705212231446 0 0.04387371149311458 0.001033369871960832 0 0.043745902982250874 0.00083168321501794643 0 0.043823886636280743 0.00072360993779313346 0 0.042953069677192209 0.00099488179957587988 0 0.042782143721873382 0.0019749015496633394 0 0.043745902982250874 0.00083168321501794643 0 0.043823886636280743 0.00072360993779313346 0 0.043596283718675514 0.00061973121248498771 0 0.041830274740009103 0.0027811851783230901 0 0.042094874960201548 0.0031174077785751319 0 0.042112227799455289 0.0027806243068799132 0 0.043693138396348641 0.00093491931005957143 0 0.043314951310914847 0.0020007209315633604 0 0.042782143721873382 0.0019749015496633394 0 0.043693138396348641 0.00093491931005957143 0 0.045025534312341985 0.00018141204017525854 0 0.04457405185810747 0.00028631406640679144 0 0.044821744329113719 -7.462527594805092e-05 0 0.042112227799455289 0.0027806243068799132 0 0.042069415895229119 0.0025237302777110161 0 0.042464393407839619 0.0026841098532456682 0 0.041830274740009103 0.0027811851783230901 0 0.042112227799455289 0.0027806243068799132 0 0.042069415895229119 0.0025237302777110161 0 0.042094874960201548 0.0031174077785751319 0 0.042112227799455289 0.0027806243068799132 0 0.042464393407839619 0.0026841098532456682 0 0.044269030754084969 0.0010361317902121989 0 0.044248684749348441 0.00036861341546900111 0 0.043803898595330244 0.00069317549549870378 0 0.044269030754084969 0.0010361317902121989 0 0.044248684749348441 0.00036861341546900111 0 0.04457405185810747 0.00028631406640679144 0 0.045025534312341985 0.00018141204017525854 0 0.044269030754084969 0.0010361317902121989 0 0.04457405185810747 0.00028631406640679144 0 0.044248684749348441 0.00036861341546900111 0 0.04457405185810747 0.00028631406640679144 0 0.044499704353159447 3.6374335539772793e-05 0 0.044248684749348441 0.00036861341546900111 0 0.044499704353159447 3.6374335539772793e-05 0 0.043974934307437201 7.5975819671421371e-05 0 0.044499704353159447 3.6374335539772793e-05 0 0.044641805658296875 -0.00026256331512156388 0 0.043974934307437201 7.5975819671421371e-05 0 0.04457405185810747 0.00028631406640679144 0 0.044499704353159447 3.6374335539772793e-05 0 0.044821744329113719 -7.462527594805092e-05 0 0.044499704353159447 3.6374335539772793e-05 0 0.044641805658296875 -0.00026256331512156388 0 0.044821744329113719 -7.462527594805092e-05 0 0.044641805658296875 -0.00026256331512156388 0 0.044892561882232077 -0.00011359034346506765 0 0.044821744329113719 -7.462527594805092e-05 0 0.044641805658296875 -0.00026256331512156388 0 0.04499947543045528 -1.293835989553154e-07 0 0.044892561882232077 -0.00011359034346506765 0 0.044892561882232077 -0.00011359034346506765 0 0.044900685725387503 -8.8962493447854117e-05 0 0.04499979353922192 -1.9736841360669448e-07 0 0.04499947543045528 -1.293835989553154e-07 0 0.044892561882232077 -0.00011359034346506765 0 0.04499979353922192 -1.9736841360669448e-07 0 0.044868002200783394 -3.0698587417468423e-05 0 0.044900685725387503 -8.8962493447854117e-05 0 0.044916552730109423 -8.0571016021247098e-05 0 0.043693138396348641 0.00093491931005957143 0 0.044601396179349891 3.8690436547989093e-05 0 0.044868002200783394 -3.0698587417468423e-05 0 0.044900685725387503 -8.8962493447854117e-05 0 0.044821744329113719 -7.462527594805092e-05 0 0.044892561882232077 -0.00011359034346506765 0 0.044900685725387503 -8.8962493447854117e-05 0 0.044821744329113719 -7.462527594805092e-05 0 0.043693138396348641 0.00093491931005957143 0 0.04443859357188424 0.000272054307256431 0 0.043823886636280743 0.00072360993779313346 0 0.043596283718675514 0.00061973121248498771 0 0.043756741227967806 0.00039125658080064709 0 0.044796263051564811 -2.6211039347081339e-05 0 0.04491178659031899 6.4838602818901829e-05 0 0.044713263699951517 6.8575968938875708e-05 0 0.04442771390174638 0.00025302705212231446 0 0.044601396179349891 3.8690436547989093e-05 0 0.04499989619370403 5.1376267402865941e-08 0 0.044932391486047288 4.0279701516708139e-05 0 0.044999607966089261 1.1797582078360984e-07 0 0.044927627284181877 4.0682614672050198e-05 0 0.04499989619370403 5.1376267402865941e-08 0 0.044932391486047288 4.0279701516708139e-05 0 0.044900685725387503 -8.8962493447854117e-05 0 0.044916552730109423 -8.0571016021247098e-05 0 0.04499979353922192 -1.9736841360669448e-07 0 0.044601396179349891 3.8690436547989093e-05 0 0.044999942442301342 2.3711923870181497e-08 0 0.04491178659031899 6.4838602818901829e-05 0 0.044932391486047288 4.0279701516708139e-05 0 0.044868071655932179 5.7569701100123531e-05 0 0.044601396179349891 3.8690436547989093e-05 0 0.044795709941408517 -3.2529773003595297e-05 0 0.044932391486047288 4.0279701516708139e-05 0 0.044868071655932179 5.7569701100123531e-05 0 0.044999607966089261 1.1797582078360984e-07 0 0.044748660993943319 8.2695327343454962e-05 0 0.044868071655932179 5.7569701100123531e-05 0 0.044999607966089261 1.1797582078360984e-07 0 0.044748660993943319 8.2695327343454962e-05 0 0.044868071655932179 5.7569701100123531e-05 0 0.044713263699951517 6.8575968938875708e-05 0 0.04491178659031899 6.4838602818901829e-05 0 0.044868071655932179 5.7569701100123531e-05 0 0.044713263699951517 6.8575968938875708e-05 0 0.0418658316260134 0.00035406555549032809 0 0.042465693611348262 0.00082173442453463668 0 0.042568472368629776 0.00028597136497913566 0 0.0418658316260134 0.00035406555549032809 0 0.042162257261502828 -3.7353831552056408e-06 0 0.042568472368629776 0.00028597136497913566 0 0.0418658316260134 0.00035406555549032809 0 0.042162257261502828 -3.7353831552056408e-06 0 0.041785696413623792 0.00013139032894024145 0 0.0418658316260134 0.00035406555549032809 0 0.041785696413623792 0.00013139032894024145 0 0.04157930966719383 0.00021802283090524311 0 0.042162257261502828 -3.7353831552056408e-06 0 0.041785696413623792 0.00013139032894024145 0 0.041555469211674065 -7.8431202238075158e-05 0 0.041785696413623792 0.00013139032894024145 0 0.04157930966719383 0.00021802283090524311 0 0.041555469211674065 -7.8431202238075158e-05 0 0.0418658316260134 0.00035406555549032809 0 0.04157930966719383 0.00021802283090524311 0 0.041391721082769263 0.00040118520979670326 0 0.04157930966719383 0.00021802283090524311 0 0.041427341644253178 0.00029623533073235209 0 0.041555469211674065 -7.8431202238075158e-05 0 0.04157930966719383 0.00021802283090524311 0 0.041427341644253178 0.00029623533073235209 0 0.041391721082769263 0.00040118520979670326 0 0.0418658316260134 0.00035406555549032809 0 0.041391721082769263 0.00040118520979670326 0 0.041570142089114692 0.00066342410308137842 0 0.041391721082769263 0.00040118520979670326 0 0.041257168977685145 0.00056873118997386883 0 0.041362416673639296 0.00046816761217255832 0 0.041391721082769263 0.00040118520979670326 0 0.041257168977685145 0.00056873118997386883 0 0.041570142089114692 0.00066342410308137842 0 0.0418658316260134 0.00035406555549032809 0 0.041570142089114692 0.00066342410308137842 0 0.042465693611348262 0.00082173442453463668 0 0.042465693611348262 0.00082173442453463668 0 0.043193860330363619 0.0011227991536075013 0 0.043324148786570184 0.0003649843875610785 0 0.043193860330363619 0.0011227991536075013 0 0.043803898595330244 0.00069317549549870378 0 0.043324148786570184 0.0003649843875610785 0 0.044269030754084969 0.0010361317902121989 0 0.043193860330363619 0.0011227991536075013 0 0.043803898595330244 0.00069317549549870378 0 0.043803898595330244 0.00069317549549870378 0 0.043324148786570184 0.0003649843875610785 0 0.043974934307437201 7.5975819671421371e-05 0 0.044248684749348441 0.00036861341546900111 0 0.043803898595330244 0.00069317549549870378 0 0.043974934307437201 7.5975819671421371e-05 0 0.042162257261502828 -3.7353831552056408e-06 0 0.042568472368629776 0.00028597136497913566 0 0.042824927468140435 -0.0004911451328753235 0 0.042465693611348262 0.00082173442453463668 0 0.043324148786570184 0.0003649843875610785 0 0.042568472368629776 0.00028597136497913566 0 0.043324148786570184 0.0003649843875610785 0 0.042568472368629776 0.00028597136497913566 0 0.042824927468140435 -0.0004911451328753235 0 0.043324148786570184 0.0003649843875610785 0 0.042824927468140435 -0.0004911451328753235 0 0.043974934307437201 7.5975819671421371e-05 0 0.044557949087469559 -0.00028061151259071326 0 0.043930815000799955 -0.00025645155803716334 0 0.044641805658296875 -0.00026256331512156388 0 0.042824927468140435 -0.0004911451328753235 0 0.043974934307437201 7.5975819671421371e-05 0 0.044641805658296875 -0.00026256331512156388 0 0.045052398818569143 -8.5485673902203056e-05 0 0.044936982242195236 -4.9790125174450255e-05 0 0.044641805658296875 -0.00026256331512156388 0 0.04499947543045528 -1.293835989553154e-07 0 0.044936982242195236 -4.9790125174450255e-05 0 0.04499947543045528 -1.293835989553154e-07 0 0.044936982242195236 -4.9790125174450255e-05 0 0.045000109087895451 -1.9123666820224387e-08 0 0.045052398818569143 -8.5485673902203056e-05 0 0.045000109087895451 -1.9123666820224387e-08 0 0.045000921935975047 -2.1632448093351916e-05 0 0.045052398818569143 -8.5485673902203056e-05 0 0.044936982242195236 -4.9790125174450255e-05 0 0.045000109087895451 -1.9123666820224387e-08 0 0.045000109087895451 -1.9123666820224387e-08 0 0.045000921935975047 -2.1632448093351916e-05 0 0.044999909418997432 -1.8139375324218826e-08 0 0.045000921935975047 -2.1632448093351916e-05 0 0.044973170449371318 -5.82705046967119e-06 0 0.044999909418997432 -1.8139375324218826e-08 0 0.045000921935975047 -2.1632448093351916e-05 0 0.044977363955334075 -3.6211334009640336e-06 0 0.044973170449371318 -5.82705046967119e-06 0 0.042162257261502828 -3.7353831552056408e-06 0 0.042824927468140435 -0.0004911451328753235 0 0.041555469211674065 -7.8431202238075158e-05 0 0.045052398818569143 -8.5485673902203056e-05 0 0.044977363955334075 -3.6211334009640336e-06 0 0.044917958656339629 0.00012526405791249334 0 0.043930815000799955 -0.00025645155803716334 0 0.043252450829611891 3.6679605960805553e-05 0 0.045052398818569143 -8.5485673902203056e-05 0 0.045000921935975047 -2.1632448093351916e-05 0 0.044977363955334075 -3.6211334009640336e-06 0 0.044977363955334075 -3.6211334009640336e-06 0 0.044925877252508836 1.5061288172052185e-05 0 0.044973170449371318 -5.82705046967119e-06 0 0.044917958656339629 0.00012526405791249334 0 0.044925877252508836 1.5061288172052185e-05 0 0.044434834537947436 0.00010768697537704247 0 0.044977363955334075 -3.6211334009640336e-06 0 0.044917958656339629 0.00012526405791249334 0 0.044925877252508836 1.5061288172052185e-05 0 0.044925877252508836 1.5061288172052185e-05 0 0.044977525565947286 3.1864156322773474e-06 0 0.044973170449371318 -5.82705046967119e-06 0 0.044977525565947286 3.1864156322773474e-06 0 0.044973170449371318 -5.82705046967119e-06 0 0.044999909418997432 -1.8139375324218826e-08 0 0.044977525565947286 3.1864156322773474e-06 0 0.044999909418997432 -1.8139375324218826e-08 0 0.04500000245401739 8.253491226555893e-09 0 0.044977525565947286 3.1864156322773474e-06 0 0.044999200054706957 -7.4333739598345078e-06 0 0.04500000245401739 8.253491226555893e-09 0 0.044487855251847945 -1.9429390018689047e-05 0 0.04441633652617185 0.00010555969353939846 0 0.043921436540101666 -7.3987638088833217e-05 0 0.043819316321118906 0.00028382472376695946 0 0.043777988742805668 0.00011086046213529091 0 0.044999200054706957 -7.4333739598345078e-06 0 0.04500000245401739 8.253491226555893e-09 0 0.044999082365382054 -4.0087652197932261e-07 0 0.043921436540101666 -7.3987638088833217e-05 0 0.043776316112821088 0.00013438298455555032 0 0.043777988742805668 0.00011086046213529091 0 0.043921436540101666 -7.3987638088833217e-05 0 0.043776316112821088 0.00013438298455555032 0 0.044018230343997121 0.00033139498455418156 0 0.043776316112821088 0.00013438298455555032 0 0.043407947486323817 0.00021553173955066209 0 0.044018230343997121 0.00033139498455418156 0 0.044925877252508836 1.5061288172052185e-05 0 0.044977525565947286 3.1864156322773474e-06 0 0.044999200054706957 -7.4333739598345078e-06 0 0.044904510666062034 1.5195527546965091e-05 0 0.044487855251847945 -1.9429390018689047e-05 0 0.044925877252508836 1.5061288172052185e-05 0 0.043921436540101666 -7.3987638088833217e-05 0 0.044434834537947436 0.00010768697537704247 0 0.043921436540101666 -7.3987638088833217e-05 0 0.044434834537947436 0.00010768697537704247 0 0.044018230343997121 0.00033139498455418156 0 0.043252450829611891 3.6679605960805553e-05 0 0.042792470925024514 0.00041007955020790331 0 0.044917958656339629 0.00012526405791249334 0 0.044434834537947436 0.00010768697537704247 0 0.044018230343997121 0.00033139498455418156 0 0.04441633652617185 0.00010555969353939846 0 0.044999744660345432 5.9653462349579504e-08 0 0.04442596109540272 6.4928816816364342e-05 0 0.043819316321118906 0.00028382472376695946 0 0.044070160361900056 9.9202805761625557e-05 0 0.044999994274786445 -3.8433052759420778e-09 0 0.044999082365382054 -4.0087652197932261e-07 0 0.044999999802870387 2.6351006500226142e-09 0 0.04442596109540272 6.4928816816364342e-05 0 0.043819316321118906 0.00028382472376695946 0 0.044998327411089674 1.2465484181458916e-06 0 0.04500000245401739 8.253491226555893e-09 0 0.044999994274786445 -3.8433052759420778e-09 0 0.044999082365382054 -4.0087652197932261e-07 0 0.043819316321118906 0.00028382472376695946 0 0.043777988742805668 0.00011086046213529091 0 0.043817875354003478 0.00013448034055831365 0 0.043819316321118906 0.00028382472376695946 0 0.043817875354003478 0.00013448034055831365 0 0.044070160361900056 9.9202805761625557e-05 0 0.043776316112821088 0.00013438298455555032 0 0.043777988742805668 0.00011086046213529091 0 0.043669891881200518 0.00013207014101894994 0 0.043777988742805668 0.00011086046213529091 0 0.043669891881200518 0.00013207014101894994 0 0.043817875354003478 0.00013448034055831365 0 0.043776316112821088 0.00013438298455555032 0 0.043669891881200518 0.00013207014101894994 0 0.043407947486323817 0.00021553173955066209 0 0.043669891881200518 0.00013207014101894994 0 0.043817875354003478 0.00013448034055831365 0 0.043955378678518828 7.964848790625745e-05 0 0.044070160361900056 9.9202805761625557e-05 0 0.043955378678518828 7.964848790625745e-05 0 0.044292176897483916 2.1218454883395338e-05 0 0.043817875354003478 0.00013448034055831365 0 0.044070160361900056 9.9202805761625557e-05 0 0.043955378678518828 7.964848790625745e-05 0 0.043669891881200518 0.00013207014101894994 0 0.043955378678518828 7.964848790625745e-05 0 0.043952431285769394 9.5333464322432676e-06 0 0.043955378678518828 7.964848790625745e-05 0 0.044292176897483916 2.1218454883395338e-05 0 0.043952431285769394 9.5333464322432676e-06 0 0.04442596109540272 6.4928816816364342e-05 0 0.044070160361900056 9.9202805761625557e-05 0 0.044292176897483916 2.1218454883395338e-05 0 0.043952431285769394 9.5333464322432676e-06 0 0.04376879971932033 -0.0003675510675661523 0 0.044641475392590009 -0.00025998872767723954 0 0.041661739032241074 -0.00038858970871803668 0 0.041081348165137276 -0.00054149513008948066 0 0.043952431285769394 9.5333464322432676e-06 0 0.04376879971932033 -0.0003675510675661523 0 0.043407947486323817 0.00021553173955066209 0 0.04376879971932033 -0.0003675510675661523 0 0.043407947486323817 0.00021553173955066209 0 0.042218347320971211 0.00017016047444503655 0 0.043669891881200518 0.00013207014101894994 0 0.043952431285769394 9.5333464322432676e-06 0 0.043407947486323817 0.00021553173955066209 0 0.041661739032241074 -0.00038858970871803668 0 0.041696648094367246 -5.7932299289747818e-05 0 0.039590822320374662 -0.00050135630882935337 0 0.040223070459919498 0.00034649455585975458 0 0.041610116267341395 3.0228684548956925e-06 0 0.04376879971932033 -0.0003675510675661523 0 0.042218347320971211 0.00017016047444503655 0 0.041610116267341395 3.0228684548956925e-06 0 0.039590822320374662 -0.00050135630882935337 0 0.040223070459919498 0.00034649455585975458 0 0.038808453629589977 0.00056126263150517539 0 0.039590822320374662 -0.00050135630882935337 0 0.038808453629589977 0.00056126263150517539 0 0.037335874829637759 -0.00089637130401629085 0 0.041427341644253178 0.00029623533073235209 0 0.041555469211674065 -7.8431202238075158e-05 0 0.041456337022115666 0.00060196626919303896 0 0.041427341644253178 0.00029623533073235209 0 0.041391721082769263 0.00040118520979670326 0 0.041408816441676023 0.00026750744330262686 0 0.041427341644253178 0.00029623533073235209 0 0.041408816441676023 0.00026750744330262686 0 0.041456337022115666 0.00060196626919303896 0 0.043407947486323817 0.00021553173955066209 0 0.041456337022115666 0.00060196626919303896 0 0.042218347320971211 0.00017016047444503655 0 0.043365652067114471 0.00025652804340083269 0 0.042792470925024514 0.00041007955020790331 0 0.041408816441676023 0.00026750744330262686 0 0.041456337022115666 0.00060196626919303896 0 0.042218347320971211 0.00017016047444503655 0 0.041610116267341395 3.0228684548956925e-06 0 0.041362416673639296 0.00046816761217255832 0 0.04147355241029866 0.00065653828335565309 0 0.040223070459919498 0.00034649455585975458 0 0.041610116267341395 3.0228684548956925e-06 0 0.040807136235397085 0.0005509385875715673 0 0.041408816441676023 0.00026750744330262686 0 0.042218347320971211 0.00017016047444503655 0 0.041610116267341395 3.0228684548956925e-06 0 0.041408816441676023 0.00026750744330262686 0 0.041610116267341395 3.0228684548956925e-06 0 0.041362416673639296 0.00046816761217255832 0 0.041391721082769263 0.00040118520979670326 0 0.041408816441676023 0.00026750744330262686 0 0.041362416673639296 0.00046816761217255832 0 0.040876924993301846 0.00068641601312257445 0 0.038122203113668367 0.0013079958052835208 0 0.035514560884959391 -0.00010835908505474739 0 0.040876924993301846 0.00068641601312257445 0 0.041362416673639296 0.00046816761217255832 0 0.04147355241029866 0.00065653828335565309 0 0.040713967097359444 0.00060439414394545198 0 0.038532261795464734 0.00039163650235283625 0 0.03671065775617692 0.0024380687811425793 0 0.034535300166658643 0.0018493291552102008 0 0.040876924993301846 0.00068641601312257445 0 0.039523983060159147 0.0032737091297382085 0 0.038122203113668367 0.0013079958052835208 0 0.039523983060159147 0.0032737091297382085 0 0.038122203113668367 0.0013079958052835208 0 0.034433247733911709 0.0017900068613279185 0 0.033869895436702296 0.0017594437477244844 0 0.034433247733911709 0.0017900068613279185 0 0.03402220877983738 0.0017457344431081373 0 0.038122203113668367 0.0013079958052835208 0 0.034433247733911709 0.0017900068613279185 0 0.035514560884959391 -0.00010835908505474739 0 0.034433247733911709 0.0017900068613279185 0 0.033877268237188084 0.0016352376918228582 0 0.03402220877983738 0.0017457344431081373 0 0.034433247733911709 0.0017900068613279185 0 0.035514560884959391 -0.00010835908505474739 0 0.033891847859537208 0.0012827486341133922 0 0.041610116267341395 3.0228684548956925e-06 0 0.04147355241029866 0.00065653828335565309 0 0.040807136235397085 0.0005509385875715673 0 0.038532261795464734 0.00039163650235283625 0 0.03660870255746284 0.00094075559482692604 0 0.040223070459919498 0.00034649455585975458 0 0.040807136235397085 0.0005509385875715673 0 0.039853972000285641 0.0012127702548811725 0 0.035514560884959391 -0.00010835908505474739 0 0.033310623266519283 0.00078973054745239775 0 0.033891847859537208 0.0012827486341133922 0 0.04147355241029866 0.00065653828335565309 0 0.040807136235397085 0.0005509385875715673 0 0.039853972000285641 0.0012127702548811725 0 0.033310623266519283 0.00078973054745239775 0 0.033182227777655761 0.0012512567015275126 0 0.03315505671224396 0.0010903756100172624 0 0.038808453629589977 0.00056126263150517539 0 0.039853972000285641 0.0012127702548811725 0 0.037648388790377109 0.0013596288321644926 0 0.040223070459919498 0.00034649455585975458 0 0.038808453629589977 0.00056126263150517539 0 0.039853972000285641 0.0012127702548811725 0 0.03660870255746284 0.00094075559482692604 0 0.035399823221276244 0.0012180958676645717 0 0.033398920465763406 0.0013444708344167956 0 0.033233265289909684 0.0014457182068810912 0 0.033182227777655761 0.0012512567015275126 0 0.033310623266519283 0.00078973054745239775 0 0.033398920465763406 0.0013444708344167956 0 0.033182227777655761 0.0012512567015275126 0 0.033310623266519283 0.00078973054745239775 0 0.033398920465763406 0.0013444708344167956 0 0.033891847859537208 0.0012827486341133922 0 0.034433247733911709 0.0017900068613279185 0 0.033891847859537208 0.0012827486341133922 0 0.033877268237188084 0.0016352376918228582 0 0.033398920465763406 0.0013444708344167956 0 0.033891847859537208 0.0012827486341133922 0 0.033877268237188084 0.0016352376918228582 0 0.033398920465763406 0.0013444708344167956 0 0.033877268237188084 0.0016352376918228582 0 0.033592052094855697 0.0018279215827387797 0 0.033877268237188084 0.0016352376918228582 0 0.033592052094855697 0.0018279215827387797 0 0.03402220877983738 0.0017457344431081373 0 0.033398920465763406 0.0013444708344167956 0 0.033592052094855697 0.0018279215827387797 0 0.032886633866964547 0.0017625282276596188 0 0.033369797392786935 0.0013519068463517115 0 0.033066006489868877 0.0016079882314390987 0 0.033162142916658123 0.0020624342677548401 0 0.032789531554304883 0.0020875789902191915 0 0.032886633866964547 0.0017625282276596188 0 0.033162142916658123 0.0020624342677548401 0 0.033592052094855697 0.0018279215827387797 0 0.032886633866964547 0.0017625282276596188 0 0.033482983784812549 0.0020170772505971246 0 0.033162142916658123 0.0020624342677548401 0 0.033592052094855697 0.0018279215827387797 0 0.033653069586797958 0.0020061124049366298 0 0.033482983784812549 0.0020170772505971246 0 0.033830375469222358 0.0018092362967297728 0 0.033482983784812549 0.0020170772505971246 0 0.033592052094855697 0.0018279215827387797 0 0.033830375469222358 0.0018092362967297728 0 0.033798198258754956 0.0019101304657851378 0 0.033892301138160566 0.0018081948272290406 0 0.033830375469222358 0.0018092362967297728 0 0.033653069586797958 0.0020061124049366298 0 0.033798198258754956 0.0019101304657851378 0 0.033830375469222358 0.0018092362967297728 0 0.033869895436702296 0.0017594437477244844 0 0.033830375469222358 0.0018092362967297728 0 0.03402220877983738 0.0017457344431081373 0 0.033892301138160566 0.0018081948272290406 0 0.033869895436702296 0.0017594437477244844 0 0.033830375469222358 0.0018092362967297728 0 0.033592052094855697 0.0018279215827387797 0 0.033830375469222358 0.0018092362967297728 0 0.03402220877983738 0.0017457344431081373 0 0.03302671733052371 0.0013140826813784626 0 0.032901714691367261 0.0015770325819689757 0 0.033100418598414179 0.0013895553018079161 0 0.03302671733052371 0.0013140826813784626 0 0.032754597022300012 0.0015109786744362161 0 0.032901714691367261 0.0015770325819689757 0 0.03302671733052371 0.0013140826813784626 0 0.032754597022300012 0.0015109786744362161 0 0.032995406396586005 0.0012719039806902708 0 0.032754597022300012 0.0015109786744362161 0 0.032995406396586005 0.0012719039806902708 0 0.032789740982393616 0.0013682127878508362 0 0.032506282613658025 0.0018383879592172459 0 0.032754597022300012 0.0015109786744362161 0 0.032901714691367261 0.0015770325819689757 0 0.033096959469338411 0.0016809973055818114 0 0.032901714691367261 0.0015770325819689757 0 0.033100418598414179 0.0013895553018079161 0 0.032805473729059197 0.0018512912648506262 0 0.033066006489868877 0.0016079882314390987 0 0.033096959469338411 0.0016809973055818114 0 0.033233265289909684 0.0014457182068810912 0 0.033100418598414179 0.0013895553018079161 0 0.032789531554304883 0.0020875789902191915 0 0.032524236266455973 0.00201158209024547 0 0.032886633866964547 0.0017625282276596188 0 0.033233265289909684 0.0014457182068810912 0 0.033100418598414179 0.0013895553018079161 0 0.033182227777655761 0.0012512567015275126 0 0.033100418598414179 0.0013895553018079161 0 0.033094358078893965 0.0012104501111464799 0 0.033182227777655761 0.0012512567015275126 0 0.03302671733052371 0.0013140826813784626 0 0.033100418598414179 0.0013895553018079161 0 0.033094358078893965 0.0012104501111464799 0 0.033094358078893965 0.0012104501111464799 0 0.033182227777655761 0.0012512567015275126 0 0.03315505671224396 0.0010903756100172624 0 0.035399823221276244 0.0012180958676645717 0 0.034304068688277845 0.0012354305834752425 0 0.033094358078893965 0.0012104501111464799 0 0.03315505671224396 0.0010903756100172624 0 0.03307813979944442 0.0011783108168775056 0 0.03307813979944442 0.0011783108168775056 0 0.033087020176859015 0.0011761440653507841 0 0.033240808783389426 0.0010847238490732454 0 0.033094358078893965 0.0012104501111464799 0 0.03307813979944442 0.0011783108168775056 0 0.033087020176859015 0.0011761440653507841 0 0.03302671733052371 0.0013140826813784626 0 0.033094358078893965 0.0012104501111464799 0 0.033087020176859015 0.0011761440653507841 0 0.03302671733052371 0.0013140826813784626 0 0.033087020176859015 0.0011761440653507841 0 0.032995406396586005 0.0012719039806902708 0 0.032995406396586005 0.0012719039806902708 0 0.033240808783389426 0.0010847238490732454 0 0.032789740982393616 0.0013682127878508362 0 0.033087020176859015 0.0011761440653507841 0 0.032995406396586005 0.0012719039806902708 0 0.033240808783389426 0.0010847238490732454 0 0.034304068688277845 0.0012354305834752425 0 0.033459062481171378 0.001078893447704615 0 0.03307813979944442 0.0011783108168775056 0 0.033240808783389426 0.0010847238490732454 0 0.033411334839328538 0.0010400847868908586 0 0.033411334839328538 0.0010400847868908586 0 0.033804327331032245 0.00044002686901918603 0 0.034564946884271065 0.00045770184706776909 0 0.03554018840673525 0.0013496286285820508 0 0.033411334839328538 0.0010400847868908586 0 0.034564946884271065 0.00045770184706776909 0 0.033804327331032245 0.00044002686901918603 0 0.034020124553846148 -0.00013214016620432398 0 0.03336196087585263 0.00042059795489895888 0 0.033804327331032245 0.00044002686901918603 0 0.034564946884271065 0.00045770184706776909 0 0.034020124553846148 -0.00013214016620432398 0 0.034564946884271065 0.00045770184706776909 0 0.034898661612533854 -0.00020273935045241485 0 0.034020124553846148 -0.00013214016620432398 0 0.034564946884271065 0.00045770184706776909 0 0.034898661612533854 -0.00020273935045241485 0 0.03592365350248284 -1.9294771556155075e-05 0 0.03554018840673525 0.0013496286285820508 0 0.034564946884271065 0.00045770184706776909 0 0.03592365350248284 -1.9294771556155075e-05 0 0.034898661612533854 -0.00020273935045241485 0 0.03592365350248284 -1.9294771556155075e-05 0 0.035178382849178444 -0.0010946762683751478 0 0.034898661612533854 -0.00020273935045241485 0 0.034020124553846148 -0.00013214016620432398 0 0.035178382849178444 -0.0010946762683751478 0 0.034013484324278712 -0.00064484807422003133 0 0.034020124553846148 -0.00013214016620432398 0 0.035178382849178444 -0.0010946762683751478 0 0.034013484324278712 -0.00064484807422003133 0 0.034020124553846148 -0.00013214016620432398 0 0.033411289030330547 -0.00026938891655819389 0 0.038808453629589977 0.00056126263150517539 0 0.037648388790377109 0.0013596288321644926 0 0.037335874829637759 -0.00089637130401629085 0 0.037648388790377109 0.0013596288321644926 0 0.03554018840673525 0.0013496286285820508 0 0.03592365350248284 -1.9294771556155075e-05 0 0.037648388790377109 0.0013596288321644926 0 0.03592365350248284 -1.9294771556155075e-05 0 0.037335874829637759 -0.00089637130401629085 0 0.041081348165137276 -0.00054149513008948066 0 0.0397064592317544 -0.00070205871630323643 0 0.03592365350248284 -1.9294771556155075e-05 0 0.037335874829637759 -0.00089637130401629085 0 0.035178382849178444 -0.0010946762683751478 0 0.044292176897483916 2.1218454883395338e-05 0 0.043952431285769394 9.5333464322432676e-06 0 0.044641475392590009 -0.00025998872767723954 0 0.04442596109540272 6.4928816816364342e-05 0 0.044292176897483916 2.1218454883395338e-05 0 0.044845965002135328 -1.386875909885766e-06 0 0.044292176897483916 2.1218454883395338e-05 0 0.044641475392590009 -0.00025998872767723954 0 0.044845965002135328 -1.386875909885766e-06 0 0.044641475392590009 -0.00025998872767723954 0 0.044845965002135328 -1.386875909885766e-06 0 0.044936082752658112 -9.5815399337050152e-05 0 0.044845965002135328 -1.386875909885766e-06 0 0.044998327411089674 1.2465484181458916e-06 0 0.045000523642515194 -6.3828115530194546e-07 0 0.04442596109540272 6.4928816816364342e-05 0 0.044845965002135328 -1.386875909885766e-06 0 0.044998327411089674 1.2465484181458916e-06 0 0.0397064592317544 -0.00070205871630323643 0 0.040870030114668568 -9.5164553799760796e-05 0 0.034013484324278712 -0.00064484807422003133 0 0.035178382849178444 -0.0010946762683751478 0 0.033574572874849488 -0.0011366635544763112 0 0.044936082752658112 -9.5815399337050152e-05 0 0.044939783502974812 -4.2687605965071483e-05 0 0.044890966460983957 -4.4539838983812804e-05 0 0.045399367857144601 -0.00031489682134563273 0 0.040870030114668568 -9.5164553799760796e-05 0 0.045013678777703715 2.272388357536749e-05 0 0.045017252690685128 4.9663601861742439e-05 0 0.045021242452894399 7.7539844663952948e-05 0 0.044845965002135328 -1.386875909885766e-06 0 0.044936082752658112 -9.5815399337050152e-05 0 0.04494420249293276 -3.1554471799782764e-05 0 0.044936082752658112 -9.5815399337050152e-05 0 0.04494420249293276 -3.1554471799782764e-05 0 0.044939783502974812 -4.2687605965071483e-05 0 0.044845965002135328 -1.386875909885766e-06 0 0.04494420249293276 -3.1554471799782764e-05 0 0.045000523642515194 -6.3828115530194546e-07 0 0.04494420249293276 -3.1554471799782764e-05 0 0.045000523642515194 -6.3828115530194546e-07 0 0.044939783502974812 -4.2687605965071483e-05 0 0.044999605212607215 3.0348126066383807e-07 0 0.045399367857144601 -0.00031489682134563273 0 0.045000008942706032 -1.1602102411267449e-08 0 0.045013678777703715 2.272388357536749e-05 0 0.045000066124586242 6.0591033111866044e-08 0 0.045013678777703715 2.272388357536749e-05 0 0.045000066124586242 6.0591033111866044e-08 0 0.045017252690685128 4.9663601861742439e-05 0 0.045000066124586242 6.0591033111866044e-08 0 0.045019411968174272 5.5256823334865767e-05 0 0.045009350440556484 3.9630399900091386e-05 0 0.045019411968174272 5.5256823334865767e-05 0 0.045017048286828794 8.9035734590578e-05 0 0.045009350440556484 3.9630399900091386e-05 0 0.045000066124586242 6.0591033111866044e-08 0 0.045019411968174272 5.5256823334865767e-05 0 0.045017252690685128 4.9663601861742439e-05 0 0.045057826028435242 9.324646224505695e-05 0 0.045038077103141921 9.2391107889111507e-05 0 0.044989007716813897 0.00040446441859802462 0 0.045017252690685128 4.9663601861742439e-05 0 0.045021242452894399 7.7539844663952948e-05 0 0.045038077103141921 9.2391107889111507e-05 0 0.045019411968174272 5.5256823334865767e-05 0 0.045017252690685128 4.9663601861742439e-05 0 0.045038077103141921 9.2391107889111507e-05 0 0.040870030114668568 -9.5164553799760796e-05 0 0.042905580554271454 0.00032308594958755971 0 0.045019411968174272 5.5256823334865767e-05 0 0.045017048286828794 8.9035734590578e-05 0 0.045038077103141921 9.2391107889111507e-05 0 0.044991797117735058 0.00017496530226723892 0 0.045009350440556484 3.9630399900091386e-05 0 0.044929491889901904 8.2163381433824283e-05 0 0.045017048286828794 8.9035734590578e-05 0 0.045038077103141921 9.2391107889111507e-05 0 0.044991797117735058 0.00017496530226723892 0 0.045038077103141921 9.2391107889111507e-05 0 0.044991797117735058 0.00017496530226723892 0 0.044989007716813897 0.00040446441859802462 0 0.045017048286828794 8.9035734590578e-05 0 0.044991797117735058 0.00017496530226723892 0 0.045009350440556484 3.9630399900091386e-05 0 0.044999959206950463 2.5752524020216267e-08 0 0.045009350440556484 3.9630399900091386e-05 0 0.044929491889901904 8.2163381433824283e-05 0 0.045000066124586242 6.0591033111866044e-08 0 0.044999959206950463 2.5752524020216267e-08 0 0.045009350440556484 3.9630399900091386e-05 0 0.044999959206950463 2.5752524020216267e-08 0 0.04492337838930318 7.7501793497968923e-06 0 0.044929491889901904 8.2163381433824283e-05 0 0.044999959206950463 2.5752524020216267e-08 0 0.04492337838930318 7.7501793497968923e-06 0 0.044999625080422143 -4.4895239509849221e-08 0 0.04492337838930318 7.7501793497968923e-06 0 0.044722185785022218 0.00012911670164240656 0 0.044929491889901904 8.2163381433824283e-05 0 0.044921532150777807 -2.665087996823449e-05 0 0.044999625080422143 -4.4895239509849221e-08 0 0.044989944195701355 -6.2087394362408528e-07 0 0.04492337838930318 7.7501793497968923e-06 0 0.044921532150777807 -2.665087996823449e-05 0 0.044999625080422143 -4.4895239509849221e-08 0 0.04492337838930318 7.7501793497968923e-06 0 0.044921532150777807 -2.665087996823449e-05 0 0.044722185785022218 0.00012911670164240656 0 0.044921532150777807 -2.665087996823449e-05 0 0.044722185785022218 0.00012911670164240656 0 0.044178610105594575 7.6332656820428084e-05 0 0.044722185785022218 0.00012911670164240656 0 0.044781643202951103 0.00030414706591208173 0 0.044332138049971083 0.00044592978233945967 0 0.044991797117735058 0.00017496530226723892 0 0.044929491889901904 8.2163381433824283e-05 0 0.044781643202951103 0.00030414706591208173 0 0.044722185785022218 0.00012911670164240656 0 0.044929491889901904 8.2163381433824283e-05 0 0.044781643202951103 0.00030414706591208173 0 0.044781643202951103 0.00030414706591208173 0 0.04463501469204012 0.00090322172715748316 0 0.044989007716813897 0.00040446441859802462 0 0.032374566120130746 0.00085520489709839148 0 0.032733749921262767 0.00010106337347955325 0 0.03264470527180148 0.0012144391944382232 0 0.044991797117735058 0.00017496530226723892 0 0.044781643202951103 0.00030414706591208173 0 0.044989007716813897 0.00040446441859802462 0 0.044781643202951103 0.00030414706591208173 0 0.04463501469204012 0.00090322172715748316 0 0.044332138049971083 0.00044592978233945967 0 0.03861735750540362 0.00090291842083430095 0 0.038575447557193762 0.00022595673471503485 0 0.032733749921262767 0.00010106337347955325 0 0.033128492433850583 0.00097671918393386838 0 0.03264470527180148 0.0012144391944382232 0 0.03336196087585263 0.00042059795489895888 0 0.032733749921262767 0.00010106337347955325 0 0.033128492433850583 0.00097671918393386838 0 0.033411334839328538 0.0010400847868908586 0 0.03336196087585263 0.00042059795489895888 0 0.033128492433850583 0.00097671918393386838 0 0.033411334839328538 0.0010400847868908586 0 0.033804327331032245 0.00044002686901918603 0 0.03336196087585263 0.00042059795489895888 0 0.033574572874849488 -0.0011366635544763112 0 0.033411289030330547 -0.00026938891655819389 0 0.032733749921262767 0.00010106337347955325 0 0.03336196087585263 0.00042059795489895888 0 0.033411289030330547 -0.00026938891655819389 0 0.032733749921262767 0.00010106337347955325 0 0.034020124553846148 -0.00013214016620432398 0 0.03336196087585263 0.00042059795489895888 0 0.033411289030330547 -0.00026938891655819389 0 0.034013484324278712 -0.00064484807422003133 0 0.033574572874849488 -0.0011366635544763112 0 0.033411289030330547 -0.00026938891655819389 0 0.040870030114668568 -9.5164553799760796e-05 0 0.038575447557193762 0.00022595673471503485 0 0.044960694216910298 1.6759587741731152e-05 0 0.044918381235725356 5.8530671588347268e-05 0 0.044899896729421011 3.8390194813770825e-05 0 0.044960694216910298 1.6759587741731152e-05 0 0.044999988923878492 1.5026932128389288e-08 0 0.044999751192838139 -5.682222506866456e-08 0 0.044960694216910298 1.6759587741731152e-05 0 0.044999988923878492 1.5026932128389288e-08 0 0.044992316090885713 6.6067338958537749e-06 0 0.044999988923878492 1.5026932128389288e-08 0 0.044992316090885713 6.6067338958537749e-06 0 0.045000081343153552 7.912764225204417e-09 0 0.044960694216910298 1.6759587741731152e-05 0 0.044992316090885713 6.6067338958537749e-06 0 0.044979924083418568 5.072216744559805e-05 0 0.044992316090885713 6.6067338958537749e-06 0 0.045010223839721565 -8.3175044901832051e-08 0 0.044979924083418568 5.072216744559805e-05 0 0.04440950808103724 0.00016135159616247557 0 0.04512900108933067 -0.00011029459367746999 0 0.044992316090885713 6.6067338958537749e-06 0 0.045000081343153552 7.912764225204417e-09 0 0.045010223839721565 -8.3175044901832051e-08 0 0.044999625080422143 -4.4895239509849221e-08 0 0.045000081343153552 7.912764225204417e-09 0 0.044989944195701355 -6.2087394362408528e-07 0 0.045000081343153552 7.912764225204417e-09 0 0.044989944195701355 -6.2087394362408528e-07 0 0.045010223839721565 -8.3175044901832051e-08 0 0.044921532150777807 -2.665087996823449e-05 0 0.044989944195701355 -6.2087394362408528e-07 0 0.045010223839721565 -8.3175044901832051e-08 0 0.044943396344353494 -7.4025065672165809e-05 0 0.04440950808103724 0.00016135159616247557 0 0.044722185785022218 0.00012911670164240656 0 0.044178610105594575 7.6332656820428084e-05 0 0.044332138049971083 0.00044592978233945967 0 0.04463501469204012 0.00090322172715748316 0 0.044332138049971083 0.00044592978233945967 0 0.043939402625999727 0.00087573215229321346 0 0.043939402625999727 0.00087573215229321346 0 0.043388740322835379 0.00082765516959092697 0 0.043581621578827154 0.0011994288259616988 0 0.043939402625999727 0.00087573215229321346 0 0.043544541940252569 0.00041728754565208012 0 0.043388740322835379 0.00082765516959092697 0 0.044332138049971083 0.00044592978233945967 0 0.043939402625999727 0.00087573215229321346 0 0.043544541940252569 0.00041728754565208012 0 0.044178610105594575 7.6332656820428084e-05 0 0.044332138049971083 0.00044592978233945967 0 0.043544541940252569 0.00041728754565208012 0 0.043388740322835379 0.00082765516959092697 0 0.042913821797461227 0.00085371979369323469 0 0.043581621578827154 0.0011994288259616988 0 0.04512900108933067 -0.00011029459367746999 0 0.03928553187193462 0.0011832991269902517 0 0.03928553187193462 0.0011832991269902517 0 0.03801360831753816 0.0018672003647608932 0 0.043544541940252569 0.00041728754565208012 0 0.043388740322835379 0.00082765516959092697 0 0.042913821797461227 0.00085371979369323469 0 0.03928553187193462 0.0011832991269902517 0 0.033591378115358762 0.0026615386697919764 0 0.044979924083418568 5.072216744559805e-05 0 0.044894982749346259 0.00010717405543550346 0 0.044918381235725356 5.8530671588347268e-05 0 0.044894982749346259 0.00010717405543550346 0 0.044918381235725356 5.8530671588347268e-05 0 0.04486845909765276 7.8385514401326482e-05 0 0.044960694216910298 1.6759587741731152e-05 0 0.044979924083418568 5.072216744559805e-05 0 0.044918381235725356 5.8530671588347268e-05 0 0.033519219720818234 0.0019478241755652402 0 0.033276530883082682 0.0022752831346361064 0 0.032963660877308579 0.0018691438444170716 0 0.033519219720818234 0.0019478241755652402 0 0.033276530883082682 0.0022752831346361064 0 0.033806362986502005 0.0024746620743584659 0 0.033371449121240751 0.0027932185675272727 0 0.033276530883082682 0.0022752831346361064 0 0.033806362986502005 0.0024746620743584659 0 0.033371449121240751 0.0027932185675272727 0 0.033276530883082682 0.0022752831346361064 0 0.032694280217160698 0.0023316266277575637 0 0.033276530883082682 0.0022752831346361064 0 0.032963660877308579 0.0018691438444170716 0 0.032694280217160698 0.0023316266277575637 0 0.032963660877308579 0.0018691438444170716 0 0.03248880496915426 0.0018595362152118548 0 0.032694280217160698 0.0023316266277575637 0 0.032963660877308579 0.0018691438444170716 0 0.03248880496915426 0.0018595362152118548 0 0.032593499283017593 0.0016794476629237495 0 0.03248880496915426 0.0018595362152118548 0 0.03226509388388827 0.001647704899487588 0 0.032593499283017593 0.0016794476629237495 0 0.03248880496915426 0.0018595362152118548 0 0.032694280217160698 0.0023316266277575637 0 0.032305361309310769 0.001830857326602325 0 0.03801360831753816 0.0018672003647608932 0 0.037758804820726057 0.001231731790446387 0 0.043939402625999727 0.00087573215229321346 0 0.043581621578827154 0.0011994288259616988 0 0.044028239053944714 0.001438338689496629 0 0.04463501469204012 0.00090322172715748316 0 0.043939402625999727 0.00087573215229321346 0 0.044028239053944714 0.001438338689496629 0 0.03248880496915426 0.0018595362152118548 0 0.032218796573211493 0.0016187689780709396 0 0.032305361309310769 0.001830857326602325 0 0.03248880496915426 0.0018595362152118548 0 0.032218796573211493 0.0016187689780709396 0 0.03226509388388827 0.001647704899487588 0 0.032218796573211493 0.0016187689780709396 0 0.032118448965530837 0.0015527474109402711 0 0.032351108032556267 0.0013195868642869874 0 0.032218796573211493 0.0016187689780709396 0 0.03226509388388827 0.001647704899487588 0 0.032420524432511214 0.0015555975917248366 0 0.034245583323125321 0.0003360010816164689 0 0.037758804820726057 0.001231731790446387 0 0.03226509388388827 0.001647704899487588 0 0.032220628903561845 0.0015582893918026945 0 0.032186126432906484 0.0015848974439431878 0 0.03226509388388827 0.001647704899487588 0 0.032220628903561845 0.0015582893918026945 0 0.032491451194802255 0.0015178157182599334 0 0.032491451194802255 0.0015178157182599334 0 0.032908021864019109 0.0012397105917343768 0 0.032334523026099779 0.0014158284393446918 0 0.032220628903561845 0.0015582893918026945 0 0.032491451194802255 0.0015178157182599334 0 0.032334523026099779 0.0014158284393446918 0 0.03226509388388827 0.001647704899487588 0 0.032491451194802255 0.0015178157182599334 0 0.032593499283017593 0.0016794476629237495 0 0.032963660877308579 0.0018691438444170716 0 0.032593499283017593 0.0016794476629237495 0 0.032856041616398553 0.0015292133326288554 0 0.032491451194802255 0.0015178157182599334 0 0.032593499283017593 0.0016794476629237495 0 0.032856041616398553 0.0015292133326288554 0 0.032491451194802255 0.0015178157182599334 0 0.032856041616398553 0.0015292133326288554 0 0.032908021864019109 0.0012397105917343768 0 0.032910639251568473 0.0020263319442283922 0 0.032303899614597474 0.0018917209652538317 0 0.032785845265662569 0.0027813220026588229 0 0.033236474801352146 0.0025815539418725703 0 0.033410754612986336 0.0030230194873344446 0 0.032856041616398553 0.0015292133326288554 0 0.032908021864019109 0.0012397105917343768 0 0.033637409352411822 0.0013332694069543936 0 0.032910639251568473 0.0020263319442283922 0 0.033292468213484042 0.0021882436331537337 0 0.033519219720818234 0.0019478241755652402 0 0.032963660877308579 0.0018691438444170716 0 0.033637409352411822 0.0013332694069543936 0 0.032963660877308579 0.0018691438444170716 0 0.032856041616398553 0.0015292133326288554 0 0.033637409352411822 0.0013332694069543936 0 0.033240808783389426 0.0010847238490732454 0 0.032464873840966031 0.0012091995418334483 0 0.032789740982393616 0.0013682127878508362 0 0.032464873840966031 0.0012091995418334483 0 0.032789740982393616 0.0013682127878508362 0 0.03251559437046056 0.0015119398861663264 0 0.033203822648737093 0.0010943693383936119 0 0.032740770009440465 0.0012510297617534568 0 0.033240808783389426 0.0010847238490732454 0 0.033411334839328538 0.0010400847868908586 0 0.033128492433850583 0.00097671918393386838 0 0.033240808783389426 0.0010847238490732454 0 0.033006929261979748 0.0012723115095165081 0 0.033128492433850583 0.00097671918393386838 0 0.033006929261979748 0.0012723115095165081 0 0.033128492433850583 0.00097671918393386838 0 0.03264470527180148 0.0012144391944382232 0 0.032374566120130746 0.00085520489709839148 0 0.03264470527180148 0.0012144391944382232 0 0.032351108032556267 0.0013195868642869874 0 0.032374566120130746 0.00085520489709839148 0 0.032118448965530837 0.0015527474109402711 0 0.032351108032556267 0.0013195868642869874 0 0.03861735750540362 0.00090291842083430095 0 0.037758804820726057 0.001231731790446387 0 0.032266468923769512 0.0016285487051258254 0 0.032325522756345211 0.0015089951207581903 0 0.032218796573211493 0.0016187689780709396 0 0.032351108032556267 0.0013195868642869874 0 0.032420524432511214 0.0015555975917248366 0 0.03264470527180148 0.0012144391944382232 0 0.032351108032556267 0.0013195868642869874 0 0.032420524432511214 0.0015555975917248366 0 0.033006929261979748 0.0012723115095165081 0 0.03264470527180148 0.0012144391944382232 0 0.032420524432511214 0.0015555975917248366 0 0.032464873840966031 0.0012091995418334483 0 0.032204646901343247 0.0014734304169071078 0 0.032320313757757929 0.0014879414423662109 0 0.032740770009440465 0.0012510297617534568 0 0.032325522756345211 0.0015089951207581903 0 0.032320313757757929 0.0014879414423662109 0 0.032186126432906484 0.0015848974439431878 0 0.032314368010277206 0.001623992759467201 0 0.032204646901343247 0.0014734304169071078 0 0.032320313757757929 0.0014879414423662109 0 0.032186126432906484 0.0015848974439431878 0 0.03226509388388827 0.001647704899487588 0 0.032204646901343247 0.0014734304169071078 0 0.032186126432906484 0.0015848974439431878 0 0.032220628903561845 0.0015582893918026945 0 0.032186126432906484 0.0015848974439431878 0 0.03208050902594483 0.0018323127832881553 0 0.032186126432906484 0.0015848974439431878 0 0.032314368010277206 0.001623992759467201 0 0.032200025143892974 0.0017757701373543975 0 0.032314368010277206 0.001623992759467201 0 0.032423838319327408 0.0017166386175998618 0 0.032200025143892974 0.0017757701373543975 0 0.032314368010277206 0.001623992759467201 0 0.03251559437046056 0.0015119398861663264 0 0.032423838319327408 0.0017166386175998618 0 0.032464873840966031 0.0012091995418334483 0 0.032320313757757929 0.0014879414423662109 0 0.03251559437046056 0.0015119398861663264 0 0.032320313757757929 0.0014879414423662109 0 0.032314368010277206 0.001623992759467201 0 0.03251559437046056 0.0015119398861663264 0 0.032754597022300012 0.0015109786744362161 0 0.032789740982393616 0.0013682127878508362 0 0.03251559437046056 0.0015119398861663264 0 0.032506282613658025 0.0018383879592172459 0 0.032754597022300012 0.0015109786744362161 0 0.032423838319327408 0.0017166386175998618 0 0.032754597022300012 0.0015109786744362161 0 0.03251559437046056 0.0015119398861663264 0 0.032423838319327408 0.0017166386175998618 0 0.032506282613658025 0.0018383879592172459 0 0.032423838319327408 0.0017166386175998618 0 0.032267102198692832 0.0018679835231152819 0 0.032423838319327408 0.0017166386175998618 0 0.032267102198692832 0.0018679835231152819 0 0.032200025143892974 0.0017757701373543975 0 0.032267102198692832 0.0018679835231152819 0 0.032139899606947117 0.0020788327749964733 0 0.032115358968218828 0.0019176380798737306 0 0.032506282613658025 0.0018383879592172459 0 0.032267102198692832 0.0018679835231152819 0 0.032139899606947117 0.0020788327749964733 0 0.032506282613658025 0.0018383879592172459 0 0.032252705422617239 0.0022166240831854038 0 0.032139899606947117 0.0020788327749964733 0 0.032139899606947117 0.0020788327749964733 0 0.032012369829068875 0.0020255222781805997 0 0.032044888887731646 0.0021953946158603157 0 0.032252705422617239 0.0022166240831854038 0 0.032139899606947117 0.0020788327749964733 0 0.032044888887731646 0.0021953946158603157 0 0.032012369829068875 0.0020255222781805997 0 0.03202246480058217 0.0019286424326719293 0 0.031971295464989412 0.0018699204364346648 0 0.032012369829068875 0.0020255222781805997 0 0.031971295464989412 0.0018699204364346648 0 0.031881076143486647 0.0020238365785670859 0 0.032139899606947117 0.0020788327749964733 0 0.032012369829068875 0.0020255222781805997 0 0.032115358968218828 0.0019176380798737306 0 0.032012369829068875 0.0020255222781805997 0 0.03202246480058217 0.0019286424326719293 0 0.032115358968218828 0.0019176380798737306 0 0.03202246480058217 0.0019286424326719293 0 0.032115358968218828 0.0019176380798737306 0 0.03208050902594483 0.0018323127832881553 0 0.032267102198692832 0.0018679835231152819 0 0.032115358968218828 0.0019176380798737306 0 0.032200025143892974 0.0017757701373543975 0 0.032115358968218828 0.0019176380798737306 0 0.032200025143892974 0.0017757701373543975 0 0.03208050902594483 0.0018323127832881553 0 0.032186126432906484 0.0015848974439431878 0 0.032200025143892974 0.0017757701373543975 0 0.03208050902594483 0.0018323127832881553 0 0.032220628903561845 0.0015582893918026945 0 0.03208050902594483 0.0018323127832881553 0 0.032334523026099779 0.0014158284393446918 0 0.03208050902594483 0.0018323127832881553 0 0.03219831150423523 0.0023509919225304702 0 0.032100901751139582 0.0020027999303258923 0 0.032138011171402261 0.0018521722283531212 0 0.032303899614597474 0.0018917209652538317 0 0.03219831150423523 0.0023509919225304702 0 0.032100901751139582 0.0020027999303258923 0 0.032479210564951781 0.0022228857788036786 0 0.032100901751139582 0.0020027999303258923 0 0.032479210564951781 0.0022228857788036786 0 0.032466142274866425 0.0018523459611417491 0 0.03202246480058217 0.0019286424326719293 0 0.03208050902594483 0.0018323127832881553 0 0.032100901751139582 0.0020027999303258923 0 0.032785845265662569 0.0027813220026588229 0 0.033236474801352146 0.0025815539418725703 0 0.032882720226554335 0.0024373507123911578 0 0.033236474801352146 0.0025815539418725703 0 0.032882720226554335 0.0024373507123911578 0 0.033083684778804169 0.0022015487980601512 0 0.032785845265662569 0.0027813220026588229 0 0.032479210564951781 0.0022228857788036786 0 0.032882720226554335 0.0024373507123911578 0 0.032785845265662569 0.0027813220026588229 0 0.03219831150423523 0.0023509919225304702 0 0.032479210564951781 0.0022228857788036786 0 0.032479210564951781 0.0022228857788036786 0 0.032882720226554335 0.0024373507123911578 0 0.033083684778804169 0.0022015487980601512 0 0.032494522823349324 0.0022051489299642927 0 0.032628109530445176 0.0018739305208151319 0 0.032479210564951781 0.0022228857788036786 0 0.033083684778804169 0.0022015487980601512 0 0.032855594368961225 0.0018000900239259858 0 0.032855594368961225 0.0018000900239259858 0 0.03341399507838165 0.0016292830002688275 0 0.033355765524826095 0.0019870372118818902 0 0.033083684778804169 0.0022015487980601512 0 0.032855594368961225 0.0018000900239259858 0 0.033355765524826095 0.0019870372118818902 0 0.032466142274866425 0.0018523459611417491 0 0.032214769399304392 0.001571193946120681 0 0.032536862840665946 0.001543136822627384 0 0.032855594368961225 0.0018000900239259858 0 0.033090068347571798 0.0012785713795636265 0 0.03341399507838165 0.0016292830002688275 0 0.032628109530445176 0.0018739305208151319 0 0.032946698123499825 0.0012723583869878349 0 0.032100901751139582 0.0020027999303258923 0 0.032466142274866425 0.0018523459611417491 0 0.031971295464989412 0.0018699204364346648 0 0.032466142274866425 0.0018523459611417491 0 0.031971295464989412 0.0018699204364346648 0 0.032214769399304392 0.001571193946120681 0 0.03202246480058217 0.0019286424326719293 0 0.032100901751139582 0.0020027999303258923 0 0.031971295464989412 0.0018699204364346648 0 0.031956787653176062 0.0018578189052319036 0 0.031917901419701869 0.0017951818115845136 0 0.031971295464989412 0.0018699204364346648 0 0.031650262330751008 0.0019627006349837903 0 0.031881076143486647 0.0020238365785670859 0 0.031650262330751008 0.0019627006349837903 0 0.031677697181061441 0.0020741582901262507 0 0.031881076143486647 0.0020238365785670859 0 0.031650262330751008 0.0019627006349837903 0 0.031677697181061441 0.0020741582901262507 0 0.031423124256156551 0.0020620939249796871 0 0.031677697181061441 0.0020741582901262507 0 0.031423124256156551 0.0020620939249796871 0 0.031524175725949274 0.0021696349097215491 0 0.032214769399304392 0.001571193946120681 0 0.032536862840665946 0.001543136822627384 0 0.032393099320227201 0.0013712325970396209 0 0.031917901419701869 0.0017951818115845136 0 0.031965330782181542 0.0016549528084650186 0 0.032536862840665946 0.001543136822627384 0 0.032393099320227201 0.0013712325970396209 0 0.032606423870232597 0.0012930957310026724 0 0.032946698123499825 0.0012723583869878349 0 0.032147780134179071 0.0015342925875812239 0 0.032393099320227201 0.0013712325970396209 0 0.032529340352607357 0.0011970717112046812 0 0.032606423870232597 0.0012930957310026724 0 0.031965330782181542 0.0016549528084650186 0 0.031616614463637366 0.0019646787291862605 0 0.031616614463637366 0.0019646787291862605 0 0.032147780134179071 0.0015342925875812239 0 0.031423124256156551 0.0020620939249796871 0 0.031289292760127228 0.0021614517027561814 0 0.031372231544980679 0.0021617242248302836 0 0.031423124256156551 0.0020620939249796871 0 0.031372231544980679 0.0021617242248302836 0 0.031524175725949274 0.0021696349097215491 0 0.031372231544980679 0.0021617242248302836 0 0.031524175725949274 0.0021696349097215491 0 0.03124881432736528 0.0022633472165804274 0 0.031289292760127228 0.0021614517027561814 0 0.031372231544980679 0.0021617242248302836 0 0.03124881432736528 0.0022633472165804274 0 0.031616614463637366 0.0019646787291862605 0 0.03115326608769509 0.0022918701469598281 0 0.031145126743740838 0.0021420092106449735 0 0.031069982114024678 0.0022450432098680391 0 0.03124881432736528 0.0022633472165804274 0 0.031616614463637366 0.0019646787291862605 0 0.030980274609076843 0.0023597931693304444 0 0.031677697181061441 0.0020741582901262507 0 0.031524175725949274 0.0021696349097215491 0 0.031800880322007709 0.0021315305360378239 0 0.031524175725949274 0.0021696349097215491 0 0.031667892863531534 0.0022288594578860422 0 0.031800880322007709 0.0021315305360378239 0 0.031524175725949274 0.0021696349097215491 0 0.031451327352421947 0.0022892676703923859 0 0.03124881432736528 0.0022633472165804274 0 0.031524175725949274 0.0021696349097215491 0 0.031667892863531534 0.0022288594578860422 0 0.031451327352421947 0.0022892676703923859 0 0.031800880322007709 0.0021315305360378239 0 0.031857749822499351 0.0022103254283079221 0 0.031925373633491655 0.0021481645451330998 0 0.031667892863531534 0.0022288594578860422 0 0.031800880322007709 0.0021315305360378239 0 0.031857749822499351 0.0022103254283079221 0 0.031667892863531534 0.0022288594578860422 0 0.031857749822499351 0.0022103254283079221 0 0.031752416989566101 0.0022811037496111696 0 0.031857749822499351 0.0022103254283079221 0 0.031752416989566101 0.0022811037496111696 0 0.031871712849748227 0.0022820609776287143 0 0.031857749822499351 0.0022103254283079221 0 0.031996248794574862 0.0022271228119679475 0 0.031871712849748227 0.0022820609776287143 0 0.031996248794574862 0.0022271228119679475 0 0.031871712849748227 0.0022820609776287143 0 0.031948062201856073 0.0023098243346670452 0 0.031996248794574862 0.0022271228119679475 0 0.031925373633491655 0.0021481645451330998 0 0.031983753919236448 0.0021445002285672234 0 0.031897926647754662 0.0023600278282126697 0 0.0319483089722584 0.0022760372819764334 0 0.031857749822499351 0.0022103254283079221 0 0.031996248794574862 0.0022271228119679475 0 0.031925373633491655 0.0021481645451330998 0 0.031925373633491655 0.0021481645451330998 0 0.031983753919236448 0.0021445002285672234 0 0.031961126924574271 0.0021153697550255215 0 0.032032217894221483 0.0023280462800992587 0 0.031902616648590086 0.0024024061238920396 0 0.032044888887731646 0.0021953946158603157 0 0.0319483089722584 0.0022760372819764334 0 0.032025568580078718 0.0022085296266572615 0 0.032012369829068875 0.0020255222781805997 0 0.032044888887731646 0.0021953946158603157 0 0.031961126924574271 0.0021153697550255215 0 0.031983753919236448 0.0021445002285672234 0 0.032044888887731646 0.0021953946158603157 0 0.031961126924574271 0.0021153697550255215 0 0.032012369829068875 0.0020255222781805997 0 0.031961126924574271 0.0021153697550255215 0 0.031881076143486647 0.0020238365785670859 0 0.031677697181061441 0.0020741582901262507 0 0.031800880322007709 0.0021315305360378239 0 0.031881076143486647 0.0020238365785670859 0 0.031800880322007709 0.0021315305360378239 0 0.031961126924574271 0.0021153697550255215 0 0.031881076143486647 0.0020238365785670859 0 0.031800880322007709 0.0021315305360378239 0 0.031925373633491655 0.0021481645451330998 0 0.031961126924574271 0.0021153697550255215 0 0.034815706817371346 0.0021864946588562779 0 0.034645370751383193 0.0020934778622940173 0 0.03466231029483853 0.0021813599239406509 0 0.034815706817371346 0.0021864946588562779 0 0.034645370751383193 0.0020934778622940173 0 0.034805523248661957 0.0020417664451432417 0 0.034645370751383193 0.0020934778622940173 0 0.034581873220219064 0.002144011102050604 0 0.034483436019915013 0.0020705909013656386 0 0.034645370751383193 0.0020934778622940173 0 0.034599980431026446 0.0019476423457298884 0 0.034483436019915013 0.0020705909013656386 0 0.034645370751383193 0.0020934778622940173 0 0.03466231029483853 0.0021813599239406509 0 0.034581873220219064 0.002144011102050604 0 0.034581873220219064 0.002144011102050604 0 0.034501972479032694 0.002147976703271218 0 0.034630697577518257 0.00221078501103877 0 0.03466231029483853 0.0021813599239406509 0 0.034581873220219064 0.002144011102050604 0 0.034630697577518257 0.00221078501103877 0 0.03466231029483853 0.0021813599239406509 0 0.03468839659381729 0.0022292868889814662 0 0.034630697577518257 0.00221078501103877 0 0.03468839659381729 0.0022292868889814662 0 0.0347484458673437 0.0022339343173262286 0 0.034719269966646496 0.0022828780510664617 0 0.03468839659381729 0.0022292868889814662 0 0.034719269966646496 0.0022828780510664617 0 0.034630697577518257 0.00221078501103877 0 0.03466231029483853 0.0021813599239406509 0 0.03468839659381729 0.0022292868889814662 0 0.0347484458673437 0.0022339343173262286 0 0.034815706817371346 0.0021864946588562779 0 0.03466231029483853 0.0021813599239406509 0 0.0347484458673437 0.0022339343173262286 0 0.034815706817371346 0.0021864946588562779 0 0.034805721711301814 0.002266191169606452 0 0.0347484458673437 0.0022339343173262286 0 0.034805721711301814 0.002266191169606452 0 0.03494389183326202 0.0023486626568605933 0 0.034719269966646496 0.0022828780510664617 0 0.03494389183326202 0.0023486626568605933 0 0.034719269966646496 0.0022828780510664617 0 0.034823040520127635 0.0023702156682520203 0 0.034805721711301814 0.002266191169606452 0 0.0347484458673437 0.0022339343173262286 0 0.034719269966646496 0.0022828780510664617 0 0.03494389183326202 0.0023486626568605933 0 0.035171612885813559 0.0023157261527497822 0 0.035143100029100323 0.0025425356920462613 0 0.03494389183326202 0.0023486626568605933 0 0.035171612885813559 0.0023157261527497822 0 0.034997105515968956 0.0022131851660475723 0 0.034815706817371346 0.0021864946588562779 0 0.034805721711301814 0.002266191169606452 0 0.03494389183326202 0.0023486626568605933 0 0.034815706817371346 0.0021864946588562779 0 0.03494389183326202 0.0023486626568605933 0 0.034997105515968956 0.0022131851660475723 0 0.035171612885813559 0.0023157261527497822 0 0.035143100029100323 0.0025425356920462613 0 0.035376888398764496 0.0024312484390393578 0 0.035171612885813559 0.0023157261527497822 0 0.035376888398764496 0.0024312484390393578 0 0.035399417294996779 0.0022428177087150526 0 0.035169348778674579 0.0021808252161175648 0 0.035266932273456376 0.0020483066924420882 0 0.035399417294996779 0.0022428177087150526 0 0.035169348778674579 0.0021808252161175648 0 0.035012930706242139 0.0020952451565504696 0 0.035266932273456376 0.0020483066924420882 0 0.035171612885813559 0.0023157261527497822 0 0.035169348778674579 0.0021808252161175648 0 0.035399417294996779 0.0022428177087150526 0 0.035171612885813559 0.0023157261527497822 0 0.035169348778674579 0.0021808252161175648 0 0.034997105515968956 0.0022131851660475723 0 0.034815706817371346 0.0021864946588562779 0 0.035012930706242139 0.0020952451565504696 0 0.034805523248661957 0.0020417664451432417 0 0.034815706817371346 0.0021864946588562779 0 0.034997105515968956 0.0022131851660475723 0 0.035012930706242139 0.0020952451565504696 0 0.035169348778674579 0.0021808252161175648 0 0.034997105515968956 0.0022131851660475723 0 0.035012930706242139 0.0020952451565504696 0 0.035012930706242139 0.0020952451565504696 0 0.035023565878576295 0.0019108468002051709 0 0.034805523248661957 0.0020417664451432417 0 0.035012930706242139 0.0020952451565504696 0 0.035023565878576295 0.0019108468002051709 0 0.035266932273456376 0.0020483066924420882 0 0.035023565878576295 0.0019108468002051709 0 0.035266932273456376 0.0020483066924420882 0 0.035246907092122817 0.0017951423539033543 0 0.035023565878576295 0.0019108468002051709 0 0.034784706003471354 0.0018894271368621628 0 0.03495813116144373 0.001624775339929759 0 0.035023565878576295 0.0019108468002051709 0 0.035246907092122817 0.0017951423539033543 0 0.03495813116144373 0.001624775339929759 0 0.034784706003471354 0.0018894271368621628 0 0.034547259320499006 0.0017422886088346232 0 0.034745503854897553 0.0016888036955115696 0 0.034784706003471354 0.0018894271368621628 0 0.034745503854897553 0.0016888036955115696 0 0.03495813116144373 0.001624775339929759 0 0.034784706003471354 0.0018894271368621628 0 0.034805523248661957 0.0020417664451432417 0 0.034599980431026446 0.0019476423457298884 0 0.034645370751383193 0.0020934778622940173 0 0.034805523248661957 0.0020417664451432417 0 0.034599980431026446 0.0019476423457298884 0 0.035023565878576295 0.0019108468002051709 0 0.034784706003471354 0.0018894271368621628 0 0.034805523248661957 0.0020417664451432417 0 0.034599980431026446 0.0019476423457298884 0 0.034547259320499006 0.0017422886088346232 0 0.034436456481719044 0.0019486910906043975 0 0.034784706003471354 0.0018894271368621628 0 0.034599980431026446 0.0019476423457298884 0 0.034547259320499006 0.0017422886088346232 0 0.030976777607136574 0.0022770786659030732 0 0.031002595624254076 0.0022670100447499397 0 0.030995179556277425 0.0022246270161700508 0 0.032741593679778837 0.0020305374990402117 0 0.032732332407119182 0.002065876754357307 0 0.031002595624254076 0.0022670100447499397 0 0.031027794046577295 0.0022224422459981041 0 0.031032034589988121 0.0022602437178779063 0 0.031002595624254076 0.0022670100447499397 0 0.031032034589988121 0.0022602437178779063 0 0.031010718744716472 0.0023049848557957203 0 0.031002595624254076 0.0022670100447499397 0 0.031027794046577295 0.0022224422459981041 0 0.030995179556277425 0.0022246270161700508 0 0.031027794046577295 0.0022224422459981041 0 0.030995179556277425 0.0022246270161700508 0 0.031032502727875725 0.0021658807370770004 0 0.034599980431026446 0.0019476423457298884 0 0.034436456481719044 0.0019486910906043975 0 0.034483436019915013 0.0020705909013656386 0 0.031123492988056823 0.0022096481535600213 0 0.031075360687018234 0.0022275933125703476 0 0.031069982114024678 0.0022450432098680391 0 0.031069982114024678 0.0022450432098680391 0 0.031054706183019837 0.0022489115150355577 0 0.03103937198869702 0.0022923085098535147 0 0.031075360687018234 0.0022275933125703476 0 0.031069982114024678 0.0022450432098680391 0 0.031054706183019837 0.0022489115150355577 0 0.031075360687018234 0.0022275933125703476 0 0.031054706183019837 0.0022489115150355577 0 0.031055494370359173 0.0022273092526956485 0 0.031054706183019837 0.0022489115150355577 0 0.031032034589988121 0.0022602437178779063 0 0.031055494370359173 0.0022273092526956485 0 0.031054706183019837 0.0022489115150355577 0 0.031032034589988121 0.0022602437178779063 0 0.03103937198869702 0.0022923085098535147 0 0.031027794046577295 0.0022224422459981041 0 0.031055494370359173 0.0022273092526956485 0 0.031058491333185848 0.0021965513438122241 0 0.031027794046577295 0.0022224422459981041 0 0.031032034589988121 0.0022602437178779063 0 0.031055494370359173 0.0022273092526956485 0 0.031055494370359173 0.0022273092526956485 0 0.03107952038214707 0.0022024736216020198 0 0.031058491333185848 0.0021965513438122241 0 0.031123492988056823 0.0022096481535600213 0 0.031075360687018234 0.0022275933125703476 0 0.031101642758291189 0.0021675454456370575 0 0.03097560132674354 0.0025236703752323083 0 0.032147780134179071 0.0015342925875812239 0 0.031075360687018234 0.0022275933125703476 0 0.03107952038214707 0.0022024736216020198 0 0.031108323675912566 0.0021924903714771677 0 0.031075360687018234 0.0022275933125703476 0 0.031055494370359173 0.0022273092526956485 0 0.03107952038214707 0.0022024736216020198 0 0.033090068347571798 0.0012785713795636265 0 0.033298429358615919 0.00072443046765882039 0 0.033557274415960237 0.0010639839181604924 0 0.03107952038214707 0.0022024736216020198 0 0.031108323675912566 0.0021924903714771677 0 0.03109455599249504 0.0021538390351386522 0 0.032147780134179071 0.0015342925875812239 0 0.032270226862489461 0.0015536417423270526 0 0.03107952038214707 0.0022024736216020198 0 0.031058491333185848 0.0021965513438122241 0 0.03109455599249504 0.0021538390351386522 0 0.031058491333185848 0.0021965513438122241 0 0.03109455599249504 0.0021538390351386522 0 0.031032502727875725 0.0021658807370770004 0 0.03264338292970588 0.002185105651572952 0 0.03300961941448715 0.0018570619784184074 0 0.03109455599249504 0.0021538390351386522 0 0.031032502727875725 0.0021658807370770004 0 0.031081312599705375 0.0021107037160436877 0 0.032270226862489461 0.0015536417423270526 0 0.03300961941448715 0.0018570619784184074 0 0.033557274415960237 0.0010639839181604924 0 0.033556680019492413 0.0013464314807990316 0 0.03384155805989629 0.001423412702442866 0 0.033090068347571798 0.0012785713795636265 0 0.033557274415960237 0.0010639839181604924 0 0.033556680019492413 0.0013464314807990316 0 0.034483436019915013 0.0020705909013656386 0 0.034365259117622844 0.0020817109231181718 0 0.034424349362459312 0.0021050517110553784 0 0.034436456481719044 0.0019486910906043975 0 0.034483436019915013 0.0020705909013656386 0 0.034365259117622844 0.0020817109231181718 0 0.031027794046577295 0.0022224422459981041 0 0.031058491333185848 0.0021965513438122241 0 0.031032502727875725 0.0021658807370770004 0 0.032732332407119182 0.002065876754357307 0 0.03264338292970588 0.002185105651572952 0 0.034365259117622844 0.0020817109231181718 0 0.034424349362459312 0.0021050517110553784 0 0.034365150994579693 0.002116792701509516 0 0.034365259117622844 0.0020817109231181718 0 0.034365150994579693 0.002116792701509516 0 0.034344886431117556 0.0021119968590594951 0 0.034483436019915013 0.0020705909013656386 0 0.034424349362459312 0.0021050517110553784 0 0.034501972479032694 0.002147976703271218 0 0.034581873220219064 0.002144011102050604 0 0.034483436019915013 0.0020705909013656386 0 0.034501972479032694 0.002147976703271218 0 0.034424349362459312 0.0021050517110553784 0 0.034501972479032694 0.002147976703271218 0 0.034365150994579693 0.002116792701509516 0 0.034501972479032694 0.002147976703271218 0 0.0344440978708698 0.0021507437166881486 0 0.03460385821561663 0.0022145572085473515 0 0.034501972479032694 0.002147976703271218 0 0.0344440978708698 0.0021507437166881486 0 0.034365150994579693 0.002116792701509516 0 0.0344440978708698 0.0021507437166881486 0 0.034365150994579693 0.002116792701509516 0 0.034270967219005924 0.0020643802691685657 0 0.034365150994579693 0.002116792701509516 0 0.034270967219005924 0.0020643802691685657 0 0.034344886431117556 0.0021119968590594951 0 0.034270967219005924 0.0020643802691685657 0 0.034518272072783435 0.0022879124475271703 0 0.034150956734645348 0.0023173661826285268 0 0.0344440978708698 0.0021507437166881486 0 0.034518272072783435 0.0022879124475271703 0 0.03460385821561663 0.0022145572085473515 0 0.0344440978708698 0.0021507437166881486 0 0.034270967219005924 0.0020643802691685657 0 0.034518272072783435 0.0022879124475271703 0 0.03341399507838165 0.0016292830002688275 0 0.033761487651261461 0.0015562918051648597 0 0.033771211958644326 0.0019987094149211486 0 0.033090068347571798 0.0012785713795636265 0 0.033556680019492413 0.0013464314807990316 0 0.03341399507838165 0.0016292830002688275 0 0.033556680019492413 0.0013464314807990316 0 0.03341399507838165 0.0016292830002688275 0 0.033761487651261461 0.0015562918051648597 0 0.034270967219005924 0.0020643802691685657 0 0.033761487651261461 0.0015562918051648597 0 0.033880895820025472 0.0013809294959857643 0 0.034553738896002904 0.0021115343381018893 0 0.03300961941448715 0.0018570619784184074 0 0.033556680019492413 0.0013464314807990316 0 0.033761487651261461 0.0015562918051648597 0 0.03384155805989629 0.001423412702442866 0 0.033490303379229147 0.0014420759203998138 0 0.03300961941448715 0.0018570619784184074 0 0.034270967219005924 0.0020643802691685657 0 0.033761487651261461 0.0015562918051648597 0 0.033771211958644326 0.0019987094149211486 0 0.034270967219005924 0.0020643802691685657 0 0.033771211958644326 0.0019987094149211486 0 0.034150956734645348 0.0023173661826285268 0 0.03341399507838165 0.0016292830002688275 0 0.033771211958644326 0.0019987094149211486 0 0.033355765524826095 0.0019870372118818902 0 0.033083684778804169 0.0022015487980601512 0 0.033355765524826095 0.0019870372118818902 0 0.033628890330111828 0.0023298917173971215 0 0.033771211958644326 0.0019987094149211486 0 0.033355765524826095 0.0019870372118818902 0 0.033628890330111828 0.0023298917173971215 0 0.033771211958644326 0.0019987094149211486 0 0.033628890330111828 0.0023298917173971215 0 0.034150956734645348 0.0023173661826285268 0 0.033628890330111828 0.0023298917173971215 0 0.033998223392891679 0.0025897756575952165 0 0.034150956734645348 0.0023173661826285268 0 0.033628890330111828 0.0023298917173971215 0 0.033998223392891679 0.0025897756575952165 0 0.033654094405999632 0.0026940834039603451 0 0.033236474801352146 0.0025815539418725703 0 0.033083684778804169 0.0022015487980601512 0 0.033628890330111828 0.0023298917173971215 0 0.033236474801352146 0.0025815539418725703 0 0.033628890330111828 0.0023298917173971215 0 0.033654094405999632 0.0026940834039603451 0 0.034518272072783435 0.0022879124475271703 0 0.034150956734645348 0.0023173661826285268 0 0.034329143664785497 0.0025526172666952688 0 0.034518272072783435 0.0022879124475271703 0 0.034329143664785497 0.0025526172666952688 0 0.03457371935850935 0.002530820304140534 0 0.033998223392891679 0.0025897756575952165 0 0.034150956734645348 0.0023173661826285268 0 0.034329143664785497 0.0025526172666952688 0 0.033998223392891679 0.0025897756575952165 0 0.034329143664785497 0.0025526172666952688 0 0.034198997880050409 0.002778862934745959 0 0.034329143664785497 0.0025526172666952688 0 0.03457371935850935 0.002530820304140534 0 0.034458464401277866 0.0027998318130103305 0 0.03457371935850935 0.002530820304140534 0 0.034753115407533217 0.0024493355901944818 0 0.0347555416806185 0.0027622097064932231 0 0.036327426713363455 0.0021256292409385521 0 0.03615885698379364 0.0023030323433489517 0 0.037883247786990856 0.0018314419320275201 0 0.037698813282273064 0.0016965666815637254 0 0.03781011737366366 0.0016501764570226321 0 0.036327426713363455 0.0021256292409385521 0 0.036319243109419766 0.002310945223009717 0 0.037883247786990856 0.0018314419320275201 0 0.037884541044498059 0.0022296033626560342 0 0.03764632285431551 0.001983913352826959 0 0.034518272072783435 0.0022879124475271703 0 0.034753115407533217 0.0024493355901944818 0 0.034730880928871354 0.0022679459321786467 0 0.034518272072783435 0.0022879124475271703 0 0.03457371935850935 0.002530820304140534 0 0.034753115407533217 0.0024493355901944818 0 0.034518272072783435 0.0022879124475271703 0 0.034730880928871354 0.0022679459321786467 0 0.03460385821561663 0.0022145572085473515 0 0.034730880928871354 0.0022679459321786467 0 0.034688015993699015 0.0022432551791622241 0 0.034707872561796742 0.0022567703310637953 0 0.034730880928871354 0.0022679459321786467 0 0.034688015993699015 0.0022432551791622241 0 0.03460385821561663 0.0022145572085473515 0 0.036319243109419766 0.002310945223009717 0 0.035975489388136196 0.0021722552896709991 0 0.034688015993699015 0.0022432551791622241 0 0.034719269966646496 0.0022828780510664617 0 0.034707872561796742 0.0022567703310637953 0 0.035064392417498244 0.0021402405726955224 0 0.035975489388136196 0.0021722552896709991 0 0.034688015993699015 0.0022432551791622241 0 0.034719269966646496 0.0022828780510664617 0 0.034630697577518257 0.00221078501103877 0 0.034688015993699015 0.0022432551791622241 0 0.034630697577518257 0.00221078501103877 0 0.03460385821561663 0.0022145572085473515 0 0.034501972479032694 0.002147976703271218 0 0.034630697577518257 0.00221078501103877 0 0.03460385821561663 0.0022145572085473515 0 0.037443078743779973 0.0026507828690190355 0 0.037578993453844196 0.0023313989254868757 0 0.037171712610715425 0.0023949566065387803 0 0.035975489388136196 0.0021722552896709991 0 0.036359464166283453 0.0026181259633400898 0 0.037884541044498059 0.0022296033626560342 0 0.037801230886862873 0.0026632241207782924 0 0.037578993453844196 0.0023313989254868757 0 0.037801230886862873 0.0026632241207782924 0 0.037443078743779973 0.0026507828690190355 0 0.037578993453844196 0.0023313989254868757 0 0.03494389183326202 0.0023486626568605933 0 0.034823040520127635 0.0023702156682520203 0 0.035143100029100323 0.0025425356920462613 0 0.037884541044498059 0.0022296033626560342 0 0.037578993453844196 0.0023313989254868757 0 0.03764632285431551 0.001983913352826959 0 0.037578993453844196 0.0023313989254868757 0 0.037405208949986155 0.0020959083634076001 0 0.03764632285431551 0.001983913352826959 0 0.037578993453844196 0.0023313989254868757 0 0.037405208949986155 0.0020959083634076001 0 0.037171712610715425 0.0023949566065387803 0 0.037389947855506755 0.0018135772765608381 0 0.037405208949986155 0.0020959083634076001 0 0.03764632285431551 0.001983913352826959 0 0.037389947855506755 0.0018135772765608381 0 0.037405208949986155 0.0020959083634076001 0 0.036949621422845823 0.0020921867205383696 0 0.037389947855506755 0.0018135772765608381 0 0.03764632285431551 0.001983913352826959 0 0.037698813282273064 0.0016965666815637254 0 0.037883247786990856 0.0018314419320275201 0 0.03764632285431551 0.001983913352826959 0 0.037698813282273064 0.0016965666815637254 0 0.037389947855506755 0.0018135772765608381 0 0.037698813282273064 0.0016965666815637254 0 0.037541421439380378 0.0015401623235385021 0 0.037389947855506755 0.0018135772765608381 0 0.037541421439380378 0.0015401623235385021 0 0.036983633004254932 0.0016179106411170522 0 0.037541421439380378 0.0015401623235385021 0 0.037642014807801258 0.0015860029826045207 0 0.037694091781259584 0.0016083901835875606 0 0.037541421439380378 0.0015401623235385021 0 0.037642014807801258 0.0015860029826045207 0 0.037753794734336037 0.0015475714352157629 0 0.037642014807801258 0.0015860029826045207 0 0.037715374176557091 0.0016468144745505038 0 0.037753794734336037 0.0015475714352157629 0 0.037642014807801258 0.0015860029826045207 0 0.037715374176557091 0.0016468144745505038 0 0.037694308929843573 0.0016218644971903293 0 0.037642014807801258 0.0015860029826045207 0 0.037694308929843573 0.0016218644971903293 0 0.037694091781259584 0.0016083901835875606 0 0.037715374176557091 0.0016468144745505038 0 0.037694308929843573 0.0016218644971903293 0 0.03771637435853957 0.0016762638650559916 0 0.037694308929843573 0.0016218644971903293 0 0.037711945382835066 0.0016179027085591257 0 0.037711635010056935 0.0016273143715356201 0 0.037694308929843573 0.0016218644971903293 0 0.037694091781259584 0.0016083901835875606 0 0.037711945382835066 0.0016179027085591257 0 0.037698813282273064 0.0016965666815637254 0 0.037541421439380378 0.0015401623235385021 0 0.037694091781259584 0.0016083901835875606 0 0.037694091781259584 0.0016083901835875606 0 0.03781011737366366 0.0016501764570226321 0 0.037746792876493872 0.0016185246341063227 0 0.037698813282273064 0.0016965666815637254 0 0.037694091781259584 0.0016083901835875606 0 0.03781011737366366 0.0016501764570226321 0 0.03457371935850935 0.002530820304140534 0 0.0347555416806185 0.0027622097064932231 0 0.034458464401277866 0.0027998318130103305 0 0.0347555416806185 0.0027622097064932231 0 0.034627577811075672 0.0029702034317652323 0 0.034458464401277866 0.0027998318130103305 0 0.03615885698379364 0.0023030323433489517 0 0.037545299403720318 0.0021364024140518834 0 0.03781011737366366 0.0016501764570226321 0 0.037768852538135819 0.0016129529873546275 0 0.037746792876493872 0.0016185246341063227 0 0.03471389018585179 0.0031186826377730429 0 0.034678081793597638 0.0033158107315381198 0 0.034503585713745177 0.003061839380588825 0 0.0347555416806185 0.0027622097064932231 0 0.034627577811075672 0.0029702034317652323 0 0.03471389018585179 0.0031186826377730429 0 0.034627577811075672 0.0029702034317652323 0 0.03471389018585179 0.0031186826377730429 0 0.034503585713745177 0.003061839380588825 0 0.037694091781259584 0.0016083901835875606 0 0.037746792876493872 0.0016185246341063227 0 0.037711945382835066 0.0016179027085591257 0 0.037746792876493872 0.0016185246341063227 0 0.037742220908557778 0.0016169533048360804 0 0.037727507978807702 0.0016188244802917305 0 0.037768852538135819 0.0016129529873546275 0 0.037746792876493872 0.0016185246341063227 0 0.037742220908557778 0.0016169533048360804 0 0.037742220908557778 0.0016169533048360804 0 0.037727507978807702 0.0016188244802917305 0 0.037711635010056935 0.0016273143715356201 0 0.037746792876493872 0.0016185246341063227 0 0.037711945382835066 0.0016179027085591257 0 0.037727507978807702 0.0016188244802917305 0 0.037711945382835066 0.0016179027085591257 0 0.037727507978807702 0.0016188244802917305 0 0.037711635010056935 0.0016273143715356201 0 0.037711635010056935 0.0016273143715356201 0 0.037701670609730766 0.0016436866391232611 0 0.03771637435853957 0.0016762638650559916 0 0.037742220908557778 0.0016169533048360804 0 0.037711635010056935 0.0016273143715356201 0 0.037737314082809545 0.0016058075032940092 0 0.039099506172575481 0.0021208541164552406 0 0.040674680539189698 0.0012388418441247571 0 0.037545299403720318 0.0021364024140518834 0 0.040674680539189698 0.0012388418441247571 0 0.037768852538135819 0.0016129529873546275 0 0.037742220908557778 0.0016169533048360804 0 0.037737314082809545 0.0016058075032940092 0 0.040674680539189698 0.0012388418441247571 0 0.04276667377251054 0.00038591439566287037 0 0.039660454983055683 0.0013791138719573012 0 0.040431027841104882 0.0013340007779203463 0 0.040196709534920404 0.00076926589836232495 0 0.040292863159449882 0.0018514538742787495 0 0.039660454983055683 0.0013791138719573012 0 0.040431027841104882 0.0013340007779203463 0 0.037545299403720318 0.0021364024140518834 0 0.037250543734902261 0.0018089840828667846 0 0.037250543734902261 0.0018089840828667846 0 0.042255420128408855 0.00036268795281681714 0 0.040431027841104882 0.0013340007779203463 0 0.040196709534920404 0.00076926589836232495 0 0.040754068072508746 0.00015473410010665592 0 0.044861633119053897 0.00041182781551583799 0 0.044821979069330449 0.00029450650252403035 0 0.044887063255607915 0.00029478877506496608 0 0.04276667377251054 0.00038591439566287037 0 0.042255420128408855 0.00036268795281681714 0 0.04473316374582386 0.00054492289781469996 0 0.044861633119053897 0.00041182781551583799 0 0.044723824757251077 0.00038633500314781005 0 0.044861633119053897 0.00041182781551583799 0 0.044723824757251077 0.00038633500314781005 0 0.044821979069330449 0.00029450650252403035 0 0.04473316374582386 0.00054492289781469996 0 0.044723824757251077 0.00038633500314781005 0 0.044581897701640436 0.00043118847859016125 0 0.044723824757251077 0.00038633500314781005 0 0.044581897701640436 0.00043118847859016125 0 0.044629154325931578 0.00033534841407819617 0 0.044581897701640436 0.00043118847859016125 0 0.044506929186035236 0.00030389184606651154 0 0.044629154325931578 0.00033534841407819617 0 0.03773308126962701 0.0017478601097708833 0 0.037781663099059143 0.0017434136812585596 0 0.037825752359197454 0.0018497482585967944 0 0.041106444593717983 0.0010300674661937606 0 0.041843412262044938 0.0013026623868539545 0 0.03773308126962701 0.0017478601097708833 0 0.037781663099059143 0.0017434136812585596 0 0.03771637435853957 0.0016762638650559916 0 0.037715374176557091 0.0016468144745505038 0 0.037781663099059143 0.0017434136812585596 0 0.03771637435853957 0.0016762638650559916 0 0.040674680539189698 0.0012388418441247571 0 0.041106444593717983 0.0010300674661937606 0 0.037701670609730766 0.0016436866391232611 0 0.03773308126962701 0.0017478601097708833 0 0.03771637435853957 0.0016762638650559916 0 0.037694308929843573 0.0016218644971903293 0 0.037711635010056935 0.0016273143715356201 0 0.03771637435853957 0.0016762638650559916 0 0.033519219720818234 0.0019478241755652402 0 0.033896821188601399 0.0017691698639921473 0 0.033637409352411822 0.0013332694069543936 0 0.033292468213484042 0.0021882436331537337 0 0.03544376136771072 0.0019317420933625941 0 0.033896821188601399 0.0017691698639921473 0 0.033637409352411822 0.0013332694069543936 0 0.03441648186523448 0.0015675044101124405 0 0.033654094405999632 0.0026940834039603451 0 0.033410754612986336 0.0030230194873344446 0 0.03395645568929135 0.0029529291853623548 0 0.033236474801352146 0.0025815539418725703 0 0.033654094405999632 0.0026940834039603451 0 0.033410754612986336 0.0030230194873344446 0 0.033998223392891679 0.0025897756575952165 0 0.033654094405999632 0.0026940834039603451 0 0.03395645568929135 0.0029529291853623548 0 0.033410754612986336 0.0030230194873344446 0 0.03395645568929135 0.0029529291853623548 0 0.033972167303214409 0.0031982373444548141 0 0.033896821188601399 0.0017691698639921473 0 0.03441648186523448 0.0015675044101124405 0 0.034261822805512369 0.0018202817675425701 0 0.034527351735621568 0.003112254506098111 0 0.03544376136771072 0.0019317420933625941 0 0.03544376136771072 0.0019317420933625941 0 0.036547843226527058 0.0022307240902594066 0 0.033983421910818025 0.0030982427228955322 0 0.034218444857710015 0.0029938533408152023 0 0.034333613454470883 0.0032038727846555627 0 0.03395645568929135 0.0029529291853623548 0 0.033983421910818025 0.0030982427228955322 0 0.034218444857710015 0.0029938533408152023 0 0.034218444857710015 0.0029938533408152023 0 0.034198997880050409 0.002778862934745959 0 0.034458464401277866 0.0027998318130103305 0 0.03395645568929135 0.0029529291853623548 0 0.034218444857710015 0.0029938533408152023 0 0.034198997880050409 0.002778862934745959 0 0.033998223392891679 0.0025897756575952165 0 0.03395645568929135 0.0029529291853623548 0 0.034198997880050409 0.002778862934745959 0 0.034329143664785497 0.0025526172666952688 0 0.034198997880050409 0.002778862934745959 0 0.034458464401277866 0.0027998318130103305 0 0.034627577811075672 0.0029702034317652323 0 0.034458464401277866 0.0027998318130103305 0 0.034503585713745177 0.003061839380588825 0 0.034218444857710015 0.0029938533408152023 0 0.034458464401277866 0.0027998318130103305 0 0.034503585713745177 0.003061839380588825 0 0.034218444857710015 0.0029938533408152023 0 0.034503585713745177 0.003061839380588825 0 0.034333613454470883 0.0032038727846555627 0 0.038438246014999768 0.0010528492778317286 0 0.038627051484882012 0.0011282657306800534 0 0.038653758661456386 0.00092064289963746668 0 0.037250543734902261 0.0018089840828667846 0 0.036547843226527058 0.0022307240902594066 0 0.034678081793597638 0.0033158107315381198 0 0.034503585713745177 0.003061839380588825 0 0.034333613454470883 0.0032038727846555627 0 0.038438246014999768 0.0010528492778317286 0 0.038653758661456386 0.00092064289963746668 0 0.038529041304655877 0.00076640106220812016 0 0.038653758661456386 0.00092064289963746668 0 0.038817374757033021 0.00099416979857305039 0 0.038854207933238766 0.00076320544666332491 0 0.038789060968806681 0.0012033087073128697 0 0.038627051484882012 0.0011282657306800534 0 0.038817374757033021 0.00099416979857305039 0 0.038627051484882012 0.0011282657306800534 0 0.038653758661456386 0.00092064289963746668 0 0.038817374757033021 0.00099416979857305039 0 0.03441648186523448 0.0015675044101124405 0 0.034261822805512369 0.0018202817675425701 0 0.034438310594530175 0.0021388444101402603 0 0.03544376136771072 0.0019317420933625941 0 0.036735254256737945 0.0014536994707129308 0 0.034261822805512369 0.0018202817675425701 0 0.034378494481527126 0.0021079711610882982 0 0.033919047742083805 0.0021195039751563259 0 0.034261822805512369 0.0018202817675425701 0 0.034378494481527126 0.0021079711610882982 0 0.034438310594530175 0.0021388444101402603 0 0.034378494481527126 0.0021079711610882982 0 0.034438310594530175 0.0021388444101402603 0 0.034593981832993705 0.0018934344834067977 0 0.034438310594530175 0.0021388444101402603 0 0.034593981832993705 0.0018934344834067977 0 0.034455493249639854 0.0016388676702997278 0 0.036735254256737945 0.0014536994707129308 0 0.036466706927375456 0.0011534427836499227 0 0.034378494481527126 0.0021079711610882982 0 0.034593981832993705 0.0018934344834067977 0 0.034942793216180365 0.0019405998719425166 0 0.034378494481527126 0.0021079711610882982 0 0.033806362986502005 0.0024746620743584659 0 0.033919047742083805 0.0021195039751563259 0 0.03468031784055764 0.0019083579977197623 0 0.033591378115358762 0.0026615386697919764 0 0.033519219720818234 0.0019478241755652402 0 0.033806362986502005 0.0024746620743584659 0 0.033919047742083805 0.0021195039751563259 0 0.033896821188601399 0.0017691698639921473 0 0.034261822805512369 0.0018202817675425701 0 0.033919047742083805 0.0021195039751563259 0 0.033519219720818234 0.0019478241755652402 0 0.033896821188601399 0.0017691698639921473 0 0.033919047742083805 0.0021195039751563259 0 0.044918381235725356 5.8530671588347268e-05 0 0.04486845909765276 7.8385514401326482e-05 0 0.044899896729421011 3.8390194813770825e-05 0 0.034593981832993705 0.0018934344834067977 0 0.034942793216180365 0.0019405998719425166 0 0.034913681390338618 0.0013506901779786462 0 0.035420115732660865 0.0016119269761966112 0 0.034942793216180365 0.0019405998719425166 0 0.034913681390338618 0.0013506901779786462 0 0.03928553187193462 0.0011832991269902517 0 0.04011338756978855 0.00071207501622295088 0 0.034593981832993705 0.0018934344834067977 0 0.034913681390338618 0.0013506901779786462 0 0.034455493249639854 0.0016388676702997278 0 0.04486845909765276 7.8385514401326482e-05 0 0.044817407676384112 6.0600284981854862e-05 0 0.044899896729421011 3.8390194813770825e-05 0 0.034913681390338618 0.0013506901779786462 0 0.034455493249639854 0.0016388676702997278 0 0.034496205042328691 0.0011104300002686503 0 0.04011338756978855 0.00071207501622295088 0 0.038948510655348614 0.0010914280563610623 0 0.036466706927375456 0.0011534427836499227 0 0.038948510655348614 0.0010914280563610623 0 0.038948510655348614 0.0010914280563610623 0 0.038864047711980973 0.00098290387729813174 0 0.038854207933238766 0.00076320544666332491 0 0.038897220189998374 0.00049863204492756952 0 0.038703114836088695 0.00057296008661527644 0 0.038897220189998374 0.00049863204492756952 0 0.03886847549338824 0.00047659216105892289 0 0.038703114836088695 0.00057296008661527644 0 0.038854207933238766 0.00076320544666332491 0 0.038703114836088695 0.00057296008661527644 0 0.038691687533200028 0.00075312257076885119 0 0.038653758661456386 0.00092064289963746668 0 0.038854207933238766 0.00076320544666332491 0 0.038691687533200028 0.00075312257076885119 0 0.038703114836088695 0.00057296008661527644 0 0.038691687533200028 0.00075312257076885119 0 0.038529041304655877 0.00076640106220812016 0 0.041597477069618777 0.00052001805898720501 0 0.042255420128408855 0.00036268795281681714 0 0.038653758661456386 0.00092064289963746668 0 0.038691687533200028 0.00075312257076885119 0 0.038529041304655877 0.00076640106220812016 0 0.042255420128408855 0.00036268795281681714 0 0.044692428751300313 -9.5394394888593005e-05 0 0.04499559194472999 0.00013281799540217263 0 0.044925113952146024 0.00023068333079490056 0 0.044958331567936938 0.00015978677761152284 0 0.04499559194472999 0.00013281799540217263 0 0.044958331567936938 0.00015978677761152284 0 0.044971351435366264 8.9216537491257984e-05 0 0.04499559194472999 0.00013281799540217263 0 0.044971351435366264 8.9216537491257984e-05 0 0.044995861488531061 7.152807245564192e-05 0 0.044958331567936938 0.00015978677761152284 0 0.044971351435366264 8.9216537491257984e-05 0 0.044933993887916961 0.00013026365604415149 0 0.044971351435366264 8.9216537491257984e-05 0 0.04497496252483927 4.0484474426405802e-05 0 0.044936200137800947 7.5057637926290077e-05 0 0.044971351435366264 8.9216537491257984e-05 0 0.04498954342585345 5.1788374215920722e-05 0 0.044995861488531061 7.152807245564192e-05 0 0.04498954342585345 5.1788374215920722e-05 0 0.04497496252483927 4.0484474426405802e-05 0 0.044996153748463122 2.2354924803394786e-05 0 0.044971351435366264 8.9216537491257984e-05 0 0.04498954342585345 5.1788374215920722e-05 0 0.04497496252483927 4.0484474426405802e-05 0 0.044996153748463122 2.2354924803394786e-05 0 0.04499999728610421 2.4956682830833797e-08 0 0.045000001820793126 2.5355457442453991e-08 0 0.04497496252483927 4.0484474426405802e-05 0 0.044996153748463122 2.2354924803394786e-05 0 0.045000001820793126 2.5355457442453991e-08 0 0.044996153748463122 2.2354924803394786e-05 0 0.04499999728610421 2.4956682830833797e-08 0 0.04500581452587591 2.4775980747072854e-05 0 0.044996153748463122 2.2354924803394786e-05 0 0.045001243655399405 4.1217916342943577e-05 0 0.04500581452587591 2.4775980747072854e-05 0 0.041597477069618777 0.00052001805898720501 0 0.043042418655974676 -0.00016431497738183959 0 0.045001243655399405 4.1217916342943577e-05 0 0.044995861488531061 7.152807245564192e-05 0 0.045014684085316656 4.5172855691218261e-05 0 0.03886847549338824 0.00047659216105892289 0 0.038703114836088695 0.00057296008661527644 0 0.038914253409055202 0.00034893568622601317 0 0.04499559194472999 0.00013281799540217263 0 0.044995861488531061 7.152807245564192e-05 0 0.045014684085316656 4.5172855691218261e-05 0 0.045001243655399405 4.1217916342943577e-05 0 0.045014684085316656 4.5172855691218261e-05 0 0.04500581452587591 2.4775980747072854e-05 0 0.04498954342585345 5.1788374215920722e-05 0 0.044996153748463122 2.2354924803394786e-05 0 0.045001243655399405 4.1217916342943577e-05 0 0.04498954342585345 5.1788374215920722e-05 0 0.045001243655399405 4.1217916342943577e-05 0 0.044995861488531061 7.152807245564192e-05 0 0.044833552714413298 2.4808828450046906e-05 0 0.044999751192838139 -5.682222506866456e-08 0 0.044899896729421011 3.8390194813770825e-05 0 0.044817407676384112 6.0600284981854862e-05 0 0.044833552714413298 2.4808828450046906e-05 0 0.044899896729421011 3.8390194813770825e-05 0 0.038948510655348614 0.0010914280563610623 0 0.043042418655974676 -0.00016431497738183959 0 0.038908487974482334 0.00049938316053014056 0 0.03886847549338824 0.00047659216105892289 0 0.038914253409055202 0.00034893568622601317 0 0.043042418655974676 -0.00016431497738183959 0 0.043644927870398469 2.0945018675866795e-05 0 0.04499999728610421 2.4956682830833797e-08 0 0.04500581452587591 2.4775980747072854e-05 0 0.045000019953345065 2.7964979815856644e-09 0 0.043042418655974676 -0.00016431497738183959 0 0.045001982148345887 -7.9468862493566088e-07 0 0.045004341535700029 2.9179076982747223e-05 0 0.04500581452587591 2.4775980747072854e-05 0 0.045000019953345065 2.7964979815856644e-09 0 0.044960694216910298 1.6759587741731152e-05 0 0.044999751192838139 -5.682222506866456e-08 0 0.044899896729421011 3.8390194813770825e-05 0 0.044964155559100071 0.00047796081996924808 0 0.045004043810493513 0.00035305415141448034 0 0.044612844945705048 0.00019026738850227778 0 0.044660356048444642 0.00017388962128691866 0 0.044791997303523935 5.4449969639600478e-05 0 0.044660356048444642 0.00017388962128691866 0 0.044759272384469161 0.00013769500233718184 0 0.044791997303523935 5.4449969639600478e-05 0 0.044964155559100071 0.00047796081996924808 0 0.044855160730185153 0.0004338805560773106 0 0.04459383081968718 0.00019473450116430912 0 0.044660356048444642 0.00017388962128691866 0 0.044657908456541176 0.00023875063420710852 0 0.044660356048444642 0.00017388962128691866 0 0.044708581635908996 0.00018593047724460639 0 0.044657908456541176 0.00023875063420710852 0 0.044708581635908996 0.00018593047724460639 0 0.044759272384469161 0.00013769500233718184 0 0.044754259970501239 0.00019872233667656602 0 0.044660356048444642 0.00017388962128691866 0 0.044708581635908996 0.00018593047724460639 0 0.044759272384469161 0.00013769500233718184 0 0.04520252226840353 0.0014592348538297231 0 0.044684591497553321 0.0010301032001796017 0 0.045297466640032584 0.00042934975074818962 0 0.04520252226840353 0.0014592348538297231 0 0.044684591497553321 0.0010301032001796017 0 0.044525200792366694 0.0020981995869635453 0 0.044964155559100071 0.00047796081996924808 0 0.044642308573422808 0.00030931617111967048 0 0.044581897701640436 0.00043118847859016125 0 0.044506929186035236 0.00030389184606651154 0 0.04436627540332741 0.00030862188598198805 0 0.044558097151551027 0.00018314010521560989 0 0.044506929186035236 0.00030389184606651154 0 0.04436627540332741 0.00030862188598198805 0 0.044964155559100071 0.00047796081996924808 0 0.041843412262044938 0.0013026623868539545 0 0.044506929186035236 0.00030389184606651154 0 0.044629154325931578 0.00033534841407819617 0 0.044657908456541176 0.00023875063420710852 0 0.04459383081968718 0.00019473450116430912 0 0.044506929186035236 0.00030389184606651154 0 0.044657908456541176 0.00023875063420710852 0 0.044708581635908996 0.00018593047724460639 0 0.044657908456541176 0.00023875063420710852 0 0.044754259970501239 0.00019872233667656602 0 0.044657908456541176 0.00023875063420710852 0 0.044717373563724003 0.0003002415054730448 0 0.044754259970501239 0.00019872233667656602 0 0.044629154325931578 0.00033534841407819617 0 0.044657908456541176 0.00023875063420710852 0 0.044717373563724003 0.0003002415054730448 0 0.044723824757251077 0.00038633500314781005 0 0.044629154325931578 0.00033534841407819617 0 0.044717373563724003 0.0003002415054730448 0 0.044717373563724003 0.0003002415054730448 0 0.044821979069330449 0.00029450650252403035 0 0.044784177560706684 0.00024892525799672727 0 0.044723824757251077 0.00038633500314781005 0 0.044717373563724003 0.0003002415054730448 0 0.044821979069330449 0.00029450650252403035 0 0.044821979069330449 0.00029450650252403035 0 0.044835095574017401 0.00020480274381910529 0 0.044784177560706684 0.00024892525799672727 0 0.044835095574017401 0.00020480274381910529 0 0.044784177560706684 0.00024892525799672727 0 0.044754259970501239 0.00019872233667656602 0 0.044717373563724003 0.0003002415054730448 0 0.044784177560706684 0.00024892525799672727 0 0.044754259970501239 0.00019872233667656602 0 0.044861633119053897 0.00041182781551583799 0 0.044957606465461278 0.00027430302877102923 0 0.044887063255607915 0.00029478877506496608 0 0.044821979069330449 0.00029450650252403035 0 0.044887063255607915 0.00029478877506496608 0 0.044906477211536962 0.00020315589730516474 0 0.044821979069330449 0.00029450650252403035 0 0.044835095574017401 0.00020480274381910529 0 0.044906477211536962 0.00020315589730516474 0 0.044957606465461278 0.00027430302877102923 0 0.044958331567936938 0.00015978677761152284 0 0.044906477211536962 0.00020315589730516474 0 0.044957606465461278 0.00027430302877102923 0 0.044887063255607915 0.00029478877506496608 0 0.044906477211536962 0.00020315589730516474 0 0.044958331567936938 0.00015978677761152284 0 0.044906477211536962 0.00020315589730516474 0 0.044933993887916961 0.00013026365604415149 0 0.044906477211536962 0.00020315589730516474 0 0.044884476858240041 0.00013890374089137251 0 0.044933993887916961 0.00013026365604415149 0 0.044835095574017401 0.00020480274381910529 0 0.044906477211536962 0.00020315589730516474 0 0.044884476858240041 0.00013890374089137251 0 0.044884476858240041 0.00013890374089137251 0 0.044933993887916961 0.00013026365604415149 0 0.044936200137800947 7.5057637926290077e-05 0 0.044835095574017401 0.00020480274381910529 0 0.044754259970501239 0.00019872233667656602 0 0.044819947990422229 0.00015364473613298796 0 0.044759272384469161 0.00013769500233718184 0 0.044754259970501239 0.00019872233667656602 0 0.044819947990422229 0.00015364473613298796 0 0.044835095574017401 0.00020480274381910529 0 0.044884476858240041 0.00013890374089137251 0 0.044819947990422229 0.00015364473613298796 0 0.044884476858240041 0.00013890374089137251 0 0.044819947990422229 0.00015364473613298796 0 0.044856831825383255 9.5356981516525892e-05 0 0.044759272384469161 0.00013769500233718184 0 0.044819947990422229 0.00015364473613298796 0 0.044856831825383255 9.5356981516525892e-05 0 0.044856831825383255 9.5356981516525892e-05 0 0.044942350348667691 2.9847184002051874e-05 0 0.044791997303523935 5.4449969639600478e-05 0 0.044856831825383255 9.5356981516525892e-05 0 0.044936200137800947 7.5057637926290077e-05 0 0.044942350348667691 2.9847184002051874e-05 0 0.04497496252483927 4.0484474426405802e-05 0 0.044936200137800947 7.5057637926290077e-05 0 0.044942350348667691 2.9847184002051874e-05 0 0.044971351435366264 8.9216537491257984e-05 0 0.044933993887916961 0.00013026365604415149 0 0.044936200137800947 7.5057637926290077e-05 0 0.044884476858240041 0.00013890374089137251 0 0.044856831825383255 9.5356981516525892e-05 0 0.044936200137800947 7.5057637926290077e-05 0 0.045000001820793126 2.5355457442453991e-08 0 0.044999683617251658 -3.1925699263961252e-08 0 0.044942350348667691 2.9847184002051874e-05 0 0.04497496252483927 4.0484474426405802e-05 0 0.045000001820793126 2.5355457442453991e-08 0 0.044942350348667691 2.9847184002051874e-05 0 0.044999683617251658 -3.1925699263961252e-08 0 0.044942350348667691 2.9847184002051874e-05 0 0.044791997303523935 5.4449969639600478e-05 0 0.045000329851639292 -1.0530490624370941e-07 0 0.045297466640032584 0.00042934975074818962 0 0.045000612257005281 6.6772194374746471e-07 0 0.045000039508263867 3.9121828470908889e-08 0 0.045004043810493513 0.00035305415141448034 0 0.044759272384469161 0.00013769500233718184 0 0.044856831825383255 9.5356981516525892e-05 0 0.044791997303523935 5.4449969639600478e-05 0 0.044684591497553321 0.0010301032001796017 0 0.045297466640032584 0.00042934975074818962 0 0.044773909705127575 0.0002896414079155499 0 0.045297466640032584 0.00042934975074818962 0 0.044773909705127575 0.0002896414079155499 0 0.045000612257005281 6.6772194374746471e-07 0 0.044773909705127575 0.0002896414079155499 0 0.045000612257005281 6.6772194374746471e-07 0 0.044996351763968517 -2.0191120495945645e-06 0 0.044773909705127575 0.0002896414079155499 0 0.044996351763968517 -2.0191120495945645e-06 0 0.044173880577639831 0.00051399308740478396 0 0.045000018125085015 -3.9634702032422893e-07 0 0.044669994165951417 0.00031872004542460688 0 0.04495133319768737 -5.1726634003630593e-05 0 0.044996351763968517 -2.0191120495945645e-06 0 0.043131416896648712 0.00041250578516737569 0 0.042243263783414697 -0.00022220143791974682 0 0.044999305816214703 3.2311661019142593e-08 0 0.043390590007735624 0.00013794217319228763 0 0.044996351763968517 -2.0191120495945645e-06 0 0.043131416896648712 0.00041250578516737569 0 0.044173880577639831 0.00051399308740478396 0 0.043131416896648712 0.00041250578516737569 0 0.044173880577639831 0.00051399308740478396 0 0.043701101448609544 0.0017280718323792797 0 0.044684591497553321 0.0010301032001796017 0 0.044773909705127575 0.0002896414079155499 0 0.044173880577639831 0.00051399308740478396 0 0.044684591497553321 0.0010301032001796017 0 0.044173880577639831 0.00051399308740478396 0 0.043701101448609544 0.0017280718323792797 0 0.044684591497553321 0.0010301032001796017 0 0.043701101448609544 0.0017280718323792797 0 0.044525200792366694 0.0020981995869635453 0 0.041396905202643421 0.0011995959454634566 0 0.041133309917347594 0.0012934594893308346 0 0.04182659458922771 0.0010038961215848674 0 0.0427392577958806 0.0015713644339120088 0 0.041758666184761553 0.00094184978098782316 0 0.043131416896648712 0.00041250578516737569 0 0.043701101448609544 0.0017280718323792797 0 0.04182659458922771 0.0010038961215848674 0 0.041396905202643421 0.0011995959454634566 0 0.041133309917347594 0.0012934594893308346 0 0.041234066371585339 0.0017785205842454203 0 0.041396905202643421 0.0011995959454634566 0 0.04174929709871622 0.0014774500303538678 0 0.041234066371585339 0.0017785205842454203 0 0.0427392577958806 0.0015713644339120088 0 0.041843412262044938 0.0013026623868539545 0 0.039761261076635128 0.0014062379351776229 0 0.040461665464847835 0.0015382364980298573 0 0.039575147307403212 0.00174844883698419 0 0.039761261076635128 0.0014062379351776229 0 0.040461665464847835 0.0015382364980298573 0 0.040755433992850316 0.0012208975336136414 0 0.040461665464847835 0.0015382364980298573 0 0.041133309917347594 0.0012934594893308346 0 0.040755433992850316 0.0012208975336136414 0 0.040461665464847835 0.0015382364980298573 0 0.041133309917347594 0.0012934594893308346 0 0.041234066371585339 0.0017785205842454203 0 0.04182659458922771 0.0010038961215848674 0 0.040755433992850316 0.0012208975336136414 0 0.040319035769220087 0.00048892455311369369 0 0.041133309917347594 0.0012934594893308346 0 0.04182659458922771 0.0010038961215848674 0 0.040755433992850316 0.0012208975336136414 0 0.039761261076635128 0.0014062379351776229 0 0.040755433992850316 0.0012208975336136414 0 0.040319035769220087 0.00048892455311369369 0 0.042508628144821335 0.0012485502239701792 0 0.044669994165951417 0.00031872004542460688 0 0.043441048600945081 0.00012549759896081009 0 0.042508628144821335 0.0012485502239701792 0 0.042247410684713445 0.00027865073116765395 0 0.040943261873909183 0.00073618570288365751 0 0.042508628144821335 0.0012485502239701792 0 0.042247410684713445 0.00027865073116765395 0 0.043441048600945081 0.00012549759896081009 0 0.041454708639459888 0.0008452820637941215 0 0.043390590007735624 0.00013794217319228763 0 0.043131416896648712 0.00041250578516737569 0 0.04182659458922771 0.0010038961215848674 0 0.042243263783414697 -0.00022220143791974682 0 0.04182659458922771 0.0010038961215848674 0 0.040319035769220087 0.00048892455311369369 0 0.042243263783414697 -0.00022220143791974682 0 0.04495133319768737 -5.1726634003630593e-05 0 0.043441048600945081 0.00012549759896081009 0 0.04256394275291453 -0.00071871534495987434 0 0.044999577634303116 -1.2538859037319518e-07 0 0.04495133319768737 -5.1726634003630593e-05 0 0.045007362735947298 3.350888323413588e-06 0 0.045000018125085015 -3.9634702032422893e-07 0 0.044999577634303116 -1.2538859037319518e-07 0 0.04495133319768737 -5.1726634003630593e-05 0 0.044799334156138591 -0.00014039882827081242 0 0.043765858064916008 -0.00030098377404935299 0 0.044669994165951417 0.00031872004542460688 0 0.04495133319768737 -5.1726634003630593e-05 0 0.043441048600945081 0.00012549759896081009 0 0.044999577634303116 -1.2538859037319518e-07 0 0.045007362735947298 3.350888323413588e-06 0 0.045000106290902633 3.7554164831140339e-08 0 0.042247410684713445 0.00027865073116765395 0 0.04256394275291453 -0.00071871534495987434 0 0.041395060614029415 -5.3402000787660899e-05 0 0.042247410684713445 0.00027865073116765395 0 0.043441048600945081 0.00012549759896081009 0 0.04256394275291453 -0.00071871534495987434 0 0.04256394275291453 -0.00071871534495987434 0 0.041395060614029415 -5.3402000787660899e-05 0 0.040258596005811872 -0.00048300050136030053 0 0.045007362735947298 3.350888323413588e-06 0 0.045000106290902633 3.7554164831140339e-08 0 0.044992386473001231 2.0023968830568832e-06 0 0.043765858064916008 -0.00030098377404935299 0 0.042683860265873404 -0.00023471736583572891 0 0.041395060614029415 -5.3402000787660899e-05 0 0.040258596005811872 -0.00048300050136030053 0 0.040690153990076895 0.00014653279994092727 0 0.040258596005811872 -0.00048300050136030053 0 0.039516136708075876 0.00024075837671285491 0 0.038714423308475646 -5.1257839047259633e-06 0 0.042683860265873404 -0.00023471736583572891 0 0.041691350134871068 2.6277582565232931e-05 0 0.045000106290902633 3.7554164831140339e-08 0 0.044992386473001231 2.0023968830568832e-06 0 0.044999926702833322 -1.2954643702573729e-08 0 0.040258596005811872 -0.00048300050136030053 0 0.040164857730282479 0.00034059696765968624 0 0.039516136708075876 0.00024075837671285491 0 0.040258596005811872 -0.00048300050136030053 0 0.040164857730282479 0.00034059696765968624 0 0.040690153990076895 0.00014653279994092727 0 0.039516136708075876 0.00024075837671285491 0 0.039567663479468371 0.00067289147318153649 0 0.039000047817204411 0.00061064939101155213 0 0.040164857730282479 0.00034059696765968624 0 0.039516136708075876 0.00024075837671285491 0 0.039567663479468371 0.00067289147318153649 0 0.039567663479468371 0.00067289147318153649 0 0.039965644724454179 0.0011528139871873242 0 0.039305886926950397 0.0010642438163421682 0 0.040164857730282479 0.00034059696765968624 0 0.039567663479468371 0.00067289147318153649 0 0.039965644724454179 0.0011528139871873242 0 0.040164857730282479 0.00034059696765968624 0 0.040943261873909183 0.00073618570288365751 0 0.039965644724454179 0.0011528139871873242 0 0.042508628144821335 0.0012485502239701792 0 0.040943261873909183 0.00073618570288365751 0 0.040457642522125158 0.0018136687431708485 0 0.042247410684713445 0.00027865073116765395 0 0.041395060614029415 -5.3402000787660899e-05 0 0.040943261873909183 0.00073618570288365751 0 0.041395060614029415 -5.3402000787660899e-05 0 0.040690153990076895 0.00014653279994092727 0 0.040943261873909183 0.00073618570288365751 0 0.040164857730282479 0.00034059696765968624 0 0.040690153990076895 0.00014653279994092727 0 0.040943261873909183 0.00073618570288365751 0 0.038714423308475646 -5.1257839047259633e-06 0 0.038195939687847853 0.00051504528326896362 0 0.037887216650569433 0.00055124456462719666 0 0.041691350134871068 2.6277582565232931e-05 0 0.042358968921126658 0.00022269025817335167 0 0.04498547866834017 1.5460439965745728e-05 0 0.044999926702833322 -1.2954643702573729e-08 0 0.045000028159488489 7.9484093253582744e-08 0 0.04498547866834017 1.5460439965745728e-05 0 0.044990699467559216 5.8543938262122475e-06 0 0.044972035755156285 2.8562569217428528e-05 0 0.04522785475023617 -0.00031019565906926881 0 0.042358968921126658 0.00022269025817335167 0 0.044992386473001231 2.0023968830568832e-06 0 0.044990699467559216 5.8543938262122475e-06 0 0.044999926702833322 -1.2954643702573729e-08 0 0.04498547866834017 1.5460439965745728e-05 0 0.044990699467559216 5.8543938262122475e-06 0 0.044999926702833322 -1.2954643702573729e-08 0 0.039516136708075876 0.00024075837671285491 0 0.038714423308475646 -5.1257839047259633e-06 0 0.039000047817204411 0.00061064939101155213 0 0.039567663479468371 0.00067289147318153649 0 0.039000047817204411 0.00061064939101155213 0 0.039305886926950397 0.0010642438163421682 0 0.039000047817204411 0.00061064939101155213 0 0.038747092660715625 0.0010241818315399826 0 0.039305886926950397 0.0010642438163421682 0 0.039000047817204411 0.00061064939101155213 0 0.038336231149429724 0.00066143707490233462 0 0.038747092660715625 0.0010241818315399826 0 0.038714423308475646 -5.1257839047259633e-06 0 0.039000047817204411 0.00061064939101155213 0 0.038336231149429724 0.00066143707490233462 0 0.038714423308475646 -5.1257839047259633e-06 0 0.038195939687847853 0.00051504528326896362 0 0.038336231149429724 0.00066143707490233462 0 0.038336231149429724 0.00066143707490233462 0 0.037927048336934575 0.00074804857701960838 0 0.037870923288723518 0.0009514078668429334 0 0.038195939687847853 0.00051504528326896362 0 0.037927048336934575 0.00074804857701960838 0 0.037887216650569433 0.00055124456462719666 0 0.038195939687847853 0.00051504528326896362 0 0.038336231149429724 0.00066143707490233462 0 0.037927048336934575 0.00074804857701960838 0 0.037870923288723518 0.0009514078668429334 0 0.038489418893187868 0.0013674666109554951 0 0.038747092660715625 0.0010241818315399826 0 0.037870923288723518 0.0009514078668429334 0 0.037613415954485203 0.00053326313780456113 0 0.037870965041786067 0.00061042172572406308 0 0.038336231149429724 0.00066143707490233462 0 0.037870923288723518 0.0009514078668429334 0 0.038747092660715625 0.0010241818315399826 0 0.037866630071123314 0.0010648987686833441 0 0.037860738356830556 0.00096140728701194693 0 0.037870923288723518 0.0009514078668429334 0 0.038489418893187868 0.0013674666109554951 0 0.038081452027580051 0.0019558094975669735 0 0.038489418893187868 0.0013674666109554951 0 0.039206645900452454 0.0015494515851476023 0 0.038081452027580051 0.0019558094975669735 0 0.038489418893187868 0.0013674666109554951 0 0.038747092660715625 0.0010241818315399826 0 0.039206645900452454 0.0015494515851476023 0 0.038747092660715625 0.0010241818315399826 0 0.039206645900452454 0.0015494515851476023 0 0.039305886926950397 0.0010642438163421682 0 0.039031215553818811 0.0016691746964064096 0 0.038818765973961146 0.0016424590076555663 0 0.03889266760329179 0.001687712348238343 0 0.039206645900452454 0.0015494515851476023 0 0.039031215553818811 0.0016691746964064096 0 0.038818765973961146 0.0016424590076555663 0 0.039320192577978669 0.0017116629269837232 0 0.037860738356830556 0.00096140728701194693 0 0.041454708639459888 0.0008452820637941215 0 0.039925170066799361 0.0014067626144392889 0 0.040943261873909183 0.00073618570288365751 0 0.040457642522125158 0.0018136687431708485 0 0.039965644724454179 0.0011528139871873242 0 0.039761261076635128 0.0014062379351776229 0 0.040319035769220087 0.00048892455311369369 0 0.039287520850065885 0.0010542672053824277 0 0.039206645900452454 0.0015494515851476023 0 0.040457642522125158 0.0018136687431708485 0 0.039965644724454179 0.0011528139871873242 0 0.039206645900452454 0.0015494515851476023 0 0.039031215553818811 0.0016691746964064096 0 0.040457642522125158 0.0018136687431708485 0 0.039206645900452454 0.0015494515851476023 0 0.039965644724454179 0.0011528139871873242 0 0.039305886926950397 0.0010642438163421682 0 0.039166240235014055 0.0016471794371341068 0 0.039925170066799361 0.0014067626144392889 0 0.039031215553818811 0.0016691746964064096 0 0.03915986409456354 0.0015264149692787955 0 0.0388113150399114 0.0016934190798610562 0 0.039031215553818811 0.0016691746964064096 0 0.039287520850065885 0.0010542672053824277 0 0.03915986409456354 0.0015264149692787955 0 0.039761261076635128 0.0014062379351776229 0 0.039287520850065885 0.0010542672053824277 0 0.03915986409456354 0.0015264149692787955 0 0.039761261076635128 0.0014062379351776229 0 0.03915986409456354 0.0015264149692787955 0 0.039178394469423269 0.0016538248212501765 0 0.039761261076635128 0.0014062379351776229 0 0.039178394469423269 0.0016538248212501765 0 0.039575147307403212 0.00174844883698419 0 0.039178394469423269 0.0016538248212501765 0 0.038839659355351969 0.0017104378297301971 0 0.039575147307403212 0.00174844883698419 0 0.03915986409456354 0.0015264149692787955 0 0.039178394469423269 0.0016538248212501765 0 0.0388113150399114 0.0016934190798610562 0 0.039178394469423269 0.0016538248212501765 0 0.0388113150399114 0.0016934190798610562 0 0.038839659355351969 0.0017104378297301971 0 0.0388113150399114 0.0016934190798610562 0 0.038839659355351969 0.0017104378297301971 0 0.038437764740594717 0.0015016455851742405 0 0.0388113150399114 0.0016934190798610562 0 0.038556165194572736 0.0014218753822718205 0 0.038437764740594717 0.0015016455851742405 0 0.038839659355351969 0.0017104378297301971 0 0.038437764740594717 0.0015016455851742405 0 0.038648539202687973 0.0017601474343713821 0 0.038839659355351969 0.0017104378297301971 0 0.038648539202687973 0.0017601474343713821 0 0.039575147307403212 0.00174844883698419 0 0.038818765973961146 0.0016424590076555663 0 0.03884645269314433 0.0016670392898501297 0 0.03889266760329179 0.001687712348238343 0 0.037860738356830556 0.00096140728701194693 0 0.037957129141124403 0.00074762786506448993 0 0.03704937681445223 0.00011337336105611875 0 0.037056952697351632 -0.00015487184244905545 0 0.037133879085491865 -9.1355183971894937e-05 0 0.039031215553818811 0.0016691746964064096 0 0.0388113150399114 0.0016934190798610562 0 0.03889266760329179 0.001687712348238343 0 0.0388113150399114 0.0016934190798610562 0 0.03884645269314433 0.0016670392898501297 0 0.03889266760329179 0.001687712348238343 0 0.0388113150399114 0.0016934190798610562 0 0.03884645269314433 0.0016670392898501297 0 0.038556165194572736 0.0014218753822718205 0 0.037957129141124403 0.00074762786506448993 0 0.037887442579300254 0.00066165758985672039 0 0.037056952697351632 -0.00015487184244905545 0 0.037088218219658894 -0.00022902045852113287 0 0.037262664282775762 -0.00020874043741367235 0 0.037056952697351632 -0.00015487184244905545 0 0.037088218219658894 -0.00022902045852113287 0 0.037133879085491865 -9.1355183971894937e-05 0 0.037088218219658894 -0.00022902045852113287 0 0.037262664282775762 -0.00020874043741367235 0 0.036979118750921726 -0.00014175363231467804 0 0.038556165194572736 0.0014218753822718205 0 0.038437764740594717 0.0015016455851742405 0 0.037660751083951144 0.00075882062888086611 0 0.037262664282775762 -0.00020874043741367235 0 0.036936578236502988 0.00023388912833617742 0 0.037660751083951144 0.00075882062888086611 0 0.037887442579300254 0.00066165758985672039 0 0.037730038814129299 0.00078247213116642818 0 0.037262664282775762 -0.00020874043741367235 0 0.036936578236502988 0.00023388912833617742 0 0.036979118750921726 -0.00014175363231467804 0 0.038437764740594717 0.0015016455851742405 0 0.038125630030234926 0.001240698823162779 0 0.038648539202687973 0.0017601474343713821 0 0.038437764740594717 0.0015016455851742405 0 0.038125630030234926 0.001240698823162779 0 0.037660751083951144 0.00075882062888086611 0 0.038125630030234926 0.001240698823162779 0 0.038175868399290484 0.0013723063697895109 0 0.038648539202687973 0.0017601474343713821 0 0.038125630030234926 0.001240698823162779 0 0.038175868399290484 0.0013723063697895109 0 0.038060629048745194 0.0012595231069368836 0 0.038175868399290484 0.0013723063697895109 0 0.038648539202687973 0.0017601474343713821 0 0.038085650449826314 0.0016227958863245624 0 0.038648539202687973 0.0017601474343713821 0 0.038085650449826314 0.0016227958863245624 0 0.038096556992530582 0.001850661801875935 0 0.038175868399290484 0.0013723063697895109 0 0.038085650449826314 0.0016227958863245624 0 0.037957514785383034 0.0014922438339151321 0 0.038175868399290484 0.0013723063697895109 0 0.037957514785383034 0.0014922438339151321 0 0.038014225575296205 0.0013381142855527265 0 0.037957514785383034 0.0014922438339151321 0 0.037753794734336037 0.0015475714352157629 0 0.037894490476084078 0.001384252488010802 0 0.037957514785383034 0.0014922438339151321 0 0.037894490476084078 0.001384252488010802 0 0.038014225575296205 0.0013381142855527265 0 0.037715374176557091 0.0016468144745505038 0 0.037753794734336037 0.0015475714352157629 0 0.037872926041599531 0.0016898942170262561 0 0.037957514785383034 0.0014922438339151321 0 0.037753794734336037 0.0015475714352157629 0 0.037872926041599531 0.0016898942170262561 0 0.038085650449826314 0.0016227958863245624 0 0.037957514785383034 0.0014922438339151321 0 0.037872926041599531 0.0016898942170262561 0 0.037872926041599531 0.0016898942170262561 0 0.037910431028488276 0.0018348323058668234 0 0.038096556992530582 0.001850661801875935 0 0.037715374176557091 0.0016468144745505038 0 0.037781663099059143 0.0017434136812585596 0 0.037872926041599531 0.0016898942170262561 0 0.037781663099059143 0.0017434136812585596 0 0.037872926041599531 0.0016898942170262561 0 0.037910431028488276 0.0018348323058668234 0 0.041843412262044938 0.0013026623868539545 0 0.039184028060979495 0.0019582096332014442 0 0.037781663099059143 0.0017434136812585596 0 0.037825752359197454 0.0018497482585967944 0 0.037910431028488276 0.0018348323058668234 0 0.039184028060979495 0.0019582096332014442 0 0.039233207145077706 0.0018591604844263566 0 0.040461665464847835 0.0015382364980298573 0 0.041234066371585339 0.0017785205842454203 0 0.040171949162789822 0.0020823925236084866 0 0.040461665464847835 0.0015382364980298573 0 0.039575147307403212 0.00174844883698419 0 0.040171949162789822 0.0020823925236084866 0 0.038750094783629015 0.0018094066436466186 0 0.039233207145077706 0.0018591604844263566 0 0.038648539202687973 0.0017601474343713821 0 0.039575147307403212 0.00174844883698419 0 0.040171949162789822 0.0020823925236084866 0 0.038085650449826314 0.0016227958863245624 0 0.037872926041599531 0.0016898942170262561 0 0.038096556992530582 0.001850661801875935 0 0.038514757682964515 0.0006135604342644912 0 0.037169746444436456 -0.00013710674714952884 0 0.038985710990424735 -1.1134934720398947e-06 0 0.038514757682964515 0.0006135604342644912 0 0.041239496066094519 3.2595350092964147e-06 0 0.038985710990424735 -1.1134934720398947e-06 0 0.038514757682964515 0.0006135604342644912 0 0.036810847882863915 0.00057061715718624431 0 0.037169746444436456 -0.00013710674714952884 0 0.040680128200262851 0.0005866272896482528 0 0.039967615554017649 -0.00046720865996676271 0 0.042792500625107879 0.00074752586122591943 0 0.043197488343698902 0.00013267465218244477 0 0.043416532521942414 0.00097268983859992799 0 0.042792500625107879 0.00074752586122591943 0 0.043197488343698902 0.00013267465218244477 0 0.042540108024162804 5.6885209041048389e-05 0 0.043991928788517924 0.00069849075068663879 0 0.039967615554017649 -0.00046720865996676271 0 0.043197488343698902 0.00013267465218244477 0 0.042540108024162804 5.6885209041048389e-05 0 0.043048413674207038 6.8549476502383839e-05 0 0.042792500625107879 0.00074752586122591943 0 0.042540108024162804 5.6885209041048389e-05 0 0.041247715679447086 2.1011108825320938e-06 0 0.040680128200262851 0.0005866272896482528 0 0.041243001489075407 3.046761670661705e-07 0 0.042540108024162804 5.6885209041048389e-05 0 0.041247715679447086 2.1011108825320938e-06 0 0.042543608617287072 -1.4632291901023286e-06 0 0.042540108024162804 5.6885209041048389e-05 0 0.042543608617287072 -1.4632291901023286e-06 0 0.043048413674207038 6.8549476502383839e-05 0 0.042543608617287072 -1.4632291901023286e-06 0 0.043048413674207038 6.8549476502383839e-05 0 0.043278175477870606 -7.3628731894210894e-05 0 0.04254731435991093 -1.780669707546034e-08 0 0.043896896054715258 -4.4564160362802134e-05 0 0.044998231069565547 -5.9441875176006322e-07 0 0.044568635667442028 4.4354392752833872e-07 0 0.045000259029929511 2.9592748014935906e-07 0 0.042549855393988895 8.9257208005594725e-07 0 0.044998231069565547 -5.9441875176006322e-07 0 0.044568635667442028 4.4354392752833872e-07 0 0.043896896054715258 -4.4564160362802134e-05 0 0.044999402069291601 1.36417368188894e-08 0 0.043278175477870606 -7.3628731894210894e-05 0 0.044996886012166094 -5.5531167438898866e-07 0 0.043806630083486495 7.5905682085318713e-05 0 0.044996886012166094 -5.5531167438898866e-07 0 0.043806630083486495 7.5905682085318713e-05 0 0.044583815538198818 0.00011997115924283193 0 0.043806630083486495 7.5905682085318713e-05 0 0.04420605657232532 0.00046003945054397651 0 0.044583815538198818 0.00011997115924283193 0 0.043197488343698902 0.00013267465218244477 0 0.043048413674207038 6.8549476502383839e-05 0 0.043806630083486495 7.5905682085318713e-05 0 0.043991928788517924 0.00069849075068663879 0 0.043673547114148364 -4.7349824205211273e-05 0 0.044120667673368995 0.00078592536866441283 0 0.043806630083486495 7.5905682085318713e-05 0 0.04420605657232532 0.00046003945054397651 0 0.043048413674207038 6.8549476502383839e-05 0 0.043278175477870606 -7.3628731894210894e-05 0 0.043806630083486495 7.5905682085318713e-05 0 0.044999632242761413 1.2328102199283929e-07 0 0.044172541029153765 0.00045937213423023109 0 0.044835721756605842 0.00042841704745639369 0 0.044120667673368995 0.00078592536866441283 0 0.04392775577203803 0.0006295478921011172 0 0.04420605657232532 0.00046003945054397651 0 0.04392775577203803 0.0006295478921011172 0 0.044382169825572818 0.00030542664753966233 0 0.044172541029153765 0.00045937213423023109 0 0.044382169825572818 0.00030542664753966233 0 0.04420605657232532 0.00046003945054397651 0 0.044583815538198818 0.00011997115924283193 0 0.04392775577203803 0.0006295478921011172 0 0.044382169825572818 0.00030542664753966233 0 0.04420605657232532 0.00046003945054397651 0 0.044996886012166094 -5.5531167438898866e-07 0 0.044583815538198818 0.00011997115924283193 0 0.044999632242761413 1.2328102199283929e-07 0 0.044382169825572818 0.00030542664753966233 0 0.044583815538198818 0.00011997115924283193 0 0.044999632242761413 1.2328102199283929e-07 0 0.044382169825572818 0.00030542664753966233 0 0.044999632242761413 1.2328102199283929e-07 0 0.044172541029153765 0.00045937213423023109 0 0.044172541029153765 0.00045937213423023109 0 0.043196672476607786 0.00089784529898062431 0 0.044835721756605842 0.00042841704745639369 0 0.043143348365173688 0.00084708169819019258 0 0.041981887099058451 0.00091937888716755588 0 0.043196672476607786 0.00089784529898062431 0 0.041061818049559329 9.0251013344544938e-05 0 0.038961423505136615 0.0014558041999222341 0 0.044120667673368995 0.00078592536866441283 0 0.043196672476607786 0.00089784529898062431 0 0.044070346064729871 -0.00029259832171268257 0 0.04392775577203803 0.0006295478921011172 0 0.044172541029153765 0.00045937213423023109 0 0.043196672476607786 0.00089784529898062431 0 0.044120667673368995 0.00078592536866441283 0 0.04392775577203803 0.0006295478921011172 0 0.043196672476607786 0.00089784529898062431 0 0.043196672476607786 0.00089784529898062431 0 0.044070346064729871 -0.00029259832171268257 0 0.04246552023701336 -0.0012413829761934445 0 0.035016645844998633 -0.0035778889600853545 0 0.03612456802988058 -0.003188989090091833 0 0.035368888748924063 -0.0022030654946677193 0 0.039967615554017649 -0.00046720865996676271 0 0.039049545144850456 -0.0022289378982745904 0 0.043196672476607786 0.00089784529898062431 0 0.04246552023701336 -0.0012413829761934445 0 0.041061818049559329 9.0251013344544938e-05 0 0.04246552023701336 -0.0012413829761934445 0 0.041116467139663992 -0.00078581063929147269 0 0.041061818049559329 9.0251013344544938e-05 0 0.04246552023701336 -0.0012413829761934445 0 0.041116467139663992 -0.00078581063929147269 0 0.038101847772713436 -0.0024942114555302221 0 0.041116467139663992 -0.00078581063929147269 0 0.039393667589596636 -0.0009950377401055806 0 0.038101847772713436 -0.0024942114555302221 0 0.039393667589596636 -0.0009950377401055806 0 0.040044614808835879 -0.00028277879008803967 0 0.039400324190309331 -0.00031285243037695734 0 0.041116467139663992 -0.00078581063929147269 0 0.039393667589596636 -0.0009950377401055806 0 0.040044614808835879 -0.00028277879008803967 0 0.041116467139663992 -0.00078581063929147269 0 0.041061818049559329 9.0251013344544938e-05 0 0.040044614808835879 -0.00028277879008803967 0 0.041061818049559329 9.0251013344544938e-05 0 0.040044614808835879 -0.00028277879008803967 0 0.039158241533760386 0.00028342283492533847 0 0.039158241533760386 0.00028342283492533847 0 0.039400324190309331 -0.00031285243037695734 0 0.039003865996679231 -0.00040768922617998992 0 0.040044614808835879 -0.00028277879008803967 0 0.039158241533760386 0.00028342283492533847 0 0.039400324190309331 -0.00031285243037695734 0 0.039393667589596636 -0.0009950377401055806 0 0.039400324190309331 -0.00031285243037695734 0 0.039269363711157815 -0.00070046984429526923 0 0.039393667589596636 -0.0009950377401055806 0 0.039269363711157815 -0.00070046984429526923 0 0.039149556686981959 -0.00043727432235852591 0 0.039400324190309331 -0.00031285243037695734 0 0.039269363711157815 -0.00070046984429526923 0 0.039003865996679231 -0.00040768922617998992 0 0.039158241533760386 0.00028342283492533847 0 0.039003865996679231 -0.00040768922617998992 0 0.038399966483638831 -0.00011815619116084506 0 0.039158241533760386 0.00028342283492533847 0 0.038399966483638831 -0.00011815619116084506 0 0.03810014184403078 0.00059044530334930443 0 0.038961423505136615 0.0014558041999222341 0 0.038053118056184644 0.0010616378493909361 0 0.03810014184403078 0.00059044530334930443 0 0.039158241533760386 0.00028342283492533847 0 0.038961423505136615 0.0014558041999222341 0 0.03810014184403078 0.00059044530334930443 0 0.041061818049559329 9.0251013344544938e-05 0 0.039158241533760386 0.00028342283492533847 0 0.038961423505136615 0.0014558041999222341 0 0.044999632242761413 1.2328102199283929e-07 0 0.044835721756605842 0.00042841704745639369 0 0.045000060351865295 6.7391265700015801e-08 0 0.044835721756605842 0.00042841704745639369 0 0.045000060351865295 6.7391265700015801e-08 0 0.045004642865942655 0.00018076214334797414 0 0.041981887099058451 0.00091937888716755588 0 0.041490808090013861 0.00062554004106647038 0 0.045004642865942655 0.00018076214334797414 0 0.045008263052214184 6.5540534756762742e-05 0 0.045000385349867118 3.47605576740415e-05 0 0.041490808090013861 0.00062554004106647038 0 0.041744349200116729 0.00036890732179931498 0 0.045000060351865295 6.7391265700015801e-08 0 0.045004642865942655 0.00018076214334797414 0 0.045008263052214184 6.5540534756762742e-05 0 0.045000060351865295 6.7391265700015801e-08 0 0.045008263052214184 6.5540534756762742e-05 0 0.045000028159488489 7.9484093253582744e-08 0 0.04498547866834017 1.5460439965745728e-05 0 0.045000028159488489 7.9484093253582744e-08 0 0.044996430936698771 2.7766528356940998e-05 0 0.045008263052214184 6.5540534756762742e-05 0 0.045000028159488489 7.9484093253582744e-08 0 0.045000385349867118 3.47605576740415e-05 0 0.045000028159488489 7.9484093253582744e-08 0 0.045000385349867118 3.47605576740415e-05 0 0.044996430936698771 2.7766528356940998e-05 0 0.041744349200116729 0.00036890732179931498 0 0.042358968921126658 0.00022269025817335167 0 0.037878002892357411 0.00060668098239361336 0 0.037887216650569433 0.00055124456462719666 0 0.037872623318978581 0.00083510816776108832 0 0.038053118056184644 0.0010616378493909361 0 0.037878002892357411 0.00060668098239361336 0 0.037872623318978581 0.00083510816776108832 0 0.037927048336934575 0.00074804857701960838 0 0.037870923288723518 0.0009514078668429334 0 0.037872623318978581 0.00083510816776108832 0 0.037927048336934575 0.00074804857701960838 0 0.037887216650569433 0.00055124456462719666 0 0.037872623318978581 0.00083510816776108832 0 0.037870923288723518 0.0009514078668429334 0 0.037872623318978581 0.00083510816776108832 0 0.037870965041786067 0.00061042172572406308 0 0.038053118056184644 0.0010616378493909361 0 0.037872623318978581 0.00083510816776108832 0 0.03810014184403078 0.00059044530334930443 0 0.037872623318978581 0.00083510816776108832 0 0.03810014184403078 0.00059044530334930443 0 0.037870965041786067 0.00061042172572406308 0 0.038399966483638831 -0.00011815619116084506 0 0.03810014184403078 0.00059044530334930443 0 0.037921805950790519 0.00010764795888248365 0 0.03810014184403078 0.00059044530334930443 0 0.037870965041786067 0.00061042172572406308 0 0.037921805950790519 0.00010764795888248365 0 0.037860738356830556 0.00096140728701194693 0 0.037552174628802115 2.9762129545613785e-06 0 0.037613415954485203 0.00053326313780456113 0 0.037870965041786067 0.00061042172572406308 0 0.037921805950790519 0.00010764795888248365 0 0.037133879085491865 -9.1355183971894937e-05 0 0.037300959853327258 8.0415362448591534e-05 0 0.037271446963957712 -0.00024667917173610605 0 0.03704937681445223 0.00011337336105611875 0 0.037133879085491865 -9.1355183971894937e-05 0 0.037300959853327258 8.0415362448591534e-05 0 0.037300959853327258 8.0415362448591534e-05 0 0.037653329776654532 -0.00031845889998332119 0 0.038187960329581883 -0.00031981556187131617 0 0.037552174628802115 2.9762129545613785e-06 0 0.038200774159115727 -0.00027022787012402735 0 0.037300959853327258 8.0415362448591534e-05 0 0.037271446963957712 -0.00024667917173610605 0 0.037653329776654532 -0.00031845889998332119 0 0.037271446963957712 -0.00024667917173610605 0 0.037653329776654532 -0.00031845889998332119 0 0.037410337987806699 -0.00033940690960027184 0 0.037271446963957712 -0.00024667917173610605 0 0.037096634466879018 -0.00025341436224809571 0 0.037410337987806699 -0.00033940690960027184 0 0.037088218219658894 -0.00022902045852113287 0 0.037133879085491865 -9.1355183971894937e-05 0 0.037271446963957712 -0.00024667917173610605 0 0.037088218219658894 -0.00022902045852113287 0 0.037271446963957712 -0.00024667917173610605 0 0.037096634466879018 -0.00025341436224809571 0 0.037088218219658894 -0.00022902045852113287 0 0.037096634466879018 -0.00025341436224809571 0 0.036979118750921726 -0.00014175363231467804 0 0.037096634466879018 -0.00025341436224809571 0 0.036979118750921726 -0.00014175363231467804 0 0.036822921194273973 -5.5078816809194985e-05 0 0.036936578236502988 0.00023388912833617742 0 0.036822921194273973 -5.5078816809194985e-05 0 0.036332776941662225 0.00030740387476204669 0 0.036822921194273973 -5.5078816809194985e-05 0 0.037080768775281492 -0.00028539529688784046 0 0.036332776941662225 0.00030740387476204669 0 0.036936578236502988 0.00023388912833617742 0 0.036979118750921726 -0.00014175363231467804 0 0.036822921194273973 -5.5078816809194985e-05 0 0.035606411515440903 -0.00064504853386320826 0 0.035393024547527782 -0.00012952937762712613 0 0.036332776941662225 0.00030740387476204669 0 0.036367432475897868 -0.00041998152426489055 0 0.03640147755769383 0.00027201533304435584 0 0.035606411515440903 -0.00064504853386320826 0 0.035530623268496889 -0.00070367282225774889 0 0.035343581878093402 -0.00047237601973202758 0 0.037096634466879018 -0.00025341436224809571 0 0.036822921194273973 -5.5078816809194985e-05 0 0.037080768775281492 -0.00028539529688784046 0 0.037096634466879018 -0.00025341436224809571 0 0.037080768775281492 -0.00028539529688784046 0 0.037410337987806699 -0.00033940690960027184 0 0.036367432475897868 -0.00041998152426489055 0 0.036717631213021906 -0.00056819068958025682 0 0.035530623268496889 -0.00070367282225774889 0 0.035376533522622551 -0.0008502036328046842 0 0.035432898638533432 -0.00086488816894722152 0 0.035530623268496889 -0.00070367282225774889 0 0.035420058511783689 -0.00063001921825171379 0 0.035376533522622551 -0.0008502036328046842 0 0.035606411515440903 -0.00064504853386320826 0 0.035530623268496889 -0.00070367282225774889 0 0.035432898638533432 -0.00086488816894722152 0 0.037080768775281492 -0.00028539529688784046 0 0.037410337987806699 -0.00033940690960027184 0 0.037976505417477643 -0.00047768864636141983 0 0.035424256924272528 -0.00066562196456815205 0 0.034958573432560903 -0.0011836023211931398 0 0.035530623268496889 -0.00070367282225774889 0 0.035343581878093402 -0.00047237601973202758 0 0.035003118421188938 -0.00046566353151074563 0 0.035343581878093402 -0.00047237601973202758 0 0.035003118421188938 -0.00046566353151074563 0 0.035393024547527782 -0.00012952937762712613 0 0.035606411515440903 -0.00064504853386320826 0 0.035343581878093402 -0.00047237601973202758 0 0.035393024547527782 -0.00012952937762712613 0 0.036704122964048118 -0.00057857085421794002 0 0.036015444418037536 -0.00067441920938165372 0 0.035866155989969555 -0.00011707713719963423 0 0.034958573432560903 -0.0011836023211931398 0 0.034084695065749349 -0.0013001410420402377 0 0.036704122964048118 -0.00057857085421794002 0 0.036420534121924995 -0.0010289097155761213 0 0.036015444418037536 -0.00067441920938165372 0 0.034958573432560903 -0.0011836023211931398 0 0.036142649883908008 -0.0011268141747477179 0 0.036704122964048118 -0.00057857085421794002 0 0.036420534121924995 -0.0010289097155761213 0 0.036824262209806009 -0.0013024738151202813 0 0.036420534121924995 -0.0010289097155761213 0 0.036573492069783761 -0.0013114037063417623 0 0.036824262209806009 -0.0013024738151202813 0 0.036573492069783761 -0.0013114037063417623 0 0.036870040737187637 -0.0016505463980280833 0 0.036824262209806009 -0.0013024738151202813 0 0.035376533522622551 -0.0008502036328046842 0 0.035432898638533432 -0.00086488816894722152 0 0.0353988221602363 -0.00095860614037353189 0 0.036142649883908008 -0.0011268141747477179 0 0.037470527807120492 -0.0011552304329111092 0 0.036870040737187637 -0.0016505463980280833 0 0.036824262209806009 -0.0013024738151202813 0 0.037358652844556875 -0.002156207990544039 0 0.037653329776654532 -0.00031845889998332119 0 0.037410337987806699 -0.00033940690960027184 0 0.037976505417477643 -0.00047768864636141983 0 0.037976505417477643 -0.00047768864636141983 0 0.038187960329581883 -0.00031981556187131617 0 0.038538510592589642 -0.00037644721943764099 0 0.037653329776654532 -0.00031845889998332119 0 0.037976505417477643 -0.00047768864636141983 0 0.038187960329581883 -0.00031981556187131617 0 0.038399966483638831 -0.00011815619116084506 0 0.037921805950790519 0.00010764795888248365 0 0.038187960329581883 -0.00031981556187131617 0 0.038399966483638831 -0.00011815619116084506 0 0.038187960329581883 -0.00031981556187131617 0 0.038538510592589642 -0.00037644721943764099 0 0.039003865996679231 -0.00040768922617998992 0 0.038399966483638831 -0.00011815619116084506 0 0.038538510592589642 -0.00037644721943764099 0 0.039003865996679231 -0.00040768922617998992 0 0.039076327317905959 -0.00052819030422312206 0 0.038538510592589642 -0.00037644721943764099 0 0.036717631213021906 -0.00056819068958025682 0 0.037470527807120492 -0.0011552304329111092 0 0.037976505417477643 -0.00047768864636141983 0 0.039076327317905959 -0.00052819030422312206 0 0.038538510592589642 -0.00037644721943764099 0 0.036824262209806009 -0.0013024738151202813 0 0.037639856487104058 -0.0024901162558243236 0 0.037358652844556875 -0.002156207990544039 0 0.039269363711157815 -0.00070046984429526923 0 0.039003865996679231 -0.00040768922617998992 0 0.039076327317905959 -0.00052819030422312206 0 0.03851095190405187 -0.00077252380167625772 0 0.037470527807120492 -0.0011552304329111092 0 0.037935016478245646 -0.00068204760811683355 0 0.037470527807120492 -0.0011552304329111092 0 0.039393667589596636 -0.0009950377401055806 0 0.037639856487104058 -0.0024901162558243236 0 0.038101847772713436 -0.0024942114555302221 0 0.037639856487104058 -0.0024901162558243236 0 0.037677399331174102 -0.002399521152040169 0 0.037358652844556875 -0.002156207990544039 0 0.037639856487104058 -0.0024901162558243236 0 0.038101847772713436 -0.0024942114555302221 0 0.037677399331174102 -0.002399521152040169 0 0.038101847772713436 -0.0024942114555302221 0 0.037677399331174102 -0.002399521152040169 0 0.037554133222748497 -0.0023477729524581923 0 0.037677399331174102 -0.002399521152040169 0 0.037358652844556875 -0.002156207990544039 0 0.037554133222748497 -0.0023477729524581923 0 0.036870040737187637 -0.0016505463980280833 0 0.037358652844556875 -0.002156207990544039 0 0.036841519968757695 -0.0019068073053996632 0 0.036272292441985911 -0.001933149522293093 0 0.036841519968757695 -0.0019068073053996632 0 0.037125507191772121 -0.0022772342429880237 0 0.037358652844556875 -0.002156207990544039 0 0.036841519968757695 -0.0019068073053996632 0 0.037125507191772121 -0.0022772342429880237 0 0.037358652844556875 -0.002156207990544039 0 0.037125507191772121 -0.0022772342429880237 0 0.037554133222748497 -0.0023477729524581923 0 0.03612456802988058 -0.003188989090091833 0 0.038101847772713436 -0.0024942114555302221 0 0.037125507191772121 -0.0022772342429880237 0 0.039049545144850456 -0.0022289378982745904 0 0.038370824095920075 -0.002451978672296567 0 0.038101847772713436 -0.0024942114555302221 0 0.037125507191772121 -0.0022772342429880237 0 0.037554133222748497 -0.0023477729524581923 0 0.03612456802988058 -0.003188989090091833 0 0.036272292441985911 -0.001933149522293093 0 0.037125507191772121 -0.0022772342429880237 0 0.03612456802988058 -0.003188989090091833 0 0.036272292441985911 -0.001933149522293093 0 0.035368888748924063 -0.0022030654946677193 0 0.039967615554017649 -0.00046720865996676271 0 0.03548489426763083 -0.0016452066314155622 0 0.036272292441985911 -0.001933149522293093 0 0.035368888748924063 -0.0022030654946677193 0 0.035591455218215183 -0.0010222919120391229 0 0.03548489426763083 -0.0016452066314155622 0 0.035682635209297833 -0.00091700402307174126 0 0.03604297222714882 -0.00031840950961271831 0 0.035591455218215183 -0.0010222919120391229 0 0.03590642493489736 -0.00076653183792720363 0 0.035591455218215183 -0.0010222919120391229 0 0.036440992753245569 -0.001488434247684478 0 0.03621246090352194 -0.0011678695377144925 0 0.036272292441985911 -0.001933149522293093 0 0.036841519968757695 -0.0019068073053996632 0 0.036440992753245569 -0.001488434247684478 0 0.036272292441985911 -0.001933149522293093 0 0.035591455218215183 -0.0010222919120391229 0 0.036440992753245569 -0.001488434247684478 0 0.036870040737187637 -0.0016505463980280833 0 0.036841519968757695 -0.0019068073053996632 0 0.036440992753245569 -0.001488434247684478 0 0.036573492069783761 -0.0013114037063417623 0 0.036440992753245569 -0.001488434247684478 0 0.03621246090352194 -0.0011678695377144925 0 0.036573492069783761 -0.0013114037063417623 0 0.036870040737187637 -0.0016505463980280833 0 0.036440992753245569 -0.001488434247684478 0 0.036420534121924995 -0.0010289097155761213 0 0.03621246090352194 -0.0011678695377144925 0 0.035806479795770209 -0.00094597240222089873 0 0.036420534121924995 -0.0010289097155761213 0 0.036573492069783761 -0.0013114037063417623 0 0.03621246090352194 -0.0011678695377144925 0 0.035591455218215183 -0.0010222919120391229 0 0.03621246090352194 -0.0011678695377144925 0 0.035806479795770209 -0.00094597240222089873 0 0.036420534121924995 -0.0010289097155761213 0 0.035806479795770209 -0.00094597240222089873 0 0.036015444418037536 -0.00067441920938165372 0 0.035806479795770209 -0.00094597240222089873 0 0.036015444418037536 -0.00067441920938165372 0 0.035147864715431493 -0.00058665972235177205 0 0.036015444418037536 -0.00067441920938165372 0 0.035147864715431493 -0.00058665972235177205 0 0.035866155989969555 -0.00011707713719963423 0 0.035147864715431493 -0.00058665972235177205 0 0.034560133053126912 -0.00069710376841486171 0 0.035218885794889521 -0.00095204104321832414 0 0.035147864715431493 -0.00058665972235177205 0 0.034560133053126912 -0.00069710376841486171 0 0.03377660470924989 -0.00030576243877719329 0 0.035806479795770209 -0.00094597240222089873 0 0.035147864715431493 -0.00058665972235177205 0 0.035218885794889521 -0.00095204104321832414 0 0.034560133053126912 -0.00069710376841486171 0 0.035218885794889521 -0.00095204104321832414 0 0.035070039473739351 -0.00088071321279217373 0 0.035591455218215183 -0.0010222919120391229 0 0.035218885794889521 -0.00095204104321832414 0 0.03590642493489736 -0.00076653183792720363 0 0.035591455218215183 -0.0010222919120391229 0 0.035806479795770209 -0.00094597240222089873 0 0.035218885794889521 -0.00095204104321832414 0 0.034811359599723438 -0.00078573252459519685 0 0.035070039473739351 -0.00088071321279217373 0 0.036622379969575874 -0.00045892373384485974 0 0.035218885794889521 -0.00095204104321832414 0 0.035070039473739351 -0.00088071321279217373 0 0.03590642493489736 -0.00076653183792720363 0 0.034811359599723438 -0.00078573252459519685 0 0.035070039473739351 -0.00088071321279217373 0 0.034040715424944544 -0.00064186310858581255 0 0.034560133053126912 -0.00069710376841486171 0 0.035070039473739351 -0.00088071321279217373 0 0.034040715424944544 -0.00064186310858581255 0 0.034560133053126912 -0.00069710376841486171 0 0.034040715424944544 -0.00064186310858581255 0 0.03377660470924989 -0.00030576243877719329 0 0.034470719083837011 1.4567388463041461e-07 0 0.034976607445603353 -1.7497153428570361e-05 0 0.032212334569241954 1.4052640635091751e-07 0 0.034040715424944544 -0.00064186310858581255 0 0.033757334230840506 -0.00076950005632976052 0 0.033201601806037401 -0.00037965786640685846 0 0.034811359599723438 -0.00078573252459519685 0 0.034040715424944544 -0.00064186310858581255 0 0.033757334230840506 -0.00076950005632976052 0 0.034430536126335939 -0.0003979881583131864 0 0.036248218084578183 -0.0004260797037789379 0 0.034976607445603353 -1.7497153428570361e-05 0 0.036622379969575874 -0.00045892373384485974 0 0.036726935095358668 -1.1153470576966158e-06 0 0.034811359599723438 -0.00078573252459519685 0 0.033757334230840506 -0.00076950005632976052 0 0.036622379969575874 -0.00045892373384485974 0 0.034470719083837011 1.4567388463041461e-07 0 0.034976607445603353 -1.7497153428570361e-05 0 0.036726935095358668 -1.1153470576966158e-06 0 0.036622379969575874 -0.00045892373384485974 0 0.036726935095358668 -1.1153470576966158e-06 0 0.038985710990424735 -1.1134934720398947e-06 0 0.036622379969575874 -0.00045892373384485974 0 0.03590642493489736 -0.00076653183792720363 0 0.037169746444436456 -0.00013710674714952884 0 0.035070039473739351 -0.00088071321279217373 0 0.036622379969575874 -0.00045892373384485974 0 0.03590642493489736 -0.00076653183792720363 0 0.036810847882863915 0.00057061715718624431 0 0.03604297222714882 -0.00031840950961271831 0 0.037169746444436456 -0.00013710674714952884 0 0.03604297222714882 -0.00031840950961271831 0 0.03590642493489736 -0.00076653183792720363 0 0.037169746444436456 -0.00013710674714952884 0 0.036622379969575874 -0.00045892373384485974 0 0.037169746444436456 -0.00013710674714952884 0 0.038985710990424735 -1.1134934720398947e-06 0 0.029627089743346494 3.8995708670282676e-05 0 0.029653622902047809 3.6212267779046949e-08 0 0.027094787847759042 1.2855002321507249e-07 0 0.029627089743346494 3.8995708670282676e-05 0 0.029372993520115773 0.00055391642131076319 0 0.028267570325440642 0.00011406323550026289 0 0.029627089743346494 3.8995708670282676e-05 0 0.031247498065770492 2.7029935188909851e-05 0 0.030672062676522328 -0.00022730027795536418 0 0.029627089743346494 3.8995708670282676e-05 0 0.029653622902047809 3.6212267779046949e-08 0 0.031247498065770492 2.7029935188909851e-05 0 0.032209721817494506 -3.7383030731799211e-07 0 0.032916357093128623 -0.00020244100712659256 0 0.031247498065770492 2.7029935188909851e-05 0 0.029653622902047809 3.6212267779046949e-08 0 0.032209721817494506 -3.7383030731799211e-07 0 0.031247498065770492 2.7029935188909851e-05 0 0.033757334230840506 -0.00076950005632976052 0 0.032209721817494506 -3.7383030731799211e-07 0 0.033201601806037401 -0.00037965786640685846 0 0.032209721817494506 -3.7383030731799211e-07 0 0.033201601806037401 -0.00037965786640685846 0 0.032916357093128623 -0.00020244100712659256 0 0.034430536126335939 -0.0003979881583131864 0 0.032212692159590779 -2.9211688370399425e-07 0 0.032916357093128623 -0.00020244100712659256 0 0.031247498065770492 2.7029935188909851e-05 0 0.03377660470924989 -0.00030576243877719329 0 0.034040715424944544 -0.00064186310858581255 0 0.032916357093128623 -0.00020244100712659256 0 0.03377660470924989 -0.00030576243877719329 0 0.034040715424944544 -0.00064186310858581255 0 0.033201601806037401 -0.00037965786640685846 0 0.032916357093128623 -0.00020244100712659256 0 0.031247498065770492 2.7029935188909851e-05 0 0.030964050498005283 -0.0010430489994062951 0 0.030672062676522328 -0.00022730027795536418 0 0.031247498065770492 2.7029935188909851e-05 0 0.034301279262083019 0.00025959809327966821 0 0.03377660470924989 -0.00030576243877719329 0 0.031567371027411785 -5.7618674672628823e-05 0 0.032673131553557118 -0.00047411654579697176 0 0.035147864715431493 -0.00058665972235177205 0 0.034301279262083019 0.00025959809327966821 0 0.03377660470924989 -0.00030576243877719329 0 0.030964050498005283 -0.0010430489994062951 0 0.032169578206599839 -0.0022728558227947172 0 0.03212958005330098 -0.0010010193552638055 0 0.035147864715431493 -0.00058665972235177205 0 0.034301279262083019 0.00025959809327966821 0 0.035866155989969555 -0.00011707713719963423 0 0.032673131553557118 -0.00047411654579697176 0 0.034084695065749349 -0.0013001410420402377 0 0.030964050498005283 -0.0010430489994062951 0 0.03212958005330098 -0.0010010193552638055 0 0.030672062676522328 -0.00022730027795536418 0 0.03212958005330098 -0.0010010193552638055 0 0.030672062676522328 -0.00022730027795536418 0 0.03242360965689417 0.00026515598423769063 0 0.029627089743346494 3.8995708670282676e-05 0 0.030672062676522328 -0.00022730027795536418 0 0.029372993520115773 0.00055391642131076319 0 0.029372993520115773 0.00055391642131076319 0 0.03242360965689417 0.00026515598423769063 0 0.031872655327558473 0.0023240092659922301 0 0.030672062676522328 -0.00022730027795536418 0 0.029372993520115773 0.00055391642131076319 0 0.03242360965689417 0.00026515598423769063 0 0.033647517070400597 0.0015822634796929143 0 0.03242360965689417 0.00026515598423769063 0 0.031872655327558473 0.0023240092659922301 0 0.033647517070400597 0.0015822634796929143 0 0.03491044903227529 0.00071659426033048013 0 0.035015287832137858 0.0018559948683035937 0 0.033647517070400597 0.0015822634796929143 0 0.03491044903227529 0.00071659426033048013 0 0.03242360965689417 0.00026515598423769063 0 0.03491044903227529 0.00071659426033048013 0 0.03242360965689417 0.00026515598423769063 0 0.034011868215497919 -0.0014214047269135931 0 0.03212958005330098 -0.0010010193552638055 0 0.03242360965689417 0.00026515598423769063 0 0.034011868215497919 -0.0014214047269135931 0 0.03347192648146672 -0.0032173013558366471 0 0.032169578206599839 -0.0022728558227947172 0 0.034011868215497919 -0.0014214047269135931 0 0.032169578206599839 -0.0022728558227947172 0 0.03212958005330098 -0.0010010193552638055 0 0.034011868215497919 -0.0014214047269135931 0 0.034958573432560903 -0.0011836023211931398 0 0.034462845683852932 -0.00065771321012286386 0 0.035003118421188938 -0.00046566353151074563 0 0.035393024547527782 -0.00012952937762712613 0 0.035117512764521235 0.00038721049489421884 0 0.034935613241754121 0.0007559183623222054 0 0.034462845683852932 -0.00065771321012286386 0 0.035117512764521235 0.00038721049489421884 0 0.036332776941662225 0.00030740387476204669 0 0.03605122577848336 0.00088902892567216407 0 0.03491044903227529 0.00071659426033048013 0 0.035117512764521235 0.00038721049489421884 0 0.03605122577848336 0.00088902892567216407 0 0.035393024547527782 -0.00012952937762712613 0 0.035117512764521235 0.00038721049489421884 0 0.036332776941662225 0.00030740387476204669 0 0.036332776941662225 0.00030740387476204669 0 0.03605122577848336 0.00088902892567216407 0 0.036816401706032911 0.00084389846680052211 0 0.03605122577848336 0.00088902892567216407 0 0.035898689387808144 0.0014954069639724573 0 0.036583572563333271 0.0013706376285004703 0 0.03491044903227529 0.00071659426033048013 0 0.03605122577848336 0.00088902892567216407 0 0.035898689387808144 0.0014954069639724573 0 0.03491044903227529 0.00071659426033048013 0 0.035898689387808144 0.0014954069639724573 0 0.035015287832137858 0.0018559948683035937 0 0.035898689387808144 0.0014954069639724573 0 0.035827351902085115 0.0021072595208469738 0 0.035015287832137858 0.0018559948683035937 0 0.035827351902085115 0.0021072595208469738 0 0.035015287832137858 0.0018559948683035937 0 0.035332449492714198 0.0024404598839875475 0 0.035015287832137858 0.0018559948683035937 0 0.035332449492714198 0.0024404598839875475 0 0.033791505824591159 0.0029194689804889801 0 0.035332449492714198 0.0024404598839875475 0 0.035005848744999041 0.0029678126247510458 0 0.033791505824591159 0.0029194689804889801 0 0.035332449492714198 0.0024404598839875475 0 0.035777882015417373 0.0024390208408753334 0 0.035500501344080442 0.0027324255757688485 0 0.035827351902085115 0.0021072595208469738 0 0.035332449492714198 0.0024404598839875475 0 0.035777882015417373 0.0024390208408753334 0 0.035500501344080442 0.0027324255757688485 0 0.035789462768141059 0.0027251908777430325 0 0.035005848744999041 0.0029678126247510458 0 0.035810577887516855 0.0027603296466750912 0 0.035789462768141059 0.0027251908777430325 0 0.035005848744999041 0.0029678126247510458 0 0.035777882015417373 0.0024390208408753334 0 0.03584127765362901 0.0025714582234559885 0 0.035500501344080442 0.0027324255757688485 0 0.035500501344080442 0.0027324255757688485 0 0.03575323066343556 0.002665543077824145 0 0.035789462768141059 0.0027251908777430325 0 0.03584127765362901 0.0025714582234559885 0 0.035500501344080442 0.0027324255757688485 0 0.03575323066343556 0.002665543077824145 0 0.03584127765362901 0.0025714582234559885 0 0.03575323066343556 0.002665543077824145 0 0.035860561062373744 0.0026151406246412955 0 0.03575323066343556 0.002665543077824145 0 0.035860561062373744 0.0026151406246412955 0 0.035789462768141059 0.0027251908777430325 0 0.033428765073864976 0.00090474042036455405 0 0.034346915204642975 0.0015273378839002275 0 0.033517541973799587 0.0023358293301895656 0 0.035820397666342339 0.0026797348225756391 0 0.035789462768141059 0.0027251908777430325 0 0.035921793078614116 0.0025774384384676776 0 0.035860561062373744 0.0026151406246412955 0 0.035789462768141059 0.0027251908777430325 0 0.035921793078614116 0.0025774384384676776 0 0.033248101359693159 0.0014197196146646643 0 0.032345725737506791 0.0014274917833051563 0 0.029489862938232723 0.00062876366022327585 0 0.028836419708235233 0.00082718717760359888 0 0.029190289576280989 0.0010695736743049989 0 0.033248101359693159 0.0014197196146646643 0 0.03346412769972737 0.0017989082696070206 0 0.028836419708235233 0.00082718717760359888 0 0.028701219143948235 0.00017208264490388325 0 0.02827297492568363 0.00086567478686463571 0 0.029489862938232723 0.00062876366022327585 0 0.028836419708235233 0.00082718717760359888 0 0.028701219143948235 0.00017208264490388325 0 0.033248101359693159 0.0014197196146646643 0 0.031727816824307274 0.001558443148553357 0 0.035332449492714198 0.0024404598839875475 0 0.035500501344080442 0.0027324255757688485 0 0.035005848744999041 0.0029678126247510458 0 0.028701219143948235 0.00017208264490388325 0 0.027931933666576845 0.00031463444980335423 0 0.027972208971568047 -0.00010598414440448596 0 0.031727816824307274 0.001558443148553357 0 0.0308753471392973 0.0014058196435293199 0 0.028701219143948235 0.00017208264490388325 0 0.02827297492568363 0.00086567478686463571 0 0.027931933666576845 0.00031463444980335423 0 0.028836419708235233 0.00082718717760359888 0 0.02827297492568363 0.00086567478686463571 0 0.028561053939012031 0.0011386290264913624 0 0.02827297492568363 0.00086567478686463571 0 0.027705083312259713 0.00091275055243006224 0 0.027931933666576845 0.00031463444980335423 0 0.027705083312259713 0.00091275055243006224 0 0.027931933666576845 0.00031463444980335423 0 0.027566964183602126 0.00036019034220572939 0 0.027931933666576845 0.00031463444980335423 0 0.02766974315577013 1.6230982754449429e-05 0 0.027566964183602126 0.00036019034220572939 0 0.027931933666576845 0.00031463444980335423 0 0.02766974315577013 1.6230982754449429e-05 0 0.027972208971568047 -0.00010598414440448596 0 0.0308753471392973 0.0014058196435293199 0 0.029822037647044483 0.001102164752361273 0 0.02766974315577013 1.6230982754449429e-05 0 0.027972208971568047 -0.00010598414440448596 0 0.027717593401313693 3.4672178625291149e-05 0 0.033647517070400597 0.0015822634796929143 0 0.035015287832137858 0.0018559948683035937 0 0.033791505824591159 0.0029194689804889801 0 0.033647517070400597 0.0015822634796929143 0 0.033791505824591159 0.0029194689804889801 0 0.031872655327558473 0.0023240092659922301 0 0.029347003322366595 0.00062328007696094232 0 0.029822037647044483 0.001102164752361273 0 0.029372993520115773 0.00055391642131076319 0 0.027799951213076438 -0.00012468429084157287 0 0.028267570325440642 0.00011406323550026289 0 0.029372993520115773 0.00055391642131076319 0 0.027717593401313693 3.4672178625291149e-05 0 0.027799951213076438 -0.00012468429084157287 0 0.02766974315577013 1.6230982754449429e-05 0 0.027717593401313693 3.4672178625291149e-05 0 0.027799951213076438 -0.00012468429084157287 0 0.02766974315577013 1.6230982754449429e-05 0 0.027799951213076438 -0.00012468429084157287 0 0.027387313969247973 0.00010448103858201664 0 0.02766974315577013 1.6230982754449429e-05 0 0.027387313969247973 0.00010448103858201664 0 0.027566964183602126 0.00036019034220572939 0 0.027705083312259713 0.00091275055243006224 0 0.027566964183602126 0.00036019034220572939 0 0.027204813389790177 0.00060949323663156418 0 0.027387313969247973 0.00010448103858201664 0 0.027566964183602126 0.00036019034220572939 0 0.027204813389790177 0.00060949323663156418 0 0.027204813389790177 0.00060949323663156418 0 0.02666410697237127 2.0990918062945958e-05 0 0.025484597238977735 0.00034502740911278128 0 0.027799951213076438 -0.00012468429084157287 0 0.027387313969247973 0.00010448103858201664 0 0.02666410697237127 2.0990918062945958e-05 0 0.027387313969247973 0.00010448103858201664 0 0.027204813389790177 0.00060949323663156418 0 0.02666410697237127 2.0990918062945958e-05 0 0.02666410697237127 2.0990918062945958e-05 0 0.024534506544789871 -1.4307307769417085e-06 0 0.026997294152826284 -9.7190077541806617e-05 0 0.02666410697237127 2.0990918062945958e-05 0 0.025484597238977735 0.00034502740911278128 0 0.024534506544789871 -1.4307307769417085e-06 0 0.025484597238977735 0.00034502740911278128 0 0.024534506544789871 -1.4307307769417085e-06 0 0.021982340569763135 4.144305645175625e-06 0 0.024534506544789871 -1.4307307769417085e-06 0 0.026997294152826284 -9.7190077541806617e-05 0 0.027094787847759042 1.2855002321507249e-07 0 0.027799951213076438 -0.00012468429084157287 0 0.02666410697237127 2.0990918062945958e-05 0 0.026997294152826284 -9.7190077541806617e-05 0 0.027799951213076438 -0.00012468429084157287 0 0.026997294152826284 -9.7190077541806617e-05 0 0.028267570325440642 0.00011406323550026289 0 0.029627089743346494 3.8995708670282676e-05 0 0.028267570325440642 0.00011406323550026289 0 0.027094787847759042 1.2855002321507249e-07 0 0.026997294152826284 -9.7190077541806617e-05 0 0.028267570325440642 0.00011406323550026289 0 0.027094787847759042 1.2855002321507249e-07 0 0.036249151435284024 0.0024524454948453961 0 0.036080283707769154 0.0026522340785730836 0 0.036621652698655714 0.0024660340590915656 0 0.036219697534622987 0.0022792246834420693 0 0.037169435605640927 0.0017461761241634058 0 0.036214063327928724 0.0022057932762500226 0 0.036097397631295831 0.0026595779876160759 0 0.035937101694871028 0.0019786308703823689 0 0.036249151435284024 0.0024524454948453961 0 0.036214063327928724 0.0022057932762500226 0 0.036097397631295831 0.0026595779876160759 0 0.036249151435284024 0.0024524454948453961 0 0.036214063327928724 0.0022057932762500226 0 0.036484885648928114 0.0022029191227050729 0 0.036688495023761446 0.0018988140452919509 0 0.0367509502247454 0.0018082538333416085 0 0.037233062332176013 0.0017138072091619819 0 0.036688495023761446 0.0018988140452919509 0 0.036615955309132683 0.0021340879270895334 0 0.037233062332176013 0.0017138072091619819 0 0.036688495023761446 0.0018988140452919509 0 0.036562246379040715 0.0018286624077931842 0 0.036615955309132683 0.0021340879270895334 0 0.037169435605640927 0.0017461761241634058 0 0.037312795971467742 0.0017409294915078863 0 0.036688495023761446 0.0018988140452919509 0 0.036630990089037023 0.0018511916497715942 0 0.0367509502247454 0.0018082538333416085 0 0.036688495023761446 0.0018988140452919509 0 0.036630990089037023 0.0018511916497715942 0 0.036562246379040715 0.0018286624077931842 0 0.036591391229021407 0.0018532144370969519 0 0.036630990089037023 0.0018511916497715942 0 0.036562246379040715 0.0018286624077931842 0 0.036591391229021407 0.0018532144370969519 0 0.036630990089037023 0.0018511916497715942 0 0.0367509502247454 0.0018082538333416085 0 0.0367509502247454 0.0018082538333416085 0 0.036532180187074367 0.0019422722950073964 0 0.036482772815646533 0.0019156903762087714 0 0.036591391229021407 0.0018532144370969519 0 0.036562246379040715 0.0018286624077931842 0 0.036482772815646533 0.0019156903762087714 0 0.036591391229021407 0.0018532144370969519 0 0.0367509502247454 0.0018082538333416085 0 0.036482772815646533 0.0019156903762087714 0 0.036080283707769154 0.0026522340785730836 0 0.035796433852223496 0.002521283410666637 0 0.035910046209121971 0.0023760398342685517 0 0.036097397631295831 0.0026595779876160759 0 0.036080283707769154 0.0026522340785730836 0 0.035910046209121971 0.0023760398342685517 0 0.036219697534622987 0.0022792246834420693 0 0.036098390648205234 0.0021791637263387066 0 0.036562246379040715 0.0018286624077931842 0 0.036300054745974662 0.0020281177316735541 0 0.036482772815646533 0.0019156903762087714 0 0.036249151435284024 0.0024524454948453961 0 0.036097397631295831 0.0026595779876160759 0 0.036080283707769154 0.0026522340785730836 0 0.036080283707769154 0.0026522340785730836 0 0.036876505072965221 0.0026919853915963483 0 0.036621652698655714 0.0024660340590915656 0 0.036080283707769154 0.0026522340785730836 0 0.035796433852223496 0.002521283410666637 0 0.035568899226276755 0.002655167587201549 0 0.036088869136980034 0.0026561299893077361 0 0.036199216569726876 0.002660841109582254 0 0.035796433852223496 0.002521283410666637 0 0.035568899226276755 0.002655167587201549 0 0.035618672571111745 0.0024108897055896933 0 0.037443078743779973 0.0026507828690190355 0 0.036876505072965221 0.0026919853915963483 0 0.037171712610715425 0.0023949566065387803 0 0.036359464166283453 0.0026181259633400898 0 0.036199216569726876 0.002660841109582254 0 0.035143100029100323 0.0025425356920462613 0 0.035568899226276755 0.002655167587201549 0 0.035376888398764496 0.0024312484390393578 0 0.036876505072965221 0.0026919853915963483 0 0.037171712610715425 0.0023949566065387803 0 0.036621652698655714 0.0024660340590915656 0 0.037171712610715425 0.0023949566065387803 0 0.036621652698655714 0.0024660340590915656 0 0.036949621422845823 0.0020921867205383696 0 0.037405208949986155 0.0020959083634076001 0 0.037171712610715425 0.0023949566065387803 0 0.036949621422845823 0.0020921867205383696 0 0.036621652698655714 0.0024660340590915656 0 0.036484885648928114 0.0022029191227050729 0 0.036949621422845823 0.0020921867205383696 0 0.036249151435284024 0.0024524454948453961 0 0.036621652698655714 0.0024660340590915656 0 0.036484885648928114 0.0022029191227050729 0 0.036465932036011395 0.0017775582017601225 0 0.036949621422845823 0.0020921867205383696 0 0.036983633004254932 0.0016179106411170522 0 0.036484885648928114 0.0022029191227050729 0 0.036465932036011395 0.0017775582017601225 0 0.036949621422845823 0.0020921867205383696 0 0.037389947855506755 0.0018135772765608381 0 0.036949621422845823 0.0020921867205383696 0 0.036983633004254932 0.0016179106411170522 0 0.037753794734336037 0.0015475714352157629 0 0.03777326133001814 0.0013327511241199095 0 0.037894490476084078 0.001384252488010802 0 0.037512775417548154 0.0015146298211626507 0 0.037385216753630698 0.0014873939552261779 0 0.037541421439380378 0.0015401623235385021 0 0.037753794734336037 0.0015475714352157629 0 0.03777326133001814 0.0013327511241199095 0 0.037953681622983008 0.0012385520330168342 0 0.03777326133001814 0.0013327511241199095 0 0.037894490476084078 0.001384252488010802 0 0.037953681622983008 0.0012385520330168342 0 0.037894490476084078 0.001384252488010802 0 0.038014225575296205 0.0013381142855527265 0 0.037182396088350583 0.0015109224529759649 0 0.037385216753630698 0.0014873939552261779 0 0.037953681622983008 0.0012385520330168342 0 0.038014225575296205 0.0013381142855527265 0 0.038060629048745194 0.0012595231069368836 0 0.037953681622983008 0.0012385520330168342 0 0.03803237056254969 0.0011997160747083159 0 0.038060629048745194 0.0012595231069368836 0 0.037182396088350583 0.0015109224529759649 0 0.037169435605640927 0.0017461761241634058 0 0.036214063327928724 0.0022057932762500226 0 0.036484885648928114 0.0022029191227050729 0 0.036465932036011395 0.0017775582017601225 0 0.036214063327928724 0.0022057932762500226 0 0.036465932036011395 0.0017775582017601225 0 0.035937101694871028 0.0019786308703823689 0 0.037169435605640927 0.0017461761241634058 0 0.038039239761134859 0.0012177300623320887 0 0.038083015719115099 0.0014987415354396523 0 0.038060629048745194 0.0012595231069368836 0 0.037683638275838011 0.0012476446016008236 0 0.038175868399290484 0.0013723063697895109 0 0.038014225575296205 0.0013381142855527265 0 0.038060629048745194 0.0012595231069368836 0 0.038125630030234926 0.001240698823162779 0 0.038060629048745194 0.0012595231069368836 0 0.037683638275838011 0.0012476446016008236 0 0.038125630030234926 0.001240698823162779 0 0.037683638275838011 0.0012476446016008236 0 0.037660751083951144 0.00075882062888086611 0 0.037151981085272824 0.0012949169791971772 0 0.037683638275838011 0.0012476446016008236 0 0.037660751083951144 0.00075882062888086611 0 0.037151981085272824 0.0012949169791971772 0 0.037683638275838011 0.0012476446016008236 0 0.037233062332176013 0.0017138072091619819 0 0.038083015719115099 0.0014987415354396523 0 0.037683638275838011 0.0012476446016008236 0 0.037233062332176013 0.0017138072091619819 0 0.036936578236502988 0.00023388912833617742 0 0.036332776941662225 0.00030740387476204669 0 0.036816401706032911 0.00084389846680052211 0 0.036936578236502988 0.00023388912833617742 0 0.037660751083951144 0.00075882062888086611 0 0.036816401706032911 0.00084389846680052211 0 0.037151981085272824 0.0012949169791971772 0 0.037660751083951144 0.00075882062888086611 0 0.036816401706032911 0.00084389846680052211 0 0.037151981085272824 0.0012949169791971772 0 0.036816401706032911 0.00084389846680052211 0 0.036583572563333271 0.0013706376285004703 0 0.03605122577848336 0.00088902892567216407 0 0.036816401706032911 0.00084389846680052211 0 0.036583572563333271 0.0013706376285004703 0 0.037151981085272824 0.0012949169791971772 0 0.036583572563333271 0.0013706376285004703 0 0.036757441005233808 0.001781694646754692 0 0.036583572563333271 0.0013706376285004703 0 0.036757441005233808 0.001781694646754692 0 0.036345994849587414 0.0018815558153054911 0 0.035898689387808144 0.0014954069639724573 0 0.036583572563333271 0.0013706376285004703 0 0.036345994849587414 0.0018815558153054911 0 0.037151981085272824 0.0012949169791971772 0 0.037233062332176013 0.0017138072091619819 0 0.036757441005233808 0.001781694646754692 0 0.037233062332176013 0.0017138072091619819 0 0.036757441005233808 0.001781694646754692 0 0.036784652254622144 0.0018287879034317638 0 0.036757441005233808 0.001781694646754692 0 0.036784652254622144 0.0018287879034317638 0 0.036571191940807671 0.0019571515144715811 0 0.0367509502247454 0.0018082538333416085 0 0.036784652254622144 0.0018287879034317638 0 0.036532180187074367 0.0019422722950073964 0 0.0367509502247454 0.0018082538333416085 0 0.037233062332176013 0.0017138072091619819 0 0.036784652254622144 0.0018287879034317638 0 0.036532180187074367 0.0019422722950073964 0 0.036351424737386499 0.002079420681435976 0 0.036309721145673268 0.0020330721681694553 0 0.036532180187074367 0.0019422722950073964 0 0.036571191940807671 0.0019571515144715811 0 0.036351424737386499 0.002079420681435976 0 0.036784652254622144 0.0018287879034317638 0 0.036532180187074367 0.0019422722950073964 0 0.036571191940807671 0.0019571515144715811 0 0.036757441005233808 0.001781694646754692 0 0.036571191940807671 0.0019571515144715811 0 0.03635903402532057 0.0021291994572621709 0 0.036571191940807671 0.0019571515144715811 0 0.03635903402532057 0.0021291994572621709 0 0.036351424737386499 0.002079420681435976 0 0.03635903402532057 0.0021291994572621709 0 0.036351424737386499 0.002079420681435976 0 0.036190721713902946 0.0021974823480344977 0 0.03635903402532057 0.0021291994572621709 0 0.036196356768192113 0.0022548554810184365 0 0.036190721713902946 0.0021974823480344977 0 0.036351424737386499 0.002079420681435976 0 0.036116376437285921 0.0021106068827184995 0 0.036190721713902946 0.0021974823480344977 0 0.036351424737386499 0.002079420681435976 0 0.036116376437285921 0.0021106068827184995 0 0.036309721145673268 0.0020330721681694553 0 0.035898689387808144 0.0014954069639724573 0 0.035827351902085115 0.0021072595208469738 0 0.036345994849587414 0.0018815558153054911 0 0.035827351902085115 0.0021072595208469738 0 0.036345994849587414 0.0018815558153054911 0 0.036118958864771393 0.0022406766229659519 0 0.036757441005233808 0.001781694646754692 0 0.03635903402532057 0.0021291994572621709 0 0.036345994849587414 0.0018815558153054911 0 0.03635903402532057 0.0021291994572621709 0 0.036345994849587414 0.0018815558153054911 0 0.036118958864771393 0.0022406766229659519 0 0.03635903402532057 0.0021291994572621709 0 0.036118958864771393 0.0022406766229659519 0 0.036130732820752132 0.0023449577934554116 0 0.03635903402532057 0.0021291994572621709 0 0.036130732820752132 0.0023449577934554116 0 0.036196356768192113 0.0022548554810184365 0 0.036118958864771393 0.0022406766229659519 0 0.035993816465238547 0.002429720166838999 0 0.036130732820752132 0.0023449577934554116 0 0.035777882015417373 0.0024390208408753334 0 0.036118958864771393 0.0022406766229659519 0 0.035993816465238547 0.002429720166838999 0 0.035827351902085115 0.0021072595208469738 0 0.035777882015417373 0.0024390208408753334 0 0.036118958864771393 0.0022406766229659519 0 0.035860561062373744 0.0026151406246412955 0 0.035998084826362242 0.0024910217551370041 0 0.035921793078614116 0.0025774384384676776 0 0.03584127765362901 0.0025714582234559885 0 0.035860561062373744 0.0026151406246412955 0 0.035998084826362242 0.0024910217551370041 0 0.03584127765362901 0.0025714582234559885 0 0.035993816465238547 0.002429720166838999 0 0.035998084826362242 0.0024910217551370041 0 0.035777882015417373 0.0024390208408753334 0 0.03584127765362901 0.0025714582234559885 0 0.035993816465238547 0.002429720166838999 0 0.035993816465238547 0.002429720166838999 0 0.035998084826362242 0.0024910217551370041 0 0.036130732820752132 0.0023449577934554116 0 0.035998084826362242 0.0024910217551370041 0 0.03606529987848945 0.0024062554391914991 0 0.036130732820752132 0.0023449577934554116 0 0.03606529987848945 0.0024062554391914991 0 0.036130732820752132 0.0023449577934554116 0 0.036089915309534294 0.0023120845921741889 0 0.036130732820752132 0.0023449577934554116 0 0.036196356768192113 0.0022548554810184365 0 0.036089915309534294 0.0023120845921741889 0 0.036089915309534294 0.0023120845921741889 0 0.036044930878996066 0.0023623367588260212 0 0.035932123551010442 0.0022109650000161707 0 0.03606529987848945 0.0024062554391914991 0 0.036044930878996066 0.0023623367588260212 0 0.036018358381658705 0.0024678267006816553 0 0.03606529987848945 0.0024062554391914991 0 0.036089915309534294 0.0023120845921741889 0 0.036044930878996066 0.0023623367588260212 0 0.035998084826362242 0.0024910217551370041 0 0.03606529987848945 0.0024062554391914991 0 0.036018358381658705 0.0024678267006816553 0 0.036044930878996066 0.0023623367588260212 0 0.036018358381658705 0.0024678267006816553 0 0.036022249312536635 0.0024533721672770617 0 0.033248101359693159 0.0014197196146646643 0 0.035308834958629486 0.0020941451945167009 0 0.036018358381658705 0.0024678267006816553 0 0.036022249312536635 0.0024533721672770617 0 0.035921793078614116 0.0025774384384676776 0 0.035820397666342339 0.0026797348225756391 0 0.036022249312536635 0.0024533721672770617 0 0.035921793078614116 0.0025774384384676776 0 0.035998084826362242 0.0024910217551370041 0 0.036018358381658705 0.0024678267006816553 0 0.035921793078614116 0.0025774384384676776 0 0.036116376437285921 0.0021106068827184995 0 0.036190721713902946 0.0021974823480344977 0 0.035977475365973489 0.0021837105030295218 0 0.036089915309534294 0.0023120845921741889 0 0.036190721713902946 0.0021974823480344977 0 0.035977475365973489 0.0021837105030295218 0 0.036196356768192113 0.0022548554810184365 0 0.036089915309534294 0.0023120845921741889 0 0.036190721713902946 0.0021974823480344977 0 0.036089915309534294 0.0023120845921741889 0 0.035977475365973489 0.0021837105030295218 0 0.035932123551010442 0.0022109650000161707 0 0.035977475365973489 0.0021837105030295218 0 0.035684656101998169 0.002017120298337228 0 0.035932123551010442 0.0022109650000161707 0 0.035977475365973489 0.0021837105030295218 0 0.035877258395336425 0.0020762194661318825 0 0.035684656101998169 0.002017120298337228 0 0.036116376437285921 0.0021106068827184995 0 0.035977475365973489 0.0021837105030295218 0 0.035877258395336425 0.0020762194661318825 0 0.035877258395336425 0.0020762194661318825 0 0.035750293411285293 0.0020358814545502072 0 0.035919553003848997 0.0020781205164671947 0 0.035750293411285293 0.0020358814545502072 0 0.035743442648621448 0.0020739698224645844 0 0.035595022397565776 0.0020516345745107993 0 0.035750293411285293 0.0020358814545502072 0 0.035743442648621448 0.0020739698224645844 0 0.035919553003848997 0.0020781205164671947 0 0.035743442648621448 0.0020739698224645844 0 0.035919553003848997 0.0020781205164671947 0 0.035799760232985443 0.0021177732305868464 0 0.035919553003848997 0.0020781205164671947 0 0.036091801765050315 0.0020877302509147337 0 0.035799760232985443 0.0021177732305868464 0 0.036116376437285921 0.0021106068827184995 0 0.035919553003848997 0.0020781205164671947 0 0.036091801765050315 0.0020877302509147337 0 0.036116376437285921 0.0021106068827184995 0 0.035877258395336425 0.0020762194661318825 0 0.035919553003848997 0.0020781205164671947 0 0.036116376437285921 0.0021106068827184995 0 0.036309721145673268 0.0020330721681694553 0 0.036091801765050315 0.0020877302509147337 0 0.036309721145673268 0.0020330721681694553 0 0.036091801765050315 0.0020877302509147337 0 0.036300054745974662 0.0020281177316735541 0 0.036098390648205234 0.0021791637263387066 0 0.035849177396908953 0.0020899996755200322 0 0.036091801765050315 0.0020877302509147337 0 0.036300054745974662 0.0020281177316735541 0 0.035799760232985443 0.0021177732305868464 0 0.036309721145673268 0.0020330721681694553 0 0.036300054745974662 0.0020281177316735541 0 0.036482772815646533 0.0019156903762087714 0 0.036532180187074367 0.0019422722950073964 0 0.036309721145673268 0.0020330721681694553 0 0.036482772815646533 0.0019156903762087714 0 0.035568899226276755 0.002655167587201549 0 0.035376888398764496 0.0024312484390393578 0 0.035618672571111745 0.0024108897055896933 0 0.035376888398764496 0.0024312484390393578 0 0.035618672571111745 0.0024108897055896933 0 0.035399417294996779 0.0022428177087150526 0 0.035796433852223496 0.002521283410666637 0 0.035910046209121971 0.0023760398342685517 0 0.035618672571111745 0.0024108897055896933 0 0.035910046209121971 0.0023760398342685517 0 0.035618672571111745 0.0024108897055896933 0 0.035649245158530456 0.0022632911188860184 0 0.035649245158530456 0.0022632911188860184 0 0.035515313436100926 0.0021467274261279226 0 0.035799760232985443 0.0021177732305868464 0 0.035910046209121971 0.0023760398342685517 0 0.035649245158530456 0.0022632911188860184 0 0.035799760232985443 0.0021177732305868464 0 0.035618672571111745 0.0024108897055896933 0 0.035649245158530456 0.0022632911188860184 0 0.035399417294996779 0.0022428177087150526 0 0.035266932273456376 0.0020483066924420882 0 0.035399417294996779 0.0022428177087150526 0 0.035515313436100926 0.0021467274261279226 0 0.035649245158530456 0.0022632911188860184 0 0.035399417294996779 0.0022428177087150526 0 0.035515313436100926 0.0021467274261279226 0 0.035266932273456376 0.0020483066924420882 0 0.035515313436100926 0.0021467274261279226 0 0.035508759874548691 0.0021011067863866825 0 0.035743442648621448 0.0020739698224645844 0 0.035799760232985443 0.0021177732305868464 0 0.035508759874548691 0.0021011067863866825 0 0.035515313436100926 0.0021467274261279226 0 0.035799760232985443 0.0021177732305868464 0 0.035508759874548691 0.0021011067863866825 0 0.035743442648621448 0.0020739698224645844 0 0.035508759874548691 0.0021011067863866825 0 0.035595022397565776 0.0020516345745107993 0 0.035508759874548691 0.0021011067863866825 0 0.035595022397565776 0.0020516345745107993 0 0.035361084856451334 0.002116689625852972 0 0.034795280010013981 0.0023540531883318094 0 0.035508759874548691 0.0021011067863866825 0 0.035361084856451334 0.002116689625852972 0 0.035266932273456376 0.0020483066924420882 0 0.035246907092122817 0.0017951423539033543 0 0.035508759874548691 0.0021011067863866825 0 0.03497365991780152 0.0020430911146673086 0 0.035433023008124086 0.002113774325934078 0 0.034795280010013981 0.0023540531883318094 0 0.035361084856451334 0.002116689625852972 0 0.035405270340205373 0.0018889108133396402 0 0.034795280010013981 0.0023540531883318094 0 0.035405270340205373 0.0018889108133396402 0 0.034529777355615521 0.0017021925807158295 0 0.035595022397565776 0.0020516345745107993 0 0.035405270340205373 0.0018889108133396402 0 0.03558026497644827 0.0019601745927263652 0 0.035595022397565776 0.0020516345745107993 0 0.035361084856451334 0.002116689625852972 0 0.035405270340205373 0.0018889108133396402 0 0.035405270340205373 0.0018889108133396402 0 0.035434191555437429 0.0019235153269184591 0 0.035198287613659368 0.0019385525222491734 0 0.035405270340205373 0.0018889108133396402 0 0.035434191555437429 0.0019235153269184591 0 0.03558026497644827 0.0019601745927263652 0 0.035405270340205373 0.0018889108133396402 0 0.035092394878079622 0.0010365410653489064 0 0.034529777355615521 0.0017021925807158295 0 0.035368251160148557 0.0018433635295765655 0 0.035138206788821007 0.0015044519491742392 0 0.035138206788821007 0.0015044519491742392 0 0.03483576512570849 0.00065932072856110231 0 0.035198287613659368 0.0019385525222491734 0 0.035312834528392234 0.0017767908846893119 0 0.035451189054584664 0.0018917490241104821 0 0.035434191555437429 0.0019235153269184591 0 0.035198287613659368 0.0019385525222491734 0 0.035451189054584664 0.0018917490241104821 0 0.035312834528392234 0.0017767908846893119 0 0.035391165806831278 0.001719544420416501 0 0.035477942368484332 0.0018067645884104876 0 0.035312834528392234 0.0017767908846893119 0 0.035477942368484332 0.0018067645884104876 0 0.035451189054584664 0.0018917490241104821 0 0.035312834528392234 0.0017767908846893119 0 0.035391165806831278 0.001719544420416501 0 0.035333631536726445 0.0016410084351724179 0 0.035391165806831278 0.001719544420416501 0 0.035333631536726445 0.0016410084351724179 0 0.035435472671050051 0.0016465619351725995 0 0.035312834528392234 0.0017767908846893119 0 0.035079003198836847 0.001711815564971606 0 0.035202316943017918 0.0015943094746303196 0 0.035312834528392234 0.0017767908846893119 0 0.035333631536726445 0.0016410084351724179 0 0.035202316943017918 0.0015943094746303196 0 0.035198287613659368 0.0019385525222491734 0 0.035312834528392234 0.0017767908846893119 0 0.035079003198836847 0.001711815564971606 0 0.035079003198836847 0.001711815564971606 0 0.035058455747715531 0.0014950448862708049 0 0.034919505116619405 0.0015659743725188985 0 0.035079003198836847 0.001711815564971606 0 0.035058455747715531 0.0014950448862708049 0 0.035202316943017918 0.0015943094746303196 0 0.035198287613659368 0.0019385525222491734 0 0.035079003198836847 0.001711815564971606 0 0.034826821107590999 0.0017233767348976679 0 0.035079003198836847 0.001711815564971606 0 0.034919505116619405 0.0015659743725188985 0 0.034826821107590999 0.0017233767348976679 0 0.03554565549401778 0.0019168272403142564 0 0.035497595930596038 0.0020494753061381234 0 0.035540086980981836 0.001756108893751677 0 0.032527778380733653 0.0014762931772984158 0 0.033234851183531797 0.0019465858833815602 0 0.031517276365201234 0.0013790990149148352 0 0.034326475616292172 0.0019482645996298437 0 0.033547596706569871 0.0015776507441041174 0 0.035477942368484332 0.0018067645884104876 0 0.03554565549401778 0.0019168272403142564 0 0.035540086980981836 0.001756108893751677 0 0.035391165806831278 0.001719544420416501 0 0.035477942368484332 0.0018067645884104876 0 0.035435472671050051 0.0016465619351725995 0 0.035477942368484332 0.0018067645884104876 0 0.035435472671050051 0.0016465619351725995 0 0.035540086980981836 0.001756108893751677 0 0.035451189054584664 0.0018917490241104821 0 0.03554565549401778 0.0019168272403142564 0 0.03556943643788435 0.0019402755244927307 0 0.035477942368484332 0.0018067645884104876 0 0.035451189054584664 0.0018917490241104821 0 0.03554565549401778 0.0019168272403142564 0 0.03554565549401778 0.0019168272403142564 0 0.03554460169522336 0.0019668409677108816 0 0.035497595930596038 0.0020494753061381234 0 0.03554565549401778 0.0019168272403142564 0 0.03556943643788435 0.0019402755244927307 0 0.03554460169522336 0.0019668409677108816 0 0.03556943643788435 0.0019402755244927307 0 0.035679030324269417 0.0019809760119895818 0 0.03554460169522336 0.0019668409677108816 0 0.035434191555437429 0.0019235153269184591 0 0.035451189054584664 0.0018917490241104821 0 0.03556943643788435 0.0019402755244927307 0 0.03556943643788435 0.0019402755244927307 0 0.03558026497644827 0.0019601745927263652 0 0.035679030324269417 0.0019809760119895818 0 0.035434191555437429 0.0019235153269184591 0 0.03556943643788435 0.0019402755244927307 0 0.03558026497644827 0.0019601745927263652 0 0.035750293411285293 0.0020358814545502072 0 0.035595022397565776 0.0020516345745107993 0 0.03558026497644827 0.0019601745927263652 0 0.035750293411285293 0.0020358814545502072 0 0.03558026497644827 0.0019601745927263652 0 0.035679030324269417 0.0019809760119895818 0 0.035877258395336425 0.0020762194661318825 0 0.035750293411285293 0.0020358814545502072 0 0.035679030324269417 0.0019809760119895818 0 0.035877258395336425 0.0020762194661318825 0 0.035679030324269417 0.0019809760119895818 0 0.035684656101998169 0.002017120298337228 0 0.035679030324269417 0.0019809760119895818 0 0.035684656101998169 0.002017120298337228 0 0.035480973072917012 0.0019897153382026191 0 0.035607364250156613 0.0020343404412668216 0 0.035842929549637373 0.0021565677867957499 0 0.035684656101998169 0.002017120298337228 0 0.035932123551010442 0.0022109650000161707 0 0.036070035730270601 0.0022231507113562501 0 0.035684656101998169 0.002017120298337228 0 0.035354377163721494 0.002068359226963825 0 0.035306791380904451 0.0020338893749918398 0 0.035354377163721494 0.002068359226963825 0 0.035480973072917012 0.0019897153382026191 0 0.034989071806452471 0.0021024238245459293 0 0.035684656101998169 0.002017120298337228 0 0.035354377163721494 0.002068359226963825 0 0.035480973072917012 0.0019897153382026191 0 0.035679030324269417 0.0019809760119895818 0 0.035480973072917012 0.0019897153382026191 0 0.03554460169522336 0.0019668409677108816 0 0.035353879148275917 0.002063505158929977 0 0.035306791380904451 0.0020338893749918398 0 0.035411238774779835 0.0021033698623729685 0 0.035842929549637373 0.0021565677867957499 0 0.032345725737506791 0.0014274917833051563 0 0.034346915204642975 0.0015273378839002275 0 0.035268874924119252 0.0021535340453348738 0 0.033517541973799587 0.0023358293301895656 0 0.035353879148275917 0.002063505158929977 0 0.035382589326457728 0.0020557024373697263 0 0.035411238774779835 0.0021033698623729685 0 0.035308834958629486 0.0020941451945167009 0 0.035842929549637373 0.0021565677867957499 0 0.035353879148275917 0.002063505158929977 0 0.035306791380904451 0.0020338893749918398 0 0.035313200016222776 0.002063016302173544 0 0.036044930878996066 0.0023623367588260212 0 0.036022249312536635 0.0024533721672770617 0 0.036070035730270601 0.0022231507113562501 0 0.036044930878996066 0.0023623367588260212 0 0.035932123551010442 0.0022109650000161707 0 0.036070035730270601 0.0022231507113562501 0 0.035354377163721494 0.002068359226963825 0 0.035306791380904451 0.0020338893749918398 0 0.035313200016222776 0.002063016302173544 0 0.035354377163721494 0.002068359226963825 0 0.035313200016222776 0.002063016302173544 0 0.035229465280743534 0.002039480363198171 0 0.035313200016222776 0.002063016302173544 0 0.035388023498586864 0.0020039492701312096 0 0.035229465280743534 0.002039480363198171 0 0.035353879148275917 0.002063505158929977 0 0.035313200016222776 0.002063016302173544 0 0.035382589326457728 0.0020557024373697263 0 0.035313200016222776 0.002063016302173544 0 0.035382589326457728 0.0020557024373697263 0 0.035388023498586864 0.0020039492701312096 0 0.035382589326457728 0.0020557024373697263 0 0.035388023498586864 0.0020039492701312096 0 0.03547518545815749 0.0020233778260455811 0 0.035388023498586864 0.0020039492701312096 0 0.03547518545815749 0.0020233778260455811 0 0.035596194314083722 0.0018345382305829014 0 0.035388023498586864 0.0020039492701312096 0 0.035347747540876953 0.0018158149960581589 0 0.035596194314083722 0.0018345382305829014 0 0.035229465280743534 0.002039480363198171 0 0.035001504642033589 0.0017349944360571243 0 0.034989071806452471 0.0021024238245459293 0 0.035347747540876953 0.0018158149960581589 0 0.035229465280743534 0.002039480363198171 0 0.035001504642033589 0.0017349944360571243 0 0.035388023498586864 0.0020039492701312096 0 0.035347747540876953 0.0018158149960581589 0 0.035229465280743534 0.002039480363198171 0 0.035347747540876953 0.0018158149960581589 0 0.035001504642033589 0.0017349944360571243 0 0.03538214458056875 0.0012197791835240198 0 0.035001504642033589 0.0017349944360571243 0 0.034467468181226604 0.0010513656145126962 0 0.03538214458056875 0.0012197791835240198 0 0.035347747540876953 0.0018158149960581589 0 0.03538214458056875 0.0012197791835240198 0 0.035596194314083722 0.0018345382305829014 0 0.033916689167019752 -0.00015231361466582107 0 0.033906905390914857 -0.00010817208510803265 0 0.033927049530628882 -0.00016430557157277905 0 0.035176933619641838 0.00059849051710284885 0 0.031744473825916018 0.0012740853102320771 0 0.03554460169522336 0.0019668409677108816 0 0.034989071806452471 0.0021024238245459293 0 0.035497595930596038 0.0020494753061381234 0 0.034883476840555899 0.0021019042717834576 0 0.034326475616292172 0.0019482645996298437 0 0.035480973072917012 0.0019897153382026191 0 0.03554460169522336 0.0019668409677108816 0 0.034989071806452471 0.0021024238245459293 0 0.035354377163721494 0.002068359226963825 0 0.035229465280743534 0.002039480363198171 0 0.034989071806452471 0.0021024238245459293 0 0.035001504642033589 0.0017349944360571243 0 0.034989071806452471 0.0021024238245459293 0 0.034232874277719337 0.0015243513858202869 0 0.035001504642033589 0.0017349944360571243 0 0.034232874277719337 0.0015243513858202869 0 0.034467468181226604 0.0010513656145126962 0 0.034989071806452471 0.0021024238245459293 0 0.034232874277719337 0.0015243513858202869 0 0.033234851183531797 0.0019465858833815602 0 0.034232874277719337 0.0015243513858202869 0 0.033234851183531797 0.0019465858833815602 0 0.03333581493024855 0.001244782890100996 0 0.032527778380733653 0.0014762931772984158 0 0.033234851183531797 0.0019465858833815602 0 0.03333581493024855 0.001244782890100996 0 0.03333581493024855 0.001244782890100996 0 0.033071807413058374 0.00068183715194705327 0 0.033717133007472089 0.00074321333800954998 0 0.032527778380733653 0.0014762931772984158 0 0.03333581493024855 0.001244782890100996 0 0.033071807413058374 0.00068183715194705327 0 0.033071807413058374 0.00068183715194705327 0 0.033717133007472089 0.00074321333800954998 0 0.033340463765496958 0.00012515037188885498 0 0.034232874277719337 0.0015243513858202869 0 0.03333581493024855 0.001244782890100996 0 0.033717133007472089 0.00074321333800954998 0 0.034232874277719337 0.0015243513858202869 0 0.033717133007472089 0.00074321333800954998 0 0.034467468181226604 0.0010513656145126962 0 0.033717133007472089 0.00074321333800954998 0 0.034467468181226604 0.0010513656145126962 0 0.033973723741685308 -4.1560288439365344e-05 0 0.034467468181226604 0.0010513656145126962 0 0.033973723741685308 -4.1560288439365344e-05 0 0.03538214458056875 0.0012197791835240198 0 0.033973723741685308 -4.1560288439365344e-05 0 0.033340463765496958 0.00012515037188885498 0 0.033193920795067354 -0.00048001379134173118 0 0.033071807413058374 0.00068183715194705327 0 0.033340463765496958 0.00012515037188885498 0 0.032435429143117901 -3.3729395880157854e-05 0 0.033340463765496958 0.00012515037188885498 0 0.033193920795067354 -0.00048001379134173118 0 0.032435429143117901 -3.3729395880157854e-05 0 0.033717133007472089 0.00074321333800954998 0 0.033973723741685308 -4.1560288439365344e-05 0 0.033340463765496958 0.00012515037188885498 0 0.033916689167019752 -0.00015231361466582107 0 0.033924021836120276 -0.00019841005882733023 0 0.033927049530628882 -0.00016430557157277905 0 0.033809313697068334 -8.5918604185208089e-05 0 0.035176933619641838 0.00059849051710284885 0 0.033973723741685308 -4.1560288439365344e-05 0 0.033924021836120276 -0.00019841005882733023 0 0.033862144318064114 -0.00041676400226961128 0 0.033973723741685308 -4.1560288439365344e-05 0 0.033916689167019752 -0.00015231361466582107 0 0.033924021836120276 -0.00019841005882733023 0 0.033924021836120276 -0.00019841005882733023 0 0.033913272882367999 -0.00029992145101272091 0 0.033927049530628882 -0.00016430557157277905 0 0.023020496170928603 0.00043154539325281137 0 0.030915981615671346 0.00029589664489008624 0 0.033924021836120276 -0.00019841005882733023 0 0.033913272882367999 -0.00029992145101272091 0 0.033870674646406029 -0.00034508684931316963 0 0.033913272882367999 -0.00029992145101272091 0 0.033870674646406029 -0.00034508684931316963 0 0.033846666799869113 -0.00038286190397063057 0 0.033924021836120276 -0.00019841005882733023 0 0.033870674646406029 -0.00034508684931316963 0 0.033862144318064114 -0.00041676400226961128 0 0.018182928951202413 0.001309262816633835 0 0.018089333426586675 0.0012399921237064217 0 0.01808163498985892 0.0012113132866585228 0 0.033870674646406029 -0.00034508684931316963 0 0.033846666799869113 -0.00038286190397063057 0 0.033770209023883231 -0.000419887136473496 0 0.033870674646406029 -0.00034508684931316963 0 0.033862144318064114 -0.00041676400226961128 0 0.033770209023883231 -0.000419887136473496 0 0.026485688682317238 0.00081096160641028745 0 0.025681723342659019 -0.00069539371947399285 0 0.018280761186131464 0.0013708238754383602 0 0.018223614893840161 0.0012695405489068761 0 0.018182928951202413 0.001309262816633835 0 0.023020496170928603 0.00043154539325281137 0 0.0099534064702893298 0.0018510500704050144 0 0.018223614893840161 0.0012695405489068761 0 0.018182928951202413 0.001309262816633835 0 0.01808163498985892 0.0012113132866585228 0 0.023020496170928603 0.00043154539325281137 0 0.026485688682317238 0.00081096160641028745 0 0.033193920795067354 -0.00048001379134173118 0 0.033379069156414039 -0.00088348409366480164 0 0.032993342266920314 -0.0011648493528193164 0 0.033973723741685308 -4.1560288439365344e-05 0 0.033193920795067354 -0.00048001379134173118 0 0.033862144318064114 -0.00041676400226961128 0 0.033193920795067354 -0.00048001379134173118 0 0.033862144318064114 -0.00041676400226961128 0 0.033379069156414039 -0.00088348409366480164 0 0.035755328149466706 -0.0010649543237583735 0 0.025681723342659019 -0.00069539371947399285 0 0.033862144318064114 -0.00041676400226961128 0 0.03359482607396088 -0.0015080211358800485 0 0.033379069156414039 -0.00088348409366480164 0 0.033862144318064114 -0.00041676400226961128 0 0.03359482607396088 -0.0015080211358800485 0 0.034219138973210696 -0.0019568211389923971 0 0.03359482607396088 -0.0015080211358800485 0 0.03133605510049433 -0.0010949127101065935 0 0.031731547322073603 -0.0024304964471995754 0 0.033479858222180407 -0.0014651767321312043 0 0.032224265415201792 -0.0011167768839283766 0 0.03359482607396088 -0.0015080211358800485 0 0.033379069156414039 -0.00088348409366480164 0 0.032993342266920314 -0.0011648493528193164 0 0.03133605510049433 -0.0010949127101065935 0 0.029295033962992073 -0.0007399068653762775 0 0.030344410427843145 -0.0023317160971050277 0 0.032224265415201792 -0.0011167768839283766 0 0.030492440867871954 -0.0017238765949496955 0 0.033193920795067354 -0.00048001379134173118 0 0.032993342266920314 -0.0011648493528193164 0 0.032230469225359562 -0.0010426259863475643 0 0.030492440867871954 -0.0017238765949496955 0 0.032362496421864166 -0.00021441057772151706 0 0.033193920795067354 -0.00048001379134173118 0 0.032230469225359562 -0.0010426259863475643 0 0.032435429143117901 -3.3729395880157854e-05 0 0.030545667001863792 -0.0015314572029789671 0 0.031461415715286795 -0.0028036160308382457 0 0.029302275188137241 -0.0023871695749597887 0 0.030545667001863792 -0.0015314572029789671 0 0.031461415715286795 -0.0028036160308382457 0 0.031940734894769507 -0.00041867673573112705 0 0.029051117171193352 -0.0021027169659036675 0 0.028338976468501437 -0.0025636186808471449 0 0.02791267561997713 -0.0019067902350459126 0 0.030492440867871954 -0.0017238765949496955 0 0.028626034193228685 -0.0030410451803265892 0 0.030492440867871954 -0.0017238765949496955 0 0.02855856040240216 -0.0021899621322022454 0 0.029051117171193352 -0.0021027169659036675 0 0.028338976468501437 -0.0025636186808471449 0 0.028873421761575254 -0.0032188021685595862 0 0.028338976468501437 -0.0025636186808471449 0 0.027614966823311052 -0.002478670157377713 0 0.02791267561997713 -0.0019067902350459126 0 0.026943846095158645 -0.0026316564871019946 0 0.026941775573753709 -0.0016990470481459883 0 0.026568476443532451 -0.0022361703247459597 0 0.027614966823311052 -0.002478670157377713 0 0.026941775573753709 -0.0016990470481459883 0 0.02791267561997713 -0.0019067902350459126 0 0.027614966823311052 -0.002478670157377713 0 0.026943846095158645 -0.0026316564871019946 0 0.026941775573753709 -0.0016990470481459883 0 0.026941775573753709 -0.0016990470481459883 0 0.028002397464272997 -0.0010159035936120719 0 0.029302275188137241 -0.0023871695749597887 0 0.027076531895206198 -0.0017393968188546616 0 0.02855856040240216 -0.0021899621322022454 0 0.026941775573753709 -0.0016990470481459883 0 0.028002397464272997 -0.0010159035936120719 0 0.027000540926614598 -0.00048074153714891847 0 0.030545667001863792 -0.0015314572029789671 0 0.029302275188137241 -0.0023871695749597887 0 0.0291548155993765 -0.00080763047606118423 0 0.028002397464272997 -0.0010159035936120719 0 0.029302275188137241 -0.0023871695749597887 0 0.0291548155993765 -0.00080763047606118423 0 0.028840942388832988 -3.348906236439537e-05 0 0.027482070545090574 -0.00017881951954052113 0 0.029571449506657826 0.00071024536529847677 0 0.034367577450453789 0.00065358408094803215 0 0.035407283588271686 0.0013890767159812898 0 0.035269320568428519 0.0013582578399231496 0 0.0291548155993765 -0.00080763047606118423 0 0.029696298767678469 -0.00013503008231992856 0 0.030555501955067534 -0.00035160296839958693 0 0.0291548155993765 -0.00080763047606118423 0 0.028840942388832988 -3.348906236439537e-05 0 0.029696298767678469 -0.00013503008231992856 0 0.0291548155993765 -0.00080763047606118423 0 0.028840942388832988 -3.348906236439537e-05 0 0.028338963614376565 -0.00054653731722201909 0 0.028002397464272997 -0.0010159035936120719 0 0.0291548155993765 -0.00080763047606118423 0 0.028338963614376565 -0.00054653731722201909 0 0.028840942388832988 -3.348906236439537e-05 0 0.029541983105002657 0.00019655334045757684 0 0.029571449506657826 0.00071024536529847677 0 0.028840942388832988 -3.348906236439537e-05 0 0.029541983105002657 0.00019655334045757684 0 0.029696298767678469 -0.00013503008231992856 0 0.029541983105002657 0.00019655334045757684 0 0.030048029973609773 0.00024316514862795938 0 0.029696298767678469 -0.00013503008231992856 0 0.032348837043893422 0.0004283872908168352 0 0.032183908022474172 0.00094529510121460134 0 0.032348837043893422 0.0004283872908168352 0 0.035953457501879567 0.0016076182192840611 0 0.034848950697475449 0.00087114435001103222 0 0.035052987223885126 0.001214777642741606 0 0.035269320568428519 0.0013582578399231496 0 0.028002397464272997 -0.0010159035936120719 0 0.027000540926614598 -0.00048074153714891847 0 0.027482070545090574 -0.00017881951954052113 0 0.031545369930185342 3.2822017174480972e-05 0 0.032348837043893422 0.0004283872908168352 0 0.028002397464272997 -0.0010159035936120719 0 0.028338963614376565 -0.00054653731722201909 0 0.027482070545090574 -0.00017881951954052113 0 0.034712304318816174 0.00073231656706920843 0 0.034997007734835946 0.0012762083249079547 0 0.035052987223885126 0.001214777642741606 0 0.028840942388832988 -3.348906236439537e-05 0 0.028338963614376565 -0.00054653731722201909 0 0.027482070545090574 -0.00017881951954052113 0 0.034712304318816174 0.00073231656706920843 0 0.034824277386778783 0.001189275105775941 0 0.034997007734835946 0.0012762083249079547 0 0.034712304318816174 0.00073231656706920843 0 0.034824277386778783 0.001189275105775941 0 0.034608471901228267 0.0011756180208746161 0 0.034712304318816174 0.00073231656706920843 0 0.034848950697475449 0.00087114435001103222 0 0.035052987223885126 0.001214777642741606 0 0.034824277386778783 0.001189275105775941 0 0.034905159532958016 0.0014047146131680366 0 0.034711109197859864 0.0014428421450574029 0 0.034824277386778783 0.001189275105775941 0 0.034608471901228267 0.0011756180208746161 0 0.034711109197859864 0.0014428421450574029 0 0.034824277386778783 0.001189275105775941 0 0.034905159532958016 0.0014047146131680366 0 0.034997007734835946 0.0012762083249079547 0 0.034905159532958016 0.0014047146131680366 0 0.034997007734835946 0.0012762083249079547 0 0.035058455747715531 0.0014950448862708049 0 0.034997007734835946 0.0012762083249079547 0 0.035052987223885126 0.001214777642741606 0 0.035191508886925224 0.0014344312123939051 0 0.034997007734835946 0.0012762083249079547 0 0.035058455747715531 0.0014950448862708049 0 0.035191508886925224 0.0014344312123939051 0 0.034919505116619405 0.0015659743725188985 0 0.034826821107590999 0.0017233767348976679 0 0.034711109197859864 0.0014428421450574029 0 0.034905159532958016 0.0014047146131680366 0 0.035058455747715531 0.0014950448862708049 0 0.034919505116619405 0.0015659743725188985 0 0.034905159532958016 0.0014047146131680366 0 0.034919505116619405 0.0015659743725188985 0 0.034711109197859864 0.0014428421450574029 0 0.035407283588271686 0.0013890767159812898 0 0.035300357113932736 0.0014337957587060874 0 0.035325801460917634 0.0015250241096016665 0 0.035407283588271686 0.0013890767159812898 0 0.035269320568428519 0.0013582578399231496 0 0.035300357113932736 0.0014337957587060874 0 0.029541983105002657 0.00019655334045757684 0 0.030048029973609773 0.00024316514862795938 0 0.029571449506657826 0.00071024536529847677 0 0.035052987223885126 0.001214777642741606 0 0.035269320568428519 0.0013582578399231496 0 0.035191508886925224 0.0014344312123939051 0 0.035269320568428519 0.0013582578399231496 0 0.035191508886925224 0.0014344312123939051 0 0.035300357113932736 0.0014337957587060874 0 0.035191508886925224 0.0014344312123939051 0 0.035300357113932736 0.0014337957587060874 0 0.035325801460917634 0.0015250241096016665 0 0.035191508886925224 0.0014344312123939051 0 0.035202316943017918 0.0015943094746303196 0 0.035325801460917634 0.0015250241096016665 0 0.035058455747715531 0.0014950448862708049 0 0.035191508886925224 0.0014344312123939051 0 0.035202316943017918 0.0015943094746303196 0 0.035333631536726445 0.0016410084351724179 0 0.035202316943017918 0.0015943094746303196 0 0.035325801460917634 0.0015250241096016665 0 0.035333631536726445 0.0016410084351724179 0 0.035325801460917634 0.0015250241096016665 0 0.035435472671050051 0.0016465619351725995 0 0.035407283588271686 0.0013890767159812898 0 0.035325801460917634 0.0015250241096016665 0 0.035435472671050051 0.0016465619351725995 0 0.032183908022474172 0.00094529510121460134 0 0.033547596706569871 0.0015776507441041174 0 0.035407283588271686 0.0013890767159812898 0 0.035435472671050051 0.0016465619351725995 0 0.035540086980981836 0.001756108893751677 0 0.029571449506657826 0.00071024536529847677 0 0.03076894540763029 0.00057433718357801104 0 0.031517276365201234 0.0013790990149148352 0 0.03076894540763029 0.00057433718357801104 0 0.031517276365201234 0.0013790990149148352 0 0.031940734894769507 -0.00041867673573112705 0 0.030048029973609773 0.00024316514862795938 0 0.029571449506657826 0.00071024536529847677 0 0.03076894540763029 0.00057433718357801104 0 0.032527778380733653 0.0014762931772984158 0 0.031517276365201234 0.0013790990149148352 0 0.031940734894769507 -0.00041867673573112705 0 0.032527778380733653 0.0014762931772984158 0 0.033071807413058374 0.00068183715194705327 0 0.032435429143117901 -3.3729395880157854e-05 0 0.03247388490669479 0.001406614828124672 0 0.032362496421864166 -0.00021441057772151706 0 0.030545667001863792 -0.0015314572029789671 0 0.031940734894769507 -0.00041867673573112705 0 0.030555501955067534 -0.00035160296839958693 0 0.03076894540763029 0.00057433718357801104 0 0.031940734894769507 -0.00041867673573112705 0 0.030555501955067534 -0.00035160296839958693 0 0.030545667001863792 -0.0015314572029789671 0 0.0291548155993765 -0.00080763047606118423 0 0.030555501955067534 -0.00035160296839958693 0 0.030048029973609773 0.00024316514862795938 0 0.029696298767678469 -0.00013503008231992856 0 0.030555501955067534 -0.00035160296839958693 0 0.030048029973609773 0.00024316514862795938 0 0.03076894540763029 0.00057433718357801104 0 0.030555501955067534 -0.00035160296839958693 0 0.017462731871311261 2.2722075672296009e-05 0 0.019309196019217465 -1.3303640660955878e-06 0 0.016641428154888907 1.0316666349497373e-06 0 0.018468973808689261 -5.1643506961434102e-05 0 0.017462731871311261 2.2722075672296009e-05 0 0.019309196019217465 -1.3303640660955878e-06 0 0.018468973808689261 -5.1643506961434102e-05 0 0.017462731871311261 2.2722075672296009e-05 0 0.018391295265073934 0.00053432624335353395 0 0.01883520833550404 0.00029755535536699984 0 0.018930689989671484 -0.00010984798316176852 0 0.019168778520850478 9.5139647720062873e-05 0 0.018468973808689261 -5.1643506961434102e-05 0 0.01883520833550404 0.00029755535536699984 0 0.018930689989671484 -0.00010984798316176852 0 0.018468973808689261 -5.1643506961434102e-05 0 0.01883520833550404 0.00029755535536699984 0 0.018391295265073934 0.00053432624335353395 0 0.018930689989671484 -0.00010984798316176852 0 0.019554439478958734 2.1343644399627597e-05 0 0.019094951312641526 -0.00013198098537522293 0 0.018468973808689261 -5.1643506961434102e-05 0 0.018930689989671484 -0.00010984798316176852 0 0.019309196019217465 -1.3303640660955878e-06 0 0.018930689989671484 -0.00010984798316176852 0 0.019309196019217465 -1.3303640660955878e-06 0 0.019554439478958734 2.1343644399627597e-05 0 0.019309196019217465 -1.3303640660955878e-06 0 0.021972315228745123 1.5465994163102198e-06 0 0.019554439478958734 2.1343644399627597e-05 0 0.025484597238977735 0.00034502740911278128 0 0.021982340569763135 4.144305645175625e-06 0 0.024705009800914488 0.001680214570734139 0 0.021975555647204714 9.0149577692238481e-08 0 0.022112588883797395 0.00073678939669481454 0 0.025484597238977735 0.00034502740911278128 0 0.024705009800914488 0.001680214570734139 0 0.025910305131485192 0.0011230079526505046 0 0.022112588883797395 0.00073678939669481454 0 0.0222416612475086 0.00075803010670381075 0 0.024705009800914488 0.001680214570734139 0 0.025910305131485192 0.0011230079526505046 0 0.025594768097230852 0.0017925349409098688 0 0.025910305131485192 0.0011230079526505046 0 0.025994364323311182 0.0016324383616517001 0 0.025594768097230852 0.0017925349409098688 0 0.027204813389790177 0.00060949323663156418 0 0.025484597238977735 0.00034502740911278128 0 0.026794190598070484 0.0013681985308874522 0 0.02551841521913685 0.00042305935951474652 0 0.026323733749672739 0.0011850602216401873 0 0.027705083312259713 0.00091275055243006224 0 0.027204813389790177 0.00060949323663156418 0 0.027384295484586724 0.0012383714651460461 0 0.026794190598070484 0.0013681985308874522 0 0.027384295484586724 0.0012383714651460461 0 0.027463246850849964 0.0015682628771262589 0 0.027204813389790177 0.00060949323663156418 0 0.026794190598070484 0.0013681985308874522 0 0.027384295484586724 0.0012383714651460461 0 0.026323733749672739 0.0011850602216401873 0 0.026788386212264745 0.0014925230008917107 0 0.025910305131485192 0.0011230079526505046 0 0.02614940430306089 0.0014395984681844136 0 0.025994364323311182 0.0016324383616517001 0 0.02614940430306089 0.0014395984681844136 0 0.025994364323311182 0.0016324383616517001 0 0.026165390079842379 0.0015832263193319694 0 0.025994364323311182 0.0016324383616517001 0 0.025594768097230852 0.0017925349409098688 0 0.0260347867782036 0.0017057420778047981 0 0.025994364323311182 0.0016324383616517001 0 0.0260347867782036 0.0017057420778047981 0 0.026165390079842379 0.0015832263193319694 0 0.0222416612475086 0.00075803010670381075 0 0.023333732226448214 0.0011728741772359249 0 0.018930689989671484 -0.00010984798316176852 0 0.019094951312641526 -0.00013198098537522293 0 0.019168778520850478 9.5139647720062873e-05 0 0.019094951312641526 -0.00013198098537522293 0 0.019168778520850478 9.5139647720062873e-05 0 0.019570661567732951 7.6672946982388231e-05 0 0.01883520833550404 0.00029755535536699984 0 0.019168778520850478 9.5139647720062873e-05 0 0.019357310199027471 0.00046855640160070074 0 0.019168778520850478 9.5139647720062873e-05 0 0.019570661567732951 7.6672946982388231e-05 0 0.019357310199027471 0.00046855640160070074 0 0.019570661567732951 7.6672946982388231e-05 0 0.02008017524365013 0.0004665398620012104 0 0.019357310199027471 0.00046855640160070074 0 0.023333732226448214 0.0011728741772359249 0 0.020011269737189967 0.00048832990590672097 0 0.0260347867782036 0.0017057420778047981 0 0.026263048103642158 0.0015838613549416822 0 0.026241835893762954 0.0017619652504017084 0 0.026517917672535203 0.0013677323795203181 0 0.026562431555678397 0.0012161963194642319 0 0.026631254654380047 0.0012074124657284839 0 0.026517917672535203 0.0013677323795203181 0 0.026371211227707223 0.001500983966113011 0 0.02664142199184415 0.0012354652928756517 0 0.026263048103642158 0.0015838613549416822 0 0.026517917672535203 0.0013677323795203181 0 0.026241835893762954 0.0017619652504017084 0 0.026813812394954013 0.0014130045837652003 0 0.026686097465684202 0.0012769253503304337 0 0.028228888379800848 0.00084307658181929142 0 0.020011269737189967 0.00048832990590672097 0 0.026517917672535203 0.0013677323795203181 0 0.02664142199184415 0.0012354652928756517 0 0.026562431555678397 0.0012161963194642319 0 0.027242000056608401 0.0013006158254893058 0 0.026874848798486537 0.0013369306769258869 0 0.02664142199184415 0.0012354652928756517 0 0.026263048103642158 0.0015838613549416822 0 0.026517917672535203 0.0013677323795203181 0 0.026371211227707223 0.001500983966113011 0 0.027242000056608401 0.0013006158254893058 0 0.027085473610110076 0.0014233989869548889 0 0.026874848798486537 0.0013369306769258869 0 0.027242000056608401 0.0013006158254893058 0 0.027085473610110076 0.0014233989869548889 0 0.027365787071595243 0.0014879562712446089 0 0.026263048103642158 0.0015838613549416822 0 0.026371211227707223 0.001500983966113011 0 0.026165390079842379 0.0015832263193319694 0 0.02614940430306089 0.0014395984681844136 0 0.026371211227707223 0.001500983966113011 0 0.026165390079842379 0.0015832263193319694 0 0.026788386212264745 0.0014925230008917107 0 0.026813812394954013 0.0014130045837652003 0 0.0260347867782036 0.0017057420778047981 0 0.026263048103642158 0.0015838613549416822 0 0.026165390079842379 0.0015832263193319694 0 0.027463246850849964 0.0015682628771262589 0 0.027242000056608401 0.0013006158254893058 0 0.027365787071595243 0.0014879562712446089 0 0.027463246850849964 0.0015682628771262589 0 0.027365787071595243 0.0014879562712446089 0 0.027580205447724822 0.0014670449749143166 0 0.027384295484586724 0.0012383714651460461 0 0.027463246850849964 0.0015682628771262589 0 0.027580205447724822 0.0014670449749143166 0 0.027705083312259713 0.00091275055243006224 0 0.027580205447724822 0.0014670449749143166 0 0.028024863686553454 0.001441244710204189 0 0.02776418897837591 0.0010250830057492507 0 0.028098256061463007 0.0011871166702337687 0 0.027705083312259713 0.00091275055243006224 0 0.027384295484586724 0.0012383714651460461 0 0.027580205447724822 0.0014670449749143166 0 0.02827297492568363 0.00086567478686463571 0 0.028243128372770824 0.0014453937780715485 0 0.028561053939012031 0.0011386290264913624 0 0.02827297492568363 0.00086567478686463571 0 0.027705083312259713 0.00091275055243006224 0 0.028243128372770824 0.0014453937780715485 0 0.027465146975108462 0.0014389764510243058 0 0.028098256061463007 0.0011871166702337687 0 0.027085473610110076 0.0014233989869548889 0 0.027365787071595243 0.0014879562712446089 0 0.027250940110946763 0.0016592426652098705 0 0.027085473610110076 0.0014233989869548889 0 0.027250940110946763 0.0016592426652098705 0 0.026760150019128678 0.001496294900560829 0 0.027365787071595243 0.0014879562712446089 0 0.027580205447724822 0.0014670449749143166 0 0.027250940110946763 0.0016592426652098705 0 0.028447533859620379 0.00056633648165404008 0 0.029676533648169499 0.0016621290022261295 0 0.029597482067149589 0.0004958080046403295 0 0.029676533648169499 0.0016621290022261295 0 0.029597482067149589 0.0004958080046403295 0 0.030208786062918425 0.0010471462882080452 0 0.028098256061463007 0.0011871166702337687 0 0.027715040662231422 0.0015024402923938225 0 0.028836419708235233 0.00082718717760359888 0 0.028561053939012031 0.0011386290264913624 0 0.028886688027910605 0.0014226820010284772 0 0.028098256061463007 0.0011871166702337687 0 0.028923204945633108 0.00097581252163044918 0 0.028836419708235233 0.00082718717760359888 0 0.028886688027910605 0.0014226820010284772 0 0.029190289576280989 0.0010695736743049989 0 0.028243128372770824 0.0014453937780715485 0 0.028561053939012031 0.0011386290264913624 0 0.028886688027910605 0.0014226820010284772 0 0.029597482067149589 0.0004958080046403295 0 0.03074415726957409 0.00043533624686061304 0 0.030208786062918425 0.0010471462882080452 0 0.028886688027910605 0.0014226820010284772 0 0.029190289576280989 0.0010695736743049989 0 0.029550150571663891 0.0013970727119869449 0 0.029489862938232723 0.00062876366022327585 0 0.029190289576280989 0.0010695736743049989 0 0.029550150571663891 0.0013970727119869449 0 0.028923204945633108 0.00097581252163044918 0 0.032345725737506791 0.0014274917833051563 0 0.032345725737506791 0.0014274917833051563 0 0.033189944769563662 0.0019642220688607004 0 0.035382589326457728 0.0020557024373697263 0 0.035411238774779835 0.0021033698623729685 0 0.03547518545815749 0.0020233778260455811 0 0.029676533648169499 0.0016621290022261295 0 0.030208786062918425 0.0010471462882080452 0 0.030813445305590399 0.0015924482896376609 0 0.03074415726957409 0.00043533624686061304 0 0.030208786062918425 0.0010471462882080452 0 0.030813445305590399 0.0015924482896376609 0 0.033189944769563662 0.0019642220688607004 0 0.031744473825916018 0.0012740853102320771 0 0.026760150019128678 0.001496294900560829 0 0.026484816678802051 0.0013026280775463161 0 0.026654624731379088 0.0012980094851564468 0 0.027715040662231422 0.0015024402923938225 0 0.031744473825916018 0.0012740853102320771 0 0.029676533648169499 0.0016621290022261295 0 0.030813445305590399 0.0015924482896376609 0 0.030892457124253939 0.0027325590124066936 0 0.026760150019128678 0.001496294900560829 0 0.026874848798486537 0.0013369306769258869 0 0.026654624731379088 0.0012980094851564468 0 0.027085473610110076 0.0014233989869548889 0 0.026760150019128678 0.001496294900560829 0 0.026874848798486537 0.0013369306769258869 0 0.026654624731379088 0.0012980094851564468 0 0.02664142199184415 0.0012354652928756517 0 0.026539328434752096 0.0012020845161729429 0 0.026874848798486537 0.0013369306769258869 0 0.026654624731379088 0.0012980094851564468 0 0.02664142199184415 0.0012354652928756517 0 0.02664142199184415 0.0012354652928756517 0 0.026536984862015212 0.001138550826296924 0 0.026562431555678397 0.0012161963194642319 0 0.02664142199184415 0.0012354652928756517 0 0.026539328434752096 0.0012020845161729429 0 0.026536984862015212 0.001138550826296924 0 0.026484816678802051 0.0013026280775463161 0 0.026539328434752096 0.0012020845161729429 0 0.026395128481307546 0.0010801178607158168 0 0.031744473825916018 0.0012740853102320771 0 0.030915981615671346 0.00029589664489008624 0 0.026484816678802051 0.0013026280775463161 0 0.026654624731379088 0.0012980094851564468 0 0.026539328434752096 0.0012020845161729429 0 0.026539328434752096 0.0012020845161729429 0 0.026395128481307546 0.0010801178607158168 0 0.026536984862015212 0.001138550826296924 0 0.026536984862015212 0.001138550826296924 0 0.026547422259433268 0.0011019620157507579 0 0.026562431555678397 0.0012161963194642319 0 0.011819277428566326 -0.0010458141380475562 0 0.010619268225415982 -0.00086668685986627527 0 0.010679225590185784 -0.0017667859581585084 0 0.026536984862015212 0.001138550826296924 0 0.026459071992729209 0.00095969289886798704 0 0.026547422259433268 0.0011019620157507579 0 0.018685630832146638 -0.00019528032611693306 0 0.018361043784442851 -0.0005271366488114439 0 0.026290540405500194 0.00082686179687513155 0 0.026395128481307546 0.0010801178607158168 0 0.026459071992729209 0.00095969289886798704 0 0.026395128481307546 0.0010801178607158168 0 0.026536984862015212 0.001138550826296924 0 0.026459071992729209 0.00095969289886798704 0 0.023020496170928603 0.00043154539325281137 0 0.018685630832146638 -0.00019528032611693306 0 0.013148296890427003 -0.00011718693949581888 0 0.011819277428566326 -0.0010458141380475562 0 0.012063786072307231 -0.00012265848299051647 0 0.012063786072307231 -0.00012265848299051647 0 0.012656122016049896 0.00020546259528784322 0 0.011561997828314068 0.00058708082474902236 0 0.013148296890427003 -0.00011718693949581888 0 0.012063786072307231 -0.00012265848299051647 0 0.012656122016049896 0.00020546259528784322 0 0.013148296890427003 -0.00011718693949581888 0 0.013261403695496837 0.0014067833344779657 0 0.012656122016049896 0.00020546259528784322 0 0.0099534064702893298 0.0018510500704050144 0 0.0093772521487229116 0.00092427155434789479 0 0.0048991838095701346 0.0020382397754279578 0 0.0052870602315573702 0.0021654725129277067 0 0.0051644151734136787 0.0018397836443327289 0 0.013261403695496837 0.0014067833344779657 0 0.012656122016049896 0.00020546259528784322 0 0.01133113978047592 0.00074874390967833966 0 0.013095959102369823 -1.12298477736549e-05 0 0.0093772521487229116 0.00092427155434789479 0 0.0093772521487229116 0.00092427155434789479 0 0.011175678998968042 0.00034335583814230387 0 0.0052870602315573702 0.0021654725129277067 0 0.0056543468148142579 0.0020057396086096287 0 0.0053998177288199977 0.0019500930079113757 0 0.011561997828314068 0.00058708082474902236 0 0.011217893183007857 -0.00026281242057615275 0 0.010437624306453232 8.677892189245406e-05 0 0.011819277428566326 -0.0010458141380475562 0 0.011217893183007857 -0.00026281242057615275 0 0.010619268225415982 -0.00086668685986627527 0 0.012063786072307231 -0.00012265848299051647 0 0.011561997828314068 0.00058708082474902236 0 0.011217893183007857 -0.00026281242057615275 0 0.011819277428566326 -0.0010458141380475562 0 0.012063786072307231 -0.00012265848299051647 0 0.011217893183007857 -0.00026281242057615275 0 0.010437624306453232 8.677892189245406e-05 0 0.0097542383645102763 -0.00040786105794510464 0 0.010619268225415982 -0.00086668685986627527 0 0.011217893183007857 -0.00026281242057615275 0 0.010437624306453232 8.677892189245406e-05 0 0.010619268225415982 -0.00086668685986627527 0 0.010437624306453232 8.677892189245406e-05 0 0.010064899742150177 0.0010900888029038076 0 0.0097542383645102763 -0.00040786105794510464 0 0.011497276473432154 0.00047436405112164952 0 0.010437624306453232 8.677892189245406e-05 0 0.010064899742150177 0.0010900888029038076 0 0.0093772521487229116 0.00092427155434789479 0 0.0075335924010527426 0.001142425904605299 0 0.0075335924010527426 0.001142425904605299 0 0.010120502044461089 -0.00036770405271071557 0 0.0097767566561343822 0.00034099368652192399 0 0.0092594630863030158 -1.3746641701618985e-06 0 0.0097542383645102763 -0.00040786105794510464 0 0.0097767566561343822 0.00034099368652192399 0 0.0092594630863030158 -1.3746641701618985e-06 0 0.008742675355630591 0.00060750541240476533 0 0.0097542383645102763 -0.00040786105794510464 0 0.0097455889217974521 -0.001319320664274365 0 0.0090833255936725275 -0.00077264177359557303 0 0.0092594630863030158 -1.3746641701618985e-06 0 0.0097542383645102763 -0.00040786105794510464 0 0.0090833255936725275 -0.00077264177359557303 0 0.0097455889217974521 -0.001319320664274365 0 0.0088055220355616678 -0.0015804311348050371 0 0.0090833255936725275 -0.00077264177359557303 0 0.0097542383645102763 -0.00040786105794510464 0 0.0097455889217974521 -0.001319320664274365 0 0.010619268225415982 -0.00086668685986627527 0 0.0097455889217974521 -0.001319320664274365 0 0.010619268225415982 -0.00086668685986627527 0 0.010679225590185784 -0.0017667859581585084 0 0.018361043784442851 -0.0005271366488114439 0 0.020011269737189967 0.00048832990590672097 0 0.0097455889217974521 -0.001319320664274365 0 0.010679225590185784 -0.0017667859581585084 0 0.0097647877129892757 -0.0024065550249707159 0 0.026547422259433268 0.0011019620157507579 0 0.026562431555678397 0.0012161963194642319 0 0.026631254654380047 0.0012074124657284839 0 0.0097455889217974521 -0.001319320664274365 0 0.0097647877129892757 -0.0024065550249707159 0 0.0088055220355616678 -0.0015804311348050371 0 0.020011269737189967 0.00048832990590672097 0 0.013433658961116993 -0.00022996202801707545 0 0.02008017524365013 0.0004665398620012104 0 0.019357310199027471 0.00046855640160070074 0 0.019579654557159987 0.0009132321414505591 0 0.019357310199027471 0.00046855640160070074 0 0.018926430347772291 0.00080181469297685535 0 0.019579654557159987 0.0009132321414505591 0 0.01883520833550404 0.00029755535536699984 0 0.019357310199027471 0.00046855640160070074 0 0.018926430347772291 0.00080181469297685535 0 0.018926430347772291 0.00080181469297685535 0 0.01902364827768702 0.001462110747644383 0 0.019579654557159987 0.0009132321414505591 0 0.013756526168496106 0.00021072986486341398 0 0.013433658961116993 -0.00022996202801707545 0 0.0080606451979346235 -0.00081633284348212498 0 0.0088055220355616678 -0.0015804311348050371 0 0.0090833255936725275 -0.00077264177359557303 0 0.0080606451979346235 -0.00081633284348212498 0 0.0090833255936725275 -0.00077264177359557303 0 0.0086229714241645647 -0.00017515044629060384 0 0.0092594630863030158 -1.3746641701618985e-06 0 0.0090833255936725275 -0.00077264177359557303 0 0.0086229714241645647 -0.00017515044629060384 0 0.0086229714241645647 -0.00017515044629060384 0 0.0080103025018450624 0.00026941526564869522 0 0.008742675355630591 0.00060750541240476533 0 0.0092594630863030158 -1.3746641701618985e-06 0 0.0086229714241645647 -0.00017515044629060384 0 0.008742675355630591 0.00060750541240476533 0 0.0086229714241645647 -0.00017515044629060384 0 0.008004701430797791 -5.3795217868931191e-05 0 0.0080103025018450624 0.00026941526564869522 0 0.008004701430797791 -5.3795217868931191e-05 0 0.0078932840171649556 0.00035592538102965975 0 0.0080103025018450624 0.00026941526564869522 0 0.0080606451979346235 -0.00081633284348212498 0 0.0086229714241645647 -0.00017515044629060384 0 0.008004701430797791 -5.3795217868931191e-05 0 0.0080606451979346235 -0.00081633284348212498 0 0.008004701430797791 -5.3795217868931191e-05 0 0.0075632635583662549 -0.00022102965143356795 0 0.01902364827768702 0.001462110747644383 0 0.018376952200019326 0.0019781112691349837 0 0.018149109974859925 0.0011856961963411198 0 0.013756526168496106 0.00021072986486341398 0 0.012506369564432625 0.0010374633528340196 0 0.012506369564432625 0.0010374633528340196 0 0.0072401942625654964 0.00010446756072377563 0 0.008004701430797791 -5.3795217868931191e-05 0 0.0075632635583662549 -0.00022102965143356795 0 0.0078932840171649556 0.00035592538102965975 0 0.013287007421671902 1.0338349830265655e-05 0 0.011309354174575178 9.0430938276050505e-07 0 0.013971971229783621 -8.8095075603360889e-07 0 0.012506369564432625 0.0010374633528340196 0 0.011304592636670149 1.1424953197403391e-06 0 0.0088658178927860185 0.0025256779125921989 0 0.011300953830306128 3.7511180316411136e-06 0 0.0078932840171649556 0.00035592538102965975 0 0.012506369564432625 0.0010374633528340196 0 0.016854601250504343 0.00055808110959887423 0 0.013287007421671902 1.0338349830265655e-05 0 0.013971971229783621 -8.8095075603360889e-07 0 0.014560366695700711 -8.3151728074745008e-06 0 0.013971971229783621 -8.8095075603360889e-07 0 0.014560366695700711 -8.3151728074745008e-06 0 0.016641428154888907 1.0316666349497373e-06 0 0.018926430347772291 0.00080181469297685535 0 0.01902364827768702 0.001462110747644383 0 0.018149109974859925 0.0011856961963411198 0 0.01883520833550404 0.00029755535536699984 0 0.018926430347772291 0.00080181469297685535 0 0.018391295265073934 0.00053432624335353395 0 0.018926430347772291 0.00080181469297685535 0 0.018149109974859925 0.0011856961963411198 0 0.018391295265073934 0.00053432624335353395 0 0.017076578460694363 -0.00010790609283069781 0 0.016854601250504343 0.00055808110959887423 0 0.017462731871311261 2.2722075672296009e-05 0 0.014560366695700711 -8.3151728074745008e-06 0 0.016641428154888907 1.0316666349497373e-06 0 0.017462731871311261 2.2722075672296009e-05 0 0.018149109974859925 0.0011856961963411198 0 0.018391295265073934 0.00053432624335353395 0 0.0061086457359296525 -4.5951527866823329e-07 0 0.0065879153896945004 -0.00028695391508633088 0 0.0051658988970120605 -0.00023567174391714345 0 0.0065879153896945004 -0.00028695391508633088 0 0.0060389397784613988 -0.00030203146066050889 0 0.005634019878869535 -0.00033839208692489222 0 0.0065879153896945004 -0.00028695391508633088 0 0.0080731234687906137 -1.6583490060128823e-05 0 0.0067273179436848837 -0.00010039212516376214 0 0.0061086457359296525 -4.5951527866823329e-07 0 0.0065879153896945004 -0.00028695391508633088 0 0.0087072043336400857 -1.4122104591310336e-06 0 0.0065879153896945004 -0.00028695391508633088 0 0.0087072043336400857 -1.4122104591310336e-06 0 0.0080731234687906137 -1.6583490060128823e-05 0 0.011300953830306128 3.7511180316411136e-06 0 0.0087072043336400857 -1.4122104591310336e-06 0 0.0080731234687906137 -1.6583490060128823e-05 0 0.011300953830306128 3.7511180316411136e-06 0 0.0078932840171649556 0.00035592538102965975 0 0.0080731234687906137 -1.6583490060128823e-05 0 0.0078932840171649556 0.00035592538102965975 0 0.0080731234687906137 -1.6583490060128823e-05 0 0.0073893575414986706 0.00040921211983016142 0 0.0080731234687906137 -1.6583490060128823e-05 0 0.0073893575414986706 0.00040921211983016142 0 0.0067273179436848837 -0.00010039212516376214 0 0.0073893575414986706 0.00040921211983016142 0 0.0062932703116987138 0.00021678223337790839 0 0.0067273179436848837 -0.00010039212516376214 0 0.0074281647069263908 0.00047597490273394022 0 0.0074374613127099389 0.00065944142823471058 0 0.0073893575414986706 0.00040921211983016142 0 0.0080103025018450624 0.00026941526564869522 0 0.008742675355630591 0.00060750541240476533 0 0.0078932840171649556 0.00035592538102965975 0 0.0073893575414986706 0.00040921211983016142 0 0.0080103025018450624 0.00026941526564869522 0 0.0073893575414986706 0.00040921211983016142 0 0.0060413441947866518 0.00091502569103483707 0 0.0062932703116987138 0.00021678223337790839 0 0.0060413441947866518 0.00091502569103483707 0 0.0062932703116987138 0.00021678223337790839 0 0.005721518984962857 0.00027055851282479099 0 0.0062932703116987138 0.00021678223337790839 0 0.005946045791999359 -0.00013134012923268567 0 0.0067273179436848837 -0.00010039212516376214 0 0.0062932703116987138 0.00021678223337790839 0 0.005946045791999359 -0.00013134012923268567 0 0.005721518984962857 0.00027055851282479099 0 0.005946045791999359 -0.00013134012923268567 0 0.0067273179436848837 -0.00010039212516376214 0 0.0060389397784613988 -0.00030203146066050889 0 0.0065879153896945004 -0.00028695391508633088 0 0.0067273179436848837 -0.00010039212516376214 0 0.0060389397784613988 -0.00030203146066050889 0 0.005946045791999359 -0.00013134012923268567 0 0.0060389397784613988 -0.00030203146066050889 0 0.0056710920560058727 -0.00023234579472030152 0 0.0055160306504480816 -5.769574539373035e-05 0 0.0053472327283116744 -0.00018638473397866926 0 0.0056710920560058727 -0.00023234579472030152 0 0.005946045791999359 -0.00013134012923268567 0 0.0055160306504480816 -5.769574539373035e-05 0 0.0056710920560058727 -0.00023234579472030152 0 0.0055160306504480816 -5.769574539373035e-05 0 0.005202678983408102 -7.2502920412459239e-05 0 0.0053472327283116744 -0.00018638473397866926 0 0.0055160306504480816 -5.769574539373035e-05 0 0.0052465753507002126 0.00037072827151329152 0 0.005202678983408102 -7.2502920412459239e-05 0 0.0051282103041974253 0.0010224133829568594 0 0.0053135743796981468 0.00051200492361123538 0 0.0055160306504480816 -5.769574539373035e-05 0 0.005721518984962857 0.00027055851282479099 0 0.0052465753507002126 0.00037072827151329152 0 0.005946045791999359 -0.00013134012923268567 0 0.0055160306504480816 -5.769574539373035e-05 0 0.005721518984962857 0.00027055851282479099 0 0.0060413441947866518 0.00091502569103483707 0 0.005721518984962857 0.00027055851282479099 0 0.0055831810418884419 0.00068096308298385192 0 0.005721518984962857 0.00027055851282479099 0 0.0055831810418884419 0.00068096308298385192 0 0.0052465753507002126 0.00037072827151329152 0 0.0053744247843852686 0.0011144313379485564 0 0.0060413441947866518 0.00091502569103483707 0 0.0055831810418884419 0.00068096308298385192 0 0.0075335924010527426 0.001142425904605299 0 0.0074374613127099389 0.00065944142823471058 0 0.0075335924010527426 0.001142425904605299 0 0.0051282103041974253 0.0010224133829568594 0 0.0053744247843852686 0.0011144313379485564 0 0.0055831810418884419 0.00068096308298385192 0 0.0052465753507002126 0.00037072827151329152 0 0.0056543468148142579 0.0020057396086096287 0 0.005512715858675619 0.0015638338205385299 0 0.0053998177288199977 0.0019500930079113757 0 0.005512715858675619 0.0015638338205385299 0 0.0051644151734136787 0.0018397836443327289 0 0.0050773277355568424 0.001471135915786403 0 0.005512715858675619 0.0015638338205385299 0 0.0053998177288199977 0.0019500930079113757 0 0.0051644151734136787 0.0018397836443327289 0 0.0052870602315573702 0.0021654725129277067 0 0.0053998177288199977 0.0019500930079113757 0 0.0051644151734136787 0.0018397836443327289 0 0.0048991838095701346 0.0020382397754279578 0 0.0051644151734136787 0.0018397836443327289 0 0.0048374981666766004 0.0017374631429888869 0 0.0050773277355568424 0.001471135915786403 0 0.0048374981666766004 0.0017374631429888869 0 0.0047724608095866712 0.0014330917098646569 0 0.0051644151734136787 0.0018397836443327289 0 0.0050773277355568424 0.001471135915786403 0 0.0048374981666766004 0.0017374631429888869 0 0.0050773277355568424 0.001471135915786403 0 0.0053692474152044218 0.0010991355340611287 0 0.0048310754685187219 0.0011104954936995268 0 0.0050773277355568424 0.001471135915786403 0 0.0048310754685187219 0.0011104954936995268 0 0.0047724608095866712 0.0014330917098646569 0 0.005512715858675619 0.0015638338205385299 0 0.0050773277355568424 0.001471135915786403 0 0.0053692474152044218 0.0010991355340611287 0 0.0053692474152044218 0.0010991355340611287 0 0.0048310754685187219 0.0011104954936995268 0 0.0049287447748831651 0.00075708237100986103 0 0.0048310754685187219 0.0011104954936995268 0 0.0049287447748831651 0.00075708237100986103 0 0.0043913178179907676 0.00065105518288382581 0 0.0049287447748831651 0.00075708237100986103 0 0.0047756167747876541 0.00031069365073254382 0 0.0043913178179907676 0.00065105518288382581 0 0.0053692474152044218 0.0010991355340611287 0 0.0049287447748831651 0.00075708237100986103 0 0.0052206026931397994 0.00053514257645694235 0 0.0053135743796981468 0.00051200492361123538 0 0.005130626187019989 0.00015508513126719163 0 0.0052206026931397994 0.00053514257645694235 0 0.0047756167747876541 0.00031069365073254382 0 0.0049459929911961145 -0.00017135228493091127 0 0.005066015100355298 -0.00021301942411415132 0 0.0049647662832701962 -0.00018296525044698075 0 0.0050213909202132725 -0.00022096877002697184 0 0.005130626187019989 0.00015508513126719163 0 0.0049722415841755851 -0.00015686246551553811 0 0.0049287447748831651 0.00075708237100986103 0 0.0052206026931397994 0.00053514257645694235 0 0.0047756167747876541 0.00031069365073254382 0 0.0047756167747876541 0.00031069365073254382 0 0.0047449183890884029 -1.3732295565877076e-05 0 0.0044778157938412354 0.00018164823901128173 0 -0.0070944300921339382 0.0056775025635808088 0 -0.0062881620699958649 0.0061981287096851048 0 -0.008932969173434939 0.0060521237254601437 0 0.0047449183890884029 -1.3732295565877076e-05 0 0.0049459929911961145 -0.00017135228493091127 0 0.0045766677037729509 -0.00021640295885862158 0 0.0050855187543691095 -0.00017802287017935144 0 0.0049459929911961145 -0.00017135228493091127 0 0.0045766677037729509 -0.00021640295885862158 0 -0.00025247435016428112 0.0022172808279828627 0 -0.002138278301714867 0.0029971105622834116 0 0.0047756167747876541 0.00031069365073254382 0 0.0047449183890884029 -1.3732295565877076e-05 0 0.0049459929911961145 -0.00017135228493091127 0 -0.0077321115141136361 0.0053271977703233759 0 -0.0084550420802318605 0.005066319022027233 0 -0.008932969173434939 0.0060521237254601437 0 -0.0077321115141136361 0.0053271977703233759 0 -0.0070944300921339382 0.0056775025635808088 0 -0.008932969173434939 0.0060521237254601437 0 -0.0077321115141136361 0.0053271977703233759 0 -0.0070719152135191822 0.0051461907996020679 0 -0.0070944300921339382 0.0056775025635808088 0 -0.0077321115141136361 0.0053271977703233759 0 -0.0076572361489621399 0.0045349276091612226 0 -0.0084550420802318605 0.005066319022027233 0 -0.0077321115141136361 0.0053271977703233759 0 -0.0076572361489621399 0.0045349276091612226 0 -0.0070719152135191822 0.0051461907996020679 0 -0.0088991051971774419 0.0042653139366308733 0 -0.0076572361489621399 0.0045349276091612226 0 -0.0084550420802318605 0.005066319022027233 0 -0.0061924928935616378 0.0047751802826315332 0 -0.0063597655091932152 0.0050077401455967448 0 -0.006550917140123784 0.0045972237247938934 0 -0.0061924928935616378 0.0047751802826315332 0 -0.0063597655091932152 0.0050077401455967448 0 -0.0060744676817253707 0.005032136224240728 0 -0.0063597655091932152 0.0050077401455967448 0 -0.0066877504236949759 0.0050251823123086924 0 -0.0064099590491994212 0.0052802746245924166 0 -0.0063597655091932152 0.0050077401455967448 0 -0.0060744676817253707 0.005032136224240728 0 -0.0061934214921395402 0.0052272884136209787 0 -0.0060744676817253707 0.005032136224240728 0 -0.0058194572199826685 0.00507771359107668 0 -0.0059334557339818942 0.0048117614274145208 0 -0.0058194572199826685 0.00507771359107668 0 -0.0059334557339818942 0.0048117614274145208 0 -0.0056822238085365087 0.0049039997430042189 0 -0.0061924928935616378 0.0047751802826315332 0 -0.0060744676817253707 0.005032136224240728 0 -0.0059334557339818942 0.0048117614274145208 0 -0.006091654279175138 0.0044173743482245117 0 -0.0059334557339818942 0.0048117614274145208 0 -0.0057419326211834917 0.0046642188008844277 0 -0.006091654279175138 0.0044173743482245117 0 -0.0061924928935616378 0.0047751802826315332 0 -0.0059334557339818942 0.0048117614274145208 0 -0.006091654279175138 0.0044173743482245117 0 -0.005630967296812386 0.004197537184748446 0 -0.0057419326211834917 0.0046642188008844277 0 -0.006091654279175138 0.0044173743482245117 0 -0.0061924928935616378 0.0047751802826315332 0 -0.006550917140123784 0.0045972237247938934 0 -0.006550917140123784 0.0045972237247938934 0 -0.0069996175441411406 0.0046829608999864689 0 -0.0066877504236949759 0.0050251823123086924 0 -0.0069412544299646273 0.0042432292945157992 0 -0.006550917140123784 0.0045972237247938934 0 -0.0069996175441411406 0.0046829608999864689 0 -0.0069412544299646273 0.0042432292945157992 0 -0.0076572361489621399 0.0045349276091612226 0 -0.0069996175441411406 0.0046829608999864689 0 -0.0076572361489621399 0.0045349276091612226 0 -0.0069996175441411406 0.0046829608999864689 0 -0.0070719152135191822 0.0051461907996020679 0 -0.0069996175441411406 0.0046829608999864689 0 -0.0066877504236949759 0.0050251823123086924 0 -0.0070719152135191822 0.0051461907996020679 0 -0.0063597655091932152 0.0050077401455967448 0 -0.006550917140123784 0.0045972237247938934 0 -0.0066877504236949759 0.0050251823123086924 0 -0.0066877504236949759 0.0050251823123086924 0 -0.0066850881140566795 0.0054455507042260624 0 -0.0070719152135191822 0.0051461907996020679 0 -0.0066877504236949759 0.0050251823123086924 0 -0.0066850881140566795 0.0054455507042260624 0 -0.0064099590491994212 0.0052802746245924166 0 -0.0066850881140566795 0.0054455507042260624 0 -0.0070719152135191822 0.0051461907996020679 0 -0.0070944300921339382 0.0056775025635808088 0 -0.0070944300921339382 0.0056775025635808088 0 -0.0065245282623029484 0.005690331687507994 0 -0.0064348193258092247 0.0058909317392292857 0 -0.0066850881140566795 0.0054455507042260624 0 -0.0070944300921339382 0.0056775025635808088 0 -0.0065245282623029484 0.005690331687507994 0 -0.0066850881140566795 0.0054455507042260624 0 -0.0065245282623029484 0.005690331687507994 0 -0.0063695835178326455 0.0055542835329729107 0 -0.0065245282623029484 0.005690331687507994 0 -0.0063024943351260975 0.0057590718917621452 0 -0.0064348193258092247 0.0058909317392292857 0 -0.006058095985133463 0.0057802773627431536 0 -0.0062881620699958649 0.0061981287096851048 0 -0.0052352313625930276 0.0049337251413990729 0 -0.0060162326526128681 0.0055618943935559937 0 -0.006058095985133463 0.0057802773627431536 0 -0.0056595065197118334 0.0050615519809184056 0 -0.0065245282623029484 0.005690331687507994 0 -0.0063024943351260975 0.0057590718917621452 0 -0.0063695835178326455 0.0055542835329729107 0 -0.0063024943351260975 0.0057590718917621452 0 -0.006058095985133463 0.0057802773627431536 0 -0.0062776593320619236 0.0059251713127695168 0 -0.0063024943351260975 0.0057590718917621452 0 -0.0061872927495793054 0.0056188666692903637 0 -0.006058095985133463 0.0057802773627431536 0 -0.0063024943351260975 0.0057590718917621452 0 -0.0061872927495793054 0.0056188666692903637 0 -0.0063695835178326455 0.0055542835329729107 0 -0.0061872927495793054 0.0056188666692903637 0 -0.0063695835178326455 0.0055542835329729107 0 -0.0061657504805771209 0.0054220498393004416 0 -0.0066850881140566795 0.0054455507042260624 0 -0.0063695835178326455 0.0055542835329729107 0 -0.0064099590491994212 0.0052802746245924166 0 -0.0063695835178326455 0.0055542835329729107 0 -0.0061657504805771209 0.0054220498393004416 0 -0.0064099590491994212 0.0052802746245924166 0 -0.0061657504805771209 0.0054220498393004416 0 -0.0061934214921395402 0.0052272884136209787 0 -0.0064099590491994212 0.0052802746245924166 0 -0.0063597655091932152 0.0050077401455967448 0 -0.0061934214921395402 0.0052272884136209787 0 -0.0064099590491994212 0.0052802746245924166 0 -0.0059604021650071469 0.005272981333133149 0 -0.0060162326526128681 0.0055618943935559937 0 -0.0056595065197118334 0.0050615519809184056 0 -0.0060744676817253707 0.005032136224240728 0 -0.0058194572199826685 0.00507771359107668 0 -0.0059604021650071469 0.005272981333133149 0 -0.0058194572199826685 0.00507771359107668 0 -0.0059604021650071469 0.005272981333133149 0 -0.0056595065197118334 0.0050615519809184056 0 -0.0060744676817253707 0.005032136224240728 0 -0.0061934214921395402 0.0052272884136209787 0 -0.0059604021650071469 0.005272981333133149 0 -0.0059604021650071469 0.005272981333133149 0 -0.0060090074185620368 0.0054086342319864143 0 -0.0060162326526128681 0.0055618943935559937 0 -0.0061657504805771209 0.0054220498393004416 0 -0.0059604021650071469 0.005272981333133149 0 -0.0060090074185620368 0.0054086342319864143 0 -0.0061657504805771209 0.0054220498393004416 0 -0.0061934214921395402 0.0052272884136209787 0 -0.0059604021650071469 0.005272981333133149 0 -0.0061657504805771209 0.0054220498393004416 0 -0.0060090074185620368 0.0054086342319864143 0 -0.0060162326526128681 0.0055618943935559937 0 -0.0061872927495793054 0.0056188666692903637 0 -0.0061657504805771209 0.0054220498393004416 0 -0.0060162326526128681 0.0055618943935559937 0 -0.0061872927495793054 0.0056188666692903637 0 -0.0060162326526128681 0.0055618943935559937 0 -0.006058095985133463 0.0057802773627431536 0 0.0047930015063173464 -0.00030616012262592264 0 0.0048102594277044412 -0.000294660372556285 0 0.0047593301046763917 -0.00033593961264336556 0 0.0047930015063173464 -0.00030616012262592264 0 0.0048102594277044412 -0.000294660372556285 0 0.0048433300152975669 -0.00026851651387992099 0 0.0048433300152975669 -0.00026851651387992099 0 0.0048866621310691763 -0.00022322129725897667 0 0.0048717779193541968 -0.00024491300863172872 0 0.005066015100355298 -0.00021301942411415132 0 0.0049459929911961145 -0.00017135228493091127 0 0.0049647662832701962 -0.00018296525044698075 0 0.0048102594277044412 -0.000294660372556285 0 0.0048433300152975669 -0.00026851651387992099 0 0.0048727347523906507 -0.00025320833260595286 0 0.0047930015063173464 -0.00030616012262592264 0 0.0048433300152975669 -0.00026851651387992099 0 0.0048866621310691763 -0.00022322129725897667 0 0.0047930015063173464 -0.00030616012262592264 0 0.0048866621310691763 -0.00022322129725897667 0 0.0047593301046763917 -0.00033593961264336556 0 -0.006058095985133463 0.0057802773627431536 0 -0.0062776593320619236 0.0059251713127695168 0 -0.0062881620699958649 0.0061981287096851048 0 -0.0062776593320619236 0.0059251713127695168 0 -0.0064348193258092247 0.0058909317392292857 0 -0.0062881620699958649 0.0061981287096851048 0 -0.0063024943351260975 0.0057590718917621452 0 -0.0062776593320619236 0.0059251713127695168 0 -0.0064348193258092247 0.0058909317392292857 0 0.0048866621310691763 -0.00022322129725897667 0 0.004902166137452901 -0.00022664293104794915 0 0.0048717779193541968 -0.00024491300863172872 0 0.0048866621310691763 -0.00022322129725897667 0 0.004902166137452901 -0.00022664293104794915 0 0.0049647662832701962 -0.00018296525044698075 0 0.004902166137452901 -0.00022664293104794915 0 0.0048727347523906507 -0.00025320833260595286 0 0.0048717779193541968 -0.00024491300863172872 0 0.004902166137452901 -0.00022664293104794915 0 0.0048727347523906507 -0.00025320833260595286 0 0.0049348827140073114 -0.00022126857843116879 0 0.0048433300152975669 -0.00026851651387992099 0 0.0048727347523906507 -0.00025320833260595286 0 0.0048717779193541968 -0.00024491300863172872 0 0.0050855187543691095 -0.00017802287017935144 0 0.0049459929911961145 -0.00017135228493091127 0 0.0049647662832701962 -0.00018296525044698075 0 -0.0070944300921339382 0.0056775025635808088 0 -0.0064348193258092247 0.0058909317392292857 0 -0.0062881620699958649 0.0061981287096851048 0 -0.00025247435016428112 0.0022172808279828627 0 0.0035208572679829163 -0.00065569142540132215 0 0.004902166137452901 -0.00022664293104794915 0 0.0049647662832701962 -0.00018296525044698075 0 0.0049348827140073114 -0.00022126857843116879 0 0.0049647662832701962 -0.00018296525044698075 0 0.0049348827140073114 -0.00022126857843116879 0 0.0050213909202132725 -0.00022096877002697184 0 0.0049203679781276545 -0.00023940446183374494 0 0.0049689905503610349 -0.00023851461625267647 0 0.0050213909202132725 -0.00022096877002697184 0 0.0049348827140073114 -0.00022126857843116879 0 0.0049203679781276545 -0.00023940446183374494 0 0.0050213909202132725 -0.00022096877002697184 0 0.0049689905503610349 -0.00023851461625267647 0 0.0050629767899930487 -0.0002274913517104525 0 0.0051527901362756895 -0.0001951673046635935 0 0.0049689905503610349 -0.00023851461625267647 0 0.0051527901362756895 -0.0001951673046635935 0 0.0050213909202132725 -0.00022096877002697184 0 0.0049689905503610349 -0.00023851461625267647 0 0.0047922094304058624 -0.00032299460390226463 0 0.0048386773435419939 -0.000316368772996346 0 0.0049689905503610349 -0.00023851461625267647 0 0.0048386773435419939 -0.000316368772996346 0 0.0050629767899930487 -0.0002274913517104525 0 0.0049689905503610349 -0.00023851461625267647 0 0.0047922094304058624 -0.00032299460390226463 0 0.0048437054486216019 -0.00028572552914618674 0 0.0048727347523906507 -0.00025320833260595286 0 0.0049348827140073114 -0.00022126857843116879 0 0.0049203679781276545 -0.00023940446183374494 0 0.0048727347523906507 -0.00025320833260595286 0 0.0049203679781276545 -0.00023940446183374494 0 0.0048437054486216019 -0.00028572552914618674 0 0.0049203679781276545 -0.00023940446183374494 0 0.0049689905503610349 -0.00023851461625267647 0 0.0048437054486216019 -0.00028572552914618674 0 0.0047922094304058624 -0.00032299460390226463 0 0.0048437054486216019 -0.00028572552914618674 0 0.0047480410027345363 -0.00034834548968287006 0 0.0048727347523906507 -0.00025320833260595286 0 0.0048437054486216019 -0.00028572552914618674 0 0.0047945785095534722 -0.00031118466968225691 0 0.0048437054486216019 -0.00028572552914618674 0 0.0047945785095534722 -0.00031118466968225691 0 0.0047480410027345363 -0.00034834548968287006 0 0.0048102594277044412 -0.000294660372556285 0 0.0048727347523906507 -0.00025320833260595286 0 0.0047945785095534722 -0.00031118466968225691 0 0.0048102594277044412 -0.000294660372556285 0 0.0047945785095534722 -0.00031118466968225691 0 0.0047593301046763917 -0.00033593961264336556 0 -0.006058095985133463 0.0057802773627431536 0 -0.0056595065197118334 0.0050615519809184056 0 -0.0052352313625930276 0.0049337251413990729 0 -0.00025247435016428112 0.0022172808279828627 0 -0.00046332251617007376 0.0022236433043855254 0 0.0047593301046763917 -0.00033593961264336556 0 0.0046759007808262242 -0.00041043058255635384 0 0.0045533378966092575 -0.00052194954032825389 0 0.0048866621310691763 -0.00022322129725897667 0 0.0047593301046763917 -0.00033593961264336556 0 0.0045533378966092575 -0.00052194954032825389 0 0.0047454824682048148 -0.00034977654441732166 0 0.0047132464926458468 -0.00037713280246021342 0 0.0047480410027345363 -0.00034834548968287006 0 0.0047593301046763917 -0.00033593961264336556 0 0.0047454824682048148 -0.00034977654441732166 0 0.0047132464926458468 -0.00037713280246021342 0 0.0047945785095534722 -0.00031118466968225691 0 0.0047454824682048148 -0.00034977654441732166 0 0.0047480410027345363 -0.00034834548968287006 0 0.0047945785095534722 -0.00031118466968225691 0 0.0047593301046763917 -0.00033593961264336556 0 0.0047454824682048148 -0.00034977654441732166 0 0.0047593301046763917 -0.00033593961264336556 0 0.0047132464926458468 -0.00037713280246021342 0 0.0046759007808262242 -0.00041043058255635384 0 0.004591548535478376 -0.00047474242348668783 0 0.0046759007808262242 -0.00041043058255635384 0 0.0045533378966092575 -0.00052194954032825389 0 0.004591548535478376 -0.00047474242348668783 0 0.0046759007808262242 -0.00041043058255635384 0 0.004646905507830635 -0.00042980136673778917 0 0.0046759007808262242 -0.00041043058255635384 0 0.004646905507830635 -0.00042980136673778917 0 0.0046936623077605127 -0.0003926463575596701 0 0.004646905507830635 -0.00042980136673778917 0 0.0046936623077605127 -0.0003926463575596701 0 0.0046177460451292188 -0.00044155027087392862 0 0.004591548535478376 -0.00047474242348668783 0 0.004646905507830635 -0.00042980136673778917 0 0.0046177460451292188 -0.00044155027087392862 0 0.0047132464926458468 -0.00037713280246021342 0 0.0046759007808262242 -0.00041043058255635384 0 0.0046936623077605127 -0.0003926463575596701 0 0.0047132464926458468 -0.00037713280246021342 0 0.0046936623077605127 -0.0003926463575596701 0 0.0047480410027345363 -0.00034834548968287006 0 0.0047922094304058624 -0.00032299460390226463 0 0.0046936623077605127 -0.0003926463575596701 0 0.0047480410027345363 -0.00034834548968287006 0 0.0047922094304058624 -0.00032299460390226463 0 0.004705246382250128 -0.00038389687488413215 0 0.0048386773435419939 -0.000316368772996346 0 0.004705246382250128 -0.00038389687488413215 0 0.0048386773435419939 -0.000316368772996346 0 0.0046113857648144851 -0.00042742168522420543 0 0.0047922094304058624 -0.00032299460390226463 0 0.0046936623077605127 -0.0003926463575596701 0 0.004705246382250128 -0.00038389687488413215 0 0.0048386773435419939 -0.000316368772996346 0 0.0048277973829760215 -0.00039108446530265522 0 0.0049892816565212886 -0.00029716351945111041 0 0.0046113857648144851 -0.00042742168522420543 0 0.0046178606656346816 -0.00046705190920215336 0 0.0048277973829760215 -0.00039108446530265522 0 0.0048386773435419939 -0.000316368772996346 0 0.0046113857648144851 -0.00042742168522420543 0 0.0048277973829760215 -0.00039108446530265522 0 0.0046936623077605127 -0.0003926463575596701 0 0.004705246382250128 -0.00038389687488413215 0 0.0046177460451292188 -0.00044155027087392862 0 0.004705246382250128 -0.00038389687488413215 0 0.0046177460451292188 -0.00044155027087392862 0 0.0046113857648144851 -0.00042742168522420543 0 0.0046113857648144851 -0.00042742168522420543 0 0.0044268539711851632 -0.00049933357206969763 0 0.0046178606656346816 -0.00046705190920215336 0 0.0046113857648144851 -0.00042742168522420543 0 0.0045251273009924951 -0.00049361809381104035 0 0.0044268539711851632 -0.00049933357206969763 0 0.004591548535478376 -0.00047474242348668783 0 0.0046177460451292188 -0.00044155027087392862 0 0.0045251273009924951 -0.00049361809381104035 0 0.0046177460451292188 -0.00044155027087392862 0 0.0046113857648144851 -0.00042742168522420543 0 0.0045251273009924951 -0.00049361809381104035 0 0.0044268539711851632 -0.00049933357206969763 0 0.004220044327599138 -0.00057969517768997436 0 0.0045533378966092575 -0.00052194954032825389 0 0.0045251273009924951 -0.00049361809381104035 0 0.0044268539711851632 -0.00049933357206969763 0 0.0045533378966092575 -0.00052194954032825389 0 0.0039343364605340572 -0.00057639059735179019 0 0.0034659290446625471 -0.00043943616127730024 0 0.0039784655447794234 -0.00059600080399825129 0 0.0038181560458688943 -0.00045785438519049506 0 0.0017644458892489747 -0.0011709856418204059 0 0.0044268539711851632 -0.00049933357206969763 0 0.0043336098264694888 -0.00053309954957274852 0 0.0046178606656346816 -0.00046705190920215336 0 0.0044268539711851632 -0.00049933357206969763 0 0.0043336098264694888 -0.00053309954957274852 0 0.004220044327599138 -0.00057969517768997436 0 0.0043336098264694888 -0.00053309954957274852 0 0.004220044327599138 -0.00057969517768997436 0 0.0039784655447794234 -0.00059600080399825129 0 0.0043336098264694888 -0.00053309954957274852 0 0.0039784655447794234 -0.00059600080399825129 0 0.0048055645106362069 -0.00059928344172319886 0 0.0046178606656346816 -0.00046705190920215336 0 0.0048055645106362069 -0.00059928344172319886 0 0.0048277973829760215 -0.00039108446530265522 0 0.0043336098264694888 -0.00053309954957274852 0 0.0046178606656346816 -0.00046705190920215336 0 0.0048055645106362069 -0.00059928344172319886 0 0.004220044327599138 -0.00057969517768997436 0 0.0038181560458688943 -0.00045785438519049506 0 0.0045533378966092575 -0.00052194954032825389 0 -0.00051839942665847679 0.0020828344300082065 0 -0.00046332251617007376 0.0022236433043855254 0 0.004220044327599138 -0.00057969517768997436 0 0.0039784655447794234 -0.00059600080399825129 0 0.0038181560458688943 -0.00045785438519049506 0 -0.0048258865327331082 0.0045242864780086827 0 -0.0056595065197118334 0.0050615519809184056 0 -0.0053227366065066442 0.0047801136882440441 0 -0.0048258865327331082 0.0045242864780086827 0 -0.0056595065197118334 0.0050615519809184056 0 -0.0052352313625930276 0.0049337251413990729 0 -0.0048258865327331082 0.0045242864780086827 0 -0.0053001209233046196 0.0045218671045361477 0 -0.0053227366065066442 0.0047801136882440441 0 -0.0053001209233046196 0.0045218671045361477 0 -0.0055241490557452434 0.0047303191477464446 0 -0.0053227366065066442 0.0047801136882440441 0 -0.0053001209233046196 0.0045218671045361477 0 -0.0055429645780110254 0.00452083647103943 0 -0.0055241490557452434 0.0047303191477464446 0 -0.005630967296812386 0.004197537184748446 0 -0.0055429645780110254 0.00452083647103943 0 -0.0057419326211834917 0.0046642188008844277 0 -0.0057419326211834917 0.0046642188008844277 0 -0.0055241490557452434 0.0047303191477464446 0 -0.0056822238085365087 0.0049039997430042189 0 -0.0055429645780110254 0.00452083647103943 0 -0.0057419326211834917 0.0046642188008844277 0 -0.0055241490557452434 0.0047303191477464446 0 -0.0055241490557452434 0.0047303191477464446 0 -0.0055353982937636206 0.0049136115720076852 0 -0.0056822238085365087 0.0049039997430042189 0 -0.0055353982937636206 0.0049136115720076852 0 -0.0056595065197118334 0.0050615519809184056 0 -0.0053227366065066442 0.0047801136882440441 0 -0.0055241490557452434 0.0047303191477464446 0 -0.0055353982937636206 0.0049136115720076852 0 -0.0053227366065066442 0.0047801136882440441 0 -0.0059334557339818942 0.0048117614274145208 0 -0.0057419326211834917 0.0046642188008844277 0 -0.0056822238085365087 0.0049039997430042189 0 -0.0058194572199826685 0.00507771359107668 0 -0.0056822238085365087 0.0049039997430042189 0 -0.0056595065197118334 0.0050615519809184056 0 -0.0055353982937636206 0.0049136115720076852 0 -0.0056822238085365087 0.0049039997430042189 0 -0.0056595065197118334 0.0050615519809184056 0 0.004591548535478376 -0.00047474242348668783 0 0.0045251273009924951 -0.00049361809381104035 0 0.0045533378966092575 -0.00052194954032825389 0 0.0039784655447794234 -0.00059600080399825129 0 0.0048055645106362069 -0.00059928344172319886 0 0.0054551899133636556 -0.00076629153521111674 0 0.004270301096080174 -0.00044240641081912428 0 0.0034659290446625471 -0.00043943616127730024 0 0.0048055645106362069 -0.00059928344172319886 0 0.0050698134708485358 -0.00055469768990441782 0 0.0048277973829760215 -0.00039108446530265522 0 0.0050698134708485358 -0.00055469768990441782 0 0.0050541453802825506 -0.00033568167604414785 0 0.0051868208960687799 -0.00029748854274687017 0 0.0050698134708485358 -0.00055469768990441782 0 0.0048277973829760215 -0.00039108446530265522 0 0.0050541453802825506 -0.00033568167604414785 0 0.0048277973829760215 -0.00039108446530265522 0 0.0049892816565212886 -0.00029716351945111041 0 0.0050541453802825506 -0.00033568167604414785 0 0.0049892816565212886 -0.00029716351945111041 0 0.0050541453802825506 -0.00033568167604414785 0 0.0051652690290003439 -0.0002318860659373686 0 0.0050541453802825506 -0.00033568167604414785 0 0.0051868208960687799 -0.00029748854274687017 0 0.0051652690290003439 -0.0002318860659373686 0 0.0050698134708485358 -0.00055469768990441782 0 0.0051868208960687799 -0.00029748854274687017 0 0.0053158645868383175 -0.00023011246482366183 0 0.0051868208960687799 -0.00029748854274687017 0 0.005312257862697665 -0.00018070834750414234 0 0.0053158645868383175 -0.00023011246482366183 0 0.005312257862697665 -0.00018070834750414234 0 0.0052502460520466353 -0.00017806929882740932 0 0.0054132386255102138 -0.00012694771110101103 0 0.0051868208960687799 -0.00029748854274687017 0 0.005312257862697665 -0.00018070834750414234 0 0.0051652690290003439 -0.0002318860659373686 0 0.005312257862697665 -0.00018070834750414234 0 0.0051652690290003439 -0.0002318860659373686 0 0.0052502460520466353 -0.00017806929882740932 0 0.0048386773435419939 -0.000316368772996346 0 0.0049892816565212886 -0.00029716351945111041 0 0.0050629767899930487 -0.0002274913517104525 0 0.0049892816565212886 -0.00029716351945111041 0 0.0051652690290003439 -0.0002318860659373686 0 0.0050629767899930487 -0.0002274913517104525 0 0.0051652690290003439 -0.0002318860659373686 0 0.0050629767899930487 -0.0002274913517104525 0 0.0052502460520466353 -0.00017806929882740932 0 0.0051527901362756895 -0.0001951673046635935 0 0.0052502460520466353 -0.00017806929882740932 0 0.0053662983497284296 -0.00016871147040585578 0 0.0050629767899930487 -0.0002274913517104525 0 0.0051527901362756895 -0.0001951673046635935 0 0.0052502460520466353 -0.00017806929882740932 0 0.0052502460520466353 -0.00017806929882740932 0 0.0053662983497284296 -0.00016871147040585578 0 0.0054132386255102138 -0.00012694771110101103 0 0.0053662983497284296 -0.00016871147040585578 0 0.005216102966165038 -0.00019753485924393636 0 0.0055017019780716032 -0.00020776422790997321 0 0.0051527901362756895 -0.0001951673046635935 0 0.0053662983497284296 -0.00016871147040585578 0 0.005216102966165038 -0.00019753485924393636 0 0.0051527901362756895 -0.0001951673046635935 0 0.0050213909202132725 -0.00022096877002697184 0 0.005216102966165038 -0.00019753485924393636 0 0.005066015100355298 -0.00021301942411415132 0 0.0050213909202132725 -0.00022096877002697184 0 0.005216102966165038 -0.00019753485924393636 0 0.005202678983408102 -7.2502920412459239e-05 0 0.005066015100355298 -0.00021301942411415132 0 0.0053472327283116744 -0.00018638473397866926 0 0.005066015100355298 -0.00021301942411415132 0 0.005216102966165038 -0.00019753485924393636 0 0.0053472327283116744 -0.00018638473397866926 0 0.005216102966165038 -0.00019753485924393636 0 0.0053472327283116744 -0.00018638473397866926 0 0.0055017019780716032 -0.00020776422790997321 0 0.0053472327283116744 -0.00018638473397866926 0 0.0055017019780716032 -0.00020776422790997321 0 0.0056710920560058727 -0.00023234579472030152 0 0.0055017019780716032 -0.00020776422790997321 0 0.0056710920560058727 -0.00023234579472030152 0 0.0056688615676988921 -0.00026430150762387175 0 0.0060389397784613988 -0.00030203146066050889 0 0.0056710920560058727 -0.00023234579472030152 0 0.0056688615676988921 -0.00026430150762387175 0 0.0056688615676988921 -0.00026430150762387175 0 0.0054663466815185417 -0.00020020990248836287 0 0.005634019878869535 -0.00033839208692489222 0 0.0060389397784613988 -0.00030203146066050889 0 0.0056688615676988921 -0.00026430150762387175 0 0.005634019878869535 -0.00033839208692489222 0 0.0056688615676988921 -0.00026430150762387175 0 0.0054663466815185417 -0.00020020990248836287 0 0.0055459813927871303 -0.00014492506475255549 0 0.0054663466815185417 -0.00020020990248836287 0 0.0054681441253035066 -1.9200975580347883e-05 0 0.0051426064983923986 1.6580703760918067e-06 0 0.0054663466815185417 -0.00020020990248836287 0 0.0055459813927871303 -0.00014492506475255549 0 0.0054681441253035066 -1.9200975580347883e-05 0 0.0055017019780716032 -0.00020776422790997321 0 0.0056688615676988921 -0.00026430150762387175 0 0.0055459813927871303 -0.00014492506475255549 0 0.0053662983497284296 -0.00016871147040585578 0 0.0055459813927871303 -0.00014492506475255549 0 0.0054132386255102138 -0.00012694771110101103 0 0.0053662983497284296 -0.00016871147040585578 0 0.0055017019780716032 -0.00020776422790997321 0 0.0055459813927871303 -0.00014492506475255549 0 0.0055459813927871303 -0.00014492506475255549 0 0.0054132386255102138 -0.00012694771110101103 0 0.0054936211093056068 -5.6592415164399579e-05 0 0.0055459813927871303 -0.00014492506475255549 0 0.0054936211093056068 -5.6592415164399579e-05 0 0.0054681441253035066 -1.9200975580347883e-05 0 0.0054936211093056068 -5.6592415164399579e-05 0 0.0054959913125205437 -3.2665754075397915e-05 0 0.0054528033123033923 8.8162051222218484e-05 0 0.0054959913125205437 -3.2665754075397915e-05 0 0.0055479723150020019 -7.7619719231551015e-05 0 0.0054528033123033923 8.8162051222218484e-05 0 0.0054936211093056068 -5.6592415164399579e-05 0 0.0054959913125205437 -3.2665754075397915e-05 0 0.0054338402632180278 -0.00010412852122221443 0 0.0054959913125205437 -3.2665754075397915e-05 0 0.0054338402632180278 -0.00010412852122221443 0 0.0055479723150020019 -7.7619719231551015e-05 0 0.005312257862697665 -0.00018070834750414234 0 0.0054132386255102138 -0.00012694771110101103 0 0.0054338402632180278 -0.00010412852122221443 0 0.0054132386255102138 -0.00012694771110101103 0 0.0054936211093056068 -5.6592415164399579e-05 0 0.0054338402632180278 -0.00010412852122221443 0 0.005312257862697665 -0.00018070834750414234 0 0.0054338402632180278 -0.00010412852122221443 0 0.0053158645868383175 -0.00023011246482366183 0 0.0050698134708485358 -0.00055469768990441782 0 0.0053158645868383175 -0.00023011246482366183 0 0.0055479723150020019 -7.7619719231551015e-05 0 0.0017644458892489747 -0.0011709856418204059 0 -0.00069368944608667687 -0.00021864006906375719 0 -0.0013738273685138377 -0.00065067787598774166 0 0.0028531286341143191 0.00015442332627310857 0 0.0022653480088451771 5.7985738473592702e-05 0 0.0022327317467971076 0.00015413158841974897 0 -0.00022348520660589398 0.00026407392182078716 0 0.0017644458892489747 -0.0011709856418204059 0 -0.00069368944608667687 -0.00021864006906375719 0 0.0034659290446625471 -0.00043943616127730024 0 0.00027253986114744141 -0.00023755941295956455 0 0.0054338402632180278 -0.00010412852122221443 0 0.0053158645868383175 -0.00023011246482366183 0 0.0055479723150020019 -7.7619719231551015e-05 0 0.0034659290446625471 -0.00043943616127730024 0 0.0039738408268940248 5.0103464633793806e-05 0 -0.00069368944608667687 -0.00021864006906375719 0 -0.0013738273685138377 -0.00065067787598774166 0 -0.0016173542168952347 -0.00015657577531786904 0 0.00027253986114744141 -0.00023755941295956455 0 2.8196089345288386e-05 0.00014689954812803862 0 -0.0019671128648188641 0.00011732922495159312 0 -0.0016173542168952347 -0.00015657577531786904 0 -0.0020298452148263444 0.00030566538469502155 0 0.0039738408268940248 5.0103464633793806e-05 0 0.0033314154872425596 0.00026629582762913401 0 0.0022327317467971076 0.00015413158841974897 0 0.0020296041809866926 9.2240901232474104e-05 0 0.0018851444433582978 0.00013742521885834263 0 -0.0013738273685138377 -0.00065067787598774166 0 -0.0016173542168952347 -0.00015657577531786904 0 -0.0020298452148263444 0.00030566538469502155 0 0.0022653480088451771 5.7985738473592702e-05 0 0.0020296041809866926 9.2240901232474104e-05 0 0.0017488283448561157 -1.2151326822613066e-05 0 0.0022653480088451771 5.7985738473592702e-05 0 0.0022327317467971076 0.00015413158841974897 0 0.0020296041809866926 9.2240901232474104e-05 0 0.005287137874692014 0.00022580122558391071 0 0.0054528033123033923 8.8162051222218484e-05 0 0.0050782748180193413 0.00068486622610062229 0 0.0055479723150020019 -7.7619719231551015e-05 0 0.0054528033123033923 8.8162051222218484e-05 0 0.0050782748180193413 0.00068486622610062229 0 0.0054936211093056068 -5.6592415164399579e-05 0 0.0054528033123033923 8.8162051222218484e-05 0 0.0054681441253035066 -1.9200975580347883e-05 0 0.005287137874692014 0.00022580122558391071 0 0.0054528033123033923 8.8162051222218484e-05 0 0.0054681441253035066 -1.9200975580347883e-05 0 0.005287137874692014 0.00022580122558391071 0 0.0054681441253035066 -1.9200975580347883e-05 0 0.0051426064983923986 1.6580703760918067e-06 0 0.005287137874692014 0.00022580122558391071 0 0.0051426064983923986 1.6580703760918067e-06 0 0.0050782748180193413 0.00068486622610062229 0 0.0051426064983923986 1.6580703760918067e-06 0 0.0042668526588287839 -2.7612336531505746e-05 0 0.0050782748180193413 0.00068486622610062229 0 0.0020296041809866926 9.2240901232474104e-05 0 0.0017488283448561157 -1.2151326822613066e-05 0 0.0018851444433582978 0.00013742521885834263 0 0.0017488283448561157 -1.2151326822613066e-05 0 0.0018851444433582978 0.00013742521885834263 0 0.0016824873576220122 -4.976973651396084e-05 0 -0.0010401000808653001 -0.00010859759949655264 0 -0.0020298452148263444 0.00030566538469502155 0 0.00090679831599117713 2.2124373831362444e-06 0 0.0018851444433582978 0.00013742521885834263 0 0.0016824873576220122 -4.976973651396084e-05 0 0.00091445182533491439 1.4967950721845779e-06 0 2.8196089345288386e-05 0.00014689954812803862 0 0.00091061377087529687 1.2345481553113321e-07 0 0.0016824873576220122 -4.976973651396084e-05 0 0.00091445182533491439 1.4967950721845779e-06 0 0.0021964595186814958 5.6112997134036074e-05 0 0.0042668526588287839 -2.7612336531505746e-05 0 0.0050782748180193413 0.00068486622610062229 0 0.0021964595186814958 5.6112997134036074e-05 0 0.0017488283448561157 -1.2151326822613066e-05 0 0.0016824873576220122 -4.976973651396084e-05 0 0.0021964595186814958 5.6112997134036074e-05 0 0.0033314154872425596 0.00026629582762913401 0 0.0022961205577932626 8.5784621550497056e-05 0 0.00091445182533491439 1.4967950721845779e-06 0 0.0021964595186814958 5.6112997134036074e-05 0 0.0035100170959112935 -6.5600134338608265e-07 0 0.0042668526588287839 -2.7612336531505746e-05 0 0.0021964595186814958 5.6112997134036074e-05 0 0.0040715209991539847 -0.00014392648660669984 0 0.0040715209991539847 -0.00014392648660669984 0 0.0049016397290399666 -0.00024288550090260556 0 0.0051658988970120605 -0.00023567174391714345 0 0.0021964595186814958 5.6112997134036074e-05 0 0.0035100170959112935 -6.5600134338608265e-07 0 0.0040715209991539847 -0.00014392648660669984 0 0.0035100170959112935 -6.5600134338608265e-07 0 0.0040715209991539847 -0.00014392648660669984 0 0.0051658988970120605 -0.00023567174391714345 0 0.0051426064983923986 1.6580703760918067e-06 0 0.0042668526588287839 -2.7612336531505746e-05 0 0.0049016397290399666 -0.00024288550090260556 0 0.0042668526588287839 -2.7612336531505746e-05 0 0.0040715209991539847 -0.00014392648660669984 0 0.0049016397290399666 -0.00024288550090260556 0 0.0054663466815185417 -0.00020020990248836287 0 0.0051426064983923986 1.6580703760918067e-06 0 0.0049016397290399666 -0.00024288550090260556 0 0.0054663466815185417 -0.00020020990248836287 0 0.0049016397290399666 -0.00024288550090260556 0 0.005634019878869535 -0.00033839208692489222 0 0.0065879153896945004 -0.00028695391508633088 0 0.005634019878869535 -0.00033839208692489222 0 0.0051658988970120605 -0.00023567174391714345 0 0.0049016397290399666 -0.00024288550090260556 0 0.005634019878869535 -0.00033839208692489222 0 0.0051658988970120605 -0.00023567174391714345 0 0.0061086457359296525 -4.5951527866823329e-07 0 0.0035100170959112935 -6.5600134338608265e-07 0 0.0051658988970120605 -0.00023567174391714345 0 0.010154065309804668 0.00087084914307584038 0 0.014668823333761905 -0.0011673084844182648 0 0.01852597476049055 -0.0020345804006248161 0 0.01851647422341051 -0.0020562892495979927 0 0.018531153510216135 -0.0020405353400762085 0 0.01852597476049055 -0.0020345804006248161 0 0.018531153510216135 -0.0020405353400762085 0 0.018543601771515993 -0.002021543439633091 0 0.010154065309804668 0.00087084914307584038 0 0.0037481727930181461 0.0021584936966342777 0 0.010154065309804668 0.00087084914307584038 0 0.011778313449810016 6.6673424350474034e-05 0 0.0028954118187058332 0.0015769909580829904 0 0.0032053518222780845 0.0014827812659774127 0 0.0034042148721325723 0.0018220755176996482 0 0.0032053518222780845 0.0014827812659774127 0 0.0028771908714502322 0.001131646335892638 0 0.0033796883868748543 0.0012569705289253584 0 0.0028954118187058332 0.0015769909580829904 0 0.0032053518222780845 0.0014827812659774127 0 0.0028771908714502322 0.001131646335892638 0 0.010949359955536147 0.00022551482981210752 0 0.010339837747216028 -0.00033066846773315814 0 0.010243483685842724 -0.00018332583253231302 0 0.010154065309804668 0.00087084914307584038 0 0.0057612308727943576 0.00027290596044638431 0 0.0028954118187058332 0.0015769909580829904 0 0.0028771908714502322 0.001131646335892638 0 0.0023969792667951849 0.001211417347267426 0 0.0028771908714502322 0.001131646335892638 0 0.0023969792667951849 0.001211417347267426 0 0.0023197759955583064 0.00085794065155653677 0 0.010339837747216028 -0.00033066846773315814 0 0.010243483685842724 -0.00018332583253231302 0 0.009599940837109763 -0.000952439472201627 0 0.010243483685842724 -0.00018332583253231302 0 0.009599940837109763 -0.000952439472201627 0 0.0093764010426510176 -0.00061439958767297339 0 0.014668823333761905 -0.0011673084844182648 0 0.016900889182265691 -0.0023825929865486572 0 0.01851647422341051 -0.0020562892495979927 0 0.018512012182496838 -0.0020649352766453819 0 0.018490306126477989 -0.0020920550811024405 0 0.022727668348582298 -0.0034461371677617291 0 0.016900889182265691 -0.0023825929865486572 0 0.01851647422341051 -0.0020562892495979927 0 0.018512012182496838 -0.0020649352766453819 0 0.018540892732424395 -0.0020490367063303525 0 0.026841411866764978 -0.0052967505106030514 0 0.026783755248833828 -0.0048823465636274443 0 0.026101491507239366 -0.0052577768302140108 0 0.022727668348582298 -0.0034461371677617291 0 0.024474183956990993 -0.0042143769753181801 0 0.026841411866764978 -0.0052967505106030514 0 0.026783755248833828 -0.0048823465636274443 0 0.027178339483849973 -0.0046658750648334415 0 0.026841411866764978 -0.0052967505106030514 0 0.027178339483849973 -0.0046658750648334415 0 0.02732285372778686 -0.0046179225922977196 0 0.026783755248833828 -0.0048823465636274443 0 0.027178339483849973 -0.0046658750648334415 0 0.026901437908129495 -0.0044913236208092289 0 0.025173851366788302 -0.0040852252199818345 0 0.024474183956990993 -0.0042143769753181801 0 0.027178339483849973 -0.0046658750648334415 0 0.02733233400862229 -0.0046213494306237158 0 0.027204213532357104 -0.004364738872942836 0 0.027178339483849973 -0.0046658750648334415 0 0.026901437908129495 -0.0044913236208092289 0 0.027204213532357104 -0.004364738872942836 0 0.026783755248833828 -0.0048823465636274443 0 0.026901437908129495 -0.0044913236208092289 0 0.026481648544565008 -0.0045491218050311352 0 0.024474183956990993 -0.0042143769753181801 0 0.023076276324933625 -0.0032171877795416875 0 0.01851647422341051 -0.0020562892495979927 0 0.018540892732424395 -0.0020490367063303525 0 0.018531153510216135 -0.0020405353400762085 0 0.018540892732424395 -0.0020490367063303525 0 0.018531153510216135 -0.0020405353400762085 0 0.018543601771515993 -0.002021543439633091 0 0.024474183956990993 -0.0042143769753181801 0 0.0259714553712036 -0.0037317948330388736 0 0.02733233400862229 -0.0046213494306237158 0 0.02754766030099318 -0.0043404432156113502 0 0.027204213532357104 -0.004364738872942836 0 0.027322875165941302 -0.0046598837134151153 0 0.02754766030099318 -0.0043404432156113502 0 0.028596948827284425 -0.0043624239095719731 0 0.02754766030099318 -0.0043404432156113502 0 0.027888685132232638 -0.0038048083139831882 0 0.028596948827284425 -0.0043624239095719731 0 0.02754766030099318 -0.0043404432156113502 0 0.027888685132232638 -0.0038048083139831882 0 0.027371253307446251 -0.0040355616537173485 0 0.02754766030099318 -0.0043404432156113502 0 0.027204213532357104 -0.004364738872942836 0 0.027371253307446251 -0.0040355616537173485 0 0.027888685132232638 -0.0038048083139831882 0 0.027371253307446251 -0.0040355616537173485 0 0.027380342820947423 -0.0036789313902895727 0 0.026901437908129495 -0.0044913236208092289 0 0.026853904750628946 -0.0039809596362738627 0 0.026481648544565008 -0.0045491218050311352 0 0.027204213532357104 -0.004364738872942836 0 0.027371253307446251 -0.0040355616537173485 0 0.026853904750628946 -0.0039809596362738627 0 0.026901437908129495 -0.0044913236208092289 0 0.027204213532357104 -0.004364738872942836 0 0.026853904750628946 -0.0039809596362738627 0 0.027371253307446251 -0.0040355616537173485 0 0.027380342820947423 -0.0036789313902895727 0 0.026853904750628946 -0.0039809596362738627 0 0.027380342820947423 -0.0036789313902895727 0 0.026853904750628946 -0.0039809596362738627 0 0.02699359733592049 -0.0033403864613939997 0 0.027614966823311052 -0.002478670157377713 0 0.026943846095158645 -0.0026316564871019946 0 0.027697072525033135 -0.0031412112127437294 0 0.026943846095158645 -0.0026316564871019946 0 0.02699359733592049 -0.0033403864613939997 0 0.027697072525033135 -0.0031412112127437294 0 0.026853904750628946 -0.0039809596362738627 0 0.02699359733592049 -0.0033403864613939997 0 0.026311101555968365 -0.0033886624529880392 0 0.027380342820947423 -0.0036789313902895727 0 0.02699359733592049 -0.0033403864613939997 0 0.027697072525033135 -0.0031412112127437294 0 0.026943846095158645 -0.0026316564871019946 0 0.02699359733592049 -0.0033403864613939997 0 0.026311101555968365 -0.0033886624529880392 0 0.027888685132232638 -0.0038048083139831882 0 0.027697072525033135 -0.0031412112127437294 0 0.028873421761575254 -0.0032188021685595862 0 0.027888685132232638 -0.0038048083139831882 0 0.027380342820947423 -0.0036789313902895727 0 0.027697072525033135 -0.0031412112127437294 0 0.028338976468501437 -0.0025636186808471449 0 0.027614966823311052 -0.002478670157377713 0 0.027697072525033135 -0.0031412112127437294 0 0.028338976468501437 -0.0025636186808471449 0 0.027697072525033135 -0.0031412112127437294 0 0.028873421761575254 -0.0032188021685595862 0 0.028873421761575254 -0.0032188021685595862 0 0.028596948827284425 -0.0043624239095719731 0 0.03052050902254045 -0.0039668461399332946 0 0.027888685132232638 -0.0038048083139831882 0 0.028873421761575254 -0.0032188021685595862 0 0.028596948827284425 -0.0043624239095719731 0 0.01852597476049055 -0.0020345804006248161 0 0.018599399810884973 -0.0019541841932544449 0 0.018608624614335156 -0.0019762491322615383 0 0.0077837606990590431 0.0035035355601618916 0 0.0061251652556153615 0.0023937149117151204 0 0.0057905599584888411 0.0026672858813624909 0 0.01852597476049055 -0.0020345804006248161 0 0.018543601771515993 -0.002021543439633091 0 0.018599399810884973 -0.0019541841932544449 0 0.023076276324933625 -0.0032171877795416875 0 0.025908577321345459 -0.0028114583573138909 0 0.028873421761575254 -0.0032188021685595862 0 0.03052050902254045 -0.0039668461399332946 0 0.030344410427843145 -0.0023317160971050277 0 0.029295033962992073 -0.0007399068653762775 0 0.028873421761575254 -0.0032188021685595862 0 0.030344410427843145 -0.0023317160971050277 0 0.03052050902254045 -0.0039668461399332946 0 0.030344410427843145 -0.0023317160971050277 0 0.031731547322073603 -0.0024304964471995754 0 0.03052050902254045 -0.0039668461399332946 0 0.031731547322073603 -0.0024304964471995754 0 0.032964206543042704 -0.0031756651547639992 0 0.03133605510049433 -0.0010949127101065935 0 0.030344410427843145 -0.0023317160971050277 0 0.031731547322073603 -0.0024304964471995754 0 0.03359482607396088 -0.0015080211358800485 0 0.031731547322073603 -0.0024304964471995754 0 0.032964206543042704 -0.0031756651547639992 0 0.03359482607396088 -0.0015080211358800485 0 0.032964206543042704 -0.0031756651547639992 0 0.034219138973210696 -0.0019568211389923971 0 0.019111771091588903 -0.0012594577086975033 0 0.025681723342659019 -0.00069539371947399285 0 0.019027801332012019 -0.0016680261309399002 0 0.020595041839863958 -0.00043578221744390935 0 0.02073975227424598 -0.0010513886528356129 0 0.019111771091588903 -0.0012594577086975033 0 0.01248352685945793 0.0013920723915947764 0 0.0046315598105673011 0.0014871869821995072 0 0.0041174327670601852 0.0018544018090457656 0 0.0040267815890114023 0.0016580000540287972 0 0.0041174327670601852 0.0018544018090457656 0 0.0038412302503535284 0.0017601229519613726 0 0.0034042148721325723 0.0018220755176996482 0 0.0046315598105673011 0.0014871869821995072 0 0.0041174327670601852 0.0018544018090457656 0 0.0057905599584888411 0.0026672858813624909 0 0.0041174327670601852 0.0018544018090457656 0 0.0040632617741742389 0.001818116027596714 0 0.0040267815890114023 0.0016580000540287972 0 0.0044310662170706791 0.0019839083731628682 0 0.0037481727930181461 0.0021584936966342777 0 0.0040632617741742389 0.001818116027596714 0 0.0038412302503535284 0.0017601229519613726 0 0.0038179151177799289 0.0016334312384340148 0 0.0041174327670601852 0.0018544018090457656 0 0.0040632617741742389 0.001818116027596714 0 0.0038412302503535284 0.0017601229519613726 0 0.0038412302503535284 0.0017601229519613726 0 0.0034042148721325723 0.0018220755176996482 0 0.0036724351982616366 0.0016922663465723834 0 0.025908577321345459 -0.0028114583573138909 0 0.019111771091588903 -0.0012594577086975033 0 0.019111771091588903 -0.0012594577086975033 0 0.011778313449810016 6.6673424350474034e-05 0 0.018599399810884973 -0.0019541841932544449 0 0.018715847652147087 -0.0018582237612493229 0 0.018608624614335156 -0.0019762491322615383 0 0.0046315598105673011 0.0014871869821995072 0 0.0061251652556153615 0.0023937149117151204 0 0.0057905599584888411 0.0026672858813624909 0 0.0099534064702893298 0.0018510500704050144 0 0.01248352685945793 0.0013920723915947764 0 0.0049312950856509261 0.0019860408302770521 0 0.0046660601257663961 0.0016956023656928879 0 0.004865124509740127 0.0017105406706423717 0 0.0099534064702893298 0.0018510500704050144 0 0.0047947895868327419 0.0016932234278036493 0 0.0049312950856509261 0.0019860408302770521 0 0.0045294617174303029 0.0018390822005459944 0 0.0046660601257663961 0.0016956023656928879 0 0.025681723342659019 -0.00069539371947399285 0 0.01248352685945793 0.0013920723915947764 0 0.01248352685945793 0.0013920723915947764 0 0.0034841419654888903 0.0019258252617678539 0 0.0045294617174303029 0.0018390822005459944 0 0.0046660601257663961 0.0016956023656928879 0 0.004517734459980066 0.0014895246460874725 0 0.0040632617741742389 0.001818116027596714 0 0.0040267815890114023 0.0016580000540287972 0 0.004109395163452787 0.0017944088441285626 0 0.0046660601257663961 0.0016956023656928879 0 0.004865124509740127 0.0017105406706423717 0 0.0047724608095866712 0.0014330917098646569 0 0.0046660601257663961 0.0016956023656928879 0 0.004517734459980066 0.0014895246460874725 0 0.0047724608095866712 0.0014330917098646569 0 0.0047947895868327419 0.0016932234278036493 0 0.0047956341668417011 0.0014772471233174347 0 0.0048310754685187219 0.0011104954936995268 0 0.0047724608095866712 0.0014330917098646569 0 0.004473518307942537 0.0010943394053377204 0 0.004517734459980066 0.0014895246460874725 0 0.0047724608095866712 0.0014330917098646569 0 0.004473518307942537 0.0010943394053377204 0 0.0034841419654888903 0.0019258252617678539 0 0.0044538569699599691 0.001077629652386539 0 0.004109395163452787 0.0017944088441285626 0 0.004251890155664852 0.0012737068362769013 0 0.0039446667424444925 0.0015429266106618293 0 0.0040632617741742389 0.001818116027596714 0 0.004109395163452787 0.0017944088441285626 0 0.0039446667424444925 0.0015429266106618293 0 0.004251890155664852 0.0012737068362769013 0 0.0039446667424444925 0.0015429266106618293 0 0.0037672853392791048 0.0011863209810666511 0 0.004251890155664852 0.0012737068362769013 0 0.0037672853392791048 0.0011863209810666511 0 0.0039177011203865904 0.00078569450718249444 0 0.0048310754685187219 0.0011104954936995268 0 0.004473518307942537 0.0010943394053377204 0 0.0043913178179907676 0.00065105518288382581 0 0.0035176551076382943 0.0015491066058130403 0 0.0036863003652231837 0.0014267057548294935 0 0.0033796883868748543 0.0012569705289253584 0 0.0032053518222780845 0.0014827812659774127 0 0.0035176551076382943 0.0015491066058130403 0 0.0033796883868748543 0.0012569705289253584 0 0.0032053518222780845 0.0014827812659774127 0 0.0034042148721325723 0.0018220755176996482 0 0.0035176551076382943 0.0015491066058130403 0 0.0034042148721325723 0.0018220755176996482 0 0.0035176551076382943 0.0015491066058130403 0 0.0036724351982616366 0.0016922663465723834 0 0.0035176551076382943 0.0015491066058130403 0 0.0036724351982616366 0.0016922663465723834 0 0.0038179151177799289 0.0016334312384340148 0 0.0038412302503535284 0.0017601229519613726 0 0.0036724351982616366 0.0016922663465723834 0 0.0038179151177799289 0.0016334312384340148 0 0.0040632617741742389 0.001818116027596714 0 0.0038179151177799289 0.0016334312384340148 0 0.0039446667424444925 0.0015429266106618293 0 0.0038179151177799289 0.0016334312384340148 0 0.0039446667424444925 0.0015429266106618293 0 0.0036863003652231837 0.0014267057548294935 0 0.0035176551076382943 0.0015491066058130403 0 0.0038179151177799289 0.0016334312384340148 0 0.0036863003652231837 0.0014267057548294935 0 0.0036863003652231837 0.0014267057548294935 0 0.0037672853392791048 0.0011863209810666511 0 0.0033796883868748543 0.0012569705289253584 0 0.0039446667424444925 0.0015429266106618293 0 0.0036863003652231837 0.0014267057548294935 0 0.0037672853392791048 0.0011863209810666511 0 0.0028771908714502322 0.001131646335892638 0 0.0033796883868748543 0.0012569705289253584 0 0.003293243915475536 0.000824898972727993 0 0.0037672853392791048 0.0011863209810666511 0 0.0033796883868748543 0.0012569705289253584 0 0.003293243915475536 0.000824898972727993 0 0.003293243915475536 0.000824898972727993 0 0.0036376867398214018 0.00043287226005538082 0 0.0039177011203865904 0.00078569450718249444 0 0.0037672853392791048 0.0011863209810666511 0 0.003293243915475536 0.000824898972727993 0 0.0039177011203865904 0.00078569450718249444 0 0.003293243915475536 0.000824898972727993 0 0.0036376867398214018 0.00043287226005538082 0 0.00321353825209842 0.00023322856979331909 0 0.003293243915475536 0.000824898972727993 0 0.00321353825209842 0.00023322856979331909 0 0.0024032260468412445 0.00025551598289970731 0 0.0044538569699599691 0.001077629652386539 0 0.004383800901890866 0.00072241737599375972 0 0.004251890155664852 0.0012737068362769013 0 0.0043913178179907676 0.00065105518288382581 0 0.0039177011203865904 0.00078569450718249444 0 0.0043913178179907676 0.00065105518288382581 0 0.0039177011203865904 0.00078569450718249444 0 0.0039442153402018286 0.00016234977615672122 0 0.0036376867398214018 0.00043287226005538082 0 0.0039177011203865904 0.00078569450718249444 0 0.0039442153402018286 0.00016234977615672122 0 0.0047756167747876541 0.00031069365073254382 0 0.0043913178179907676 0.00065105518288382581 0 0.0044778157938412354 0.00018164823901128173 0 0.0043913178179907676 0.00065105518288382581 0 0.0044778157938412354 0.00018164823901128173 0 0.0039442153402018286 0.00016234977615672122 0 0.0044778157938412354 0.00018164823901128173 0 0.0045766677037729509 -0.00021640295885862158 0 0.0039442153402018286 0.00016234977615672122 0 0.0047449183890884029 -1.3732295565877076e-05 0 0.0044778157938412354 0.00018164823901128173 0 0.0045766677037729509 -0.00021640295885862158 0 0.0039442153402018286 0.00016234977615672122 0 0.0034468738691010884 -0.00049072910208744188 0 0.0026639711565590784 -6.4224812665371995e-05 0 -0.002138278301714867 0.0029971105622834116 0 -0.0046743623208617621 0.0027553584548884588 0 0.0045766677037729509 -0.00021640295885862158 0 0.0039442153402018286 0.00016234977615672122 0 0.0034468738691010884 -0.00049072910208744188 0 0.003523096144949714 3.0182609775151325e-05 0 0.0040277053925197367 0.00013075915293183176 0 -0.011342175415769476 0.0040051032379717121 0 -0.010226832319392207 0.005098906304244092 0 -0.011922056352211682 0.0048013814431805916 0 -0.008932969173434939 0.0060521237254601437 0 -0.01164252506950525 0.0058163559878578169 0 -0.010226832319392207 0.005098906304244092 0 -0.01164252506950525 0.0058163559878578169 0 -0.010226832319392207 0.005098906304244092 0 -0.011922056352211682 0.0048013814431805916 0 -0.0088991051971774419 0.0042653139366308733 0 -0.0084550420802318605 0.005066319022027233 0 -0.010226832319392207 0.005098906304244092 0 -0.0084550420802318605 0.005066319022027233 0 -0.008932969173434939 0.0060521237254601437 0 -0.010226832319392207 0.005098906304244092 0 0.00321353825209842 0.00023322856979331909 0 0.0029851887663044198 -0.00041015591546016378 0 0.0024032260468412445 0.00025551598289970731 0 0.0040277053925197367 0.00013075915293183176 0 -0.0039832833844798462 0.0014908839350730304 0 0.00321353825209842 0.00023322856979331909 0 0.0035855097409680219 -6.8150803227911595e-05 0 0.0029851887663044198 -0.00041015591546016378 0 0.0034468738691010884 -0.00049072910208744188 0 0.0026639711565590784 -6.4224812665371995e-05 0 0.001140170115112731 -0.00071046610448366357 0 0.0036376867398214018 0.00043287226005538082 0 0.00321353825209842 0.00023322856979331909 0 0.0035855097409680219 -6.8150803227911595e-05 0 0.0036376867398214018 0.00043287226005538082 0 0.0039442153402018286 0.00016234977615672122 0 0.0035855097409680219 -6.8150803227911595e-05 0 -0.01164252506950525 0.0058163559878578169 0 -0.012962820747721057 0.0048320946161908478 0 -0.014291234334823799 0.0055074524657469986 0 -0.0046743623208617621 0.0027553584548884588 0 -0.0039832833844798462 0.0014908839350730304 0 -0.01164252506950525 0.0058163559878578169 0 -0.011922056352211682 0.0048013814431805916 0 -0.012962820747721057 0.0048320946161908478 0 -0.012912294112782136 0.0036161230419018194 0 -0.012962820747721057 0.0048320946161908478 0 -0.0139491847331911 0.0043070064124822302 0 -0.012912294112782136 0.0036161230419018194 0 -0.011922056352211682 0.0048013814431805916 0 -0.012962820747721057 0.0048320946161908478 0 -0.012962820747721057 0.0048320946161908478 0 -0.0139491847331911 0.0043070064124822302 0 -0.014291234334823799 0.0055074524657469986 0 -0.0139491847331911 0.0043070064124822302 0 -0.014291234334823799 0.0055074524657469986 0 -0.014882953945151952 0.0042274115579314826 0 -0.0051565687890909855 0.0019747241295012216 0 -0.0064741769740100314 0.0013966428098045162 0 -0.0068097276808226958 0.0018409226838341573 0 -0.014291234334823799 0.0055074524657469986 0 -0.014882953945151952 0.0042274115579314826 0 -0.015687854526008078 0.0048594438474248176 0 -0.015430583857356336 0.0033177412829183089 0 -0.015687854526008078 0.0048594438474248176 0 -0.017091930298745523 0.004224135572082407 0 -0.0039832833844798462 0.0014908839350730304 0 -0.0019876224552950834 0.00068073116555938821 0 -0.015430583857356336 0.0033177412829183089 0 -0.014882953945151952 0.0042274115579314826 0 -0.015687854526008078 0.0048594438474248176 0 -0.0039832833844798462 0.0014908839350730304 0 -0.011493771978420981 0.0028340181372844709 0 -0.0068097276808226958 0.0018409226838341573 0 -0.007987730670859278 0.0014415821269991756 0 -0.0084143617955792747 0.001714382162399723 0 -0.0019876224552950834 0.00068073116555938821 0 -0.0022855141076335889 0.00060425652683617989 0 -0.0077673681181496153 0.00084561595268020455 0 -0.007987730670859278 0.0014415821269991756 0 -0.0085086274596382037 0.0012341647247283091 0 -0.016646701250091756 0.0033819232642386967 0 -0.016273166418318635 0.0035304497058142956 0 -0.016695605815291441 0.0037386907786045595 0 -0.013886727246956167 0.0032594795543120581 0 -0.01138652960470616 0.0010615437954666152 0 -0.0064741769740100314 0.0013966428098045162 0 -0.0068097276808226958 0.0018409226838341573 0 -0.0077673681181496153 0.00084561595268020455 0 -0.0068097276808226958 0.0018409226838341573 0 -0.0077673681181496153 0.00084561595268020455 0 -0.007987730670859278 0.0014415821269991756 0 -0.011493771978420981 0.0028340181372844709 0 -0.013886727246956167 0.0032594795543120581 0 -0.007987730670859278 0.0014415821269991756 0 -0.0084359438351801746 0.0015736150653142494 0 -0.0085086274596382037 0.0012341647247283091 0 -0.007987730670859278 0.0014415821269991756 0 -0.0084143617955792747 0.001714382162399723 0 -0.0084359438351801746 0.0015736150653142494 0 0.0024867485335506568 0.00036398859492606863 0 0.0028836686688105875 0.00041537495977381076 0 0.0023967432778665616 -3.4942344828642696e-05 0 0.0022616185202877902 -0.0004994829862571945 0 0.0024032260468412445 0.00025551598289970731 0 0.0014533350467801271 -0.0005415270506734036 0 0.0033960522669536585 0.00037155671132545079 0 -0.0022855141076335889 0.00060425652683617989 0 0.0029851887663044198 -0.00041015591546016378 0 0.0022616185202877902 -0.0004994829862571945 0 0.0024032260468412445 0.00025551598289970731 0 0.003293243915475536 0.000824898972727993 0 0.0028836686688105875 0.00041537495977381076 0 0.0026536615752665868 0.00072183094622633916 0 0.0028771908714502322 0.001131646335892638 0 0.003293243915475536 0.000824898972727993 0 0.0026536615752665868 0.00072183094622633916 0 0.0029788044353697826 0.00072727785362415598 0 0.0033960522669536585 0.00037155671132545079 0 0.0024867485335506568 0.00036398859492606863 0 0.0028836686688105875 0.00041537495977381076 0 0.0026536615752665868 0.00072183094622633916 0 0.0028771908714502322 0.001131646335892638 0 0.0026536615752665868 0.00072183094622633916 0 0.0023197759955583064 0.00085794065155653677 0 0.0057612308727943576 0.00027290596044638431 0 0.0058578835280645499 9.3079074270555791e-05 0 0.0023969792667951849 0.001211417347267426 0 0.0019033807849143183 0.00086103324700527255 0 0.0023197759955583064 0.00085794065155653677 0 0.0019033807849143183 0.00086103324700527255 0 0.0023197759955583064 0.00085794065155653677 0 0.0022147004240367332 0.00050943951065762912 0 0.0024867485335506568 0.00036398859492606863 0 0.0026536615752665868 0.00072183094622633916 0 0.0022147004240367332 0.00050943951065762912 0 0.0026536615752665868 0.00072183094622633916 0 0.0023197759955583064 0.00085794065155653677 0 0.0022147004240367332 0.00050943951065762912 0 0.0019033807849143183 0.00086103324700527255 0 0.0022147004240367332 0.00050943951065762912 0 0.0017575850536613996 0.00047416535108564734 0 0.0022147004240367332 0.00050943951065762912 0 0.001811357911411025 0.00015367826359118154 0 0.0017575850536613996 0.00047416535108564734 0 0.0024867485335506568 0.00036398859492606863 0 0.0022858325350216002 0.00019796405081033998 0 0.0023967432778665616 -3.4942344828642696e-05 0 0.0022147004240367332 0.00050943951065762912 0 0.001811357911411025 0.00015367826359118154 0 0.0022858325350216002 0.00019796405081033998 0 0.001811357911411025 0.00015367826359118154 0 0.0022858325350216002 0.00019796405081033998 0 0.0021645806751723401 -4.4684337231108911e-05 0 0.0024867485335506568 0.00036398859492606863 0 0.0022147004240367332 0.00050943951065762912 0 0.0022858325350216002 0.00019796405081033998 0 -0.0051683840146173445 -2.0164668292634318e-05 0 -0.0061768975032244246 -9.9526298164798741e-05 0 -0.0055589960748550458 -0.00041528423380356042 0 -0.0022855141076335889 0.00060425652683617989 0 -0.0053306049128931231 -0.00029144044604736751 0 0.0022858325350216002 0.00019796405081033998 0 0.0023967432778665616 -3.4942344828642696e-05 0 0.0021645806751723401 -4.4684337231108911e-05 0 -0.010908520745108622 0.0013958632966669434 0 -0.01138652960470616 0.0010615437954666152 0 -0.0022855141076335889 0.00060425652683617989 0 -0.0086953247994519881 5.916425246285553e-05 0 -0.0084143617955792747 0.001714382162399723 0 -0.0084359438351801746 0.0015736150653142494 0 -0.0087836363224553168 0.0013410906835980524 0 -0.0053306049128931231 -0.00029144044604736751 0 -0.0086953247994519881 5.916425246285553e-05 0 -0.011901257204222462 -0.00043443785687518737 0 -0.01219247795099037 -0.0005303627248349214 0 -0.011807932744938347 -0.00012886325714439107 0 -0.01219247795099037 -0.0005303627248349214 0 -0.011992123307147584 2.5571749022889014e-05 0 -0.01171674495211391 -0.00010995382973124122 0 -0.012359265616548799 -0.0010933961511339931 0 -0.0086953247994519881 5.916425246285553e-05 0 -0.011901257204222462 -0.00043443785687518737 0 -0.011807932744938347 -0.00012886325714439107 0 -0.011692714097793745 -0.00018771311094477444 0 -0.0084359438351801746 0.0015736150653142494 0 -0.0087836363224553168 0.0013410906835980524 0 -0.0085089782244677278 0.0011951895515909647 0 -0.0086953247994519881 5.916425246285553e-05 0 -0.01138652960470616 0.0010615437954666152 0 -0.0056898454348381132 -0.00029835442919444585 0 -0.0054496993797547022 -0.00041868151076809211 0 -0.005865104515233103 -0.00044928899657976587 0 -0.0012096340455371576 -0.00035924403762630387 0 -0.0053306049128931231 -0.00029144044604736751 0 -0.012619741813857398 -0.00050417280782534568 0 -0.011992123307147584 2.5571749022889014e-05 0 -0.013170878492506121 -6.835793906577727e-05 0 -0.0053306049128931231 -0.00029144044604736751 0 -0.011636300052103584 -0.00071367486237870715 0 -0.01219247795099037 -0.0005303627248349214 0 -0.012619741813857398 -0.00050417280782534568 0 -0.011992123307147584 2.5571749022889014e-05 0 -0.011636300052103584 -0.00071367486237870715 0 -0.013315143305705294 -0.00068509017471416475 0 -0.013593804339745394 -0.00055913249639013944 0 -0.01334657315192643 -0.0006608797486095131 0 -0.013315331749556006 -0.00086137552967434805 0 -0.013593804339745394 -0.00055913249639013944 0 -0.013382056294244193 -0.00053181657066334422 0 -0.01334657315192643 -0.0006608797486095131 0 -0.013260755865104537 -0.00081870327852881367 0 -0.013192671575560134 -0.00049325797585207784 0 -0.013382056294244193 -0.00053181657066334422 0 -0.013531116263098292 -0.00071214897468744752 0 -0.013382056294244193 -0.00053181657066334422 0 -0.013337782618377831 -0.00053512201347688515 0 -0.013260755865104537 -0.00081870327852881367 0 -0.013531116263098292 -0.00071214897468744752 0 -0.013382056294244193 -0.00053181657066334422 0 -0.00911356084362905 -0.00055725014832464555 0 -0.012287461425623463 -2.8364697710041968e-05 0 -0.012658964751202628 0.00031636286455516264 0 -0.013337782618377831 -0.00053512201347688515 0 -0.012733224224108297 -0.00021655065322235661 0 -0.013214062915098622 -0.00069399061197512706 0 -0.013132046400720089 -0.000971743749039714 0 -0.012733224224108297 -0.00021655065322235661 0 -0.011528506489589467 -5.0928363219040732e-05 0 -0.011471442360590473 0.00036433800187100879 0 -0.011384279221686965 0.00025410856108173171 0 -0.013214062915098622 -0.00069399061197512706 0 -0.013337782618377831 -0.00053512201347688515 0 -0.012733224224108297 -0.00021655065322235661 0 -0.011472398649974772 1.0909987790563734e-06 0 -0.011384279221686965 0.00025410856108173171 0 -0.011388812098767465 0.00010199408728077621 0 -0.00911356084362905 -0.00055725014832464555 0 -0.011505303508795122 -4.0552937273117429e-05 0 -0.013382056294244193 -0.00053181657066334422 0 -0.013337782618377831 -0.00053512201347688515 0 -0.01334657315192643 -0.0006608797486095131 0 -0.013214062915098622 -0.00069399061197512706 0 -0.01334657315192643 -0.0006608797486095131 0 -0.013270363260757968 -0.00077510210279332806 0 -0.013214062915098622 -0.00069399061197512706 0 -0.013337782618377831 -0.00053512201347688515 0 -0.01334657315192643 -0.0006608797486095131 0 -0.01334657315192643 -0.0006608797486095131 0 -0.013270363260757968 -0.00077510210279332806 0 -0.013315331749556006 -0.00086137552967434805 0 -0.013214062915098622 -0.00069399061197512706 0 -0.013270363260757968 -0.00077510210279332806 0 -0.013198960731666494 -0.0008857953881484989 0 -0.013270363260757968 -0.00077510210279332806 0 -0.013198960731666494 -0.0008857953881484989 0 -0.013315331749556006 -0.00086137552967434805 0 -0.013198960731666494 -0.0008857953881484989 0 -0.013315331749556006 -0.00086137552967434805 0 -0.013245021011083283 -0.00099253991873500882 0 -0.013198960731666494 -0.0008857953881484989 0 -0.013130688738245605 -0.0009564380583389978 0 -0.013245021011083283 -0.00099253991873500882 0 -0.011472398649974772 1.0909987790563734e-06 0 -0.011388812098767465 0.00010199408728077621 0 -0.011385299958968975 -4.7952923819004935e-05 0 -0.013214062915098622 -0.00069399061197512706 0 -0.013198960731666494 -0.0008857953881484989 0 -0.013132046400720089 -0.000971743749039714 0 -0.010121681933276599 -0.00024977570566463056 0 -0.00911356084362905 -0.00055725014832464555 0 -0.013198960731666494 -0.0008857953881484989 0 -0.013130688738245605 -0.0009564380583389978 0 -0.01311860566975954 -0.00091255311630559187 0 -0.007363540828378339 -0.0016623649522165005 0 -0.00911356084362905 -0.00055725014832464555 0 -0.00911356084362905 -0.00055725014832464555 0 -0.0038045155335217711 -0.0013416406691752908 0 -0.0044171886557867095 -0.0021685894974076761 0 -0.0045271964157902987 -0.0025114158233443687 0 -0.005539579255592654 -0.0019778529960312171 0 -0.0011670592436112002 -0.0013831949243571988 0 -0.0038045155335217711 -0.0013416406691752908 0 -0.007363540828378339 -0.0016623649522165005 0 -0.0011670592436112002 -0.0013831949243571988 0 -0.0044171886557867095 -0.0021685894974076761 0 -0.0039632972575422368 -0.00075093099083474858 0 -0.005539579255592654 -0.0019778529960312171 0 -0.007363540828378339 -0.0016623649522165005 0 -0.0014524707268612112 -0.0013625028199436035 0 -0.0046573613759913922 -0.0026492825145306453 0 -0.0039262515970059078 -0.00036691721334189149 0 -0.003087775219775634 -0.00012569038005731518 0 -0.013130688738245605 -0.0009564380583389978 0 -0.013245021011083283 -0.00099253991873500882 0 -0.013219574738454405 -0.0011709634441484451 0 -0.013315331749556006 -0.00086137552967434805 0 -0.013245021011083283 -0.00099253991873500882 0 -0.013377289428449039 -0.0011029923345938198 0 -0.0032622346562421775 0.0002693931741626641 0 -0.0014524707268612112 -0.0013625028199436035 0 -0.013245021011083283 -0.00099253991873500882 0 -0.013377289428449039 -0.0011029923345938198 0 -0.013219574738454405 -0.0011709634441484451 0 -0.0012096340455371576 -0.00035924403762630387 0 -0.0032622346562421775 0.0002693931741626641 0 0.001811357911411025 0.00015367826359118154 0 0.0014482885313191738 0.00034985688571285934 0 0.0017575850536613996 0.00047416535108564734 0 -0.011636300052103584 -0.00071367486237870715 0 -0.0032622346562421775 0.0002693931741626641 0 -0.0056898454348381132 -0.00029835442919444585 0 -0.005865104515233103 -0.00044928899657976587 0 -0.0059134114844833592 -0.00017997769092961322 0 -0.013593804339745394 -0.00055913249639013944 0 -0.013315331749556006 -0.00086137552967434805 0 -0.013377289428449039 -0.0011029923345938198 0 -0.00051121952379125997 -0.001651543951378091 0 -0.00032352971797788388 -0.001433934178324895 0 -0.00095613703146779682 -0.0013574781969900745 0 -0.0056101331329536782 -0.00067044439540802573 0 -0.0038045155335217711 -0.0013416406691752908 0 -0.01128242794330641 0.00048497459438688335 0 -0.01100794372205857 0.00024099240099377458 0 -0.011384279221686965 0.00025410856108173171 0 -0.01100794372205857 0.00024099240099377458 0 -0.011384279221686965 0.00025410856108173171 0 -0.011388812098767465 0.00010199408728077621 0 -0.01100794372205857 0.00024099240099377458 0 -0.011388812098767465 0.00010199408728077621 0 -0.011385299958968975 -4.7952923819004935e-05 0 -0.01128242794330641 0.00048497459438688335 0 -0.011471442360590473 0.00036433800187100879 0 -0.011384279221686965 0.00025410856108173171 0 -0.0038045155335217711 -0.0013416406691752908 0 0.010242912574247058 -0.0036255254587600669 0 -0.00045373371385638595 -0.0013611024370287622 0 -0.00032352971797788388 -0.001433934178324895 0 6.9121892198688333e-05 -0.0018222075692402872 0 -0.00051121952379125997 -0.001651543951378091 0 -0.00045373371385638595 -0.0013611024370287622 0 -0.00032352971797788388 -0.001433934178324895 0 -0.0006299494195543267 -0.0014646405424711751 0 0.00086071285460083381 -0.0010848925827293676 0 -5.2408887230350844e-05 -0.0013980727004948782 0 0.0011288402534153734 -0.00096259366310273914 0 0.0012452961006949679 -0.0017375538219613017 0 -5.2408887230350844e-05 -0.0013980727004948782 0 6.9121892198688333e-05 -0.0018222075692402872 0 0.00070176114630065049 -0.001562015509128529 0 -0.00032352971797788388 -0.001433934178324895 0 -5.2408887230350844e-05 -0.0013980727004948782 0 0.0011288402534153734 -0.00096259366310273914 0 -0.0014760543159212075 -0.0011068818849284349 0 0.0050199126674957883 -0.0021581825050919143 0 -0.00032352971797788388 -0.001433934178324895 0 -5.2408887230350844e-05 -0.0013980727004948782 0 6.9121892198688333e-05 -0.0018222075692402872 0 0.016527569109976218 -0.0045390058024648936 0 0.016730790275018621 -0.0044148219867372936 0 0.016480454060991405 -0.0042148732050019478 0 0.010242912574247058 -0.0036255254587600669 0 0.0050199126674957883 -0.0021581825050919143 0 0.010242912574247058 -0.0036255254587600669 0 0.01329696009261146 -0.0045333918007342926 0 0.003308094887317487 0.00011236728975328753 0 0.010204785597115119 -0.0034923270891755458 0 0.005970019554847019 -0.0055877227048440883 0 0.00055783700801252103 -0.0020420587422234548 0 0.003308094887317487 0.00011236728975328753 0 0.005970019554847019 -0.0055877227048440883 0 0.018432907530591632 -0.0048927674138857713 0 0.018427354777290673 -0.0038203803210123824 0 0.017329598153378031 -0.0043315323399777421 0 0.018432907530591632 -0.0048927674138857713 0 0.018427354777290673 -0.0038203803210123824 0 0.019562353052993212 -0.0043325308443051503 0 0.018427354777290673 -0.0038203803210123824 0 0.017329598153378031 -0.0043315323399777421 0 0.01770001042098442 -0.0029218518764498325 0 0.01329696009261146 -0.0045333918007342926 0 0.017635521733653216 -0.0045113898791774489 0 0.0014482885313191738 0.00034985688571285934 0 0.0017575850536613996 0.00047416535108564734 0 0.0014126866865590496 0.00049852010091031159 0 0.0058578835280645499 9.3079074270555791e-05 0 0.0052411588515147824 -0.0011614775116228692 0 0.0019033807849143183 0.00086103324700527255 0 0.0017575850536613996 0.00047416535108564734 0 0.0014126866865590496 0.00049852010091031159 0 -0.0032622346562421775 0.0002693931741626641 0 0.0052411588515147824 -0.0011614775116228692 0 0.0080660779694628759 -0.0022999408434246364 0 0.0070227137777607741 -0.0020935686877163609 0 0.0082035548165060469 -0.0057485406613546394 0 0.01329696009261146 -0.0045333918007342926 0 0.0009419578344772669 -0.0017299400788473411 0 0.012539424217315161 -0.0036057386285869432 0 0.0080660779694628759 -0.0022999408434246364 0 0.0082035548165060469 -0.0057485406613546394 0 0.00015503153877259498 -5.7175809226784066e-05 0 0.0013115076813475033 -0.0017514897154132872 0 0.0018137851906404475 -0.00092236426002418096 0 0.00015503153877259498 -5.7175809226784066e-05 0 0.0013115076813475033 -0.0017514897154132872 0 0.0008131108404162324 -0.0021434498368070737 0 0.0074069776200997228 -0.0017950153367651529 0 0.0077807818115907274 -0.0011660899999326678 0 0.0080660779694628759 -0.0022999408434246364 0 0.0052411588515147824 -0.0011614775116228692 0 0.01762986060681309 -0.0047374984165624153 0 0.012539424217315161 -0.0036057386285869432 0 0.0083313098937989934 -0.0014223910082587392 0 0.0080660779694628759 -0.0022999408434246364 0 0.00055783700801252103 -0.0020420587422234548 0 0.005970019554847019 -0.0055877227048440883 0 0.00036232187941277055 -0.0026779239586325536 0 0.0024588214775879231 -0.0014390476121336178 0 -0.0014524707268612112 -0.0013625028199436035 0 -0.0014524707268612112 -0.0013625028199436035 0 0.0009419578344772669 -0.0017299400788473411 0 -0.0005207014514649153 -0.0010093263167745981 0 0.0002569734696383025 -0.00078187801700274921 0 -0.00035027975977767556 -0.00046534465937560937 0 -0.0011670592436112002 -0.0013831949243571988 0 -0.0014524707268612112 -0.0013625028199436035 0 0.0077807818115907274 -0.0011660899999326678 0 0.008306510116576668 -0.001440582539000776 0 0.0080660779694628759 -0.0022999408434246364 0 -0.0011670592436112002 -0.0013831949243571988 0 0.0009419578344772669 -0.0017299400788473411 0 0.0009419578344772669 -0.0017299400788473411 0 0.0021434703412067662 -0.0012304053969218705 0 0.0074069776200997228 -0.0017950153367651529 0 0.0080660779694628759 -0.0022999408434246364 0 0.0070227137777607741 -0.0020935686877163609 0 0.0024588214775879231 -0.0014390476121336178 0 0.0052411588515147824 -0.0011614775116228692 0 0.01329696009261146 -0.0045333918007342926 0 0.01762986060681309 -0.0047374984165624153 0 0.01762986060681309 -0.0047374984165624153 0 0.016900889182265691 -0.0023825929865486572 0 0.0052411588515147824 -0.0011614775116228692 0 0.016900889182265691 -0.0023825929865486572 0 0.009599940837109763 -0.000952439472201627 0 0.0087088501692622333 -0.0016178986986359366 0 0.0093764010426510176 -0.00061439958767297339 0 0.012726288289854665 -0.0034383481197205377 0 0.012395226368677939 -0.0022398389090059192 0 0.013927977106638966 -0.0014974130379739978 0 0.02532704703015505 -0.0064572056215591988 0 0.026351375664613357 -0.005983265890298059 0 0.026101491507239366 -0.0052577768302140108 0 0.026841411866764978 -0.0052967505106030514 0 0.026351375664613357 -0.005983265890298059 0 0.026101491507239366 -0.0052577768302140108 0 0.026101491507239366 -0.0052577768302140108 0 0.025931469670316586 -0.004562754966247781 0 0.026481648544565008 -0.0045491218050311352 0 0.026783755248833828 -0.0048823465636274443 0 0.026101491507239366 -0.0052577768302140108 0 0.026481648544565008 -0.0045491218050311352 0 0.025931469670316586 -0.004562754966247781 0 0.026481648544565008 -0.0045491218050311352 0 0.026248633541422296 -0.0040517172080023174 0 0.026101491507239366 -0.0052577768302140108 0 0.025931469670316586 -0.004562754966247781 0 0.024974261548946181 -0.0050422246718222329 0 0.025931469670316586 -0.004562754966247781 0 0.024974261548946181 -0.0050422246718222329 0 0.025510248573230601 -0.0039235467674701326 0 0.018427354777290673 -0.0038203803210123824 0 0.019562353052993212 -0.0043325308443051503 0 0.019070840926360001 -0.0026391875792957896 0 0.01762986060681309 -0.0047374984165624153 0 0.022984127939659753 -0.0042459843848348267 0 0.02532704703015505 -0.0064572056215591988 0 0.026101491507239366 -0.0052577768302140108 0 0.024974261548946181 -0.0050422246718222329 0 0.018427354777290673 -0.0038203803210123824 0 0.019070840926360001 -0.0026391875792957896 0 0.01770001042098442 -0.0029218518764498325 0 0.017329598153378031 -0.0043315323399777421 0 0.01770001042098442 -0.0029218518764498325 0 0.016937231995712718 -0.0034509061599793203 0 0.01770001042098442 -0.0029218518764498325 0 0.016651618668916207 -0.0028717347410929851 0 0.016937231995712718 -0.0034509061599793203 0 0.01776016072453275 -0.0028325443101169432 0 0.018174824246429553 -0.0018634140400813246 0 0.01770001042098442 -0.0029218518764498325 0 0.018251521624964795 -0.0018218818278601062 0 0.016643390403485028 -0.0019279488391718833 0 0.019070840926360001 -0.0026391875792957896 0 0.01770001042098442 -0.0029218518764498325 0 0.018150331349980234 -0.001979954567133904 0 0.018174824246429553 -0.0018634140400813246 0 0.020104973102671661 -0.0017207650660856738 0 0.018251521624964795 -0.0018218818278601062 0 0.018801816370575559 -0.00073772616441752285 0 0.017873219264949378 -0.00059707808122806097 0 0.019070840926360001 -0.0026391875792957896 0 0.018150331349980234 -0.001979954567133904 0 0.018580573105849752 -0.0010219803206596107 0 0.022984127939659753 -0.0042459843848348267 0 0.020104973102671661 -0.0017207650660856738 0 0.018251521624964795 -0.0018218818278601062 0 0.016943920919026561 -0.00093177573420453585 0 0.016643390403485028 -0.0019279488391718833 0 0.018251521624964795 -0.0018218818278601062 0 0.017873219264949378 -0.00059707808122806097 0 0.016943920919026561 -0.00093177573420453585 0 0.017873219264949378 -0.00059707808122806097 0 0.016865328812487694 9.3339487669140457e-05 0 0.01856507203696435 0.00040551888798987006 0 0.017873219264949378 -0.00059707808122806097 0 0.016865328812487694 9.3339487669140457e-05 0 0.016943920919026561 -0.00093177573420453585 0 0.020104973102671661 -0.0017207650660856738 0 0.01847494234291689 0.00056725082058732253 0 0.020104973102671661 -0.0017207650660856738 0 0.022310960264529407 -0.0011573278524809759 0 0.019132792570005552 -0.0014054584825310989 0 0.0200157529383777 0.00062550658201141374 0 0.01856507203696435 0.00040551888798987006 0 0.018801816370575559 -0.00073772616441752285 0 0.017873219264949378 -0.00059707808122806097 0 0.01856507203696435 0.00040551888798987006 0 0.025482147513048233 -0.0032260687611505674 0 0.025020684176496368 -0.0025620283099857385 0 0.026012224338832289 -0.0026309153935899793 0 0.025482147513048233 -0.0032260687611505674 0 0.026311101555968365 -0.0033886624529880392 0 0.025510248573230601 -0.0039235467674701326 0 0.024555489879775749 -0.003594056203261935 0 0.025482147513048233 -0.0032260687611505674 0 0.025020684176496368 -0.0025620283099857385 0 0.025482147513048233 -0.0032260687611505674 0 0.026311101555968365 -0.0033886624529880392 0 0.026012224338832289 -0.0026309153935899793 0 0.026943846095158645 -0.0026316564871019946 0 0.026311101555968365 -0.0033886624529880392 0 0.026012224338832289 -0.0026309153935899793 0 0.026311101555968365 -0.0033886624529880392 0 0.026248633541422296 -0.0040517172080023174 0 0.025510248573230601 -0.0039235467674701326 0 0.026853904750628946 -0.0039809596362738627 0 0.026311101555968365 -0.0033886624529880392 0 0.026248633541422296 -0.0040517172080023174 0 0.026853904750628946 -0.0039809596362738627 0 0.026481648544565008 -0.0045491218050311352 0 0.026248633541422296 -0.0040517172080023174 0 0.025931469670316586 -0.004562754966247781 0 0.026248633541422296 -0.0040517172080023174 0 0.025510248573230601 -0.0039235467674701326 0 0.024974261548946181 -0.0050422246718222329 0 0.024555489879775749 -0.003594056203261935 0 0.025510248573230601 -0.0039235467674701326 0 0.024555489879775749 -0.003594056203261935 0 0.025482147513048233 -0.0032260687611505674 0 0.025510248573230601 -0.0039235467674701326 0 0.014470658322035831 -0.0014631575997527361 0 0.015569691904000361 -0.00073811233199797097 0 0.015290193366289694 -0.0023446032230031162 0 0.014470658322035831 -0.0014631575997527361 0 0.014333622871363052 -6.1572488417322157e-05 0 0.015569691904000361 -0.00073811233199797097 0 0.014470658322035831 -0.0014631575997527361 0 0.013666761992388161 -0.0011500820437532937 0 0.014333622871363052 -6.1572488417322157e-05 0 0.014470658322035831 -0.0014631575997527361 0 0.013666761992388161 -0.0011500820437532937 0 0.013779986755341296 -0.0020613139422393685 0 0.013666761992388161 -0.0011500820437532937 0 0.012949089582722031 -0.0019711009294749392 0 0.012876549028283717 -4.8303389117206394e-05 0 0.013666761992388161 -0.0011500820437532937 0 0.014333622871363052 -6.1572488417322157e-05 0 0.012876549028283717 -4.8303389117206394e-05 0 0.014333622871363052 -6.1572488417322157e-05 0 0.015569691904000361 -0.00073811233199797097 0 0.015315465079941644 0.0012425644906005095 0 0.015569691904000361 -0.00073811233199797097 0 0.016430036329466064 0.00077035772808072857 0 0.015315465079941644 0.0012425644906005095 0 0.017687819935021821 0.00026316559843417791 0 0.015569691904000361 -0.00073811233199797097 0 0.016430036329466064 0.00077035772808072857 0 0.016947168657527038 0.00020825747063993978 0 0.015799151076575195 -0.00067121710111839403 0 0.016865328812487694 9.3339487669140457e-05 0 0.016943920919026561 -0.00093177573420453585 0 0.015569691904000361 -0.00073811233199797097 0 0.016943920919026561 -0.00093177573420453585 0 0.015569691904000361 -0.00073811233199797097 0 0.016643390403485028 -0.0019279488391718833 0 0.015569691904000361 -0.00073811233199797097 0 0.015290193366289694 -0.0023446032230031162 0 0.016643390403485028 -0.0019279488391718833 0 0.015290193366289694 -0.0023446032230031162 0 0.016643390403485028 -0.0019279488391718833 0 0.015819211008941472 -0.0029175760057224011 0 0.016643390403485028 -0.0019279488391718833 0 0.016651618668916207 -0.0028717347410929851 0 0.015819211008941472 -0.0029175760057224011 0 0.01770001042098442 -0.0029218518764498325 0 0.016643390403485028 -0.0019279488391718833 0 0.016651618668916207 -0.0028717347410929851 0 0.016651618668916207 -0.0028717347410929851 0 0.016937231995712718 -0.0034509061599793203 0 0.016035230473521376 -0.0036967034571592622 0 0.016651618668916207 -0.0028717347410929851 0 0.015819211008941472 -0.0029175760057224011 0 0.016035230473521376 -0.0036967034571592622 0 0.015819211008941472 -0.0029175760057224011 0 0.014439513131748349 -0.0037034532952253357 0 0.016035230473521376 -0.0036967034571592622 0 0.015290193366289694 -0.0023446032230031162 0 0.015819211008941472 -0.0029175760057224011 0 0.014439513131748349 -0.0037034532952253357 0 0.014466958998781398 -0.0022813362213976607 0 0.013874192050368347 -0.0027948868449184294 0 0.014439513131748349 -0.0037034532952253357 0 0.015290193366289694 -0.0023446032230031162 0 0.014466958998781398 -0.0022813362213976607 0 0.014439513131748349 -0.0037034532952253357 0 0.014470658322035831 -0.0014631575997527361 0 0.014466958998781398 -0.0022813362213976607 0 0.013779986755341296 -0.0020613139422393685 0 0.014470658322035831 -0.0014631575997527361 0 0.015290193366289694 -0.0023446032230031162 0 0.014466958998781398 -0.0022813362213976607 0 0.013666761992388161 -0.0011500820437532937 0 0.013779986755341296 -0.0020613139422393685 0 0.012949089582722031 -0.0019711009294749392 0 0.014466958998781398 -0.0022813362213976607 0 0.013779986755341296 -0.0020613139422393685 0 0.013874192050368347 -0.0027948868449184294 0 0.013779986755341296 -0.0020613139422393685 0 0.013463962677887124 -0.0027499739869580281 0 0.013874192050368347 -0.0027948868449184294 0 0.013779986755341296 -0.0020613139422393685 0 0.013463962677887124 -0.0027499739869580281 0 0.012949089582722031 -0.0019711009294749392 0 0.013463962677887124 -0.0027499739869580281 0 0.013874192050368347 -0.0027948868449184294 0 0.013652199277101752 -0.0034029255034941589 0 0.013874192050368347 -0.0027948868449184294 0 0.013652199277101752 -0.0034029255034941589 0 0.014439513131748349 -0.0037034532952253357 0 0.013463962677887124 -0.0027499739869580281 0 0.013652199277101752 -0.0034029255034941589 0 0.013118108296700326 -0.0034587907006368773 0 0.0040437311105357204 -0.0020427887455838662 0 0.0053206735036441157 -0.002352263973896027 0 0.0062376959710069421 -0.0049395928392145525 0 0.0053210298301917319 -0.0030863738175276514 0 0.0088594707654661969 -0.0043213485486885608 0 0.013652199277101752 -0.0034029255034941589 0 0.013947324420138511 -0.0041511504482297399 0 0.013132945375663199 -0.0035224062623248351 0 0.013652199277101752 -0.0034029255034941589 0 0.014439513131748349 -0.0037034532952253357 0 0.013947324420138511 -0.0041511504482297399 0 0.014439513131748349 -0.0037034532952253357 0 0.013947324420138511 -0.0041511504482297399 0 0.014297921587133319 -0.0040065569328299327 0 0.0043561314966178866 -0.0025527062942001591 0 0.0027901821926966728 -0.0021532603673957273 0 0.0035483745907547663 -0.0014875950009775895 0 0.0053210298301917319 -0.0030863738175276514 0 0.0097926133753711442 -0.0033341377180974197 0 0.0053210298301917319 -0.0030863738175276514 0 -0.0016808662352286511 -0.0010668039087390415 0 -0.0048823532574835057 -0.0035486464821795041 0 -0.0062254826380131875 0.00029502956515790283 0 -0.0028563879133185464 -0.0016295859687388012 0 -0.00025660813187173399 -0.0028908216762657726 0 -0.010292451356251458 -0.00071942301266255293 0 -0.0051908568185669622 -0.0027431064052799979 0 -0.0043089573554942672 -0.0029610090734257066 0 -0.0048497824041917525 -0.0015860115479291704 0 0.0053210298301917319 -0.0030863738175276514 0 -0.00025660813187173399 -0.0028908216762657726 0 0.017635521733653216 -0.0045113898791774489 0 0.015808724272074345 -0.0036269596599878095 0 0.017329598153378031 -0.0043315323399777421 0 0.016937231995712718 -0.0034509061599793203 0 0.016035230473521376 -0.0036967034571592622 0 0.016480454060991405 -0.0042148732050019478 0 0.016010199812316925 -0.0043639254130186655 0 0.016035230473521376 -0.0036967034571592622 0 0.014439513131748349 -0.0037034532952253357 0 0.016010199812316925 -0.0043639254130186655 0 0.016035230473521376 -0.0036967034571592622 0 0.014439513131748349 -0.0037034532952253357 0 0.014263887630418595 -0.003986948550874116 0 0.014297921587133319 -0.0040065569328299327 0 0.014026702417574387 -0.0035650681115703504 0 0.016160792188019218 -0.0044594098040997973 0 0.014263887630418595 -0.003986948550874116 0 0.014297921587133319 -0.0040065569328299327 0 0.014087998555501836 -0.0038297604828730161 0 0.01387406675182009 -0.0039081862475454556 0 0.014263887630418595 -0.003986948550874116 0 0.014087998555501836 -0.0038297604828730161 0 0.016527569109976218 -0.0045390058024648936 0 0.016480454060991405 -0.0042148732050019478 0 0.016010199812316925 -0.0043639254130186655 0 0.010242912574247058 -0.0036255254587600669 0 0.016160792188019218 -0.0044594098040997973 0 0.0011288402534153734 -0.00096259366310273914 0 0.0014800981180103005 -0.0016346724250983807 0 0.0023321040499161214 -0.001335983853587459 0 0.0027901821926966728 -0.0021532603673957273 0 0.0012475570760387114 -0.0017496043614221219 0 0.0014800981180103005 -0.0016346724250983807 0 0.0011288402534153734 -0.00096259366310273914 0 0.0012452961006949679 -0.0017375538219613017 0 0.0014800981180103005 -0.0016346724250983807 0 0.0050199126674957883 -0.0021581825050919143 0 0.0037738176584080369 -0.0024759124476705988 0 0.0097926133753711442 -0.0033341377180974197 0 0.0050199126674957883 -0.0021581825050919143 0 0.0027901821926966728 -0.0021532603673957273 0 0.0023321040499161214 -0.001335983853587459 0 0.0035483745907547663 -0.0014875950009775895 0 0.0023321040499161214 -0.001335983853587459 0 0.0027404641397236794 -0.00045476582220617086 0 0.0035483745907547663 -0.0014875950009775895 0 0.0027901821926966728 -0.0021532603673957273 0 0.0014800981180103005 -0.0016346724250983807 0 0.0023321040499161214 -0.001335983853587459 0 0.0011288402534153734 -0.00096259366310273914 0 0.0023321040499161214 -0.001335983853587459 0 0.0027404641397236794 -0.00045476582220617086 0 -0.0013533218823197628 -0.0023149991733035298 0 -0.0019008355008858686 -0.0015590388192825019 0 -0.001280448588010651 -0.0017463358416068301 0 0.00086071285460083381 -0.0010848925827293676 0 -0.0033003094696144558 -0.00069744191478508159 0 -0.0013533218823197628 -0.0023149991733035298 0 -0.00051121952379125997 -0.001651543951378091 0 -0.001280448588010651 -0.0017463358416068301 0 -0.00051121952379125997 -0.001651543951378091 0 -0.00095613703146779682 -0.0013574781969900745 0 -0.001280448588010651 -0.0017463358416068301 0 -0.00095613703146779682 -0.0013574781969900745 0 -0.0019008355008858686 -0.0015590388192825019 0 -0.001280448588010651 -0.0017463358416068301 0 -0.0055749808909822656 -0.0011946326946340282 0 -0.0048497824041917525 -0.0015860115479291704 0 -0.0061401676565841943 -0.0014751232621771464 0 -0.02120146606354097 -1.6480286265022457e-05 0 -0.021266907600726158 0.00031861035201738186 0 -0.0208612788143492 0.00013307715686186321 0 -0.0055749808909822656 -0.0011946326946340282 0 -0.0050439003692399143 -0.0015152875295568232 0 -0.0055120475911858303 3.4383700970826846e-06 0 -0.0051908568185669622 -0.0027431064052799979 0 -0.0048497824041917525 -0.0015860115479291704 0 -0.0061401676565841943 -0.0014751232621771464 0 -0.0055535820356346884 -0.002186370456079661 0 -0.010292451356251458 -0.00071942301266255293 0 -0.010292451356251458 -0.00071942301266255293 0 -0.0054728497131260427 -0.0019779428531395728 0 -0.0069110188217908616 -0.00040721822570976294 0 -0.0055749808909822656 -0.0011946326946340282 0 -0.0061401676565841943 -0.0014751232621771464 0 -0.0033003094696144558 -0.00069744191478508159 0 -0.0016808662352286511 -0.0010668039087390415 0 -0.0069110188217908616 -0.00040721822570976294 0 -0.0055749808909822656 -0.0011946326946340282 0 -0.0055120475911858303 3.4383700970826846e-06 0 -0.010998015469431448 -0.00048377330487567804 0 -0.010713467307616473 0.0008162095842203014 0 -0.012379492763804146 0.00033092007775932633 0 -0.0033003094696144558 -0.00069744191478508159 0 -0.014935971136119207 8.667220717457851e-07 0 -0.014935971136119207 8.667220717457851e-07 0 -0.022196557247327168 -0.00058157093726013919 0 -0.010292451356251458 -0.00071942301266255293 0 -0.014935971136119207 8.667220717457851e-07 0 -0.02120146606354097 -1.6480286265022457e-05 0 -0.021335220292471667 0.00038134019139061807 0 -0.021266907600726158 0.00031861035201738186 0 -0.021533605015891882 0.00026371992952690514 0 -0.021266907600726158 0.00031861035201738186 0 -0.021400295056212146 0.00029609323534555445 0 -0.021335220292471667 0.00038134019139061807 0 -0.021266907600726158 0.00031861035201738186 0 -0.021400295056212146 0.00029609323534555445 0 -0.020825594985894563 0.00066500571304718291 0 -0.021266907600726158 0.00031861035201738186 0 -0.0208612788143492 0.00013307715686186321 0 -0.016006191264273984 0.00099100862571918462 0 -0.016027676829342124 0.00011157475866766543 0 -0.015484390265454904 0.00045814425917488897 0 -0.019876836164465252 0.00094786382860637325 0 -0.02166396272949098 6.1078820419850884e-05 0 -0.019876836164465252 0.00094786382860637325 0 -0.014366852478995664 -0.0009206970891169978 0 -0.014366852478995664 -0.0009206970891169978 0 -0.011582673517091626 0.00085611622745012273 0 -0.010160505393089117 -0.0011965477489725655 0 -0.010042813870126524 -0.0011157368028642154 0 -0.010021141923674377 -0.0012740099911180091 0 -0.010292451356251458 -0.00071942301266255293 0 -0.014366852478995664 -0.0009206970891169978 0 -0.014366852478995664 -0.0009206970891169978 0 -0.0054728497131260427 -0.0019779428531395728 0 -0.0089434755069232267 -0.0013758400250278241 0 -0.0081614631872384182 -0.0019214551440898864 0 -0.0089638859735469058 -0.0025870498318854083 0 -0.0089434755069232267 -0.0013758400250278241 0 -0.0081614631872384182 -0.0019214551440898864 0 -0.0081022618752104713 -0.00083499688973040997 0 -0.0059882787291414916 -0.0025157872307673516 0 -0.0057297620072052184 -0.0022560041335863081 0 -0.0053982280061502328 -0.0025236039656003554 0 -0.0059882787291414916 -0.0025157872307673516 0 -0.0053982280061502328 -0.0025236039656003554 0 -0.0055575241399661085 -0.0028743443663679512 0 -0.007135751482623587 -0.0025590234477052358 0 -0.011582673517091626 0.00085611622745012273 0 -0.0059882787291414916 -0.0025157872307673516 0 -0.0057297620072052184 -0.0022560041335863081 0 -0.0059857866820366553 -0.002047712259716214 0 -0.0057297620072052184 -0.0022560041335863081 0 -0.0059857866820366553 -0.002047712259716214 0 -0.0055474124148449846 -0.0019376473840403174 0 -0.0052687427458891567 -0.0015939463331546295 0 -0.0059857866820366553 -0.002047712259716214 0 -0.0055474124148449846 -0.0019376473840403174 0 -0.0055474124148449846 -0.0019376473840403174 0 -0.004891301595672394 -0.0022702254981121013 0 -0.0053982280061502328 -0.0025236039656003554 0 -0.0057297620072052184 -0.0022560041335863081 0 -0.0055474124148449846 -0.0019376473840403174 0 -0.0053982280061502328 -0.0025236039656003554 0 -0.011347146303932736 -0.0014088233261648016 0 -0.011582673517091626 0.00085611622745012273 0 -0.0052687427458891567 -0.0015939463331546295 0 -0.0055474124148449846 -0.0019376473840403174 0 -0.004891301595672394 -0.0022702254981121013 0 -0.011347146303932736 -0.0014088233261648016 0 -0.0090256479263041874 -0.0028170020329449435 0 -0.014241159809398838 -0.0031134060992107854 0 -0.013582014226129419 -0.0032726182676295866 0 -0.013878001682620315 -0.0026386915908757141 0 -0.004891301595672394 -0.0022702254981121013 0 -0.0050702943894766084 -0.0029216990181232063 0 -0.0045370582348614533 -0.0029473769373327377 0 -0.0090256479263041874 -0.0028170020329449435 0 -0.0099308433576747509 -0.0021179783958840334 0 -0.004891301595672394 -0.0022702254981121013 0 -0.0053982280061502328 -0.0025236039656003554 0 -0.0050702943894766084 -0.0029216990181232063 0 -0.0053982280061502328 -0.0025236039656003554 0 -0.0055575241399661085 -0.0028743443663679512 0 -0.0050702943894766084 -0.0029216990181232063 0 -0.0055575241399661085 -0.0028743443663679512 0 -0.0050702943894766084 -0.0029216990181232063 0 -0.0053535214605484197 -0.0033316550952448313 0 -0.0050702943894766084 -0.0029216990181232063 0 -0.0047690503074834393 -0.003460127928358865 0 -0.0045370582348614533 -0.0029473769373327377 0 -0.0050702943894766084 -0.0029216990181232063 0 -0.0047690503074834393 -0.003460127928358865 0 -0.0053535214605484197 -0.0033316550952448313 0 0.0079955976047548557 -0.0047404742390963475 0 0.0080902856164029313 -0.0043175342632504124 0 0.0089749690561377361 -0.0049851808522056807 0 0.0080902856164029313 -0.0043175342632504124 0 0.0098386175597687531 -0.0052200215624868245 0 0.0091788188335227283 -0.004007153782258366 0 0.010019774755012386 -0.0050606830009238685 0 0.0040502754652953768 -0.0044853456992847446 0 0.0023683442882544256 -0.0042666874165970302 0 0.0040502754652953768 -0.0044853456992847446 0 0.0098386175597687531 -0.0052200215624868245 0 0.010810153140855761 -0.0042890486736982562 0 0.01003993762830082 -0.0040296332011630145 0 0.0098386175597687531 -0.0052200215624868245 0 0.01003993762830082 -0.0040296332011630145 0 0.0091788188335227283 -0.004007153782258366 0 0.0098386175597687531 -0.0052200215624868245 0 0.010810153140855761 -0.0042890486736982562 0 0.011508903699799771 -0.0055938627313128313 0 0.010810153140855761 -0.0042890486736982562 0 0.011508903699799771 -0.0055938627313128313 0 0.011791152022293349 -0.0032759602315715832 0 0.0040502754652953768 -0.0044853456992847446 0 0.0047367454664393217 -0.004137600404595404 0 -0.00025660813187173399 -0.0028908216762657726 0 0.0088594707654661969 -0.0043213485486885608 0 0.0030126935715484647 -0.0023026722885224394 0 0.0039959527554708279 -0.0049734129713369995 0 0.0040628605020482534 -0.0025549289414691584 0 0.0061859223775344047 -0.0041832161990769459 0 0.0064421265266672795 -0.0037708479815358304 0 0.0064351167362372598 -0.0044796785532689766 0 0.0061859223775344047 -0.0041832161990769459 0 0.0061693754923093482 -0.0037052951433992165 0 0.0064421265266672795 -0.0037708479815358304 0 0.0047367454664393217 -0.004137600404595404 0 0.010187765738504032 -0.0035951337775742961 0 0.0088594707654661969 -0.0043213485486885608 0 0.00091515566258984027 -0.0031559418492266107 0 0.0088594707654661969 -0.0043213485486885608 0 0.010247959068330561 -0.0037752452289271168 0 0.00091515566258984027 -0.0031559418492266107 0 0.0047367454664393217 -0.004137600404595404 0 -0.0016287571918303676 -0.0031793257612761855 0 2.9562762177186726e-05 -0.0035811955718707271 0 0.00010907344757536152 -0.0025439602196634871 0 -0.00025660813187173399 -0.0028908216762657726 0 0.00091515566258984027 -0.0031559418492266107 0 -0.0048823532574835057 -0.0035486464821795041 0 -0.0029557594991021269 -0.0040130745238796863 0 -0.0028563879133185464 -0.0016295859687388012 0 0.00091515566258984027 -0.0031559418492266107 0 -0.0054728497131260427 -0.0019779428531395728 0 -0.0016287571918303676 -0.0031793257612761855 0 -0.001567995788878796 -0.0015852532166913146 0 0.00010907344757536152 -0.0025439602196634871 0 -0.0054728497131260427 -0.0019779428531395728 0 -0.0031426594614652062 -0.002909860372855295 0 -0.0081614631872384182 -0.0019214551440898864 0 -0.0089638859735469058 -0.0025870498318854083 0 -0.0082160880483805529 -0.00301010366212614 0 0.0040502754652953768 -0.0044853456992847446 0 -0.0031426594614652062 -0.002909860372855295 0 0.0036822188060716861 -0.0050654773274989824 0 0.00063082595492634059 -0.0043216349748325901 0 0.00070781657315879256 -0.0033547887026975395 0 -0.0055575241399661085 -0.0028743443663679512 0 -0.0053535214605484197 -0.0033316550952448313 0 -0.0059910016288771753 -0.0029891507858048312 0 -0.007135751482623587 -0.0025590234477052358 0 -0.0031426594614652062 -0.002909860372855295 0 -0.0059882787291414916 -0.0025157872307673516 0 -0.0055575241399661085 -0.0028743443663679512 0 -0.0059910016288771753 -0.0029891507858048312 0 0.0047367454664393217 -0.004137600404595404 0 -0.0031426594614652062 -0.002909860372855295 0 -0.015716460793421212 -0.0024616656218211814 0 -0.017103272808141039 -0.00075471688786229335 0 -0.019539722747522695 0.00015370852939561712 0 -0.018343024466723725 -0.00091805883187301559 0 -0.019595921634362162 0.00020574065179285712 0 -0.017482932442241413 -0.0010332587398526143 0 -0.015930905987416529 -0.0026184375068825623 0 -0.019595921634362162 0.00020574065179285712 0 -0.020098823384793012 0.0005006549129185486 0 -0.020608304861793981 0.00057240345328458421 0 -0.015645879312115283 -0.0025064921568830889 0 -0.015428708087410106 -0.0022072824002325638 0 -0.015493909174478709 -0.0020762185780262249 0 -0.017482932442241413 -0.0010332587398526143 0 -0.015645879312115283 -0.0025064921568830889 0 -0.018794200922925365 0.00077718863535071589 0 -0.020098823384793012 0.0005006549129185486 0 -0.020324152440001769 0.00061516121578105494 0 -0.020608304861793981 0.00057240345328458421 0 -0.017482932442241413 -0.0010332587398526143 0 -0.015930905987416529 -0.0026184375068825623 0 -0.015645879312115283 -0.0025064921568830889 0 -0.020098823384793012 0.0005006549129185486 0 -0.020177417164030237 0.00058890655574174715 0 -0.020324152440001769 0.00061516121578105494 0 -0.019883076375076209 0.0004464490335164062 0 -0.020062933173023843 0.00056683525886712762 0 -0.020098823384793012 0.0005006549129185486 0 -0.020062933173023843 0.00056683525886712762 0 -0.020098823384793012 0.0005006549129185486 0 -0.020177417164030237 0.00058890655574174715 0 -0.020062933173023843 0.00056683525886712762 0 -0.020177417164030237 0.00058890655574174715 0 -0.020234090175735756 0.00067241136727072711 0 -0.020177417164030237 0.00058890655574174715 0 -0.020234090175735756 0.00067241136727072711 0 -0.020324152440001769 0.00061516121578105494 0 -0.020234090175735756 0.00067241136727072711 0 -0.020368367794958993 0.00069099128895371454 0 -0.020324152440001769 0.00061516121578105494 0 -0.020234090175735756 0.00067241136727072711 0 -0.020401760536042805 0.00075544847756161789 0 -0.020368367794958993 0.00069099128895371454 0 -0.020192411683585106 0.00072091975040631422 0 -0.020234090175735756 0.00067241136727072711 0 -0.020318184087663404 0.00077867411357069639 0 -0.020234090175735756 0.00067241136727072711 0 -0.020401760536042805 0.00075544847756161789 0 -0.020318184087663404 0.00077867411357069639 0 -0.020438763997183612 0.00084707485332437781 0 -0.020401760536042805 0.00075544847756161789 0 -0.020318184087663404 0.00077867411357069639 0 -0.020663185874582702 0.00086238685315724562 0 -0.020543827371642332 0.00084619697371721635 0 -0.020515878618921918 0.00072116318580836374 0 -0.020543827371642332 0.00084619697371721635 0 -0.020401760536042805 0.00075544847756161789 0 -0.020515878618921918 0.00072116318580836374 0 -0.020543827371642332 0.00084619697371721635 0 -0.020438763997183612 0.00084707485332437781 0 -0.020401760536042805 0.00075544847756161789 0 -0.020401760536042805 0.00075544847756161789 0 -0.020515878618921918 0.00072116318580836374 0 -0.020368367794958993 0.00069099128895371454 0 -0.020515878618921918 0.00072116318580836374 0 -0.020324152440001769 0.00061516121578105494 0 -0.020608304861793981 0.00057240345328458421 0 -0.020515878618921918 0.00072116318580836374 0 -0.020368367794958993 0.00069099128895371454 0 -0.020324152440001769 0.00061516121578105494 0 -0.015930905987416529 -0.0026184375068825623 0 -0.015645879312115283 -0.0025064921568830889 0 -0.015044034672124345 -0.0026757102083023007 0 -0.020663185874582702 0.00086238685315724562 0 -0.020515878618921918 0.00072116318580836374 0 -0.020608304861793981 0.00057240345328458421 0 -0.020663185874582702 0.00086238685315724562 0 -0.020842503355390275 0.0008928787692286189 0 -0.020608304861793981 0.00057240345328458421 0 -0.014871404629459727 -0.0032553577349481774 0 -0.015930905987416529 -0.0026184375068825623 0 -0.015044034672124345 -0.0026757102083023007 0 -0.017810800393342631 -0.0013766247783918886 0 -0.018343024466723725 -0.00091805883187301559 0 -0.015263976364856581 -0.0024467277852815361 0 -0.015045859926391705 -0.0022956917478152289 0 -0.015044034672124345 -0.0026757102083023007 0 -0.015263976364856581 -0.0024467277852815361 0 -0.015645879312115283 -0.0025064921568830889 0 -0.015044034672124345 -0.0026757102083023007 0 -0.015263976364856581 -0.0024467277852815361 0 -0.015645879312115283 -0.0025064921568830889 0 -0.01532092380571862 -0.0023150028759882724 0 -0.015428708087410106 -0.0022072824002325638 0 -0.01532092380571862 -0.0023150028759882724 0 -0.015215831162655456 -0.0021033901019176671 0 -0.015645879312115283 -0.0025064921568830889 0 -0.015428708087410106 -0.0022072824002325638 0 -0.01532092380571862 -0.0023150028759882724 0 -0.01532092380571862 -0.0023150028759882724 0 -0.015045859926391705 -0.0022956917478152289 0 -0.015215831162655456 -0.0021033901019176671 0 -0.015263976364856581 -0.0024467277852815361 0 -0.01532092380571862 -0.0023150028759882724 0 -0.015045859926391705 -0.0022956917478152289 0 -0.015045859926391705 -0.0022956917478152289 0 -0.014672961928300055 -0.0024914681525112802 0 -0.014700805957508927 -0.0021013502580755714 0 -0.015045859926391705 -0.0022956917478152289 0 -0.014672961928300055 -0.0024914681525112802 0 -0.015044034672124345 -0.0026757102083023007 0 -0.014871404629459727 -0.0032553577349481774 0 -0.014241159809398838 -0.0031134060992107854 0 -0.014614807463445336 -0.0028606992622161854 0 -0.014871404629459727 -0.0032553577349481774 0 -0.015044034672124345 -0.0026757102083023007 0 -0.014614807463445336 -0.0028606992622161854 0 -0.014672961928300055 -0.0024914681525112802 0 -0.015044034672124345 -0.0026757102083023007 0 -0.014614807463445336 -0.0028606992622161854 0 -0.014241159809398838 -0.0031134060992107854 0 -0.013878001682620315 -0.0026386915908757141 0 -0.014306246247373301 -0.0027577784869973051 0 -0.014672961928300055 -0.0024914681525112802 0 -0.014614807463445336 -0.0028606992622161854 0 -0.014306246247373301 -0.0027577784869973051 0 -0.014241159809398838 -0.0031134060992107854 0 -0.014614807463445336 -0.0028606992622161854 0 -0.014306246247373301 -0.0027577784869973051 0 -0.013878001682620315 -0.0026386915908757141 0 -0.014306246247373301 -0.0027577784869973051 0 -0.014202180247225717 -0.0019992505115073935 0 -0.014672961928300055 -0.0024914681525112802 0 -0.014202180247225717 -0.0019992505115073935 0 -0.014700805957508927 -0.0021013502580755714 0 -0.014672961928300055 -0.0024914681525112802 0 -0.014306246247373301 -0.0027577784869973051 0 -0.014202180247225717 -0.0019992505115073935 0 -0.014202180247225717 -0.0019992505115073935 0 -0.01464625085605701 -0.00181291091831235 0 -0.014700805957508927 -0.0021013502580755714 0 0.0079955976047548557 -0.0047404742390963475 0 0.0080902856164029313 -0.0043175342632504124 0 0.0061907899330796946 -0.0044499738122293978 0 -0.014202180247225717 -0.0019992505115073935 0 -0.01446669829509368 -0.0014824838775993664 0 -0.01464625085605701 -0.00181291091831235 0 -0.0047690503074834393 -0.003460127928358865 0 -0.0045370582348614533 -0.0029473769373327377 0 -0.004222668621333611 -0.0035903099340270734 0 0.0023683442882544256 -0.0042666874165970302 0 -0.0054422619581219042 -0.0031665226805129938 0 -0.0099308433576747509 -0.0021179783958840334 0 -0.0054422619581219042 -0.0031665226805129938 0 -0.01446669829509368 -0.0014824838775993664 0 -0.014903729791432285 -0.001682462583957546 0 -0.01493764390409869 -0.0013741649800360269 0 -0.01446669829509368 -0.0014824838775993664 0 -0.01464625085605701 -0.00181291091831235 0 -0.014903729791432285 -0.001682462583957546 0 -0.014951626892410971 -0.0019785605593575298 0 -0.01464625085605701 -0.00181291091831235 0 -0.014903729791432285 -0.001682462583957546 0 -0.014951626892410971 -0.0019785605593575298 0 -0.01464625085605701 -0.00181291091831235 0 -0.014700805957508927 -0.0021013502580755714 0 -0.015045859926391705 -0.0022956917478152289 0 -0.014951626892410971 -0.0019785605593575298 0 -0.014700805957508927 -0.0021013502580755714 0 -0.015045859926391705 -0.0022956917478152289 0 -0.014951626892410971 -0.0019785605593575298 0 -0.015215831162655456 -0.0021033901019176671 0 -0.015428708087410106 -0.0022072824002325638 0 -0.015215831162655456 -0.0021033901019176671 0 -0.015336109319190867 -0.0019892598409471515 0 -0.015215831162655456 -0.0021033901019176671 0 -0.015117377200601741 -0.0018797269323467015 0 -0.015336109319190867 -0.0019892598409471515 0 -0.015117377200601741 -0.0018797269323467015 0 -0.015182172787754222 -0.0016417202617226814 0 -0.015336109319190867 -0.0019892598409471515 0 -0.014951626892410971 -0.0019785605593575298 0 -0.015117377200601741 -0.0018797269323467015 0 -0.014903729791432285 -0.001682462583957546 0 -0.014951626892410971 -0.0019785605593575298 0 -0.015215831162655456 -0.0021033901019176671 0 -0.015117377200601741 -0.0018797269323467015 0 -0.015117377200601741 -0.0018797269323467015 0 -0.014903729791432285 -0.001682462583957546 0 -0.015182172787754222 -0.0016417202617226814 0 -0.014903729791432285 -0.001682462583957546 0 -0.015182172787754222 -0.0016417202617226814 0 -0.01493764390409869 -0.0013741649800360269 0 -0.015182172787754222 -0.0016417202617226814 0 -0.015395396525877823 -0.0018561091687735883 0 -0.015336109319190867 -0.0019892598409471515 0 -0.015182172787754222 -0.0016417202617226814 0 -0.015395396525877823 -0.0018561091687735883 0 -0.015559525307815018 -0.0016559126517271907 0 -0.015182172787754222 -0.0016417202617226814 0 -0.015559525307815018 -0.0016559126517271907 0 -0.015112264302536751 -0.0010559531878483186 0 -0.015395396525877823 -0.0018561091687735883 0 -0.015559525307815018 -0.0016559126517271907 0 -0.015493909174478709 -0.0020762185780262249 0 -0.015395396525877823 -0.0018561091687735883 0 -0.015493909174478709 -0.0020762185780262249 0 -0.015336109319190867 -0.0019892598409471515 0 -0.015428708087410106 -0.0022072824002325638 0 -0.015493909174478709 -0.0020762185780262249 0 -0.015336109319190867 -0.0019892598409471515 0 -0.019595921634362162 0.00020574065179285712 0 -0.017482932442241413 -0.0010332587398526143 0 -0.018794200922925365 0.00077718863535071589 0 -0.013230334478532781 0.00086069432694763667 0 -0.013484319607973827 0.0024268452398037133 0 -0.015154640671651448 0.0020816439784094847 0 -0.015261399116317402 0.00045816344215161148 0 -0.013230334478532781 0.00086069432694763667 0 -0.015154640671651448 0.0020816439784094847 0 -0.015931371229788133 0.0012127818769891985 0 -0.015261399116317402 0.00045816344215161148 0 -0.015154640671651448 0.0020816439784094847 0 -0.015261399116317402 0.00045816344215161148 0 -0.015112264302536751 -0.0010559531878483186 0 -0.013230334478532781 0.00086069432694763667 0 -0.015896384492602514 -0.00041970861866381969 0 -0.015261399116317402 0.00045816344215161148 0 -0.015112264302536751 -0.0010559531878483186 0 -0.016547775616280097 -0.0014506163227149366 0 -0.015559525307815018 -0.0016559126517271907 0 -0.015112264302536751 -0.0010559531878483186 0 -0.014500474943766198 -0.0012553022024609439 0 -0.014818219746094489 -0.0013267287751590542 0 -0.015182172787754222 -0.0016417202617226814 0 -0.015112264302536751 -0.0010559531878483186 0 -0.01493764390409869 -0.0013741649800360269 0 -0.015112264302536751 -0.0010559531878483186 0 -0.012058553061616692 -0.0019221165329651364 0 -0.013230334478532781 0.00086069432694763667 0 -0.012058553061616692 -0.0019221165329651364 0 -0.013230334478532781 0.00086069432694763667 0 -0.010605788292751427 0.00028965436625390852 0 -0.013230334478532781 0.00086069432694763667 0 -0.010605788292751427 0.00028965436625390852 0 -0.012005065867837304 0.0030005724104809374 0 0.0052214963639059348 -0.0025837182395718602 0 0.006593550990959058 -0.0012493324012560647 0 0.004149961305541747 -0.00054768471431838883 0 -0.0021095480416300351 -0.0015289216638131769 0 -0.0049473629646762923 0.0017257793010778109 0 -0.0054422619581219042 -0.0031665226805129938 0 -0.014818219746094489 -0.0013267287751590542 0 -0.0054422619581219042 -0.0031665226805129938 0 -0.0021095480416300351 -0.0015289216638131769 0 -0.0091351571441435735 -0.0026496156667179674 0 -0.012058553061616692 -0.0019221165329651364 0 -0.010605788292751427 0.00028965436625390852 0 0.0061907899330796946 -0.0044499738122293978 0 0.0052214963639059348 -0.0025837182395718602 0 0.0072670901508684492 -0.0032933592056364914 0 0.0080902856164029313 -0.0043175342632504124 0 0.0061907899330796946 -0.0044499738122293978 0 0.0072670901508684492 -0.0032933592056364914 0 0.0052214963639059348 -0.0025837182395718602 0 0.0072670901508684492 -0.0032933592056364914 0 0.006593550990959058 -0.0012493324012560647 0 0.0072670901508684492 -0.0032933592056364914 0 0.006593550990959058 -0.0012493324012560647 0 0.0080890373992866475 -0.0021256808873977321 0 0.006593550990959058 -0.0012493324012560647 0 0.0060815809494890417 0.00092271601049913993 0 0.0089585140080106571 -7.7168136915638454e-06 0 0.0071184214366045362 0.00051590797233124028 0 0.0087070430003085477 0.00011457193748200585 0 0.007456721135490456 0.00052360808997491571 0 0.0083791584264447227 0.00084967038696430052 0 0.0074487325643752813 0.0013701294493628977 0 0.007456721135490456 0.00052360808997491571 0 0.0089585140080106571 -7.7168136915638454e-06 0 0.0083791584264447227 0.00084967038696430052 0 0.007456721135490456 0.00052360808997491571 0 0.0057703224992688524 0.00095855994250803028 0 0.0067057428738988342 0.001478043766533362 0 0.0071184214366045362 0.00051590797233124028 0 0.0031903152798743529 0.0024020057431134289 0 0.006593550990959058 -0.0012493324012560647 0 0.0060815809494890417 0.00092271601049913993 0 0.004149961305541747 -0.00054768471431838883 0 -0.013230334478532781 0.00086069432694763667 0 -0.012005065867837304 0.0030005724104809374 0 -0.013484319607973827 0.0024268452398037133 0 -0.012005065867837304 0.0030005724104809374 0 -0.013623702628419165 0.0039244790099692657 0 -0.013484319607973827 0.0024268452398037133 0 -0.012005065867837304 0.0030005724104809374 0 -0.012966698614826463 0.0051223293808399309 0 -0.013623702628419165 0.0039244790099692657 0 -0.0049473629646762923 0.0017257793010778109 0 0.0031903152798743529 0.0024020057431134289 0 0.0060815809494890417 0.00092271601049913993 0 0.004149961305541747 -0.00054768471431838883 0 0.0032374258834872898 0.0016881521910877923 0 0.014665729151717757 0.0013223391274325299 0 0.0143742607640754 0.001409402488802977 0 0.015617072132310334 0.0018565315538429535 0 0.0099191071685160587 0.00096701586266880434 0 0.0031903152798743529 0.0024020057431134289 0 0.0079340731247108057 0.0010665032696125776 0 0.0031903152798743529 0.0024020057431134289 0 -0.014731303924673885 0.0039213642869891053 0 -0.012966698614826463 0.0051223293808399309 0 -0.013623702628419165 0.0039244790099692657 0 0.017718301809870485 0.0030951823590142885 0 0.0143742607640754 0.001409402488802977 0 0.015617072132310334 0.0018565315538429535 0 0.015617072132310334 0.0018565315538429535 0 0.01681564375161148 0.0016261742918551412 0 0.01558209013287388 0.001024543462306118 0 0.015336146694478735 0.0013868239841286151 0 0.015214520763134134 0.00090397046070496141 0 0.014665729151717757 0.0013223391274325299 0 0.015617072132310334 0.0018565315538429535 0 0.015541583838224928 0.0010815951166380535 0 0.017718301809870485 0.0030951823590142885 0 0.015617072132310334 0.0018565315538429535 0 0.01681564375161148 0.0016261742918551412 0 -0.0095082173747272191 0.0041499395318946837 0 -0.015144459387393368 0.0030663120541985864 0 -0.015578591652009597 0.003251156243431157 0 -0.013623702628419165 0.0039244790099692657 0 -0.014370147916633338 0.0029722577944866348 0 -0.014731303924673885 0.0039213642869891053 0 -0.014534230651143964 0.0034686064934387555 0 -0.013623702628419165 0.0039244790099692657 0 -0.013623702628419165 0.0039244790099692657 0 -0.014370147916633338 0.0029722577944866348 0 -0.013484319607973827 0.0024268452398037133 0 -0.014370147916633338 0.0029722577944866348 0 -0.013484319607973827 0.0024268452398037133 0 -0.015154640671651448 0.0020816439784094847 0 -0.015578591652009597 0.003251156243431157 0 -0.014370147916633338 0.0029722577944866348 0 -0.015154640671651448 0.0020816439784094847 0 -0.0095082173747272191 0.0041499395318946837 0 -0.012887648906212901 0.0035016311774813368 0 0.010433564055560209 -0.0026584206701804644 0 0.011791152022293349 -0.0032759602315715832 0 0.010552856932363896 -0.0013722545059261311 0 0.011929754882596448 -0.0019945154503494739 0 0.011824166111090807 -0.0030985584210600444 0 0.010552856932363896 -0.0013722545059261311 0 0.010187765738504032 -0.0035951337775742961 0 0.011068816696538914 -0.0014527303094669637 0 0.011950684330191965 -0.0019088726806059967 0 0.012604102335666095 -0.0016959379574019199 0 0.012458243188643527 -0.0036553228655491817 0 0.011988373396705141 -0.0015302358722070952 0 0.011950684330191965 -0.0019088726806059967 0 0.012604102335666095 -0.0016959379574019199 0 0.01162413551159867 -0.0018056087952447802 0 0.011497176725295846 -0.0020970568258244747 0 0.011497176725295846 -0.0020970568258244747 0 0.010187765738504032 -0.0035951337775742961 0 0.013463962677887124 -0.0027499739869580281 0 0.012949089582722031 -0.0019711009294749392 0 0.013118108296700326 -0.0034587907006368773 0 0.013092228647785111 -0.0017569829517449424 0 0.010247959068330561 -0.0037752452289271168 0 0.011497176725295846 -0.0020970568258244747 0 0.010247959068330561 -0.0037752452289271168 0 0.010305287318746397 -0.0026003702019482106 0 0.010236688249601854 -0.0032245004828881569 0 0.010614898644549151 -0.0036745904117239021 0 0.013652199277101752 -0.0034029255034941589 0 0.013132945375663199 -0.0035224062623248351 0 0.013118108296700326 -0.0034587907006368773 0 0.01060991711072177 -0.0037463630821870254 0 0.010236688249601854 -0.0032245004828881569 0 0.010614898644549151 -0.0036745904117239021 0 0.0088594707654661969 -0.0043213485486885608 0 0.010187765738504032 -0.0035951337775742961 0 0.010433564055560209 -0.0026584206701804644 0 0.011791152022293349 -0.0032759602315715832 0 0.010576929624203153 -0.0034418120365962272 0 0.010810153140855761 -0.0042890486736982562 0 0.011791152022293349 -0.0032759602315715832 0 0.010576929624203153 -0.0034418120365962272 0 0.010810153140855761 -0.0042890486736982562 0 0.010576929624203153 -0.0034418120365962272 0 0.01003993762830082 -0.0040296332011630145 0 0.01003993762830082 -0.0040296332011630145 0 0.0091788188335227283 -0.004007153782258366 0 0.0097820520877293354 -0.0031765385260661408 0 0.010576929624203153 -0.0034418120365962272 0 0.01003993762830082 -0.0040296332011630145 0 0.0097820520877293354 -0.0031765385260661408 0 0.0091788188335227283 -0.004007153782258366 0 0.0097820520877293354 -0.0031765385260661408 0 0.0087325482837065042 -0.0030948140983488013 0 0.010433564055560209 -0.0026584206701804644 0 0.010576929624203153 -0.0034418120365962272 0 0.0097820520877293354 -0.0031765385260661408 0 0.0072670901508684492 -0.0032933592056364914 0 0.0083179268199394928 -0.0036787086772373141 0 0.0087325482837065042 -0.0030948140983488013 0 0.0080902856164029313 -0.0043175342632504124 0 0.0072670901508684492 -0.0032933592056364914 0 0.0083179268199394928 -0.0036787086772373141 0 0.0080902856164029313 -0.0043175342632504124 0 0.0091788188335227283 -0.004007153782258366 0 0.0083179268199394928 -0.0036787086772373141 0 0.0091788188335227283 -0.004007153782258366 0 0.0083179268199394928 -0.0036787086772373141 0 0.0087325482837065042 -0.0030948140983488013 0 0.0072670901508684492 -0.0032933592056364914 0 0.0087325482837065042 -0.0030948140983488013 0 0.0080890373992866475 -0.0021256808873977321 0 0.0087325482837065042 -0.0030948140983488013 0 0.0080890373992866475 -0.0021256808873977321 0 0.0094311208751396494 -0.0020233574180635668 0 0.010433564055560209 -0.0026584206701804644 0 0.0097820520877293354 -0.0031765385260661408 0 0.0094311208751396494 -0.0020233574180635668 0 0.0097820520877293354 -0.0031765385260661408 0 0.0087325482837065042 -0.0030948140983488013 0 0.0094311208751396494 -0.0020233574180635668 0 0.010433564055560209 -0.0026584206701804644 0 0.0094311208751396494 -0.0020233574180635668 0 0.010552856932363896 -0.0013722545059261311 0 0.0094311208751396494 -0.0020233574180635668 0 0.0089585140080106571 -7.7168136915638454e-06 0 0.010552856932363896 -0.0013722545059261311 0 0.0089585140080106571 -7.7168136915638454e-06 0 0.010215087976513437 0.00051774730584857221 0 0.010552856932363896 -0.0013722545059261311 0 0.0080890373992866475 -0.0021256808873977321 0 0.0094311208751396494 -0.0020233574180635668 0 0.0089585140080106571 -7.7168136915638454e-06 0 0.006593550990959058 -0.0012493324012560647 0 0.0080890373992866475 -0.0021256808873977321 0 0.0089585140080106571 -7.7168136915638454e-06 0 0.0089585140080106571 -7.7168136915638454e-06 0 0.0083791584264447227 0.00084967038696430052 0 0.0093555567886381627 0.0015065482566366283 0 0.0089585140080106571 -7.7168136915638454e-06 0 0.010215087976513437 0.00051774730584857221 0 0.0093555567886381627 0.0015065482566366283 0 0.010215087976513437 0.00051774730584857221 0 0.011368233023826281 -2.1815098347695924e-05 0 0.011164706171444778 0.001693084918736462 0 0.011368233023826281 -2.1815098347695924e-05 0 0.012742315864802501 0.00029032385386371752 0 0.011164706171444778 0.001693084918736462 0 0.010215087976513437 0.00051774730584857221 0 0.011368233023826281 -2.1815098347695924e-05 0 0.010552856932363896 -0.0013722545059261311 0 0.011929754882596448 -0.0019945154503494739 0 0.011368233023826281 -2.1815098347695924e-05 0 0.010552856932363896 -0.0013722545059261311 0 0.011497176725295846 -0.0020970568258244747 0 0.01149551175268013 -8.8260956040943581e-05 0 0.013092228647785111 -0.0017569829517449424 0 0.012783609737336814 0.00013745897357508521 0 0.012604102335666095 -0.0016959379574019199 0 0.012192113418834926 -0.00068871938865853631 0 0.012742315864802501 0.00029032385386371752 0 0.011988373396705141 -0.0015302358722070952 0 0.011368233023826281 -2.1815098347695924e-05 0 0.012192113418834926 -0.00068871938865853631 0 0.011988373396705141 -0.0015302358722070952 0 0.011950931743609887 -0.0019237640278644886 0 0.011368233023826281 -2.1815098347695924e-05 0 0.011988373396705141 -0.0015302358722070952 0 0.012604102335666095 -0.0016959379574019199 0 0.012192113418834926 -0.00068871938865853631 0 0.011368233023826281 -2.1815098347695924e-05 0 0.012192113418834926 -0.00068871938865853631 0 0.012742315864802501 0.00029032385386371752 0 0.012969326749817964 0.0021556964382313604 0 0.011164706171444778 0.001693084918736462 0 0.011352687040624795 0.004277984291604124 0 0.012783609737336814 0.00013745897357508521 0 0.012960579488565303 0.0020587328544080944 0 0.012742315864802501 0.00029032385386371752 0 0.012969326749817964 0.0021556964382313604 0 0.011164706171444778 0.001693084918736462 0 0.011164706171444778 0.001693084918736462 0 0.009365376127145936 0.003150762243113522 0 0.011352687040624795 0.004277984291604124 0 0.010215087976513437 0.00051774730584857221 0 0.011164706171444778 0.001693084918736462 0 0.0093555567886381627 0.0015065482566366283 0 0.0083791584264447227 0.00084967038696430052 0 0.0093555567886381627 0.0015065482566366283 0 0.0078777068929934378 0.0017955422742836566 0 0.0093555567886381627 0.0015065482566366283 0 0.009365376127145936 0.003150762243113522 0 0.0078777068929934378 0.0017955422742836566 0 0.011164706171444778 0.001693084918736462 0 0.0093555567886381627 0.0015065482566366283 0 0.009365376127145936 0.003150762243113522 0 0.0282567248266129 0.00021936107479598481 0 0.028829577441470522 0.0013404539924275203 0 0.030161940999177139 0.001049850088335473 0 0.0282567248266129 0.00021936107479598481 0 0.027005097784886762 -0.000724978313590091 0 0.030161940999177139 0.001049850088335473 0 0.018369682558981335 0.001215663458537334 0 0.020753872614401845 0.0026480326620798001 0 0.027898559099452085 0.00020792528753429818 0 0.025737323455235092 9.6053577646039315e-05 0 0.0282567248266129 0.00021936107479598481 0 0.027166023544616662 0.00078244111919030513 0 0.026160578286467572 0.00010601469858466816 0 0.027166023544616662 0.00078244111919030513 0 0.026160578286467572 0.00010601469858466816 0 0.026554945304221637 0.0015918254327962082 0 0.0282567248266129 0.00021936107479598481 0 0.027005097784886762 -0.000724978313590091 0 0.024327397381093258 -2.0425506299147269e-05 0 0.0282567248266129 0.00021936107479598481 0 0.027166023544616662 0.00078244111919030513 0 0.027688544778004125 0.0012398390237671937 0 0.027688544778004125 0.0012398390237671937 0 0.026554945304221637 0.0015918254327962082 0 0.028484370275761541 0.0022737088372485363 0 0.028911553990921952 0.0021069276280505822 0 0.029865596914833651 0.0024582617437571403 0 0.027166023544616662 0.00078244111919030513 0 0.027688544778004125 0.0012398390237671937 0 0.026554945304221637 0.0015918254327962082 0 0.028829577441470522 0.0013404539924275203 0 0.030657536994543721 0.0025352733433027129 0 0.028484370275761541 0.0022737088372485363 0 0.0282567248266129 0.00021936107479598481 0 0.027688544778004125 0.0012398390237671937 0 0.028829577441470522 0.0013404539924275203 0 0.027688544778004125 0.0012398390237671937 0 0.028829577441470522 0.0013404539924275203 0 0.028484370275761541 0.0022737088372485363 0 0.028829577441470522 0.0013404539924275203 0 0.030161940999177139 0.001049850088335473 0 0.030657536994543721 0.0025352733433027129 0 0.030161940999177139 0.001049850088335473 0 0.030657536994543721 0.0025352733433027129 0 0.031133725861089884 0.0022181772408836143 0 0.011352687040624795 0.004277984291604124 0 0.013574452786421994 0.0038374620464688134 0 0.013432720393049295 0.0054320341115245436 0 0.020753872614401845 0.0026480326620798001 0 0.021885785922315965 0.003952288134116513 0 0.012969326749817964 0.0021556964382313604 0 0.011352687040624795 0.004277984291604124 0 0.013574452786421994 0.0038374620464688134 0 0.016563425903755716 -0.0019093453126478722 0 0.016699683684683168 2.4046065447833157e-05 0 0.016785642085021871 -0.00015269978393622397 0 0.013826692432914765 -0.00072595866554902514 0 0.013778571599198337 -0.00078724288961624738 0 0.013831606943497868 -0.00075560139383755692 0 0.016563425903755716 -0.0019093453126478722 0 0.017154705013622883 -0.0010280303042471588 0 0.016785642085021871 -0.00015269978393622397 0 0.017061559996247987 -0.0017917943103260502 0 0.014613935748813658 -0.00050083019188278002 0 0.017684416910083708 -0.0017673365521531778 0 0.017061559996247987 -0.0017917943103260502 0 0.017915692840597939 -0.0017394141714347044 0 0.016563425903755716 -0.0019093453126478722 0 0.017154705013622883 -0.0010280303042471588 0 0.017915692840597939 -0.0017394141714347044 0 0.017154705013622883 -0.0010280303042471588 0 0.017821048787607655 -0.0010258802068110202 0 0.017154705013622883 -0.0010280303042471588 0 0.01713855794394796 -0.00043340880519235131 0 0.016785642085021871 -0.00015269978393622397 0 0.017395339063250533 -0.0005375453201354139 0 0.017154705013622883 -0.0010280303042471588 0 0.01713855794394796 -0.00043340880519235131 0 0.017395339063250533 -0.0005375453201354139 0 0.017154705013622883 -0.0010280303042471588 0 0.017821048787607655 -0.0010258802068110202 0 0.017989112080682605 -0.00034121262335790563 0 0.017395339063250533 -0.0005375453201354139 0 0.017821048787607655 -0.0010258802068110202 0 0.018303869985596518 0.00051314786801839342 0 0.01681564375161148 0.0016261742918551412 0 0.01558209013287388 0.001024543462306118 0 0.018303869985596518 0.00051314786801839342 0 0.017504648470522733 0.00031706953710053051 0 0.016792035762041756 0.00080591662241209772 0 0.017989112080682605 -0.00034121262335790563 0 0.017395339063250533 -0.0005375453201354139 0 0.017215008298752291 -2.2627131780788053e-05 0 0.017989112080682605 -0.00034121262335790563 0 0.017215008298752291 -2.2627131780788053e-05 0 0.017504648470522733 0.00031706953710053051 0 0.018414650075996044 0.00045721811330023428 0 0.015214520763134134 0.00090397046070496141 0 0.017395339063250533 -0.0005375453201354139 0 0.01713855794394796 -0.00043340880519235131 0 0.017215008298752291 -2.2627131780788053e-05 0 0.017215008298752291 -2.2627131780788053e-05 0 0.017504648470522733 0.00031706953710053051 0 0.017055276006251941 0.00028199880214367526 0 0.017504648470522733 0.00031706953710053051 0 0.016792035762041756 0.00080591662241209772 0 0.017055276006251941 0.00028199880214367526 0 0.016792035762041756 0.00080591662241209772 0 0.017055276006251941 0.00028199880214367526 0 0.016712863925617109 1.1584131884514512e-05 0 0.015214520763134134 0.00090397046070496141 0 0.014613935748813658 -0.00050083019188278002 0 0.012687549021505417 0.00061571587499857107 0 0.013331367404628387 0.00045270639356618066 0 0.013264299484367246 -0.000554534537736193 0 0.0099191071685160587 0.00096701586266880434 0 0.014613935748813658 -0.00050083019188278002 0 0.0099191071685160587 0.00096701586266880434 0 0.015214520763134134 0.00090397046070496141 0 0.017215008298752291 -2.2627131780788053e-05 0 0.017055276006251941 0.00028199880214367526 0 0.016712863925617109 1.1584131884514512e-05 0 0.017215008298752291 -2.2627131780788053e-05 0 0.016712863925617109 1.1584131884514512e-05 0 0.016785642085021871 -0.00015269978393622397 0 0.01713855794394796 -0.00043340880519235131 0 0.017215008298752291 -2.2627131780788053e-05 0 0.016785642085021871 -0.00015269978393622397 0 0.014613935748813658 -0.00050083019188278002 0 0.014724598927294715 -0.00053954698044009848 0 0.013778571599198337 -0.00078724288961624738 0 0.013796955531114064 -0.00079771971247171835 0 0.013831606943497868 -0.00075560139383755692 0 0.013760076470933748 -0.00083045841391611933 0 0.013778571599198337 -0.00078724288961624738 0 0.013796955531114064 -0.00079771971247171835 0 0.013760076470933748 -0.00083045841391611933 0 0.013764421902331262 -0.00083339096881109476 0 0.013796955531114064 -0.00079771971247171835 0 0.0031903152798743529 0.0024020057431134289 0 0.010556140467891087 0.0004950027564800492 0 0.013764421902331262 -0.00083339096881109476 0 0.013796955531114064 -0.00079771971247171835 0 0.013861204003213156 -0.0007986963304193632 0 0.013796955531114064 -0.00079771971247171835 0 0.013866452091362842 -0.00076193369241669365 0 0.013831606943497868 -0.00075560139383755692 0 0.013796955531114064 -0.00079771971247171835 0 0.013866452091362842 -0.00076193369241669365 0 0.013861204003213156 -0.0007986963304193632 0 0.013826692432914765 -0.00072595866554902514 0 0.013831606943497868 -0.00075560139383755692 0 0.013884479927905835 -0.00071497365807198161 0 0.013866452091362842 -0.00076193369241669365 0 0.013831606943497868 -0.00075560139383755692 0 0.013884479927905835 -0.00071497365807198161 0 0.013866452091362842 -0.00076193369241669365 0 0.013936854273992558 -0.00076274714521445128 0 0.013884479927905835 -0.00071497365807198161 0 0.023063771073983826 -0.0029678687521208034 0 0.024327397381093258 -2.0425506299147269e-05 0 0.019962684592184803 -0.00051069816808460588 0 0.014378756784546634 -0.00030397719395553092 0 0.020041648446319681 -0.00064714729549548956 0 0.013866452091362842 -0.00076193369241669365 0 0.013861204003213156 -0.0007986963304193632 0 0.013936854273992558 -0.00076274714521445128 0 0.007456721135490456 0.00052360808997491571 0 0.0067057428738988342 0.001478043766533362 0 0.0074487325643752813 0.0013701294493628977 0 0.0067057428738988342 0.001478043766533362 0 0.0074487325643752813 0.0013701294493628977 0 0.0076289893526956939 0.0019998281484943535 0 0.010556140467891087 0.0004950027564800492 0 0.014378756784546634 -0.00030397719395553092 0 0.0083791584264447227 0.00084967038696430052 0 0.0074487325643752813 0.0013701294493628977 0 0.0078777068929934378 0.0017955422742836566 0 0.0074487325643752813 0.0013701294493628977 0 0.0078777068929934378 0.0017955422742836566 0 0.0076289893526956939 0.0019998281484943535 0 0.010386794010530257 0.0020421704109022014 0 0.014378756784546634 -0.00030397719395553092 0 0.009365376127145936 0.003150762243113522 0 0.0078777068929934378 0.0017955422742836566 0 0.0075848107436499324 0.0020371012737440946 0 0.018369682558981335 0.001215663458537334 0 0.014378756784546634 -0.00030397719395553092 0 0.027005097784886762 -0.000724978313590091 0 0.023063771073983826 -0.0029678687521208034 0 0.024327397381093258 -2.0425506299147269e-05 0 0.026160578286467572 0.00010601469858466816 0 0.026554945304221637 0.0015918254327962082 0 0.024932699018456291 0.0010256159663250487 0 0.028911553990921952 0.0021069276280505822 0 0.028500037745744725 0.0019779366271873303 0 0.031467872678501693 0.0026790248002488406 0 0.031345784981749163 0.0026330164135507437 0 0.031204308999901252 0.0025571783840663206 0 0.031467872678501693 0.0026790248002488406 0 0.031345784981749163 0.0026330164135507437 0 0.031459447731568446 0.0025993636184476355 0 0.031345784981749163 0.0026330164135507437 0 0.03149005640319303 0.0026016975510693404 0 0.031459447731568446 0.0025993636184476355 0 0.031236888114831662 0.0026387733041108512 0 0.031551167850525939 0.0026958188139018912 0 0.031345784981749163 0.0026330164135507437 0 0.03149005640319303 0.0026016975510693404 0 0.031602385888617524 0.0027054410673708462 0 0.031345784981749163 0.0026330164135507437 0 0.031204308999901252 0.0025571783840663206 0 0.030916549443277819 0.0026439077125001444 0 0.03149005640319303 0.0026016975510693404 0 0.031597740313271193 0.0025984237191815766 0 0.031602385888617524 0.0027054410673708462 0 0.025737323455235092 9.6053577646039315e-05 0 0.020041648446319681 -0.00064714729549548956 0 0.026160578286467572 0.00010601469858466816 0 0.024932699018456291 0.0010256159663250487 0 0.02404233585780827 -0.00014412427998073565 0 0.031204308999901252 0.0025571783840663206 0 0.030916549443277819 0.0026439077125001444 0 0.030363085137267903 0.0022095841781182108 0 0.028500037745744725 0.0019779366271873303 0 0.024796973918986782 0.00014157089884051348 0 0.017061559996247987 -0.0017917943103260502 0 0.020041648446319681 -0.00064714729549548956 0 0.020308225553778172 -0.0012075892555135864 0 0.020729409882141052 -0.0011482722600100808 0 0.0204697532189606 -0.00094223208332310426 0 0.024932699018456291 0.0010256159663250487 0 0.02404233585780827 -0.00014412427998073565 0 0.023286053201919336 0.00046654645641299022 0 0.020041648446319681 -0.00064714729549548956 0 0.024796973918986782 0.00014157089884051348 0 0.023485659238413302 0.00032121737929568627 0 0.023821856233678437 5.2386751740301609e-05 0 0.02384539896043188 0.00044058843545347374 0 0.024796973918986782 0.00014157089884051348 0 0.020682055049680566 -0.0015394001304133553 0 0.024796973918986782 0.00014157089884051348 0 0.025104782088608342 0.00033290546420267563 0 0.030363085137267903 0.0022095841781182108 0 0.030262876726520463 0.0024284633867204014 0 0.030391632937865308 0.0024513736183419304 0 0.030363085137267903 0.0022095841781182108 0 0.030262876726520463 0.0024284633867204014 0 0.030153907114026296 0.002362633363997663 0 0.030916549443277819 0.0026439077125001444 0 0.030363085137267903 0.0022095841781182108 0 0.030391632937865308 0.0024513736183419304 0 0.031551167850525939 0.0026958188139018912 0 0.029311331038340084 0.0019264411844044597 0 0.031602385888617524 0.0027054410673708462 0 0.031680809988854912 0.0026097524607363752 0 0.031742767266105011 0.0027070723855085574 0 0.030916549443277819 0.0026439077125001444 0 0.030391632937865308 0.0024513736183419304 0 0.030175040666619371 0.0025682915034927574 0 0.031680809988854912 0.0026097524607363752 0 0.031742767266105011 0.0027070723855085574 0 0.031760346948619102 0.0025048071184834791 0 0.031597740313271193 0.0025984237191815766 0 0.031602385888617524 0.0027054410673708462 0 0.031680809988854912 0.0026097524607363752 0 0.030262876726520463 0.0024284633867204014 0 0.030391632937865308 0.0024513736183419304 0 0.030175040666619371 0.0025682915034927574 0 0.026292792691657931 -4.6219037152049182e-06 0 0.026956435351684696 5.9080933860328833e-05 0 0.026330622433690238 0.00055859568800179112 0 0.031831326695736073 0.0015926642850416445 0 0.031763769819162679 0.0015899809964382162 0 0.031766789243006174 0.0017064160758993366 0 0.029311331038340084 0.0019264411844044597 0 0.02661997105096171 0.00030547818472322346 0 0.031831326695736073 0.0015926642850416445 0 0.031766789243006174 0.0017064160758993366 0 0.03187692482225335 0.0019120860657027166 0 0.029311331038340084 0.0019264411844044597 0 0.032083777338444572 0.0022776908004761617 0 0.031646478945687569 0.0016911177789963427 0 0.031763769819162679 0.0015899809964382162 0 0.031766789243006174 0.0017064160758993366 0 0.032121761704410105 0.0011042140672128116 0 0.02661997105096171 0.00030547818472322346 0 0.021098812124599981 -0.0020789521549164653 0 0.02661997105096171 0.00030547818472322346 0 0.01862117382513365 -0.0028267837213612045 0 0.017445211305159379 -0.0030920880062343401 0 0.017647392460055152 -0.0026018588683122154 0 0.017445211305159379 -0.0030920880062343401 0 0.017647392460055152 -0.0026018588683122154 0 0.017104568423368213 -0.0028037457152255865 0 0.017647392460055152 -0.0026018588683122154 0 0.017104568423368213 -0.0028037457152255865 0 0.017122614924807072 -0.0024497937230746327 0 0.02661997105096171 0.00030547818472322346 0 0.025104782088608342 0.00033290546420267563 0 0.029311331038340084 0.0019264411844044597 0 0.025104782088608342 0.00033290546420267563 0 0.030262876726520463 0.0024284633867204014 0 0.030175040666619371 0.0025682915034927574 0 0.030153907114026296 0.002362633363997663 0 0.025104782088608342 0.00033290546420267563 0 0.020682055049680566 -0.0015394001304133553 0 0.020308225553778172 -0.0012075892555135864 0 0.0204697532189606 -0.00094223208332310426 0 0.020333791141998826 -0.00098858395548580909 0 0.017061559996247987 -0.0017917943103260502 0 0.020682055049680566 -0.0015394001304133553 0 0.020682055049680566 -0.0015394001304133553 0 0.017511295599413539 -0.0024491287754154372 0 0.01715585385319366 -0.0019014503628301731 0 0.017129712739158229 -0.0024165368660053893 0 0.017624921657109167 -0.0022535012298707958 0 0.017647392460055152 -0.0026018588683122154 0 0.017122614924807072 -0.0024497937230746327 0 0.017624921657109167 -0.0022535012298707958 0 0.017915692840597939 -0.0017394141714347044 0 0.01715585385319366 -0.0019014503628301731 0 0.017624921657109167 -0.0022535012298707958 0 0.018104437951282283 -0.0023009191647160206 0 0.017915692840597939 -0.0017394141714347044 0 0.017624921657109167 -0.0022535012298707958 0 0.018104437951282283 -0.0023009191647160206 0 0.017647392460055152 -0.0026018588683122154 0 0.017624921657109167 -0.0022535012298707958 0 0.03187692482225335 0.0019120860657027166 0 0.031784051437839911 0.0022609436272624556 0 0.031741860051109225 0.0022196648248852162 0 0.03167943414211933 0.0021340332818130122 0 0.03187692482225335 0.0019120860657027166 0 0.031741860051109225 0.0022196648248852162 0 0.03167943414211933 0.0021340332818130122 0 0.031683586849077447 0.0018547419539127056 0 0.03187692482225335 0.0019120860657027166 0 0.031683586849077447 0.0018547419539127056 0 0.031766789243006174 0.0017064160758993366 0 0.03187692482225335 0.0019120860657027166 0 0.031683586849077447 0.0018547419539127056 0 0.031646478945687569 0.0016911177789963427 0 0.031766789243006174 0.0017064160758993366 0 0.031680809988854912 0.0026097524607363752 0 0.031760346948619102 0.0025048071184834791 0 0.031656157210930673 0.0025265441067334449 0 0.031597740313271193 0.0025984237191815766 0 0.031680809988854912 0.0026097524607363752 0 0.031656157210930673 0.0025265441067334449 0 0.031760346948619102 0.0025048071184834791 0 0.031656157210930673 0.0025265441067334449 0 0.031682270764141506 0.0024261866335981114 0 0.031656157210930673 0.0025265441067334449 0 0.031682270764141506 0.0024261866335981114 0 0.031597990875004069 0.0024671884991918666 0 0.032083777338444572 0.0022776908004761617 0 0.03173268855655078 0.0022136936042635945 0 0.031760346948619102 0.0025048071184834791 0 0.031682270764141506 0.0024261866335981114 0 0.031784051437839911 0.0022609436272624556 0 0.031682270764141506 0.0024261866335981114 0 0.03163496240864129 0.0023701555016207203 0 0.031784051437839911 0.0022609436272624556 0 0.03163496240864129 0.0023701555016207203 0 0.031597990875004069 0.0024671884991918666 0 0.03151603292312271 0.0024785429552633838 0 0.031682270764141506 0.0024261866335981114 0 0.03163496240864129 0.0023701555016207203 0 0.031597990875004069 0.0024671884991918666 0 0.031656157210930673 0.0025265441067334449 0 0.031597990875004069 0.0024671884991918666 0 0.03154472421447365 0.0025532725599831932 0 0.03149005640319303 0.0026016975510693404 0 0.031597740313271193 0.0025984237191815766 0 0.03154472421447365 0.0025532725599831932 0 0.031597740313271193 0.0025984237191815766 0 0.031656157210930673 0.0025265441067334449 0 0.03154472421447365 0.0025532725599831932 0 0.03149005640319303 0.0026016975510693404 0 0.03154472421447365 0.0025532725599831932 0 0.031459447731568446 0.0025993636184476355 0 0.031597990875004069 0.0024671884991918666 0 0.03154472421447365 0.0025532725599831932 0 0.03151603292312271 0.0024785429552633838 0 0.031467872678501693 0.0026790248002488406 0 0.031459447731568446 0.0025993636184476355 0 0.031371232581066576 0.0025258819342739098 0 0.031459447731568446 0.0025993636184476355 0 0.03151603292312271 0.0024785429552633838 0 0.031371232581066576 0.0025258819342739098 0 0.03154472421447365 0.0025532725599831932 0 0.031459447731568446 0.0025993636184476355 0 0.03151603292312271 0.0024785429552633838 0 0.03151603292312271 0.0024785429552633838 0 0.031371232581066576 0.0025258819342739098 0 0.031467380194901008 0.0024053051125498596 0 0.03163496240864129 0.0023701555016207203 0 0.03151603292312271 0.0024785429552633838 0 0.031467380194901008 0.0024053051125498596 0 0.03163496240864129 0.0023701555016207203 0 0.031575754865018672 0.0023302924112355615 0 0.031467380194901008 0.0024053051125498596 0 0.031667892863531534 0.0022288594578860422 0 0.031575754865018672 0.0023302924112355615 0 0.031752416989566101 0.0022811037496111696 0 0.031667892863531534 0.0022288594578860422 0 0.031575754865018672 0.0023302924112355615 0 0.031451327352421947 0.0022892676703923859 0 0.031587108357938508 0.0023275569675745935 0 0.031818374327573062 0.002319222712745329 0 0.031575754865018672 0.0023302924112355615 0 0.031752416989566101 0.0022811037496111696 0 0.031865151379772222 0.0023813118501914972 0 0.031752416989566101 0.0022811037496111696 0 0.031865151379772222 0.0023813118501914972 0 0.031871712849748227 0.0022820609776287143 0 0.03163496240864129 0.0023701555016207203 0 0.031575754865018672 0.0023302924112355615 0 0.031739798744225438 0.0022559984769727369 0 0.03163496240864129 0.0023701555016207203 0 0.031784051437839911 0.0022609436272624556 0 0.031739798744225438 0.0022559984769727369 0 0.031865151379772222 0.0023813118501914972 0 0.031871712849748227 0.0022820609776287143 0 0.031948062201856073 0.0023098243346670452 0 0.032024969052600015 0.0023726157409566973 0 0.031996248794574862 0.0022271228119679475 0 0.031948062201856073 0.0023098243346670452 0 0.031791995665068754 0.0023313173472967719 0 0.031897926647754662 0.0023600278282126697 0 0.032024969052600015 0.0023726157409566973 0 0.031865151379772222 0.0023813118501914972 0 0.031948062201856073 0.0023098243346670452 0 0.03173346096808647 0.0022675181875827111 0 0.031784051437839911 0.0022609436272624556 0 0.031741860051109225 0.0022196648248852162 0 0.03173346096808647 0.0022675181875827111 0 0.031784051437839911 0.0022609436272624556 0 0.031739798744225438 0.0022559984769727369 0 0.031791995665068754 0.0023313173472967719 0 0.031818374327573062 0.002319222712745329 0 0.03173346096808647 0.0022675181875827111 0 0.03167943414211933 0.0021340332818130122 0 0.031741860051109225 0.0022196648248852162 0 0.030936257551167856 0.0024413882433257155 0 0.031082220713276775 0.0024809894513488106 0 0.031230457925872965 0.0023777638317548587 0 0.030936257551167856 0.0024413882433257155 0 0.030988029749858766 0.0024416431693289175 0 0.031022218254984482 0.0023979403350717749 0 0.030936257551167856 0.0024413882433257155 0 0.030988029749858766 0.0024416431693289175 0 0.030657536994543721 0.0025352733433027129 0 0.030988029749858766 0.0024416431693289175 0 0.030657536994543721 0.0025352733433027129 0 0.031133725861089884 0.0022181772408836143 0 0.030936257551167856 0.0024413882433257155 0 0.030657536994543721 0.0025352733433027129 0 0.031082220713276775 0.0024809894513488106 0 0.030657536994543721 0.0025352733433027129 0 0.031193642487985486 0.0027023815105663429 0 0.031082220713276775 0.0024809894513488106 0 0.030551686800508703 0.0025566322810407845 0 0.029865596914833651 0.0024582617437571403 0 0.031193642487985486 0.0027023815105663429 0 0.031371232581066576 0.0025258819342739098 0 0.031082220713276775 0.0024809894513488106 0 0.031467872678501693 0.0026790248002488406 0 0.031193642487985486 0.0027023815105663429 0 0.031371232581066576 0.0025258819342739098 0 0.031371232581066576 0.0025258819342739098 0 0.031230457925872965 0.0023777638317548587 0 0.031467380194901008 0.0024053051125498596 0 0.031371232581066576 0.0025258819342739098 0 0.031082220713276775 0.0024809894513488106 0 0.031230457925872965 0.0023777638317548587 0 0.031230457925872965 0.0023777638317548587 0 0.031467380194901008 0.0024053051125498596 0 0.031451327352421947 0.0022892676703923859 0 0.031575754865018672 0.0023302924112355615 0 0.031467380194901008 0.0024053051125498596 0 0.031451327352421947 0.0022892676703923859 0 0.031230457925872965 0.0023777638317548587 0 0.031451327352421947 0.0022892676703923859 0 0.03124881432736528 0.0022633472165804274 0 0.030936257551167856 0.0024413882433257155 0 0.031230457925872965 0.0023777638317548587 0 0.031073690408554268 0.0023651232288901874 0 0.031230457925872965 0.0023777638317548587 0 0.03124881432736528 0.0022633472165804274 0 0.031073690408554268 0.0023651232288901874 0 0.030936257551167856 0.0024413882433257155 0 0.031022218254984482 0.0023979403350717749 0 0.031073690408554268 0.0023651232288901874 0 0.031022218254984482 0.0023979403350717749 0 0.031073690408554268 0.0023651232288901874 0 0.031051997518672887 0.0023572702232477131 0 0.031073690408554268 0.0023651232288901874 0 0.031051997518672887 0.0023572702232477131 0 0.031081310524641966 0.00231757285244994 0 0.031069982114024678 0.0022450432098680391 0 0.03124881432736528 0.0022633472165804274 0 0.031081310524641966 0.00231757285244994 0 0.03124881432736528 0.0022633472165804274 0 0.031073690408554268 0.0023651232288901874 0 0.031081310524641966 0.00231757285244994 0 0.031069982114024678 0.0022450432098680391 0 0.031081310524641966 0.00231757285244994 0 0.03103937198869702 0.0022923085098535147 0 0.031081310524641966 0.00231757285244994 0 0.03103937198869702 0.0022923085098535147 0 0.031035523382857845 0.0023514343498855722 0 0.03103937198869702 0.0022923085098535147 0 0.031023911201182145 0.0023262327305765061 0 0.031035523382857845 0.0023514343498855722 0 0.03103937198869702 0.0022923085098535147 0 0.031023911201182145 0.0023262327305765061 0 0.031010718744716472 0.0023049848557957203 0 0.031032034589988121 0.0022602437178779063 0 0.03103937198869702 0.0022923085098535147 0 0.031010718744716472 0.0023049848557957203 0 0.031010718744716472 0.0023049848557957203 0 0.0310113260962206 0.0023456438327963303 0 0.030990217977498929 0.0023293535192153228 0 0.031023911201182145 0.0023262327305765061 0 0.0310113260962206 0.0023456438327963303 0 0.031035523382857845 0.0023514343498855722 0 0.031023911201182145 0.0023262327305765061 0 0.031010718744716472 0.0023049848557957203 0 0.0310113260962206 0.0023456438327963303 0 0.031022218254984482 0.0023979403350717749 0 0.031051997518672887 0.0023572702232477131 0 0.031035523382857845 0.0023514343498855722 0 0.031051997518672887 0.0023572702232477131 0 0.031081310524641966 0.00231757285244994 0 0.031035523382857845 0.0023514343498855722 0 0.0310113260962206 0.0023456438327963303 0 0.031035523382857845 0.0023514343498855722 0 0.031025544659405963 0.0023762957413831815 0 0.031022218254984482 0.0023979403350717749 0 0.031035523382857845 0.0023514343498855722 0 0.031025544659405963 0.0023762957413831815 0 0.030988029749858766 0.0024416431693289175 0 0.031022218254984482 0.0023979403350717749 0 0.031025544659405963 0.0023762957413831815 0 0.030988029749858766 0.0024416431693289175 0 0.031044679291091885 0.0023798721463476791 0 0.031025544659405963 0.0023762957413831815 0 0.031044679291091885 0.0023798721463476791 0 0.031025544659405963 0.0023762957413831815 0 0.031008249974548072 0.0023711212533394639 0 0.031044679291091885 0.0023798721463476791 0 0.031008249974548072 0.0023711212533394639 0 0.030989550525447242 0.0023954855515722442 0 0.0310113260962206 0.0023456438327963303 0 0.031008249974548072 0.0023711212533394639 0 0.030991581783382013 0.002353429573599161 0 0.0310113260962206 0.0023456438327963303 0 0.031025544659405963 0.0023762957413831815 0 0.031008249974548072 0.0023711212533394639 0 0.030059415776125351 0.0010913111205716427 0 0.025336289658833958 0.0030942295619098377 0 0.031008249974548072 0.0023711212533394639 0 0.030974932482139426 0.0023795991273272183 0 0.030991581783382013 0.002353429573599161 0 0.015544951282213563 0.0065586216508594503 0 0.014840180364102741 0.004835072541946245 0 0.016543606526885628 0.0052220008131424744 0 0.015544951282213563 0.0065586216508594503 0 0.013432720393049295 0.0054320341115245436 0 0.014840180364102741 0.004835072541946245 0 0.031044679291091885 0.0023798721463476791 0 0.030989550525447242 0.0023954855515722442 0 0.031133725861089884 0.0022181772408836143 0 0.030988029749858766 0.0024416431693289175 0 0.031044679291091885 0.0023798721463476791 0 0.031133725861089884 0.0022181772408836143 0 0.025336289658833958 0.0030942295619098377 0 0.021885785922315965 0.003952288134116513 0 0.030593323700652438 0.00010236148143063732 0 0.030009643410478581 -0.00061913948677130588 0 0.031193199768594505 -0.00074233758483917441 0 0.030593323700652438 0.00010236148143063732 0 0.03143305482945119 0.00068885287194004772 0 0.031635939458076669 -6.5999568570100536e-05 0 0.030593323700652438 0.00010236148143063732 0 0.031635939458076669 -6.5999568570100536e-05 0 0.031193199768594505 -0.00074233758483917441 0 0.029188913973162926 0.00040244620554077845 0 0.030593323700652438 0.00010236148143063732 0 0.030283061322317784 0.00096488520339420487 0 0.025336289658833958 0.0030942295619098377 0 0.022863120111692798 0.0025870791444113448 0 0.029188913973162926 0.00040244620554077845 0 0.030593323700652438 0.00010236148143063732 0 0.030009643410478581 -0.00061913948677130588 0 0.030974932482139426 0.0023795991273272183 0 0.030991581783382013 0.002353429573599161 0 0.030977909979756989 0.0023471682774524071 0 0.025336289658833958 0.0030942295619098377 0 0.031294020363687419 0.0018239727534919534 0 0.030991581783382013 0.002353429573599161 0 0.030977909979756989 0.0023471682774524071 0 0.030990217977498929 0.0023293535192153228 0 0.031294020363687419 0.0018239727534919534 0 0.030890028259679393 0.0018093270270707128 0 0.030593323700652438 0.00010236148143063732 0 0.030283061322317784 0.00096488520339420487 0 0.03143305482945119 0.00068885287194004772 0 0.030283061322317784 0.00096488520339420487 0 0.031362422725239654 0.0014933998459418006 0 0.03143305482945119 0.00068885287194004772 0 0.030977909979756989 0.0023471682774524071 0 0.030990217977498929 0.0023293535192153228 0 0.03097481392888236 0.0023180799687120136 0 0.030986138119399893 0.0023018048104419485 0 0.030978304209461609 0.0023004489892432603 0 0.03097481392888236 0.0023180799687120136 0 0.030990217977498929 0.0023293535192153228 0 0.030986138119399893 0.0023018048104419485 0 0.03097481392888236 0.0023180799687120136 0 0.0310113260962206 0.0023456438327963303 0 0.030991581783382013 0.002353429573599161 0 0.030990217977498929 0.0023293535192153228 0 0.031010718744716472 0.0023049848557957203 0 0.030990217977498929 0.0023293535192153228 0 0.030986138119399893 0.0023018048104419485 0 0.031002595624254076 0.0022670100447499397 0 0.031010718744716472 0.0023049848557957203 0 0.030986138119399893 0.0023018048104419485 0 0.030976777607136574 0.0022770786659030732 0 0.031002595624254076 0.0022670100447499397 0 0.030986138119399893 0.0023018048104419485 0 0.030976777607136574 0.0022770786659030732 0 0.030986138119399893 0.0023018048104419485 0 0.030978304209461609 0.0023004489892432603 0 0.032741593679778837 0.0020305374990402117 0 0.032954147003605161 0.0018179015486397513 0 0.030976777607136574 0.0022770786659030732 0 0.030978304209461609 0.0023004489892432603 0 0.03097905744710731 0.0023018800782370879 0 0.034547259320499006 0.0017422886088346232 0 0.034745503854897553 0.0016888036955115696 0 0.034698548755070474 0.0014921209938728733 0 0.032954147003605161 0.0018179015486397513 0 0.034465168267172337 0.0019003601165400417 0 0.034745503854897553 0.0016888036955115696 0 0.034698548755070474 0.0014921209938728733 0 0.03495813116144373 0.001624775339929759 0 0.032693370095647538 0.0017674520668017678 0 0.032967379876261194 0.0013256248455580457 0 0.033594100179013958 0.0014820915276779255 0 0.032954147003605161 0.0018179015486397513 0 0.032907371250208033 0.0015203238149710957 0 0.032472454555832149 0.0020719653367473495 0 0.032967379876261194 0.0013256248455580457 0 0.032185160980154136 0.0011984592095963605 0 0.030978304209461609 0.0023004489892432603 0 0.03097905744710731 0.0023018800782370879 0 0.03097481392888236 0.0023180799687120136 0 0.032954147003605161 0.0018179015486397513 0 0.030890028259679393 0.0018093270270707128 0 0.032472454555832149 0.0020719653367473495 0 0.031362422725239654 0.0014933998459418006 0 0.032185160980154136 0.0011984592095963605 0 0.03497365991780152 0.0020430911146673086 0 0.034465168267172337 0.0019003601165400417 0 0.034795280010013981 0.0023540531883318094 0 0.033742260369254866 0.0021709082518514668 0 0.034529777355615521 0.0017021925807158295 0 0.033742260369254866 0.0021709082518514668 0 0.033594100179013958 0.0014820915276779255 0 0.034529777355615521 0.0017021925807158295 0 0.032693370095647538 0.0017674520668017678 0 0.033742260369254866 0.0021709082518514668 0 0.033594100179013958 0.0014820915276779255 0 0.032967379876261194 0.0013256248455580457 0 0.033594100179013958 0.0014820915276779255 0 0.033483757889801527 0.00076886607928439274 0 0.033594100179013958 0.0014820915276779255 0 0.034529777355615521 0.0017021925807158295 0 0.034172598735048944 0.0010396686014902412 0 0.035092394878079622 0.0010365410653489064 0 0.034529777355615521 0.0017021925807158295 0 0.034172598735048944 0.0010396686014902412 0 0.035092394878079622 0.0010365410653489064 0 0.034150602312817843 0.00040717337086808986 0 0.034701752144138009 -5.5223318307264416e-07 0 0.035092394878079622 0.0010365410653489064 0 0.034172598735048944 0.0010396686014902412 0 0.034150602312817843 0.00040717337086808986 0 0.034172598735048944 0.0010396686014902412 0 0.034150602312817843 0.00040717337086808986 0 0.033483757889801527 0.00076886607928439274 0 0.033594100179013958 0.0014820915276779255 0 0.034172598735048944 0.0010396686014902412 0 0.033483757889801527 0.00076886607928439274 0 0.034150602312817843 0.00040717337086808986 0 0.033483757889801527 0.00076886607928439274 0 0.033286820826948525 -0.00013344099020114522 0 0.034150602312817843 0.00040717337086808986 0 0.033286820826948525 -0.00013344099020114522 0 0.033995303787072433 -0.00037466701976568792 0 0.034150602312817843 0.00040717337086808986 0 0.033995303787072433 -0.00037466701976568792 0 0.034701752144138009 -5.5223318307264416e-07 0 0.03143305482945119 0.00068885287194004772 0 0.032185160980154136 0.0011984592095963605 0 0.032478678310601625 0.00047191099039925688 0 0.031362422725239654 0.0014933998459418006 0 0.03143305482945119 0.00068885287194004772 0 0.032185160980154136 0.0011984592095963605 0 0.032967379876261194 0.0013256248455580457 0 0.032185160980154136 0.0011984592095963605 0 0.032478678310601625 0.00047191099039925688 0 0.032967379876261194 0.0013256248455580457 0 0.033483757889801527 0.00076886607928439274 0 0.032478678310601625 0.00047191099039925688 0 0.033286820826948525 -0.00013344099020114522 0 0.032478678310601625 0.00047191099039925688 0 0.032351388456909255 -0.00070916653119786348 0 0.033483757889801527 0.00076886607928439274 0 0.033286820826948525 -0.00013344099020114522 0 0.032478678310601625 0.00047191099039925688 0 0.032478678310601625 0.00047191099039925688 0 0.031635939458076669 -6.5999568570100536e-05 0 0.032351388456909255 -0.00070916653119786348 0 0.03143305482945119 0.00068885287194004772 0 0.032478678310601625 0.00047191099039925688 0 0.031635939458076669 -6.5999568570100536e-05 0 0.031635939458076669 -6.5999568570100536e-05 0 0.032351388456909255 -0.00070916653119786348 0 0.031193199768594505 -0.00074233758483917441 0 0.032351388456909255 -0.00070916653119786348 0 0.031740991224171095 -0.0015428738128316652 0 0.031193199768594505 -0.00074233758483917441 0 0.031740991224171095 -0.0015428738128316652 0 0.031193199768594505 -0.00074233758483917441 0 0.030799020973193484 -0.0015970484815683841 0 0.033286820826948525 -0.00013344099020114522 0 0.032351388456909255 -0.00070916653119786348 0 0.033365506932345683 -0.00084727774652636244 0 0.032351388456909255 -0.00070916653119786348 0 0.032926656391151297 -0.0018838950575405192 0 0.033365506932345683 -0.00084727774652636244 0 0.032351388456909255 -0.00070916653119786348 0 0.032926656391151297 -0.0018838950575405192 0 0.031740991224171095 -0.0015428738128316652 0 0.032926656391151297 -0.0018838950575405192 0 0.031740991224171095 -0.0015428738128316652 0 0.031551808282145419 -0.0025829236818887841 0 0.031740991224171095 -0.0015428738128316652 0 0.031551808282145419 -0.0025829236818887841 0 0.030799020973193484 -0.0015970484815683841 0 0.034826821107590999 0.0017233767348976679 0 0.034711109197859864 0.0014428421450574029 0 0.034482637846390635 0.001342263054203114 0 0.03483576512570849 0.00065932072856110231 0 0.03305107883146647 0.001365094866778647 0 0.033995303787072433 -0.00037466701976568792 0 0.034701752144138009 -5.5223318307264416e-07 0 0.034240127325030588 -0.0011590914455766343 0 0.034608471901228267 0.0011756180208746161 0 0.034711109197859864 0.0014428421450574029 0 0.034149234240385844 0.0012984183015981787 0 0.034656743868944698 0.0016881839050560397 0 0.03305107883146647 0.001365094866778647 0 0.032926656391151297 -0.0018838950575405192 0 0.034240127325030588 -0.0011590914455766343 0 0.033365506932345683 -0.00084727774652636244 0 0.033995303787072433 -0.00037466701976568792 0 0.034240127325030588 -0.0011590914455766343 0 0.033365506932345683 -0.00084727774652636244 0 0.033286820826948525 -0.00013344099020114522 0 0.033995303787072433 -0.00037466701976568792 0 0.033365506932345683 -0.00084727774652636244 0 0.027012028380516064 0.0016685117729828508 0 0.030083426142470133 0.0033007113902100969 0 0.028587080504668797 -7.5212660751782455e-05 0 0.030405004860722784 -0.00026792997310557775 0 0.03305107883146647 0.001365094866778647 0 0.03305107883146647 0.001365094866778647 0 0.027091064792563894 0.00037502527484896924 0 0.034712304318816174 0.00073231656706920843 0 0.034149234240385844 0.0012984183015981787 0 0.033459563440579466 6.5144851205581687e-06 0 0.034712304318816174 0.00073231656706920843 0 0.034608471901228267 0.0011756180208746161 0 0.034149234240385844 0.0012984183015981787 0 0.026941775573753709 -0.0016990470481459883 0 0.027000540926614598 -0.00048074153714891847 0 0.025483403014385425 -0.0014736281934977764 0 0.026941775573753709 -0.0016990470481459883 0 0.025483403014385425 -0.0014736281934977764 0 0.026568476443532451 -0.0022361703247459597 0 0.031545369930185342 3.2822017174480972e-05 0 0.027091064792563894 0.00037502527484896924 0 0.027091064792563894 0.00037502527484896924 0 0.022310960264529407 -0.0011573278524809759 0 0.025483403014385425 -0.0014736281934977764 0 0.025020684176496368 -0.0025620283099857385 0 0.026012224338832289 -0.0026309153935899793 0 0.025483403014385425 -0.0014736281934977764 0 0.026568476443532451 -0.0022361703247459597 0 0.026012224338832289 -0.0026309153935899793 0 0.026943846095158645 -0.0026316564871019946 0 0.026568476443532451 -0.0022361703247459597 0 0.026012224338832289 -0.0026309153935899793 0 0.024064313944449155 0.00050561168982110139 0 0.020843209366504491 0.00051699802407546369 0 0.027091064792563894 0.00037502527484896924 0 0.020843209366504491 0.00051699802407546369 0 0.027012028380516064 0.0016685117729828508 0 0.02395373459298393 3.4775093155050715e-05 0 0.025448088801162817 -0.0018897234215153387 0 0.027012028380516064 0.0016685117729828508 0 0.028587080504668797 -7.5212660751782455e-05 0 0.025448088801162817 -0.0018897234215153387 0 0.030405004860722784 -0.00026792997310557775 0 0.024064313944449155 0.00050561168982110139 0 0.020985404993285422 0.0026772505712649147 0 0.018643649538951205 0.0010447999560065078 0 0.018495364922501156 0.0012374215648265469 0 0.020985404993285422 0.0026772505712649147 0 0.0200157529383777 0.00062550658201141374 0 0.018643649538951205 0.0010447999560065078 0 0.020575436899790283 0.00074121165110621829 0 0.020843209366504491 0.00051699802407546369 0 0.0200157529383777 0.00062550658201141374 0 0.018643649538951205 0.0010447999560065078 0 0.01856507203696435 0.00040551888798987006 0 0.018643649538951205 0.0010447999560065078 0 0.018514417611611711 0.0011729169303835774 0 0.01856507203696435 0.00040551888798987006 0 0.016865328812487694 9.3339487669140457e-05 0 0.018514417611611711 0.0011729169303835774 0 0.01856507203696435 0.00040551888798987006 0 0.017687819935021821 0.00026316559843417791 0 0.01966664243464494 0.0013570369425688405 0 0.018321772273124731 0.0014992498486508729 0 0.016947168657527038 0.00020825747063993978 0 0.020843209366504491 0.00051699802407546369 0 0.018712318524728773 0.0025886504955481031 0 0.01966664243464494 0.0013570369425688405 0 0.018321772273124731 0.0014992498486508729 0 0.017687819935021821 0.00026316559843417791 0 0.01722697832627056 0.0017985093344951987 0 0.016430036329466064 0.00077035772808072857 0 0.017687819935021821 0.00026316559843417791 0 0.018321772273124731 0.0014992498486508729 0 0.01722697832627056 0.0017985093344951987 0 0.018659570158390752 0.0025113254482234965 0 0.01722697832627056 0.0017985093344951987 0 0.016562123074088948 0.002963356923478171 0 0.024064313944449155 0.00050561168982110139 0 0.016016649161971715 0.0014882766303199145 0 0.018712318524728773 0.0025886504955481031 0 0.018321772273124731 0.0014992498486508729 0 0.01722697832627056 0.0017985093344951987 0 0.01722697832627056 0.0017985093344951987 0 0.016562123074088948 0.002963356923478171 0 0.015315465079941644 0.0012425644906005095 0 0.016562123074088948 0.002963356923478171 0 0.015315465079941644 0.0012425644906005095 0 0.015046525891478287 0.003282273077812696 0 0.01722697832627056 0.0017985093344951987 0 0.016430036329466064 0.00077035772808072857 0 0.015315465079941644 0.0012425644906005095 0 0.014333622871363052 -6.1572488417322157e-05 0 0.012969326749817964 0.0021556964382313604 0 0.015315465079941644 0.0012425644906005095 0 0.014333622871363052 -6.1572488417322157e-05 0 0.012876549028283717 -4.8303389117206394e-05 0 0.012969326749817964 0.0021556964382313604 0 0.012969326749817964 0.0021556964382313604 0 0.015046525891478287 0.003282273077812696 0 0.013574452786421994 0.0038374620464688134 0 0.012969326749817964 0.0021556964382313604 0 0.015315465079941644 0.0012425644906005095 0 0.015046525891478287 0.003282273077812696 0 0.015046525891478287 0.003282273077812696 0 0.013574452786421994 0.0038374620464688134 0 0.014840180364102741 0.004835072541946245 0 0.013574452786421994 0.0038374620464688134 0 0.013432720393049295 0.0054320341115245436 0 0.014840180364102741 0.004835072541946245 0 0.015046525891478287 0.003282273077812696 0 0.014840180364102741 0.004835072541946245 0 0.016543606526885628 0.0052220008131424744 0 0.030009643410478581 -0.00061913948677130588 0 0.031193199768594505 -0.00074233758483917441 0 0.030799020973193484 -0.0015970484815683841 0 0.022863120111692798 0.0025870791444113448 0 0.024410623619269552 0.0009290816383977677 0 0.018659570158390752 0.0025113254482234965 0 0.016562123074088948 0.002963356923478171 0 0.017579917514784188 0.003877276454730039 0 0.024064313944449155 0.00050561168982110139 0 0.024410623619269552 0.0009290816383977677 0 0.016562123074088948 0.002963356923478171 0 0.015046525891478287 0.003282273077812696 0 0.016543606526885628 0.0052220008131424744 0 0.016562123074088948 0.002963356923478171 0 0.016543606526885628 0.0052220008131424744 0 0.017579917514784188 0.003877276454730039 0 
</DataArray>
</PointData>
<CellData Scalars="region_id,cross_section_updated," Vectors="" Tensors="stress,">
<DataArray type="Float64" Name="region_id" format="ascii">
5 5 5 5 6 5 5 5 5 5 5 6 5 5 5 5 6 5 5 5 5 5 6 5 5 6 5 5 5 5 5 5 5 5 5 5 5 5 5 5 5 5 5 5 5 5 5 5 5 5 6 5 5 5 5 6 5 5 5 5 5 6 5 5 5 5 5 5 5 5 5 5 5 5 5 5 5 5 5 5 5 5 6 5 5 6 5 5 5 5 5 5 5 5 5 5 5 5 5 6 5 5 5 6 6 5 5 5 5 6 5 6 5 5 5 5 5 6 6 5 5 5 6 5 6 5 5 5 5 5 6 5 5 5 5 6 5 5 6 5 5 6 5 5 5 6 6 5 5 5 5 5 6 6 5 5 5 6 5 6 5 5 5 5 5 5 5 5 5 5 5 5 5 5 5 5 5 5 5 5 5 5 5 5 5 5 5 5 5 5 5 5 5 5 5 6 5 6 6 5 5 6 5 5 5 5 5 5 5 6 5 5 5 5 6 5 5 5 5 6 5 5 6 5 5 6 6 5 5 5 6 6 5 5 6 6 5 5 6 5 5 5 5 5 6 5 6 5 5 6 5 5 6 5 6 5 5 5 5 6 5 5 5 5 5 6 5 5 5 5 5 5 5 5 5 5 5 5 5 5 5 5 5 5 6 5 5 5 5 5 6 5 5 5 5 5 5 5 5 6 5 5 5 6 5 5 5 6 5 5 5 5 6 6 6 6 5 5 5 5 5 5 5 5 5 5 5 5 5 5 5 5 5 5 5 5 6 6 6 5 5 5 5 5 5 5 5 5 6 5 5 6 5 5 5 5 5 5 5 5 5 6 5 5 5 5 5 5 5 5 5 5 5 5 5 6 6 5 5 5 5 5 5 5 5 5 5 5 5 5 5 5 5 5 5 5 5 6 5 5 5 5 5 5 5 5 5 5 5 5 5 5 5 5 5 5 5 5 5 5 5 5 6 5 6 6 5 5 5 5 5 5 5 5 5 5 5 5 5 6 6 5 6 5 5 6 6 5 6 6 5 5 6 5 5 5 5 5 5 6 6 5 5 6 5 5 5 5 5 5 5 5 5 5 6 5 5 5 5 5 5 5 5 5 5 5 5 5 5 5 5 5 5 5 5 5 5 5 6 5 5 6 5 6 5 5 5 6 5 5 5 6 6 5 5 6 5 6 6 5 5 6 5 5 5 5 5 6 5 5 5 5 5 5 5 6 5 5 5 6 5 5 5 6 5 5 5 6 5 6 5 5 5 6 5 5 5 5 5 5 5 5 5 5 5 5 5 5 5 5 5 5 6 5 5 6 5 5 5 6 5 5 5 5 5 5 5 5 5 5 6 5 5 5 5 5 5 5 5 5 5 5 5 5 5 5 5 5 5 5 5 5 5 5 5 5 5 6 5 5 5 5 5 6 5 6 5 5 5 5 5 5 5 5 5 5 5 6 5 5 5 5 5 5 5 5 5 5 5 5 5 5 5 5 5 5 5 5 5 6 5 5 5 5 5 5 5 5 5 5 5 5 6 5 6 5 5 5 5 6 5 5 5 6 5 5 5 5 6 5 5 6 5 5 5 5 5 6 6 5 5 5 5 5 6 5 5 5 5 5 6 5 5 6 5 5 5 6 6 5 5 5 5 5 5 5 5 5 5 5 5 5 6 5 5 5 6 5 5 5 5 5 5 5 5 5 5 5 5 5 5 5 5 6 5 6 5 5 5 5 5 5 5 5 5 5 5 5 5 5 5 6 5 5 5 5 5 5 5 5 5 5 5 6 5 5 5 5 6 5 5 5 6 5 6 5 5 5 5 5 5 5 5 5 5 6 5 5 6 5 5 5 5 5 5 5 5 5 5 5 5 5 5 5 5 5 5 5 5 5 5 5 6 5 5 5 5 5 5 5 6 6 6 6 5 5 6 6 5 5 5 5 5 5 5 5 5 5 5 5 5 5 5 5 5 5 5 5 5 5 5 5 5 5 5 5 5 5 5 5 5 5 5 5 5 5 5 5 5 5 6 5 5 5 5 5 5 5 5 5 5 6 5 5 5 5 5 5 5 5 6 5 5 5 5 5 5 6 5 5 5 5 5 5 5 6 6 5 5 5 5 5 5 5 5 5 5 5 5 5 6 5 5 5 5 5 5 5 5 5 5 5 5 5 5 5 5 5 5 5 5 5 5 5 5 5 5 5 5 5 5 5 5 5 5 5 5 5 5 5 5 5 5 5 5 6 5 5 5 5 6 5 5 5 5 5 5 5 5 5 5 5 5 5 5 5 5 5 5 5 5 5 5 5 5 5 5 5 5 5 5 5 5 5 5 5 5 5 5 5 5 5 5 5 5 5 5 5 5 5 5 5 5 5 5 5 5 5 5 5 5 5 5 5 6 5 5 5 5 5 5 5 6 5 5 5 5 5 5 5 6 5 5 5 6 5 5 6 5 5 5 5 5 5 5 5 5 5 5 5 5 5 6 5 5 5 5 5 6 5 5 5 5 6 5 5 5 5 6 5 6 5 5 6 5 5 5 5 5 5 5 5 5 5 5 5 5 5 5 5 5 5 5 5 6 5 5 6 5 5 5 5 5 5 5 5 5 5 5 5 5 5 5 5 5 5 5 5 5 5 5 5 5 5 5 5 5 5 5 5 5 5 5 5 5 5 5 5 5 5 5 5 5 5 5 5 5 5 5 5 5 5 5 5 5 5 5 5 5 5 5 5 5 5 5 5 5 5 5 5 5 5 5 5 5 5 5 5 5 5 5 5 5 5 5 5 5 5 5 5 5 5 5 6 5 5 5 5 5 5 5 5 5 5 5 6 5 5 5 6 5 5 5 5 5 5 5 5 5 5 5 5 5 5 5 5 6 5 5 5 5 5 5 5 6 5 5 5 6 5 5 5 5 5 5 5 6 5 5 6 5 5 5 6 5 5 5 5 5 5 5 5 5 5 5 5 5 5 5 5 5 5 5 5 5 5 5 5 5 5 5 5 5 5 5 5 5 5 6 5 5 5 5 5 5 5 5 5 6 5 5 5 6 5 6 5 5 5 5 5 5 5 5 5 5 6 5 6 5 6 6 5 5 5 5 5 5 5 5 5 5 5 5 5 5 6 5 6 5 5 6 6 5 6 5 5 5 5 6 5 5 5 5 6 5 6 5 5 5 5 5 6 5 5 6 5 6 5 5 5 5 6 5 5 5 5 6 5 5 5 5 5 5 6 5 5 5 6 5 5 5 5 5 5 5 5 6 5 5 5 5 5 5 5 5 6 5 5 5 5 5 5 5 5 5 5 5 5 5 5 5 5 5 5 5 5 5 5 5 5 5 5 5 5 5 5 5 5 5 5 5 5 5 5 5 5 5 5 5 5 5 6 5 5 5 5 5 5 5 5 5 5 5 5 5 5 6 5 5 5 5 5 5 5 6 5 5 5 5 5 6 5 5 5 5 5 5 5 5 5 5 5 5 5 5 5 5 5 5 5 5 5 5 5 5 5 5 5 6 5 5 5 5 5 5 5 5 5 5 5 5 5 5 5 5 5 5 5 5 5 5 5 5 5 5 5 6 5 5 5 5 6 5 5 6 5 5 6 5 5 5 6 6 5 5 5 5 5 5 5 6 5 5 5 5 5 5 5 5 6 5 5 5 6 6 5 5 5 5 6 5 5 6 6 6 5 5 6 5 5 5 5 5 5 5 5 5 5 5 5 5 5 6 5 5 5 5 6 5 5 5 5 5 5 6 5 5 6 5 5 5 5 5 5 5 6 6 5 6 5 5 5 5 5 5 5 5 5 6 6 5 5 5 5 6 5 5 5 5 5 5 5 6 5 5 5 6 5 5 5 6 5 5 5 6 5 5 5 5 5 5 5 5 5 5 5 5 5 5 5 6 6 5 5 5 5 5 6 5 6 5 5 5 5 5 5 5 5 5 5 5 5 6 5 5 5 5 5 5 6 6 5 5 6 5 5 5 5 5 5 6 5 5 5 6 5 5 5 5 5 5 5 5 5 5 5 5 5 5 5 6 5 5 5 5 6 5 5 6 5 5 5 5 5 6 5 5 5 5 5 5 5 5 5 5 6 5 5 5 6 5 6 6 5 5 5 5 5 5 6 5 6 5 5 5 5 5 5 6 5 5 5 5 5 5 5 5 5 5 5 5 5 5 6 5 5 5 5 5 5 5 5 5 5 5 6 5 5 6 5 5 5 5 5 5 5 6 5 5 5 6 5 5 5 5 5 5 5 6 5 5 5 5 5 5 5 5 5 5 5 5 5 6 5 6 5 5 5 5 5 5 5 5 5 5 6 5 5 5 6 5 5 5 5 6 6 5 5 6 5 5 5 6 5 5 6 5 5 5 5 6 5 5 5 5 5 5 5 5 5 5 5 5 5 5 5 5 5 5 5 5 5 5 5 6 5 5 6 5 5 5 5 5 5 5 5 5 5 5 5 6 5 6 5 5 5 5 5 6 5 5 5 6 5 5 6 6 6 5 5 5 5 6 5 5 5 6 5 5 5 5 6 5 5 5 5 5 5 5 5 5 5 6 5 5 6 5 5 5 5 5 5 6 5 5 5 5 5 5 5 5 6 5 6 5 5 5 5 5 5 5 5 5 5 5 5 6 6 5 5 6 5 5 6 5 5 5 5 5 6 5 5 5 5 5 5 5 5 5 6 6 5 5 5 5 5 5 5 5 5 5 5 5 5 5 5 5 5 5 5 5 5 5 5 5 5 5 5 5 5 5 5 6 5 5 5 5 5 5 6 5 6 5 5 6 5 5 6 5 5 5 5 5 5 5 5 5 5 5 5 6 6 5 6 6 5 5 5 5 5 5 5 5 5 5 5 5 5 5 5 5 5 5 5 5 5 5 5 5 5 5 5 5 5 5 5 5 5 5 5 5 5 5 5 5 5 5 5 5 5 5 5 5 5 5 5 5 5 5 5 6 5 5 5 5 6 5 6 5 5 6 5 5 5 6 5 5 5 6 5 5 5 5 5 5 5 5 5 5 5 5 5 6 5 5 5 5 6 5 5 5 5 5 5 5 5 5 5 5 5 5 5 5 6 5 5 6 5 5 5 5 5 6 6 5 5 5 5 5 5 6 5 5 5 6 5 5 5 5 5 5 5 6 5 5 5 5 5 5 5 6 5 6 5 5 5 6 6 5 5 5 6 5 6 5 6 6 5 5 5 5 6 5 5 5 6 6 6 5 5 5 6 5 5 5 5 5 5 5 6 5 5 6 5 5 6 6 5 5 5 5 5 5 5 5 5 5 6 5 6 5 5 5 5 5 5 5 5 5 5 6 6 6 5 6 5 5 5 5 5 5 6 5 5 5 5 5 5 5 5 5 5 5 5 5 5 5 5 5 5 5 5 5 5 6 5 5 5 5 6 5 5 6 5 5 5 5 5 5 5 5 6 5 5 5 5 6 5 5 5 5 6 5 5 5 5 5 5 5 6 5 5 6 5 5 5 5 5 5 5 5 5 5 5 5 5 5 5 5 5 5 5 5 5 5 5 5 5 5 5 5 5 5 5 5 5 5 5 5 5 5 5 5 5 5 6 5 6 5 5 5 5 5 5 5 5 5 5 5 5 5 5 5 5 5 5 5 6 5 5 5 5 5 5 5 5 5 5 5 5 5 5 5 5 6 5 5 5 5 5 6 5 5 6 5 5 5 5 5 5 5 5 6 5 5 5 5 6 5 5 6 5 5 5 5 5 5 5 5 5 5 5 5 5 5 6 5 5 6 5 5 5 5 6 5 5 5 5 5 5 5 6 5 5 6 5 5 5 5 5 5 5 5 6 6 5 5 5 6 5 6 6 5 5 5 5 5 5 5 5 5 5 5 5 5 5 5 5 5 5 5 5 5 5 5 5 5 5 5 6 5 5 5 5 6 6 5 5 5 6 5 5 5 6 5 5 5 5 5 6 5 5 6 5 5 5 5 5 5 5 5 5 5 5 5 5 5 5 5 5 5 5 5 5 5 5 5 5 5 5 5 6 5 5 5 5 5 5 6 5 5 5 5 5 5 5 5 5 6 5 5 6 5 5 5 6 5 5 5 5 5 5 5 5 5 5 5 5 5 5 5 6 5 6 5 5 5 5 5 5 5 5 5 5 5 5 5 5 5 5 5 6 5 5 5 5 5 5 5 5 5 5 5 5 6 5 5 5 6 5 6 5 5 5 5 5 5 5 5 5 6 5 5 6 6 5 5 5 5 5 5 5 6 5 6 5 5 6 6 5 5 5 6 5 5 5 5 5 5 5 5 6 5 5 5 5 5 5 5 5 5 5 5 5 5 5 5 5 6 5 5 5 5 5 5 5 5 5 6 5 6 5 5 6 5 5 5 5 5 5 6 5 5 5 5 5 6 6 5 5 6 5 6 5 5 6 5 5 6 5 5 5 5 5 6 5 5 6 6 5 5 5 5 5 5 5 5 5 5 5 5 5 6 5 6 5 5 5 5 5 6 5 5 5 5 6 5 5 5 5 6 5 5 5 6 5 5 5 5 5 6 5 5 5 6 6 6 5 6 5 5 5 5 5 5 5 5 6 5 5 5 5 5 6 5 5 5 6 5 6 5 5 5 6 5 5 5 5 5 5 5 5 5 5 5 5 5 5 6 5 5 5 5 5 6 5 5 5 6 5 5 5 5 5 6 5 5 5 5 5 5 6 5 5 5 6 6 5 6 6 5 5 6 5 5 5 5 5 6 5 5 6 5 5 5 5 5 5 6 5 5 5 5 5 5 6 5 5 5 5 5 5 6 6 5 6 6 5 6 5 5 6 5 5 5 5 5 5 5 5 6 5 5 5 5 5 5 5 5 5 5 5 6 5 5 5 5 5 5 5 5 5 5 5 5 5 5 5 6 5 5 6 5 5 5 5 5 5 5 6 6 5 5 5 6 5 6 5 5 5 5 6 5 5 5 6 5 5 5 6 5 5 5 5 5 5 6 5 5 6 5 5 5 5 5 5 5 5 5 5 5 5 5 5 5 5 5 5 5 5 5 5 5 5 5 5 5 5 5 5 6 5 5 5 5 6 5 5 5 5 5 5 5 5 5 5 5 5 5 5 5 5 6 5 5 5 5 6 5 6 5 6 5 5 5 5 6 6 5 5 5 5 6 5 5 5 6 5 6 5 5 6 5 5 5 5 6 5 5 5 5 5 5 5 5 5 5 5 5 5 5 5 5 5 6 5 5 5 5 5 5 5 5 6 5 5 5 5 6 5 6 5 5 5 5 5 6 5 5 5 6 5 5 5 5 5 5 5 5 5 5 5 5 5 5 6 5 5 5 5 6 5 5 5 5 5 6 5 5 5 5 5 5 5 5 5 5 5 5 5 5 5 5 5 5 5 5 5 5 5 5 5 5 5 5 5 5 6 5 5 5 5 5 5 5 5 5 6 5 5 5 5 5 5 5 5 6 5 5 5 5 5 5 6 5 5 5 6 5 6 5 5 5 5 5 5 6 5 5 5 6 5 5 5 5 5 5 5 5 5 5 5 5 5 5 5 5 5 5 5 5 6 5 5 5 5 6 5 5 6 5 6 5 5 5 6 5 5 5 5 5 5 5 5 5 5 5 5 5 5 5 5 5 5 5 6 5 5 5 5 5 5 5 5 5 5 6 5 5 5 5 5 5 5 5 5 6 5 5 5 5 5 5 5 5 5 5 5 5 5 5 5 5 5 5 5 5 5 5 5 5 5 5 6 5 5 5 5 5 5 5 5 5 5 5 5 5 5 5 5 5 5 6 5 5 5 5 5 5 5 5 6 5 5 5 5 5 5 5 5 5 5 5 6 5 5 5 5 5 5 5 5 5 5 5 5 5 5 5 5 5 5 5 5 5 5 5 6 5 5 5 5 5 5 5 5 5 5 6 5 6 5 6 5 5 5 5 6 5 5 5 6 5 5 5 5 5 5 5 6 5 5 5 5 6 5 5 5 5 5 6 5 5 5 5 5 5 6 5 5 5 5 5 5 5 5 5 5 5 5 5 5 5 6 5 5 6 6 5 5 5 5 5 5 5 5 5 5 5 5 6 5 5 5 5 5 5 5 5 5 5 5 5 5 5 5 5 5 5 5 6 5 5 5 6 5 5 5 5 5 6 5 5 5 5 6 6 5 5 5 5 5 5 5 5 5 5 6 5 5 5 5 5 5 5 5 5 5 5 5 5 5 5 5 5 5 5 5 6 5 5 6 5 5 5 5 5 5 5 5 6 5 5 5 5 5 5 5 5 6 5 5 5 5 6 6 5 5 5 5 5 5 5 5 5 5 5 5 5 5 5 6 5 5 6 5 5 5 5 5 5 6 5 5 5 5 5 5 6 6 5 6 5 6 6 5 5 6 5 5 5 6 5 5 5 6 5 5 6 5 5 6 5 5 6 5 5 6 6 6 5 5 5 5 5 5 5 6 5 5 5 6 5 5 6 5 5 5 5 5 5 5 5 5 5 5 5 6 5 5 5 6 5 5 5 5 5 5 5 5 5 5 5 5 5 5 5 5 5 5 5 5 5 5 6 5 6 5 5 5 6 5 5 5 5 5 5 5 5 5 5 6 5 6 5 5 5 5 5 5 5 5 5 5 5 5 5 5 5 5 5 5 5 5 6 6 5 5 5 5 5 5 5 5 6 5 5 5 5 5 5 5 5 5 6 5 5 5 6 5 5 5 5 5 5 5 5 5 5 5 5 5 5 6 5 5 5 5 5 6 5 6 6 5 5 5 5 5 5 5 6 5 5 5 5 5 5 5 5 5 5 5 5 5 5 5 5 5 5 5 5 6 5 6 5 5 5 5 6 5 6 5 5 5 5 5 5 5 6 5 5 5 5 5 5 5 6 5 5 5 6 5 5 5 5 5 6 5 6 5 5 5 5 5 5 5 5 6 5 6 5 6 5 5 5 5 5 5 5 5 5 5 5 5 5 5 5 5 5 5 6 5 5 6 5 5 5 5 6 5 5 5 5 5 5 5 5 5 5 5 5 5 6 5 5 6 6 6 5 5 5 5 5 5 5 5 5 5 5 5 6 5 6 5 5 5 6 5 5 5 5 5 5 6 5 5 5 6 5 5 6 5 5 5 6 5 6 5 5 5 5 6 5 5 5 5 5 5 5 5 5 5 5 6 5 5 5 5 6 5 5 5 5 5 5 6 5 5 6 5 6 5 5 5 5 5 5 5 5 5 6 5 5 6 5 5 5 5 5 6 5 5 5 5 5 5 5 5 6 5 5 5 5 5 5 5 5 5 6 5 5 6 5 6 5 5 5 5 6 5 5 6 5 5 5 6 5 5 5 5 5 5 5 5 5 5 6 5 5 6 5 5 5 5 5 5 5 5 5 5 5 6 5 5 6 5 5 5 5 5 5 5 5 5 5 5 5 5 5 5 5 5 5 5 5 5 5 5 5 5 5 5 5 5 5 5 5 6 5 5 5 5 5 5 5 5 5 5 5 5 5 5 5 5 5 5 5 5 5 5 5 5 5 6 5 5 5 5 5 5 5 5 5 5 5 5 5 5 5 6 6 5 5 5 5 5 5 6 5 5 6 5 5 5 5 5 5 5 6 5 5 5 6 5 5 5 6 5 5 5 6 5 6 6 5 5 6 6 6 5 5 6 5 5 5 6 5 5 5 5 5 5 6 6 5 5 5 5 5 6 6 5 5 5 5 5 5 6 5 6 5 5 5 5 5 5 5 6 5 5 5 5 5 5 5 6 5 5 5 5 5 5 5 5 5 5 5 6 5 6 6 5 5 6 5 5 5 5 5 5 5 6 6 6 5 6 5 5 5 5 5 6 5 5 5 5 5 5 5 5 5 5 5 5 5 5 5 5 5 5 5 5 5 5 5 6 5 5 5 5 5 5 5 5 5 5 5 5 5 5 5 5 5 5 5 5 5 5 5 5 5 5 5 5 5 5 5 5 5 5 5 5 5 5 5 5 5 5 5 5 5 6 5 5 5 6 5 5 5 5 5 5 5 5 5 5 6 5 5 5 5 5 5 5 5 5 5 5 5 5 5 6 5 5 5 5 5 6 5 5 5 5 5 5 6 5 5 5 5 5 5 5 5 5 5 5 5 6 5 5 5 5 6 5 5 5 5 5 5 5 5 5 6 5 5 5 5 5 5 5 5 6 5 5 5 6 6 5 5 5 5 5 5 5 6 5 5 5 6 5 5 5 5 5 5 5 5 5 5 5 5 6 5 5 5 5 5 5 6 5 5 5 5 6 5 5 5 5 5 5 5 5 5 5 5 5 5 5 5 5 5 5 5 5 5 5 5 5 5 5 5 5 5 5 5 5 5 5 5 5 5 5 5 5 5 5 5 5 5 5 5 5 5 5 5 5 5 5 5 5 5 6 5 5 5 6 5 6 5 6 5 5 5 5 5 5 5 5 5 5 5 5 5 5 5 5 5 5 5 6 5 5 6 5 5 6 5 5 5 6 5 5 5 5 6 6 5 5 5 5 5 6 5 5 5 5 6 5 6 5 5 6 5 6 5 6 5 5 5 5 6 5 5 5 6 6 5 5 5 5 5 5 5 6 5 5 6 5 5 5 5 5 5 5 6 5 5 6 5 5 6 5 5 6 5 5 6 5 5 5 5 5 5 5 5 5 5 5 5 5 5 5 5 5 5 5 5 5 5 5 5 5 5 5 5 5 6 5 5 5 5 5 5 5 5 6 5 5 5 5 5 5 5 5 5 5 5 5 5 5 5 5 5 5 5 5 5 5 5 5 5 5 5 6 5 6 5 5 5 5 5 6 5 5 5 6 5 5 5 5 5 5 5 5 5 5 6 5 5 5 5 5 5 5 6 5 5 5 5 5 5 5 5 5 5 5 5 5 5 6 5 5 5 5 5 5 5 6 5 5 5 5 5 6 5 5 5 5 5 6 5 6 5 5 5 6 5 5 5 5 5 5 5 5 5 5 5 5 5 5 5 5 6 5 5 5 5 5 5 5 5 5 5 5 5 5 5 5 5 5 5 6 5 5 5 5 5 5 5 5 5 5 5 5 5 5 5 5 5 5 5 5 5 5 5 5 5 5 5 5 6 5 5 5 6 5 5 5 5 5 5 5 5 5 5 6 6 5 5 5 5 5 5 5 6 5 5 6 5 5 5 6 5 5 5 5 6 5 5 5 5 5 5 6 5 5 6 6 5 5 5 5 5 5 5 5 6 5 5 5 6 5 5 5 5 5 5 5 5 5 5 5 5 5 5 5 5 5 5 5 6 5 5 5 6 5 5 5 5 5 5 5 5 5 5 6 5 5 5 5 5 5 5 5 5 5 5 5 5 5 5 5 5 5 5 5 5 5 5 5 5 5 5 5 5 5 5 5 5 5 5 5 5 5 5 5 6 5 5 5 5 5 5 5 5 5 5 6 5 6 5 5 5 5 5 5 5 5 5 5 5 5 5 6 6 5 5 5 5 5 5 5 5 5 5 5 5 5 5 5 5 5 6 5 5 5 5 5 5 5 5 5 5 5 5 5 5 5 5 5 5 5 5 5 5 5 5 5 5 5 5 5 5 5 5 5 5 5 6 5 6 5 5 5 5 6 5 5 5 6 5 5 5 5 5 6 5 5 5 5 5 5 6 5 5 6 5 6 5 5 5 5 5 5 5 5 5 5 5 5 6 5 5 6 5 5 5 5 5 5 5 6 5 5 6 5 5 5 5 5 6 5 6 5 5 5 5 5 6 5 5 5 6 5 5 5 5 5 5 6 6 5 6 5 5 5 5 5 5 5 5 5 5 5 5 5 5 5 5 5 5 5 6 5 5 5 5 5 5 5 5 5 5 5 5 5 5 5 5 5 5 5 5 5 5 5 5 5 5 5 5 5 5 5 5 5 5 5 5 5 5 5 5 5 5 5 5 5 6 5 5 5 5 5 5 5 5 5 5 5 5 5 5 5 5 5 5 6 5 5 5 6 5 5 5 5 5 5 5 5 5 5 5 5 5 5 6 5 6 5 5 5 5 5 5 5 5 5 5 5 5 5 5 5 5 5 5 5 5 5 5 5 5 5 5 5 5 5 5 5 5 5 5 5 5 5 5 5 5 5 5 5 5 5 5 5 5 5 5 5 5 5 5 5 5 5 5 5 5 5 5 5 5 5 5 5 5 5 5 5 5 5 5 5 5 5 5 5 5 5 5 5 5 5 5 5 5 5 5 5 5 5 5 6 5 5 5 5 5 5 5 5 5 5 5 5 5 5 6 5 5 5 5 5 5 5 5 5 5 6 5 5 6 5 5 5 6 5 6 5 5 5 5 5 5 5 5 5 5 5 6 5 6 5 6 6 5 5 6 5 5 5 5 5 5 6 6 5 5 5 5 5 5 5 5 5 5 5 5 5 5 5 5 5 5 5 5 6 5 5 6 5 5 5 5 5 5 6 5 5 5 6 5 5 5 5 6 6 6 5 5 5 5 6 5 5 5 5 5 5 6 5 5 5 5 6 5 5 6 5 5 5 5 5 5 5 5 5 5 6 5 5 5 5 6 5 5 5 5 5 6 5 5 6 5 5 5 5 5 5 5 6 5 5 5 5 5 6 5 5 5 5 5 5 5 5 5 5 5 5 5 5 5 5 5 5 5 5 5 5 5 5 5 6 5 5 5 5 5 5 5 5 5 5 5 5 5 5 6 5 5 5 5 5 5 5 5 5 6 5 5 5 5 5 5 5 5 5 6 5 5 6 5 5 5 6 5 5 5 5 5 5 5 5 5 5 5 5 5 5 5 5 6 5 6 5 6 5 5 5 5 5 6 5 5 5 5 5 5 6 5 5 6 5 5 6 5 5 5 5 6 6 5 5 6 5 5 6 6 5 5 5 5 6 5 5 5 5 5 6 5 6 5 5 5 6 5 5 5 6 5 6 5 5 6 5 5 5 5 5 5 5 5 5 5 6 5 5 5 5 5 5 5 6 5 5 5 6 6 5 5 6 6 5 5 5 5 5 6 5 6 6 5 5 6 6 5 5 5 6 5 6 5 6 6 5 5 5 5 5 5 5 5 5 6 5 5 5 5 5 6 5 6 5 5 5 5 5 6 5 5 5 5 6 5 6 5 5 5 6 5 6 6 5 5 5 5 6 5 5 6 5 5 6 5 6 5 5 5 5 6 5 6 5 6 5 5 5 5 5 6 5 5 5 6 5 6 5 5 5 5 5 6 5 5 6 5 5 5 6 5 5 5 6 6 5 5 5 5 6 6 5 5 5 5 5 5 6 5 5 5 5 5 5 5 5 5 5 5 5 5 6 5 5 6 5 5 6 6 6 5 5 5 5 5 5 5 5 5 5 5 5 5 5 5 5 5 5 5 5 5 5 5 6 5 5 5 6 5 5 5 6 5 5 5 5 5 6 5 5 5 5 5 5 5 6 6 5 5 5 6 5 5 6 5 5 5 5 5 5 5 5 5 5 5 5 5 5 5 5 5 6 5 5 5 5 5 5 5 6 5 5 6 5 5 5 6 5 5 5 6 6 5 5 5 5 5 5 5 5 5 5 5 5 5 5 5 5 5 5 5 5 5 5 5 5 5 5 5 5 5 5 5 6 5 5 5 5 5 5 5 5 6 6 5 5 6 6 5 5 5 5 6 5 5 5 5 5 5 5 5 5 5 5 5 5 5 6 5 5 5 5 5 5 5 5 6 5 5 5 5 5 6 5 5 5 5 6 5 5 5 5 5 5 5 5 5 5 5 5 6 6 5 5 5 5 5 5 5 6 5 5 5 5 5 5 5 5 5 5 5 5 5 5 5 5 5 5 5 5 5 6 5 5 5 5 6 5 5 5 5 5 5 6 6 5 6 6 5 5 5 5 5 5 5 5 5 5 5 5 6 5 5 5 5 5 6 5 5 5 5 5 5 5 5 5 5 5 5 5 5 5 5 5 5 5 6 5 5 5 5 5 5 5 6 5 5 5 5 5 5 5 5 6 5 5 5 5 5 5 5 5 5 5 5 6 5 5 5 5 5 5 5 6 5 6 5 5 5 5 5 5 5 5 5 5 5 5 5 5 5 5 5 5 5 5 5 6 5 5 6 5 5 5 5 5 5 5 5 5 5 5 5 5 5 5 5 5 5 5 5 6 5 5 5 5 6 5 5 5 5 5 5 6 5 5 5 5 5 5 5 5 5 5 5 5 5 5 5 5 5 6 6 5 6 5 5 5 5 5 5 5 5 5 5 5 5 5 5 6 5 5 5 5 5 5 5 5 5 5 5 6 5 6 5 6 5 5 5 5 6 5 5 5 6 6 5 5 5 5 5 6 5 5 5 5 5 5 6 6 5 5 6 5 5 5 5 5 5 5 6 5 5 6 5 5 5 5 5 6 5 5 5 5 5 6 5 5 5 5 6 5 5 5 6 5 6 5 6 5 5 5 5 5 5 6 5 5 5 5 5 5 5 5 6 5 6 5 5 6 6 5 5 5 5 5 5 5 6 5 5 5 5 5 5 5 5 6 5 5 5 5 5 5 5 5 5 6 5 5 5 6 5 5 5 6 5 6 6 5 5 6 5 5 5 6 5 5 5 5 5 6 5 5 6 6 5 5 5 5 6 5 5 5 5 5 5 5 5 5 5 5 6 5 5 5 5 5 5 5 5 5 5 5 5 5 5 6 6 5 5 5 5 6 5 5 5 6 5 5 5 5 5 5 5 5 5 5 5 5 5 5 6 5 5 5 5 5 6 5 5 5 5 5 5 5 6 5 5 6 5 5 5 5 6 5 6 5 5 5 6 6 5 5 5 6 5 6 6 6 5 6 5 5 5 5 5 5 5 5 5 5 5 5 5 5 5 5 5 5 5 5 5 5 5 6 5 5 6 5 5 6 6 5 5 5 5 5 5 5 5 5 5 5 5 6 5 5 5 6 5 5 5 5 6 5 5 5 5 5 5 5 5 5 5 5 5 6 5 5 6 5 6 5 5 6 5 5 5 6 6 5 5 5 5 5 6 6 5 5 6 5 5 5 6 5 5 5 5 5 5 5 5 5 5 5 5 5 5 5 5 5 5 5 6 5 5 6 5 5 5 6 5 5 6 5 5 5 5 5 5 5 5 5 5 6 5 5 5 6 5 6 5 5 5 6 5 6 5 5 6 6 5 5 5 5 5 5 5 5 5 5 5 5 5 5 5 5 5 5 5 5 5 5 6 5 5 5 5 5 5 5 5 5 5 5 5 5 5 5 6 5 5 5 5 5 5 5 5 5 5 5 6 5 5 5 5 5 5 5 5 5 5 5 5 5 5 5 5 5 5 5 5 5 5 5 5 5 5 5 6 5 5 5 5 6 5 5 5 5 5 5 5 5 5 5 6 5 5 6 5 5 5 5 5 5 5 5 5 5 5 5 5 5 5 5 5 5 5 5 5 5 5 5 5 5 5 5 5 5 5 5 5 5 5 5 5 5 5 5 5 5 5 5 5 5 5 5 5 5 5 5 5 5 5 5 6 5 5 5 5 5 5 5 5 5 5 5 5 5 5 5 5 5 5 5 5 5 5 5 5 6 5 5 5 5 6 5 5 5 5 5 5 5 5 5 5 5 5 5 5 6 5 5 5 5 6 5 5 5 5 6 5 5 5 5 5 5 6 5 5 6 5 5 6 5 5 6 6 5 5 5 5 5 5 5 5 5 6 5 5 5 5 5 5 5 5 5 5 5 5 5 5 6 6 5 5 5 5 6 5 5 5 5 5 5 5 5 6 5 5 5 5 5 5 6 5 6 5 5 5 5 5 5 5 5 5 5 5 5 5 5 5 5 5 5 5 5 5 5 5 5 5 6 5 5 6 5 5 5 5 5 5 6 5 5 5 5 5 5 5 5 5 5 5 5 5 5 5 5 5 5 5 5 5 5 5 5 5 5 5 5 5 5 5 5 5 5 5 5 5 5 6 5 5 5 5 5 5 6 5 5 5 5 5 5 5 5 5 6 5 5 5 5 5 5 5 6 5 5 5 5 6 5 5 5 5 5 5 5 6 5 5 5 5 5 5 6 5 5 5 6 5 5 6 5 5 5 6 5 6 5 5 5 5 5 6 5 5 6 5 5 5 6 5 5 5 5 5 5 5 6 5 6 5 5 5 5 6 6 5 5 5 5 5 5 5 5 5 6 5 5 5 5 5 5 5 6 5 5 5 5 6 5 5 5 5 5 5 5 5 5 5 5 5 5 5 5 5 6 5 5 5 5 6 6 5 5 5 5 5 5 5 5 5 5 5 5 5 5 5 5 5 5 5 5 5 5 5 5 5 5 5 5 5 5 5 5 5 5 5 5 5 5 5 5 5 5 5 5 5 5 5 5 5 5 6 5 5 5 5 6 5 5 5 5 5 5 5 5 5 5 6 5 5 6 5 5 6 5 6 5 6 5 5 5 5 5 5 5 5 5 5 5 5 5 5 5 5 5 5 5 5 5 6 5 5 5 5 6 5 5 5 5 5 6 6 5 5 5 5 5 5 5 5 5 6 5 5 5 5 5 5 5 6 6 5 5 5 5 5 5 5 5 5 5 6 6 5 5 5 5 5 6 5 5 5 5 5 5 5 5 5 6 5 5 5 5 5 5 5 5 6 6 5 5 5 5 6 5 6 5 5 5 6 5 5 5 5 5 5 5 6 5 5 5 5 5 6 5 5 6 5 5 5 6 5 6 6 5 6 5 5 5 5 5 5 6 6 5 5 6 5 5 5 5 5 5 5 6 5 5 5 6 5 6 5 5 6 5 5 6 5 5 5 5 5 5 5 5 5 5 5 5 5 5 5 5 5 5 5 5 5 6 5 5 5 5 5 5 5 6 5 5 5 5 5 6 5 5 5 5 6 5 5 5 5 5 5 5 6 5 5 5 5 5 5 5 6 5 5 5 5 5 5 5 5 5 5 5 5 5 5 5 5 5 5 5 6 5 5 6 5 5 5 5 5 5 6 5 6 5 5 5 6 5 5 5 5 6 5 6 5 5 5 5 5 6 5 5 5 5 5 5 5 5 6 5 5 6 5 5 5 5 5 5 5 5 6 5 6 5 5 6 5 6 5 5 6 5 5 5 5 5 5 5 5 5 5 6 5 5 5 5 5 5 5 5 6 5 5 6 5 5 5 5 5 5 5 6 5 5 5 5 5 5 5 5 5 5 5 5 5 5 5 5 5 5 5 5 5 5 5 5 5 5 5 5 5 5 5 5 5 5 5 5 5 5 5 5 5 5 6 5 5 5 5 6 5 5 6 5 5 5 5 5 5 5 5 5 6 5 5 5 5 6 5 6 5 5 5 5 5 5 5 5 5 5 6 5 5 5 6 5 6 5 5 6 5 6 5 5 5 5 5 5 5 5 5 5 5 5 5 5 5 5 5 6 5 5 5 5 5 5 5 5 5 5 6 5 5 6 5 5 5 5 5 5 5 5 5 6 6 5 5 5 5 5 6 5 6 5 5 6 6 5 5 5 5 5 5 5 5 5 5 5 5 5 5 5 5 5 6 5 5 6 5 5 6 5 5 5 6 5 6 5 5 5 5 5 5 5 5 5 5 5 5 5 5 5 5 5 5 5 5 5 5 5 5 5 5 6 5 5 5 5 5 5 5 5 5 5 5 6 5 5 5 5 5 5 5 5 6 5 5 5 5 5 5 6 5 5 6 5 6 5 5 5 5 5 5 5 5 5 5 5 5 5 5 5 5 6 5 5 5 6 5 5 5 5 5 5 5 5 6 5 5 5 5 5 5 5 5 6 6 5 5 5 5 5 5 5 6 5 5 5 5 5 5 6 5 5 5 5 5 5 5 5 6 5 5 5 5 5 5 5 5 5 5 5 5 5 5 5 5 6 5 5 5 5 5 5 6 5 5 5 5 5 5 5 6 5 5 5 5 5 5 5 5 5 5 5 5 5 5 5 6 5 5 5 5 5 5 5 6 5 5 6 5 5 5 5 5 6 5 5 5 5 5 5 5 5 6 5 5 5 5 5 5 5 5 5 5 5 5 5 5 5 5 5 5 5 5 5 6 5 5 5 5 5 5 5 5 6 5 5 5 5 5 5 6 5 5 5 5 6 5 5 5 5 5 5 5 6 6 5 6 5 5 5 5 5 5 5 5 5 5 5 5 6 5 5 5 5 5 5 6 5 5 5 5 5 5 5 5 6 5 5 6 5 5 5 5 6 5 5 5 5 5 6 6 5 5 5 5 6 5 5 5 5 5 5 5 5 5 5 5 5 5 5 5 5 5 5 5 5 5 5 5 5 5 5 5 5 5 6 5 5 5 5 5 5 5 5 6 5 5 5 5 5 6 5 5 5 6 5 5 5 5 5 6 5 6 5 6 6 5 5 5 5 6 5 6 5 5 5 5 5 5 5 5 5 5 5 6 5 5 5 6 5 5 5 5 5 5 5 5 5 5 5 5 5 5 5 5 5 5 5 5 5 5 5 5 5 5 5 5 5 5 5 5 5 5 5 5 5 5 5 5 5 5 5 5 5 5 5 5 6 5 5 5 5 5 5 5 5 5 5 5 5 5 5 5 6 5 5 5 5 6 5 5 6 5 6 5 5 5 5 5 6 5 5 5 5 5 5 5 5 5 5 5 5 5 5 5 5 6 5 6 5 5 5 5 5 5 5 5 5 5 5 5 5 5 5 5 6 5 6 5 5 5 5 5 5 6 5 6 5 5 5 5 6 5 5 5 5 5 5 5 5 5 5 5 5 5 5 5 5 5 5 5 5 5 5 5 5 5 6 5 5 5 5 5 5 5 5 5 5 5 5 6 6 5 6 5 5 6 6 5 5 6 5 5 5 5 5 5 6 5 5 6 5 5 5 6 5 5 5 5 5 5 6 6 5 5 5 5 5 5 5 5 5 5 6 5 5 5 5 5 5 6 5 5 5 5 6 5 5 6 5 5 5 5 5 5 6 5 5 5 6 6 6 5 5 5 5 5 6 5 6 5 5 5 5 5 5 5 5 5 5 5 5 6 5 5 5 5 5 5 5 5 6 5 6 5 6 5 5 6 5 5 6 5 5 5 5 5 5 6 5 5 6 5 5 5 5 5 5 5 5 5 5 5 5 5 5 5 5 5 5 5 5 5 5 5 5 5 5 5 5 5 5 5 5 5 5 6 5 5 5 5 5 5 5 6 5 5 5 5 5 5 6 5 5 5 6 5 5 5 5 5 5 5 5 5 5 6 5 5 5 5 5 6 5 5 5 5 5 5 6 5 5 6 5 5 5 5 5 5 5 5 5 5 5 5 5 6 5 5 6 5 5 5 5 5 5 5 5 5 5 5 5 5 5 6 5 5 5 5 5 5 6 6 5 5 5 5 5 6 5 5 5 5 5 5 5 5 5 5 5 5 5 6 5 5 5 5 6 5 5 5 5 5 6 5 5 5 5 5 5 5 5 5 5 5 5 5 5 5 5 5 6 5 6 5 5 6 5 5 5 5 5 6 5 5 6 5 5 6 5 5 5 6 5 5 6 5 5 5 5 6 5 5 5 5 5 5 5 5 5 5 5 6 5 5 5 5 5 5 6 5 5 5 5 5 5 5 5 5 5 5 5 5 5 5 5 5 5 5 5 6 5 6 5 5 5 5 5 6 5 5 5 5 5 5 5 5 5 6 5 5 5 5 6 5 5 5 5 5 5 5 5 5 5 5 6 5 5 5 6 5 5 5 5 6 5 5 5 5 6 5 6 5 5 5 5 6 5 5 5 5 5 5 5 5 6 5 5 5 6 6 5 5 5 5 5 5 5 5 5 5 6 5 5 5 6 5 6 5 5 5 5 5 5 5 5 5 5 5 5 5 5 5 5 5 5 5 5 5 5 5 5 5 5 5 6 5 5 5 5 5 5 5 5 5 5 5 5 5 5 5 5 5 6 5 5 5 5 5 6 5 5 5 6 5 5 5 5 5 5 5 5 5 5 5 5 6 5 6 5 5 5 5 5 5 5 5 5 5 5 5 5 5 5 5 5 5 5 5 5 5 5 6 5 6 5 5 6 5 5 6 5 5 5 5 5 5 6 5 5 5 6 5 5 5 5 5 5 5 5 5 5 5 5 5 5 5 5 5 5 5 6 5 5 5 5 5 5 6 5 5 5 5 5 5 5 5 5 6 5 5 5 5 6 5 5 6 5 5 5 5 5 5 5 5 5 5 6 5 5 5 6 5 5 6 5 5 6 5 5 5 5 5 5 5 5 5 5 5 5 5 5 5 5 5 5 5 5 5 5 5 5 5 5 5 5 5 5 5 5 5 5 5 5 5 5 5 5 5 5 5 5 5 5 5 5 5 5 5 6 5 5 5 5 5 5 5 5 5 5 5 5 5 5 5 5 5 5 5 6 5 5 5 5 5 5 5 5 5 5 5 5 5 5 5 5 5 5 5 6 5 5 5 5 5 5 5 6 6 5 5 5 5 5 5 5 5 5 5 5 5 5 5 5 6 5 5 5 5 5 5 5 5 5 5 5 5 5 5 5 5 6 5 5 5 5 5 5 6 5 5 6 5 5 5 5 5 5 5 5 5 5 5 5 5 5 5 5 5 5 6 5 6 5 5 5 5 5 5 5 5 5 5 5 5 5 5 5 5 5 5 5 6 5 5 5 6 5 5 5 5 5 5 6 5 6 5 6 5 5 5 6 5 5 5 6 5 5 6 5 6 5 5 5 5 6 6 5 5 5 5 5 5 6 5 5 5 5 5 5 5 5 5 5 5 5 6 6 5 5 6 5 5 5 5 5 5 5 5 5 5 5 5 5 5 5 5 5 5 5 5 5 5 5 5 5 5 6 5 5 5 5 5 5 6 5 5 5 5 5 5 5 5 5 5 5 5 5 5 5 5 6 5 6 5 5 5 6 5 5 5 6 5 5 5 5 6 5 5 5 5 5 6 5 5 5 5 6 6 5 5 5 5 5 5 5 6 5 5 5 5 5 6 5 5 5 6 5 5 5 5 5 6 5 6 5 5 5 5 5 6 6 5 5 5 6 5 6 5 5 5 5 5 5 5 5 6 5 5 5 5 5 6 5 5 6 5 5 5 5 6 5 5 6 6 5 5 5 5 5 5 5 5 5 6 6 5 5 5 5 5 5 5 6 5 5 5 6 5 5 5 5 6 5 5 5 5 5 5 5 5 5 5 6 6 5 5 6 5 6 5 5 5 5 5 6 5 5 5 5 5 5 5 5 5 5 5 5 6 5 5 5 5 5 5 5 5 5 5 5 5 5 6 5 5 5 5 5 6 6 5 5 5 5 5 5 5 5 5 5 5 5 5 5 5 6 5 5 6 5 5 5 5 5 6 5 5 5 5 5 5 5 5 5 5 5 5 5 5 5 5 5 5 5 5 5 5 5 5 5 5 5 5 5 5 5 5 5 5 5 5 5 5 5 5 5 5 5 5 5 5 5 5 5 5 5 5 5 5 5 5 5 5 5 5 5 5 5 5 5 5 5 5 5 6 5 5 5 5 5 5 5 5 5 5 5 5 5 5 5 5 5 5 6 5 5 5 5 5 5 5 5 5 5 5 5 5 5 5 5 5 5 5 5 5 5 5 5 5 5 5 5 5 6 5 5 5 5 5 5 5 5 6 5 5 5 5 5 5 5 5 5 5 5 5 5 5 5 5 5 6 5 5 5 5 5 5 5 5 5 5 5 5 5 5 5 5 5 5 5 5 5 5 5 5 5 5 5 5 5 5 5 5 5 5 5 5 5 5 5 5 5 5 5 5 5 5 5 5 6 5 6 5 6 5 6 5 5 5 5 5 5 5 5 5 5 5 5 5 5 5 6 5 5 5 6 5 5 5 5 5 5 5 5 5 5 5 5 6 5 5 6 6 5 5 5 5 6 5 5 5 5 6 5 6 5 5 6 5 5 5 6 5 5 5 6 5 5 6 5 5 5 5 5 5 5 5 5 5 5 5 5 5 5 5 5 5 5 5 5 5 5 5 5 6 5 5 5 5 5 5 5 6 5 6 5 5 5 5 6 5 5 5 6 6 5 5 6 5 6 5 6 6 5 5 5 5 6 5 5 6 5 5 5 5 5 5 5 5 5 5 5 5 5 5 5 5 5 5 5 5 5 5 6 5 5 5 5 5 5 5 5 6 5 6 5 5 5 5 5 5 6 5 5 5 5 5 6 5 5 5 5 5 5 5 5 6 5 6 5 6 5 5 6 5 5 6 5 5 5 5 6 5 5 5 6 5 5 6 5 5 5 5 5 5 5 5 5 5 5 6 5 6 6 5 6 5 5 6 5 5 6 5 6 5 6 5 6 5 5 5 5 5 6 5 5 5 5 5 6 5 5 5 5 5 5 5 5 5 5 6 5 6 6 5 6 6 5 6 5 5 5 6 5 6 5 6 5 5 5 6 5 5 5 5 6 5 5 6 5 5 5 6 5 5 6 6 5 5 5 5 5 6 5 6 5 6 5 6 5 5 5 5 6 5 5 6 6 5 6 5 6 6 5 6 6 6 6 5 5 5 5 5 5 5 5 5 5 6 5 5 5 5 6 5 5 6 5 5 6 5 5 5 5 6 6 5 5 5 5 5 5 5 5 5 5 5 5 5 5 5 5 5 5 5 5 5 5 6 5 5 5 5 5 5 5 5 5 5 5 5 5 5 5 5 5 5 5 5 5 5 6 5 5 5 5 6 6 5 6 5 6 6 5 5 5 5 6 5 5 5 6 5 5 5 6 6 5 5 5 5 5 6 5 5 5 5 5 5 5 6 6 5 6 5 5 6 6 6 5 5 5 5 5 6 6 6 5 6 6 5 5 5 5 6 5 5 5 5 5 6 5 6 5 5 6 5 5 5 5 5 5 5 6 6 5 5 5 5 6 6 5 5 5 6 6 6 6 5 6 5 6 5 6 5 6 5 5 6 5 6 6 6 5 5 5 5 5 5 5 5 5 5 5 5 5 5 5 5 5 5 5 5 5 5 5 5 5 5 6 5 5 5 5 5 5 5 5 5 5 5 5 5 5 5 5 5 5 5 5 5 5 6 6 5 5 5 5 5 5 5 5 5 5 5 5 5 5 5 5 5 5 5 5 5 5 5 5 5 5 6 5 5 5 5 5 6 6 6 5 5 5 5 5 5 6 5 5 5 6 5 5 5 5 6 5 5 6 6 5 5 5 6 5 5 6 5 5 5 5 5 6 5 5 6 5 5 6 6 5 6 6 5 5 5 6 5 5 5 5 5 5 5 5 5 5 5 5 5 5 5 5 5 5 5 5 5 5 5 5 5 5 6 6 5 5 5 5 5 5 6 5 5 5 5 5 5 5 5 6 6 5 5 5 5 5 6 5 5 5 5 5 5 5 6 5 5 5 5 6 6 5 5 5 5 5 5 5 5 5 5 6 5 5 5 5 6 5 6 6 5 5 5 6 5 5 5 6 5 5 5 5 5 5 5 6 5 5 5 6 5 5 6 5 6 5 5 6 5 5 5 6 5 5 5 6 5 5 6 6 5 5 6 5 6 6 5 5 5 6 5 5 5 5 5 5 5 6 5 6 5 6 6 5 5 5 6 6 5 6 5 6 6 5 5 5 5 5 5 5 5 5 5 5 5 5 5 6 5 5 5 5 5 5 5 5 5 5 5 5 5 5 5 5 5 6 5 5 5 5 5 5 6 5 5 5 6 5 5 5 5 5 5 5 6 5 5 5 5 5 5 5 5 5 5 5 5 5 5 5 5 5 5 5 5 5 5 5 5 5 5 5 5 5 5 5 5 6 5 5 5 5 5 6 5 5 5 5 6 5 5 6 5 6 5 5 5 5 5 5 5 5 5 5 6 5 5 6 5 5 6 5 5 6 5 6 5 5 5 5 5 5 5 5 5 5 5 5 5 5 5 5 5 5 5 5 5 5 5 5 5 5 5 5 5 5 6 5 5 6 5 5 5 5 6 6 5 5 5 5 6 6 5 5 5 6 6 5 5 6 5 5 6 5 5 5 5 6 5 5 5 5 6 5 5 5 5 5 5 5 5 5 5 5 5 6 5 6 5 5 
</DataArray>
<DataArray type="Float64" Name="stress" NumberOfComponents="9" format="ascii">
4484.7063137156074 -1110.7703912902471 0 -1110.7703912902471 2.6128171779845779 0 0 0 0 662.87620515107119 0.69624790283407334 0 0.69624790283407334 1.2478366742911404 0 0 0 0 2383.9810235239165 -1415.4888914102726 0 -1415.4888914102726 54.976389695138835 0 0 0 0 1690.5976457159632 836.83241444013049 0 836.83241444013049 -62.193249849784138 0 0 0 0 12.497320717318985 1.5235563534949961 0 1.5235563534949961 0.026535687196672226 0 0 0 0 4489.2258165300591 0.01200432889223832 0 0.01200432889223832 -116.66964849832561 0 0 0 0 3332.8623836112383 -817.78061843646299 0 -817.78061843646299 18.455809466164368 0 0 0 0 3807.6863339285919 -156.86205338954198 0 -156.86205338954198 -113.38488950068975 0 0 0 0 3431.0706769960816 -1075.2552377133336 0 -1075.2552377133336 -111.36905705505259 0 0 0 0 3457.717069719678 -980.32385881533958 0 -980.32385881533958 165.37155147343381 0 0 0 0 3227.1028369406267 -961.67885794921506 0 -961.67885794921506 164.6551006051194 0 0 0 0 6.7994538778362426 0.21713549309839664 0 0.21713549309839664 -2.4723638827160661 0 0 0 0 3227.5147632652556 -1237.1658477834658 0 -1237.1658477834658 309.99040635651841 0 0 0 0 3696.9592911791333 -1378.5205990113329 0 -1378.5205990113329 213.83781534318013 0 0 0 0 2528.5427638666297 -774.80421587942215 0 -774.80421587942215 7.4224017955239106 0 0 0 0 4104.2928129063512 -1813.8549608312824 0 -1813.8549608312824 3.9987982478075987 0 0 0 0 13.416619765491077 0.7424616188690436 0 0.7424616188690436 -0.067399633609339579 0 0 0 0 3995.8780581079627 -643.90717490608586 0 -643.90717490608586 -266.50547137514332 0 0 0 0 2695.5336600676819 -140.71897260315697 0 -140.71897260315697 4.1590533755240404 0 0 0 0 1167.2622468699265 -60.236930804830479 0 -60.236930804830479 -0.61854541735620805 0 0 0 0 2106.5328127745015 -887.58290149645336 0 -887.58290149645336 151.59816743216317 0 0 0 0 2792.9202781345084 -1187.0149338312551 0 -1187.0149338312551 390.9987684956036 0 0 0 0 6.2127043323733915 0.00031996150883628616 0 0.00031996150883628616 -1.1673702088991593 0 0 0 0 1573.4036118343502 -606.53328326544784 0 -606.53328326544784 383.13848981148226 0 0 0 0 2398.9363500945765 -545.75148991518722 0 -545.75148991518722 60.685326053956004 0 0 0 0 9.7896050813323257 1.3515544414291298 0 1.3515544414291298 -3.7922473826884557 0 0 0 0 1567.7766942970557 -502.64387965716168 0 -502.64387965716168 231.80158251287278 0 0 0 0 1884.4614141746133 -330.66403672211084 0 -330.66403672211084 1.9775876047508605 0 0 0 0 1175.3511515734936 -161.58639871128656 0 -161.58639871128656 258.19991783544356 0 0 0 0 1075.7147645203804 -324.48483795296579 0 -324.48483795296579 224.39909591343499 0 0 0 0 1694.5452373957742 -528.40373389829847 0 -528.40373389829847 258.07867322326359 0 0 0 0 1553.05177804509 -626.36472899681087 0 -626.36472899681087 249.51740847802381 0 0 0 0 923.70112318258543 0.21452738063641874 0 0.21452738063641874 180.32495629141818 0 0 0 0 1042.4022195129655 -299.63040680141398 0 -299.63040680141398 338.64700159464383 0 0 0 0 2009.2895408481709 -893.00031136844666 0 -893.00031136844666 279.37676144275503 0 0 0 0 1491.685321743018 -789.94661556807023 0 -789.94661556807023 274.87224177377146 0 0 0 0 1632.5895673688719 -522.39695586251491 0 -522.39695586251491 -284.67211215005574 0 0 0 0 1709.5322115474264 -863.31221445608355 0 -863.31221445608355 211.28422164884788 0 0 0 0 1752.6517081266138 -1457.3722502167566 0 -1457.3722502167566 330.68667963717519 0 0 0 0 1151.252975215426 -685.86294656825544 0 -685.86294656825544 260.74386555291318 0 0 0 0 1074.1172468752484 -835.8595457422382 0 -835.8595457422382 303.90566910091616 0 0 0 0 2847.3367188216216 -1251.6505055912385 0 -1251.6505055912385 193.01125900781639 0 0 0 0 766.39023081221967 -36.335768110498407 0 -36.335768110498407 257.64654075854332 0 0 0 0 628.70565323093615 -113.61773776553252 0 -113.61773776553252 255.02241162158265 0 0 0 0 777.82715011000982 -546.68090652934393 0 -546.68090652934393 297.42660296181202 0 0 0 0 209.31545910982823 -708.62641797846231 0 -708.62641797846231 326.72792477942181 0 0 0 0 407.91408476020661 72.095920575183754 0 72.095920575183754 -88.941077633155601 0 0 0 0 389.337775047592 -44.202336328376873 0 -44.202336328376873 261.87174583919432 0 0 0 0 141.42714793846244 -212.83184514159609 0 -212.83184514159609 47.085772796814126 0 0 0 0 267.93791322212928 -229.46369475821587 0 -229.46369475821587 -362.05663444326365 0 0 0 0 9.1211967371358753 5.9820903446949671 0 5.9820903446949671 -14.836164051368296 0 0 0 0 -305.78721314453287 -360.67184654662719 0 -360.67184654662719 -207.95324001283541 0 0 0 0 2246.8822598438128 -2189.5732254425561 0 -2189.5732254425561 1598.0301188520702 0 0 0 0 736.92452559705998 -1025.4886310494617 0 -1025.4886310494617 1173.7143931660273 0 0 0 0 -824.96278356583207 -379.93643347812099 0 -379.93643347812099 237.0088599852329 0 0 0 0 -2.8404943386663888 1.0455662688089831 0 1.0455662688089831 -0.93379256550389123 0 0 0 0 1118.1072052390737 -560.8887057703073 0 -560.8887057703073 129.37273091228781 0 0 0 0 -35.756836980508524 110.72947755997302 0 110.72947755997302 -106.24628900430616 0 0 0 0 13.459654259029776 256.67425655461557 0 256.67425655461557 308.8761457859664 0 0 0 0 622.28800825725193 -55.217969688519588 0 -55.217969688519588 -552.5354814231323 0 0 0 0 -354.58633535762783 -378.05584033611922 0 -378.05584033611922 1086.2521897308025 0 0 0 0 12.574613558776548 -3.4801498567459532 0 -3.4801498567459532 12.650921975813301 0 0 0 0 4655.198698527478 -2091.1957808556604 0 -2091.1957808556604 964.20915336967391 0 0 0 0 4630.9647356021887 -988.08838677825281 0 -988.08838677825281 470.86169301867301 0 0 0 0 3626.4122400640481 -819.48868402436756 0 -819.48868402436756 1114.8132742158573 0 0 0 0 5384.1802950590027 -1250.2685934812268 0 -1250.2685934812268 1113.3230405522727 0 0 0 0 4160.7366163853731 -727.27728826951625 0 -727.27728826951625 1362.3109975768418 0 0 0 0 4116.5018916875706 -952.91077444871212 0 -952.91077444871212 754.31047432334492 0 0 0 0 4135.1489524352073 -689.21222393206028 0 -689.21222393206028 864.49707824268557 0 0 0 0 4498.9126591255845 -672.44392954944146 0 -672.44392954944146 373.25471942666468 0 0 0 0 4449.8220877142303 -790.6404693703762 0 -790.6404693703762 476.52933332182658 0 0 0 0 3767.3829445128795 -675.77275525539267 0 -675.77275525539267 457.32718616315975 0 0 0 0 4179.0985926991616 -744.57238986411539 0 -744.57238986411539 179.82236948716462 0 0 0 0 4155.8076578049368 -412.01974052645858 0 -412.01974052645858 215.9146411321189 0 0 0 0 4502.6300016577034 -452.67608304462397 0 -452.67608304462397 -108.07443411246287 0 0 0 0 3726.228755788834 -561.48851801316778 0 -561.48851801316778 163.83183658750201 0 0 0 0 3565.9120992987737 -1109.6234679081808 0 -1109.6234679081808 29.69570554814328 0 0 0 0 3036.6076830834209 -1025.4671465383458 0 -1025.4671465383458 -144.62975998161821 0 0 0 0 3027.5207843908138 -864.97273338336879 0 -864.97273338336879 34.498124994098589 0 0 0 0 2831.2495495984185 -1295.2702442384752 0 -1295.2702442384752 486.68819908002342 0 0 0 0 4025.8902432390751 -765.90398290480073 0 -765.90398290480073 91.972761118065307 0 0 0 0 50.91427765712433 0.085145092616357942 0 0.085145092616357942 -16.192223088396531 0 0 0 0 10.052857923523785 1.220299463572303 0 1.220299463572303 -0.77076366586365008 0 0 0 0 -13.027512034561369 52.646845631392011 0 52.646845631392011 -2.9394041123341594 0 0 0 0 61.015067103158799 6.6889334616251972 0 6.6889334616251972 -28.943187686497595 0 0 0 0 30.029714932363788 10.378725586796762 0 10.378725586796762 2.2005128353424546 0 0 0 0 32.56700912465385 25.457194464219612 0 25.457194464219612 -12.986566321830423 0 0 0 0 3.4709847902704496 35.008713277846027 0 35.008713277846027 -10.104633192755614 0 0 0 0 33.451980284007732 67.639564662455541 0 67.639564662455541 -41.975905921601225 0 0 0 0 65.11739427500288 26.607280608480551 0 26.607280608480551 -25.400910491296372 0 0 0 0 51.482592100714101 9.4916809404803644 0 9.4916809404803644 -1.3529007409115366 0 0 0 0 143.17765343109204 3.7007573953746942 0 3.7007573953746942 -25.134632669776693 0 0 0 0 15.950019384850748 -1.9405677074942105 0 -1.9405677074942105 -17.169670254017888 0 0 0 0 84.202949350205017 69.720411146341576 0 69.720411146341576 56.244249170734747 0 0 0 0 -24.851777404983295 19.027614586795153 0 19.027614586795153 46.85924090907065 0 0 0 0 53.319551744236378 15.177974593934323 0 15.177974593934323 -37.698132920663284 0 0 0 0 51.872545999707654 45.47535660882204 0 45.47535660882204 -21.855767710164173 0 0 0 0 47.977585934437229 45.361538771292317 0 45.361538771292317 43.680857599084447 0 0 0 0 30.314142729475861 7.0962938471302319 0 7.0962938471302319 -0.76395959345241526 0 0 0 0 1.6720799111429869 -7.6888949073779056 0 -7.6888949073779056 -2.8716864214481359 0 0 0 0 42.284172205836512 -10.879522251234448 0 -10.879522251234448 -20.163076505386925 0 0 0 0 29.076606412185356 43.288977217022875 0 43.288977217022875 45.555513796685773 0 0 0 0 148.4948691202153 27.789879243442613 0 27.789879243442613 -45.447699778050151 0 0 0 0 31.386626423775965 -1.4006451462109624 0 -1.4006451462109624 -5.7157104815603024 0 0 0 0 9.1207747341059076 1.497446899096019 0 1.497446899096019 3.3180908964290103 0 0 0 0 -17.894323385437019 -19.029867857317413 0 -19.029867857317413 42.936467786115372 0 0 0 0 22.608611497882521 5.0781341299472267 0 5.0781341299472267 -0.65528615873616625 0 0 0 0 10.378492524221656 -1.3095039833054314 0 -1.3095039833054314 0.0032968524572159247 0 0 0 0 -38.220694540272234 126.07776366796065 0 126.07776366796065 144.27706188809407 0 0 0 0 0.8781819492651266 -0.83718906408364546 0 -0.83718906408364546 0.23407220191524389 0 0 0 0 237.80962246854324 -31.889859032894165 0 -31.889859032894165 -99.367222262364237 0 0 0 0 32.3970486531814 -1.2379301995588321 0 -1.2379301995588321 -6.3086655349988323 0 0 0 0 146.20100726197415 38.756862254281486 0 38.756862254281486 -7.2379702415769316 0 0 0 0 -21.984654476636933 -2.5168254551207951 0 -2.5168254551207951 113.25505691018134 0 0 0 0 -19.880724225673475 8.1036928625831024 0 8.1036928625831024 44.619467318067677 0 0 0 0 49.376604994584341 14.934968651503368 0 14.934968651503368 -12.596584433092744 0 0 0 0 36.484331468818709 18.832757696368361 0 18.832757696368361 6.4194819835537373 0 0 0 0 10.490149382404653 16.37456950952415 0 16.37456950952415 8.4742854013289595 0 0 0 0 8.330958743907054 17.281329243024715 0 17.281329243024715 10.914266562828354 0 0 0 0 21.129997596261092 24.286251948999496 0 24.286251948999496 16.988951402375619 0 0 0 0 19.614742418514652 6.514174390657157 0 6.514174390657157 0.013212321263477184 0 0 0 0 35.682943821942899 32.3976644919534 0 32.3976644919534 21.505565890239509 0 0 0 0 3.7168981225008224 4.1211249103942578 0 4.1211249103942578 2.822039561926474 0 0 0 0 -300.20462292036973 -154.77845837082728 0 -154.77845837082728 1.1379127937519544 0 0 0 0 15.403335760392679 2.2026577855806408 0 2.2026577855806408 -1.0622805496440699 0 0 0 0 42.011272723095317 19.23681889791456 0 19.23681889791456 0.067361123401949954 0 0 0 0 43.00815445293847 22.513327172586372 0 22.513327172586372 9.3794617378463911 0 0 0 0 35.158998267404968 18.396232797898882 0 18.396232797898882 6.3298047917476268 0 0 0 0 34.260908067080891 17.668105607367103 0 17.668105607367103 6.7304390173338433 0 0 0 0 32.428550793042632 13.737571790506291 0 13.737571790506291 6.3826591352165281 0 0 0 0 25.939034431671701 14.095835690974781 0 14.095835690974781 4.0577108543720639 0 0 0 0 32.966404649157994 19.223600349002062 0 19.223600349002062 7.200658872463606 0 0 0 0 91.331904717459111 -45.412608621981917 0 -45.412608621981917 34.452769324475412 0 0 0 0 37.815481421639561 -4.7498758976149702 0 -4.7498758976149702 5.9387604544724582 0 0 0 0 47.587001317879185 9.8411033561259273 0 9.8411033561259273 -10.217630005415572 0 0 0 0 -2.382511899963788 2.302624916893194 0 2.302624916893194 3.0575218818775896 0 0 0 0 25.33722189153923 11.897387856940099 0 11.897387856940099 -3.6207146359570288 0 0 0 0 63.679792012837424 3.5586160206059958 0 3.5586160206059958 -14.475487531522731 0 0 0 0 4.2524709305652237 0.787576336866465 0 0.787576336866465 0.93591386200561733 0 0 0 0 15.213357555301627 19.980847387175686 0 19.980847387175686 8.0034049610515012 0 0 0 0 76.356255580671132 -4.8444731984363898 0 -4.8444731984363898 6.057679296879769 0 0 0 0 27.94351996485716 12.415756434448781 0 12.415756434448781 2.5039541575643156 0 0 0 0 33.471477536655584 31.91291145962029 0 31.91291145962029 -8.1761931841119804 0 0 0 0 28.948594990157289 12.483170832534825 0 12.483170832534825 9.7791677012169202 0 0 0 0 41.129403934566653 15.61079605004295 0 15.61079605004295 3.98614382954338 0 0 0 0 4.9947945533443203 7.0383089918638575 0 7.0383089918638575 -0.65184291334556743 0 0 0 0 16.851532380643221 11.269052103265395 0 11.269052103265395 2.6113656858241243 0 0 0 0 771.86731483730546 -55.796509396991837 0 -55.796509396991837 -26.428717955791058 0 0 0 0 249.4990525249741 -137.09311086573814 0 -137.09311086573814 119.73449277009848 0 0 0 0 41.001471273164498 12.703628162024767 0 12.703628162024767 1.5513808358999128 0 0 0 0 51.513246770875412 16.758338880118426 0 16.758338880118426 3.6482592427650289 0 0 0 0 42.642577313279617 22.444570439859859 0 22.444570439859859 12.495085825374133 0 0 0 0 3.5790878313303836 -0.73735949014044877 0 -0.73735949014044877 0.21030024826816718 0 0 0 0 5.1968153001384962 1.535013149906149 0 1.535013149906149 0.14858644147955902 0 0 0 0 38.389782882237341 13.931839408196014 0 13.931839408196014 6.2100931623872597 0 0 0 0 48.217608831851976 17.298990781281944 0 17.298990781281944 -0.0056394415559951599 0 0 0 0 45.668635520429234 14.336836950310959 0 14.336836950310959 4.6398915804835399 0 0 0 0 -0.4767367359368393 -0.10568350888425471 0 -0.10568350888425471 -0.08692768381718026 0 0 0 0 70.318766049895203 30.644793933212444 0 30.644793933212444 0.1850640859307067 0 0 0 0 0.99825247530725392 -1.1100505928565383 0 -1.1100505928565383 0.47253999843022731 0 0 0 0 813.23629306216753 -132.65348259880645 0 -132.65348259880645 58.26529572508322 0 0 0 0 73.474825252618757 8.0112112398561877 0 8.0112112398561877 0.64414891352708992 0 0 0 0 906.02314980980009 -67.647842983565255 0 -67.647842983565255 -57.856414572796062 0 0 0 0 913.08780555399426 -99.701829633273533 0 -99.701829633273533 0.043364019170338691 0 0 0 0 1067.6981918677629 -251.47493854997765 0 -251.47493854997765 110.01068769812284 0 0 0 0 1203.6678334297176 -169.61446709994996 0 -169.61446709994996 -0.2026189555748206 0 0 0 0 1160.0847600316629 -208.16792556941797 0 -208.16792556941797 125.79225523461777 0 0 0 0 882.26652454071154 -73.758786253120917 0 -73.758786253120917 153.07251924866759 0 0 0 0 862.65509796206607 -22.248453664818754 0 -22.248453664818754 236.90323413922818 0 0 0 0 884.38287123614282 0.27383309447222359 0 0.27383309447222359 20.084817770022426 0 0 0 0 607.68136948379106 134.57344681500933 0 134.57344681500933 40.538930775335373 0 0 0 0 804.7035834488197 193.57170918420519 0 193.57170918420519 131.06550810388939 0 0 0 0 682.22552529690438 14.647609419380956 0 14.647609419380956 258.25354471930171 0 0 0 0 719.20902576181106 170.90161638847144 0 170.90161638847144 242.08010829007992 0 0 0 0 872.91450614370842 148.59428116658319 0 148.59428116658319 196.23302826008376 0 0 0 0 557.83430903358385 174.36684328225306 0 174.36684328225306 236.16706326103827 0 0 0 0 592.88411177362286 170.47415836509259 0 170.47415836509259 65.298318635726901 0 0 0 0 406.16554911648564 -163.80786428278873 0 -163.80786428278873 127.50356639277743 0 0 0 0 410.21749120861205 -72.761583163297928 0 -72.761583163297928 -317.79073295789794 0 0 0 0 369.10625100991456 -291.00200583256265 0 -291.00200583256265 -247.91902157658598 0 0 0 0 583.40586416318547 -100.93621852528486 0 -100.93621852528486 -166.44180323631022 0 0 0 0 459.42773725900042 111.01526685509373 0 111.01526685509373 158.3212538810667 0 0 0 0 365.8477081329911 -194.43196273949866 0 -194.43196273949866 -61.922937256830892 0 0 0 0 436.04864402298699 -32.878531232100613 0 -32.878531232100613 -299.55303733552046 0 0 0 0 351.82546547788661 -242.65224832794274 0 -242.65224832794274 -187.36994886865861 0 0 0 0 752.02084126368572 438.80867398024566 0 438.80867398024566 541.51505822531317 0 0 0 0 944.0535302333883 -156.97628892657121 0 -156.97628892657121 297.69870687050195 0 0 0 0 876.93182535567121 687.03123431855056 0 687.03123431855056 320.92643731614544 0 0 0 0 312.63396964911954 248.47241837301726 0 248.47241837301726 219.0840489651323 0 0 0 0 180.36146306895535 80.43154006915131 0 80.43154006915131 -239.71364715836853 0 0 0 0 564.66016391498852 390.32199237516829 0 390.32199237516829 -46.521618540234158 0 0 0 0 329.36478067268035 276.4361924268137 0 276.4361924268137 623.68323421425293 0 0 0 0 165.76900317592663 372.00001503447288 0 372.00001503447288 119.617513147686 0 0 0 0 438.77801671007182 531.44025498840938 0 531.44025498840938 93.644031040627738 0 0 0 0 286.02268635797373 705.05914533451869 0 705.05914533451869 900.06769941505036 0 0 0 0 14.064546190127999 6.2609042448677883 0 6.2609042448677883 3.7591172671805193 0 0 0 0 116.48166942282114 17.513810451009249 0 17.513810451009249 -84.279371837360145 0 0 0 0 2.1514972185022714 26.728304741730909 0 26.728304741730909 10.669964154404434 0 0 0 0 -7.1462358185398784 5.0771821345471153 0 5.0771821345471153 5.1622441416791336 0 0 0 0 -39.226452404836891 7.9443629619829608 0 7.9443629619829608 21.247328803317941 0 0 0 0 -163.54799542308319 10.642510347612756 0 10.642510347612756 99.023771256735699 0 0 0 0 0.51992291664183199 7.9708749016613467 0 7.9708749016613467 3.4259030337180878 0 0 0 0 57.009480859036557 83.488700505905172 0 83.488700505905172 -99.256040945619816 0 0 0 0 33.753362388844835 24.390624682254384 0 24.390624682254384 6.6693678068377267 0 0 0 0 -108.69361486908747 108.63163616470115 0 108.63163616470115 161.06233040973234 0 0 0 0 57.315906024063906 226.26026215331237 0 226.26026215331237 94.763268273357426 0 0 0 0 628.33101726724999 -55.658119313389534 0 -55.658119313389534 -101.80235255299027 0 0 0 0 877.0601497328862 140.01210581954402 0 140.01210581954402 -87.241980359404806 0 0 0 0 1060.5598433505947 400.24523637841787 0 400.24523637841787 -10.977733258331909 0 0 0 0 3.1673400647751464 1.4338698352172798 0 1.4338698352172798 0.65161690839249742 0 0 0 0 544.50510122977721 262.4564129543005 0 262.4564129543005 59.796516753507376 0 0 0 0 8.2690573404397583 30.549421559366351 0 30.549421559366351 158.34770581975977 0 0 0 0 42.502132850029739 16.387438063988384 0 16.387438063988384 -0.17526435440686328 0 0 0 0 37.670203273766674 21.707286755158066 0 21.707286755158066 7.3848396784489978 0 0 0 0 1.2682901108914848 7.2551574859558912 0 7.2551574859558912 2.1328346500602233 0 0 0 0 117.80597270504222 4.6879416020825602 0 4.6879416020825602 -18.539834133447812 0 0 0 0 88.771651042537997 32.522044565151532 0 32.522044565151532 -9.1214693364647701 0 0 0 0 35.491404756117845 36.602687416604567 0 36.602687416604567 3.0315095894434307 0 0 0 0 12.73060352311586 16.207684775155258 0 16.207684775155258 -5.0563504395137215 0 0 0 0 -0.24238293251885068 -0.31547904570248875 0 -0.31547904570248875 0.4179088495592751 0 0 0 0 20.826736189977964 11.765821275793655 0 11.765821275793655 -16.608655639038489 0 0 0 0 46.136307937238598 29.089040722589743 0 29.089040722589743 -4.1906963916180757 0 0 0 0 38.054237878164997 17.315163074906167 0 17.315163074906167 3.7321435422049198 0 0 0 0 82.701501410338096 40.333486599365415 0 40.333486599365415 -7.2703059380669401 0 0 0 0 3.0274018820782658 21.167154292702776 0 21.167154292702776 21.429744213579283 0 0 0 0 7.4921338255288674 9.5545379065150939 0 9.5545379065150939 -2.447424102805889 0 0 0 0 15.550079655918353 26.2860676352052 0 26.2860676352052 6.5717911918029825 0 0 0 0 48.079711938640685 42.248097436042826 0 42.248097436042826 8.5046392807071243 0 0 0 0 52.378080026279349 17.993209004066216 0 17.993209004066216 2.5015908470613795 0 0 0 0 44.226320058733108 31.344935771661312 0 31.344935771661312 10.170866944175486 0 0 0 0 16.44627718950801 17.017168556422632 0 17.017168556422632 -0.3447967647678496 0 0 0 0 59.546685416035871 30.824205469970668 0 30.824205469970668 0.81045875007916202 0 0 0 0 152.97076509485487 68.921696962767328 0 68.921696962767328 19.869352358773085 0 0 0 0 152.59796343492781 68.7076672251319 0 68.7076672251319 37.275417035813007 0 0 0 0 -7.1280396273363493 31.524706011842142 0 31.524706011842142 19.953026619795462 0 0 0 0 4.6082894220883901 11.928253297003351 0 11.928253297003351 5.5405206047665274 0 0 0 0 600.5738132716142 431.19587224666861 0 431.19587224666861 13.897376260815236 0 0 0 0 89.121186241740361 38.344188432090505 0 38.344188432090505 -4.1484390885138964 0 0 0 0 56.892671731149619 5.9671175842847859 0 5.9671175842847859 -4.7600891197473896 0 0 0 0 51.059720589400968 19.869771787097307 0 19.869771787097307 6.9044896307718773 0 0 0 0 75.640297548059607 9.6957098248610691 0 9.6957098248610691 11.995303454913142 0 0 0 0 63.075002139514254 1.5570180715044444 0 1.5570180715044444 9.1280453943531938 0 0 0 0 88.640542990222457 4.9318318746545629 0 4.9318318746545629 -62.190807009477794 0 0 0 0 89.090752437376068 -3.236052313320215 0 -3.236052313320215 -46.657016991614 0 0 0 0 64.39237012064882 -1.8123258604957044 0 -1.8123258604957044 -3.8023054499614304 0 0 0 0 88.000158903625561 -37.979794029128698 0 -37.979794029128698 -50.139589460763091 0 0 0 0 77.382521389523333 -7.3592865778350713 0 -7.3592865778350713 2.244649139444796 0 0 0 0 133.1356969486078 2.220325001524543 0 2.220325001524543 -147.87736477509134 0 0 0 0 70.323691015151667 25.831689504017852 0 25.831689504017852 -128.58881024115544 0 0 0 0 19.64155711922308 2.5830617779918725 0 2.5830617779918725 -0.12935895342315717 0 0 0 0 73.456123201409355 -52.043381945135479 0 -52.043381945135479 -94.751015669841763 0 0 0 0 34.683386778983049 -17.087553773629303 0 -17.087553773629303 50.978815788115753 0 0 0 0 11.578748336383235 -0.035126446718805937 0 -0.035126446718805937 12.101570598950218 0 0 0 0 39.121573168926261 9.1116316173655036 0 9.1116316173655036 11.805348477499138 0 0 0 0 36.988736332994335 13.468358439794144 0 13.468358439794144 4.4036716754303864 0 0 0 0 63.924200154579012 13.026046141922961 0 13.026046141922961 -3.798390234121598 0 0 0 0 23.217588020386756 27.821057574877898 0 27.821057574877898 -13.280874944102834 0 0 0 0 -167.61267507096636 35.316621861529939 0 35.316621861529939 664.97353412450138 0 0 0 0 261.17617646171129 -183.53720950398315 0 -183.53720950398315 -162.28380329209995 0 0 0 0 6.2867716012284554 1.4153041332599798 0 1.4153041332599798 6.531286228051659 0 0 0 0 49.803180747352599 147.84852679199855 0 147.84852679199855 152.00194902243857 0 0 0 0 186.96907364150684 47.453545333970965 0 47.453545333970965 -3.151629517675218 0 0 0 0 -26.160415077385551 46.369873943938273 0 46.369873943938273 92.464527151382754 0 0 0 0 354.99257592289723 -29.198323755323827 0 -29.198323755323827 24.234195844048372 0 0 0 0 165.52634908667824 293.94144888841208 0 293.94144888841208 194.09844558382383 0 0 0 0 4.7498418131907272 0.42659275475500635 0 0.42659275475500635 -1.8420722826655833 0 0 0 0 87.632621865705005 -84.439624310641648 0 -84.439624310641648 -96.90186579158069 0 0 0 0 180.38326002468239 -62.966267198196419 0 -62.966267198196419 -91.934057533048872 0 0 0 0 102.70458906379645 -35.09730292495351 0 -35.09730292495351 -32.432931973637096 0 0 0 0 119.737173446425 -72.487767603905922 0 -72.487767603905922 25.992702508234458 0 0 0 0 102.30942702623724 -38.780942756163768 0 -38.780942756163768 -32.740576460942975 0 0 0 0 124.8036080924503 -18.647107952333045 0 -18.647107952333045 -35.584196108176911 0 0 0 0 110.69800649950048 21.753480673951344 0 21.753480673951344 -97.69262323828093 0 0 0 0 67.113303298698156 3.932726024094336 0 3.932726024094336 -38.700023097759185 0 0 0 0 95.305384247352777 11.803010945153346 0 11.803010945153346 20.816009008296533 0 0 0 0 97.224527399783256 -11.177180146863066 0 -11.177180146863066 -109.34217867914049 0 0 0 0 99.407639253491652 18.665673786506886 0 18.665673786506886 -44.988277524897057 0 0 0 0 154.50138862119638 38.255783735404293 0 38.255783735404293 -49.667645476218922 0 0 0 0 115.11753113591112 -0.78382980317383044 0 -0.78382980317383044 -65.871184852556325 0 0 0 0 96.996524936468631 82.160830529138593 0 82.160830529138593 -45.448798282764983 0 0 0 0 92.923006341850851 179.40460845913844 0 179.40460845913844 63.009272028512896 0 0 0 0 255.20458628298366 128.17037895013982 0 128.17037895013982 -32.112832669178715 0 0 0 0 271.80012210343557 12.705516025152519 0 12.705516025152519 -74.659066657085987 0 0 0 0 218.78445670359724 86.65960385339082 0 86.65960385339082 32.462345096850186 0 0 0 0 -5.3257524290584541 6.1209690835393644 0 6.1209690835393644 8.085811922927002 0 0 0 0 -16.677637089436757 78.912111555850515 0 78.912111555850515 44.202126720910201 0 0 0 0 88.587039220383303 67.444201945112695 0 67.444201945112695 -2.9167657824764319 0 0 0 0 75.540961278900795 27.281017873524775 0 27.281017873524775 -7.865380199399624 0 0 0 0 1109.9995544890771 143.54051799117707 0 143.54051799117707 410.83752144672053 0 0 0 0 214.27170332433889 74.776910042786767 0 74.776910042786767 18.44952107299423 0 0 0 0 -16.239648886901875 28.283717357171355 0 28.283717357171355 16.326716896768918 0 0 0 0 1156.5244038418714 349.82488499378212 0 349.82488499378212 -281.48614554078858 0 0 0 0 410.78523248876445 632.3217087562191 0 632.3217087562191 -171.92665073155445 0 0 0 0 667.72574445990904 -426.5045602192281 0 -426.5045602192281 299.01146857960634 0 0 0 0 1182.6605207781467 149.89628884354977 0 149.89628884354977 -30.751504082437805 0 0 0 0 576.86720448395499 -37.675887739516952 0 -37.675887739516952 -257.22004970775515 0 0 0 0 476.04216223675758 55.036768651372313 0 55.036768651372313 87.528028076605096 0 0 0 0 260.81050007773229 -293.11425020476838 0 -293.11425020476838 -217.83208078577172 0 0 0 0 687.02391768536472 236.56974216715457 0 236.56974216715457 -158.94964090426402 0 0 0 0 161.26468339839093 -65.212001268026995 0 -65.212001268026995 -22.363580268855216 0 0 0 0 337.21277618638123 309.82904478326373 0 309.82904478326373 46.967087692451059 0 0 0 0 140.35978286073077 60.876680749756815 0 60.876680749756815 30.630807383931824 0 0 0 0 593.54725193811464 -11.887688828457613 0 -11.887688828457613 -140.36446662943217 0 0 0 0 -9.0355242594707192 28.437059361618225 0 28.437059361618225 15.472573962664132 0 0 0 0 255.35896958260855 85.728419630535342 0 85.728419630535342 46.323631366289646 0 0 0 0 251.0009435370448 80.623953624053854 0 80.623953624053854 27.610389753899085 0 0 0 0 261.0794946947135 90.990281804262622 0 90.990281804262622 24.669056613453904 0 0 0 0 -3.2796911008852163 5.1353453552732162 0 5.1353453552732162 11.055662284642821 0 0 0 0 98.08406259608455 21.102619584012245 0 21.102619584012245 10.755033331915911 0 0 0 0 326.63990521273809 101.83624714544931 0 101.83624714544931 -17.090171028936311 0 0 0 0 354.41686029602715 -41.955844953807173 0 -41.955844953807173 -23.081958746988676 0 0 0 0 630.5439863339634 -10.465496097835057 0 -10.465496097835057 -35.021457401959196 0 0 0 0 27.549990727311638 -2.8240729276350294 0 -2.8240729276350294 2.8033611490700938 0 0 0 0 157.40622229354844 -61.167256001037771 0 -61.167256001037771 -29.889919757672978 0 0 0 0 8.8676634281575843 32.107779944855395 0 32.107779944855395 16.86512922686866 0 0 0 0 19.918095979884939 35.676432057558799 0 35.676432057558799 13.368086118692776 0 0 0 0 104.34344745063572 -152.48094761345146 0 -152.48094761345146 -94.330021904688323 0 0 0 0 197.15521231027378 -109.95893024429279 0 -109.95893024429279 -90.691190023502486 0 0 0 0 92.365214869481861 -108.81050628802359 0 -108.81050628802359 -61.173814489726283 0 0 0 0 175.17703999455989 -70.794646170664464 0 -70.794646170664464 -88.75491746055468 0 0 0 0 259.13223086710059 -40.431766777033204 0 -40.431766777033204 -52.836569701815279 0 0 0 0 237.58547308026027 -102.6027297865644 0 -102.6027297865644 -91.944346150651199 0 0 0 0 190.21037159678235 -75.245291255548636 0 -75.245291255548636 -65.475241367287708 0 0 0 0 330.3512855204026 -36.492870340063291 0 -36.492870340063291 -91.094112178877367 0 0 0 0 321.3701657509082 7.6247532321303879 0 7.6247532321303879 -67.899703381373911 0 0 0 0 379.09600688407227 69.981891127531981 0 69.981891127531981 -0.72676310537235622 0 0 0 0 293.56738185511495 -40.327934289552559 0 -40.327934289552559 1.2097001319070841 0 0 0 0 299.24104092109337 -25.47658146999288 0 -25.47658146999288 -53.781888885304397 0 0 0 0 304.71162906396785 -54.490394747628216 0 -54.490394747628216 -84.834642484534925 0 0 0 0 262.86290181374352 -62.651111275251878 0 -62.651111275251878 -56.19994749345642 0 0 0 0 238.8713056921406 -47.15741038633314 0 -47.15741038633314 -56.660918151465012 0 0 0 0 254.54193468076119 -78.546857403710419 0 -78.546857403710419 -77.065141016732014 0 0 0 0 178.38284394355287 -63.926107792593029 0 -63.926107792593029 -38.522246856217862 0 0 0 0 178.54945319454418 -123.754092891254 0 -123.754092891254 -90.819489461988169 0 0 0 0 -6.9385361202866989 -217.85405984184038 0 -217.85405984184038 -3.850474900367999 0 0 0 0 -12.283145370485727 -105.28357344638744 0 -105.28357344638744 244.28571894403035 0 0 0 0 179.25807958953072 -57.640448181003364 0 -57.640448181003364 -17.453913089602864 0 0 0 0 20.491453300508851 -25.148221745223545 0 -25.148221745223545 -3.3062511958769494 0 0 0 0 0.29972421465066645 5.7102461311761274 0 5.7102461311761274 3.2196003212605344 0 0 0 0 366.47887937701307 694.29548084878547 0 694.29548084878547 -417.18176442100275 0 0 0 0 73.797100280753511 -29.955965971695036 0 -29.955965971695036 -622.08200463637695 0 0 0 0 338.43896665144712 417.29715692416664 0 417.29715692416664 -325.6795366100846 0 0 0 0 -115.882923422163 423.60243641385205 0 423.60243641385205 -175.3844057993756 0 0 0 0 499.34201890832628 498.31532451105312 0 498.31532451105312 -253.69250887684188 0 0 0 0 55.324619382241508 460.52415514562585 0 460.52415514562585 -570.95510206293466 0 0 0 0 152.7359583908401 373.95992677823904 0 373.95992677823904 -651.50699422492949 0 0 0 0 266.50354160973802 101.16731404671972 0 101.16731404671972 -888.37656328947128 0 0 0 0 124.01491413408075 -176.71503980463473 0 -176.71503980463473 -1201.0493828059714 0 0 0 0 48.07946467498283 18.382723916058865 0 18.382723916058865 -19.956680735179042 0 0 0 0 259.12301703717094 -31.727654491990961 0 -31.727654491990961 -57.445511692179252 0 0 0 0 257.07774447884913 -19.153123058840833 0 -19.153123058840833 -95.303759601787533 0 0 0 0 226.5047134246272 29.4806289818642 0 29.4806289818642 -2.652474494232639 0 0 0 0 314.31042392955715 -12.499489830795028 0 -12.499489830795028 -171.85842500471972 0 0 0 0 242.83389313006774 169.18388083373566 0 169.18388083373566 -447.30567955144136 0 0 0 0 304.74246582659543 -72.940326228912909 0 -72.940326228912909 -120.38919903831265 0 0 0 0 376.89403871012473 -140.72403191386465 0 -140.72403191386465 -283.48685514477506 0 0 0 0 339.39242128707701 17.098380064684761 0 17.098380064684761 -807.5822752552358 0 0 0 0 74.149893715946746 -214.58697007176784 0 -214.58697007176784 -381.86426486131313 0 0 0 0 438.14564850836177 -197.18396745678888 0 -197.18396745678888 -323.46455696932458 0 0 0 0 400.36007578323188 -22.669728587474651 0 -22.669728587474651 -350.43007035669575 0 0 0 0 196.92487190276734 142.44356789864264 0 142.44356789864264 -428.28897078293312 0 0 0 0 212.05295432647 36.431727531711083 0 36.431727531711083 -0.39986668449366469 0 0 0 0 129.9572395730429 98.671270291279825 0 98.671270291279825 -3.0742537819660356 0 0 0 0 306.2198143060632 192.3615076764961 0 192.3615076764961 -143.19797359220956 0 0 0 0 571.31017336096556 60.166587171770971 0 60.166587171770971 -61.870714623435958 0 0 0 0 190.14341575172148 90.695768449065326 0 90.695768449065326 -56.170306632833672 0 0 0 0 282.6485350039984 -30.066199072109839 0 -30.066199072109839 -32.057660251123707 0 0 0 0 353.05696391600941 -7.3666490787868497 0 -7.3666490787868497 -38.850650106585135 0 0 0 0 531.98686420582817 287.81789777311815 0 287.81789777311815 142.62239869013501 0 0 0 0 338.61851122564258 -41.289930844736091 0 -41.289930844736091 197.89614531707048 0 0 0 0 399.64902590790734 86.81907531531715 0 86.81907531531715 -80.207279891661983 0 0 0 0 412.63989390665665 117.80856643405059 0 117.80856643405059 -39.759216674051004 0 0 0 0 686.25764865314704 76.580033447670303 0 76.580033447670303 -219.21668495710554 0 0 0 0 361.37606852562749 -90.530696490450282 0 -90.530696490450282 -239.51627918171448 0 0 0 0 1.6480676197024877 -49.417461554025067 0 -49.417461554025067 -176.50950017665036 0 0 0 0 11.105767431341491 6.0595309366169516 0 6.0595309366169516 2.3205731869418305 0 0 0 0 -1.9828801234151001 11.151053748044939 0 11.151053748044939 8.9817053120195371 0 0 0 0 240.83808593512367 -122.38364776235335 0 -122.38364776235335 120.76249653012474 0 0 0 0 311.59038027759379 352.57714707967011 0 352.57714707967011 248.14669080332897 0 0 0 0 341.63443546774215 85.933914268119452 0 85.933914268119452 -51.219742882258288 0 0 0 0 161.72240874706767 80.780250227802981 0 80.780250227802981 -0.034335949770138541 0 0 0 0 260.76600889394467 99.552711411313567 0 99.552711411313567 -0.48283696384942232 0 0 0 0 262.47168047991727 18.655185236656735 0 18.655185236656735 -82.567245504413222 0 0 0 0 192.38222157115524 50.430425662942525 0 50.430425662942525 -143.82318651133664 0 0 0 0 115.71768539198092 11.36436831884771 0 11.36436831884771 -82.079468652432297 0 0 0 0 561.4702970676808 113.14524634309555 0 113.14524634309555 -129.6134513318575 0 0 0 0 440.19470943519627 99.286468684608451 0 99.286468684608451 -120.00151013883988 0 0 0 0 444.34251278494776 80.32654515557283 0 80.32654515557283 -95.120283284024936 0 0 0 0 391.81254221855488 39.360126340270426 0 39.360126340270426 -143.31041355201373 0 0 0 0 350.38579848954032 198.61011703445141 0 198.61011703445141 -120.40282827948297 0 0 0 0 571.90785664531722 114.85874155160411 0 114.85874155160411 -123.33249788065245 0 0 0 0 265.08332017356588 164.66582805056447 0 164.66582805056447 23.317118992519568 0 0 0 0 251.81411093914357 82.727060228011169 0 82.727060228011169 -31.267188020036428 0 0 0 0 574.39939571760624 173.70130214203579 0 173.70130214203579 -168.86205867292483 0 0 0 0 -169.92164009955013 460.58043207963078 0 460.58043207963078 -246.74269907613888 0 0 0 0 24.308569189030095 199.33255043841885 0 199.33255043841885 -460.68214154260437 0 0 0 0 310.08177582986536 27.871264466633171 0 27.871264466633171 -368.43680542527397 0 0 0 0 6.4672714619373153 2.200638646904622 0 2.200638646904622 0.29834385084721071 0 0 0 0 1180.5711832585439 -653.99389377153125 0 -653.99389377153125 320.60286461673974 0 0 0 0 455.78011185902869 40.847087619715978 0 40.847087619715978 304.55094466263125 0 0 0 0 822.88401396893096 -220.25109680812531 0 -220.25109680812531 5.2369269053509697 0 0 0 0 978.92979814468708 106.56432544277422 0 106.56432544277422 3.655867071044355 0 0 0 0 435.55474222868133 -157.70202794093655 0 -157.70202794093655 50.31092646843058 0 0 0 0 290.79687852487405 41.406178161797897 0 41.406178161797897 109.64046867892003 0 0 0 0 207.5685843279789 -75.431552651665584 0 -75.431552651665584 90.703142092197751 0 0 0 0 209.9815196230702 -189.13967420325022 0 -189.13967420325022 94.087902910896958 0 0 0 0 350.7016440099178 -119.33645029700267 0 -119.33645029700267 -88.342916102506251 0 0 0 0 512.61011676856651 -107.75028983024941 0 -107.75028983024941 -87.924454306468533 0 0 0 0 510.6994656393872 -32.782539253822051 0 -32.782539253822051 -100.43993975227818 0 0 0 0 449.16951594459533 -29.16728363605398 0 -29.16728363605398 -88.155085441661981 0 0 0 0 375.79093324116548 -23.530744097059369 0 -23.530744097059369 -110.16937002464783 0 0 0 0 440.35367232871795 3.2651993602280527 0 3.2651993602280527 -105.54034476318407 0 0 0 0 456.41642381233032 35.335814412067862 0 35.335814412067862 -93.745299431190688 0 0 0 0 327.10155859975202 -14.674583604619556 0 -14.674583604619556 -75.301321701008192 0 0 0 0 220.7356729007879 -78.96893304216826 0 -78.96893304216826 -66.871855977795178 0 0 0 0 301.33059180070086 -96.276957068792342 0 -96.276957068792342 -88.751870032602255 0 0 0 0 226.32986204049666 -106.14434709379975 0 -106.14434709379975 -89.964990413594933 0 0 0 0 125.1697639517588 -125.96701357379186 0 -125.96701357379186 -69.005893863989968 0 0 0 0 143.74090889937361 36.556604476899338 0 36.556604476899338 6.740724022620725 0 0 0 0 144.98460381636687 30.396288756741797 0 30.396288756741797 -10.167796142893167 0 0 0 0 -10.101749977809959 -135.82147804942008 0 -135.82147804942008 -31.716383636832461 0 0 0 0 116.36582714863471 -108.74175028743957 0 -108.74175028743957 -98.734845358057584 0 0 0 0 55.317959764686364 -25.526015119146351 0 -25.526015119146351 -11.794183323383859 0 0 0 0 321.27921652590157 144.20189864018448 0 144.20189864018448 106.66419334233797 0 0 0 0 41.289856250235403 -24.339653847489828 0 -24.339653847489828 -4.0415856323436472 0 0 0 0 32.950497614861888 -19.242942046881396 0 -19.242942046881396 -10.070514068978932 0 0 0 0 -0.58833454137493391 -80.577030047749787 0 -80.577030047749787 -21.954210911481823 0 0 0 0 -122.09578892441277 -179.13276360620796 0 -179.13276360620796 3.4202463815307169 0 0 0 0 111.33633308617573 -165.23699284981581 0 -165.23699284981581 -46.858066492767875 0 0 0 0 -4.9335838503029663 -169.18233580450089 0 -169.18233580450089 32.71208297762621 0 0 0 0 210.12190564789989 -187.72904887059838 0 -187.72904887059838 -20.946060495736333 0 0 0 0 207.80183226590088 -72.630962521973572 0 -72.630962521973572 -16.445512179644425 0 0 0 0 218.84726829765714 -89.555647466093802 0 -89.555647466093802 -44.579509504802843 0 0 0 0 -30.123157126756269 -55.866869267077277 0 -55.866869267077277 55.769344840924894 0 0 0 0 -238.74645528373367 -93.056967538534337 0 -93.056967538534337 42.025046861788837 0 0 0 0 -267.32698520390113 -181.47638712366927 0 -181.47638712366927 -53.457180999394609 0 0 0 0 -37.49634898918157 -90.924741849254474 0 -90.924741849254474 -49.735601558617475 0 0 0 0 -65.58334271730746 -45.436915326385453 0 -45.436915326385453 -17.309298582842416 0 0 0 0 89.620371278229868 -27.654582408928036 0 -27.654582408928036 16.977651148768928 0 0 0 0 8.5720691840775061 7.3297523720377171 0 7.3297523720377171 11.279236804927237 0 0 0 0 29.03455894671454 -23.274674287705565 0 -23.274674287705565 -18.320730330569837 0 0 0 0 101.96721138897556 1.3082815517898325 0 1.3082815517898325 -21.02631741258574 0 0 0 0 20.414924438327517 -32.788365640834783 0 -32.788365640834783 -12.141164467050185 0 0 0 0 74.794174801034387 -10.719922971535254 0 -10.719922971535254 -8.7635012710989031 0 0 0 0 -229.28904994370896 -77.539516739180243 0 -77.539516739180243 19.389773079535871 0 0 0 0 46.146556885399633 -0.20775018420364688 0 -0.20775018420364688 -7.331693196971707 0 0 0 0 19.0691198110991 -3.570833484136287 0 -3.570833484136287 -5.8271541308547006 0 0 0 0 -375.66663438097748 6.4174894982704132 0 6.4174894982704132 -15.326070325976815 0 0 0 0 14.719895736395173 -8.8386121488068596 0 -8.8386121488068596 3.4841211503218759 0 0 0 0 24.83044594026498 -5.0644400650898262 0 -5.0644400650898262 -3.1227909534761888 0 0 0 0 27.356246179588197 -8.2227098021858183 0 -8.2227098021858183 16.488017780211067 0 0 0 0 82.886148600693559 17.812634207288284 0 17.812634207288284 6.1204838233497867 0 0 0 0 7.8850801256107843 3.7687084742264716 0 3.7687084742264716 11.317006309777099 0 0 0 0 31.471533894371532 -19.661510946159524 0 -19.661510946159524 13.479860576796 0 0 0 0 39.876304142111621 15.198794815963083 0 15.198794815963083 -16.661555443231464 0 0 0 0 378.4703347873583 141.97083612071128 0 141.97083612071128 93.166757155020605 0 0 0 0 129.10762654488644 31.48615936370993 0 31.48615936370993 -35.512066275215147 0 0 0 0 143.95609211895862 -11.559558079223329 0 -11.559558079223329 18.870851291550935 0 0 0 0 367.88655061330064 106.60032562490051 0 106.60032562490051 -24.268031851865089 0 0 0 0 17.510225761222948 -34.777784378048622 0 -34.777784378048622 -13.034148802185596 0 0 0 0 -4.3283981463142709 3.4787028763352339 0 3.4787028763352339 11.035224564931649 0 0 0 0 3.5974517297945567 -15.939743569816791 0 -15.939743569816791 47.961126487177353 0 0 0 0 299.7399898458898 109.01336659478011 0 109.01336659478011 93.729981842076995 0 0 0 0 31.459862638897164 -27.646031165683851 0 -27.646031165683851 -11.494411066826366 0 0 0 0 46.237853560771327 -16.47575299747561 0 -16.47575299747561 -9.2255061448772651 0 0 0 0 3741.7373584387897 -1430.7988727310694 0 -1430.7988727310694 -234.35227874693135 0 0 0 0 2625.4384525309433 -680.62717801358338 0 -680.62717801358338 -109.49583234803902 0 0 0 0 2700.7198701734451 -557.81634121631066 0 -557.81634121631066 -106.70267788780325 0 0 0 0 1263.8210017492747 -163.83030716977589 0 -163.83030716977589 69.80046356618459 0 0 0 0 997.85086539026418 -136.74674558350239 0 -136.74674558350239 130.43459287232247 0 0 0 0 1004.5854364157422 -712.7675780671259 0 -712.7675780671259 289.20985893117904 0 0 0 0 1308.2002409163688 -476.83891430776532 0 -476.83891430776532 144.83773011906749 0 0 0 0 127.69517693269881 -69.319545302229017 0 -69.319545302229017 -722.31953495497737 0 0 0 0 196.90473311359528 196.13860036815538 0 196.13860036815538 -162.96714014902454 0 0 0 0 7.3726459318817206 7.6213302786271129 0 7.6213302786271129 -3.5204827180171083 0 0 0 0 345.65503500179693 -713.73416828632014 0 -713.73416828632014 429.38429850502143 0 0 0 0 684.96648709836882 100.83332398212315 0 100.83332398212315 -394.87298504731962 0 0 0 0 3240.572626332847 -1080.8723849777941 0 -1080.8723849777941 -19.974305535210981 0 0 0 0 328.74793492801837 -827.07377731661609 0 -827.07377731661609 997.36405663792368 0 0 0 0 2547.2824945045868 -1813.3268764190375 0 -1813.3268764190375 414.29457811566272 0 0 0 0 5122.1534591925738 -1578.5619375295569 0 -1578.5619375295569 -59.575081897198743 0 0 0 0 4563.2947140296383 -737.13196083892512 0 -737.13196083892512 608.53270970079916 0 0 0 0 4525.8379307913274 -1028.4442844713146 0 -1028.4442844713146 -107.19636699684659 0 0 0 0 4499.4969355881403 -1231.0180722438506 0 -1231.0180722438506 505.01910713669855 0 0 0 0 4500.3586124889989 -1192.1674466604431 0 -1192.1674466604431 -130.7320863907851 0 0 0 0 4393.2804557046475 -1175.3799787086241 0 -1175.3799787086241 -36.502707281973898 0 0 0 0 4290.9425961502129 -992.35577338393523 0 -992.35577338393523 -310.32812182237024 0 0 0 0 4344.9878905132646 -1439.8057448972729 0 -1439.8057448972729 -292.5777738989762 0 0 0 0 4337.414984607487 -1293.6615113428722 0 -1293.6615113428722 219.84073934981157 0 0 0 0 4499.6306631706029 -1004.2760477564258 0 -1004.2760477564258 688.37683008311103 0 0 0 0 4283.8516692198828 -1346.0683008555479 0 -1346.0683008555479 214.12513702382356 0 0 0 0 4022.1798143546184 -1395.9341130268995 0 -1395.9341130268995 1438.3487174354741 0 0 0 0 4739.405982924276 -1917.7863071676816 0 -1917.7863071676816 60.078513686770421 0 0 0 0 3491.4445829153847 -1107.2887739328646 0 -1107.2887739328646 -193.58692973693118 0 0 0 0 3836.794036062478 -866.01222235358046 0 -866.01222235358046 -160.96703208426476 0 0 0 0 1244.2727150862484 -229.62256691219227 0 -229.62256691219227 111.10619755401103 0 0 0 0 3231.2641150561649 166.49182432093798 0 166.49182432093798 -306.40092134877739 0 0 0 0 1044.0529580641305 99.248168489256273 0 99.248168489256273 379.75152250621744 0 0 0 0 16.563431594403482 -5.5795010576313864 0 -5.5795010576313864 8.8215256126218016 0 0 0 0 4466.9648254613476 1385.1565405435713 0 1385.1565405435713 -269.91621765112586 0 0 0 0 32.058226942608599 7.7949569810289177 0 7.7949569810289177 43.05651028009936 0 0 0 0 19.884763234583488 -15.373208417805415 0 -15.373208417805415 26.602859679736397 0 0 0 0 883.6342655412991 -397.17179191553009 0 -397.17179191553009 -122.28614357262106 0 0 0 0 57.464723357640366 -1.261408780722924 0 -1.261408780722924 7.0782081618786687 0 0 0 0 106.1127820386173 6.3444177132751065 0 6.3444177132751065 -5.9119319084238668 0 0 0 0 80.558238022556907 42.478204264472879 0 42.478204264472879 40.959319498057084 0 0 0 0 -0.38090024552366231 -17.052327982602492 0 -17.052327982602492 42.778613232259332 0 0 0 0 5.0036644626599127 -11.914078990102553 0 -11.914078990102553 15.847845472766576 0 0 0 0 169.06337403044745 400.26871939702608 0 400.26871939702608 316.27247555858389 0 0 0 0 267.77946846812119 -133.78440613537509 0 -133.78440613537509 -491.16104420041597 0 0 0 0 103.32624591805506 -163.69842370860511 0 -163.69842370860511 72.153346055931621 0 0 0 0 0.11712136179636445 -8.5711372693956598 0 -8.5711372693956598 -4.7782462162350701 0 0 0 0 93.799409702553135 -10.993891654914499 0 -10.993891654914499 -11.152725259372698 0 0 0 0 200.1316400710275 56.87345958838614 0 56.87345958838614 4.2185089054983109 0 0 0 0 187.98333234294114 -65.389591898692061 0 -65.389591898692061 10.185852872017676 0 0 0 0 77.884900670592742 -39.313370040339578 0 -39.313370040339578 -17.726215594391867 0 0 0 0 77.030940428099711 63.013275394365678 0 63.013275394365678 15.917980414503745 0 0 0 0 -3.4276548584607838 41.751310422131823 0 41.751310422131823 1.781616673640471 0 0 0 0 3.074324584338342 -3.216896582289813 0 -3.216896582289813 4.2362637676561086 0 0 0 0 94.485870092961704 121.94317331532829 0 121.94317331532829 192.56231605509493 0 0 0 0 305.91281349062047 79.542095093567809 0 79.542095093567809 -34.325936534453035 0 0 0 0 102.79112024312232 26.764170094731472 0 26.764170094731472 0.94327726214290664 0 0 0 0 269.22983676375588 225.21886925053377 0 225.21886925053377 -136.57148895667615 0 0 0 0 162.76234405656578 23.843122015989593 0 23.843122015989593 -135.97853774705959 0 0 0 0 -64.601425037850277 -0.87272311073456876 0 -0.87272311073456876 137.30825428210574 0 0 0 0 89.627127499843482 0.90109443400729106 0 0.90109443400729106 -59.938725978441425 0 0 0 0 145.64660551358247 11.03222265785962 0 11.03222265785962 -236.59418742203343 0 0 0 0 89.919796731101968 26.893447422772663 0 26.893447422772663 1.6606763236082065 0 0 0 0 130.77851258513692 127.45974597364648 0 127.45974597364648 -60.26451332716033 0 0 0 0 22.781631927995477 -89.257815128630682 0 -89.257815128630682 -65.902825169394418 0 0 0 0 -250.12147783028922 -290.64028724681407 0 -290.64028724681407 318.40906827372567 0 0 0 0 292.95373093290254 118.5317726166404 0 118.5317726166404 -107.8386901526089 0 0 0 0 294.41969320410863 93.368208097454072 0 93.368208097454072 317.16527063920813 0 0 0 0 56.501549771397549 67.250135059286208 0 67.250135059286208 114.05476977454373 0 0 0 0 150.81139573681139 -97.028456236289514 0 -97.028456236289514 23.082746626688277 0 0 0 0 22.392039622071408 4.3140369488856152 0 4.3140369488856152 0.39742305664329036 0 0 0 0 -128.86113325674523 73.466019490071417 0 73.466019490071417 47.55473208973666 0 0 0 0 27.975061075077974 -40.81644365526131 0 -40.81644365526131 -2.6276414683300118 0 0 0 0 121.83494054854964 179.67966735582695 0 179.67966735582695 -117.25879762456674 0 0 0 0 47.507372509873903 13.836318740251038 0 13.836318740251038 2.5488945794479267 0 0 0 0 -2.3833481490873965 180.16771540383905 0 180.16771540383905 154.50211985790617 0 0 0 0 48.458063655853039 56.448964658130194 0 56.448964658130194 -143.50451110141717 0 0 0 0 47.813634421938332 17.594668103834238 0 17.594668103834238 -1.1810616837615271 0 0 0 0 20.420547098980194 11.688133512941803 0 11.688133512941803 -2.3241651760490374 0 0 0 0 38.365480100561399 19.953744229780455 0 19.953744229780455 -0.3400282285188041 0 0 0 0 48.026937353191897 17.936949008571901 0 17.936949008571901 -1.2955277770539624 0 0 0 0 50.480859058501665 49.205064109977457 0 49.205064109977457 66.155116644051873 0 0 0 0 33.246568071226505 28.050802552698983 0 28.050802552698983 -2.3466298688681722 0 0 0 0 48.793543526451685 18.600540677027823 0 18.600540677027823 -0.79270192575609144 0 0 0 0 33.120333580581303 20.880359653800447 0 20.880359653800447 5.6256774636057267 0 0 0 0 47.665326957108846 18.102664933183206 0 18.102664933183206 -0.53040386306611254 0 0 0 0 71.504138931355556 21.344910301482514 0 21.344910301482514 -172.48859496804948 0 0 0 0 50.96658734077937 -13.750155126662548 0 -13.750155126662548 -177.82055655402596 0 0 0 0 58.809270019731599 20.197608419679916 0 20.197608419679916 1.6130495777988463 0 0 0 0 60.888837106209394 2.0716243074103318 0 2.0716243074103318 -199.98938937669936 0 0 0 0 52.922995101023844 -12.997055043136413 0 -12.997055043136413 -200.52359393940287 0 0 0 0 -215.60601177845092 120.42187403733692 0 120.42187403733692 4.0199623834238309 0 0 0 0 159.36389302111684 132.37862401042003 0 132.37862401042003 8.2577317811055764 0 0 0 0 157.62032636048389 59.676604839366519 0 59.676604839366519 -42.707135104248664 0 0 0 0 110.81788588102791 20.978700272768947 0 20.978700272768947 -52.043750413168709 0 0 0 0 87.990299841756496 88.90375965206664 0 88.90375965206664 0.70171919600761612 0 0 0 0 94.731653438357171 69.833215248031138 0 69.833215248031138 -45.886072968685539 0 0 0 0 131.68234526147717 158.95063507538725 0 158.95063507538725 21.59491397592501 0 0 0 0 136.69678420794662 126.6376587950017 0 126.6376587950017 28.521893228947647 0 0 0 0 173.72581514532794 123.22571367968931 0 123.22571367968931 24.980668028946184 0 0 0 0 151.6344377771311 142.6629186281566 0 142.6629186281566 28.339835805008761 0 0 0 0 150.62102886319917 173.02285164101249 0 173.02285164101249 25.487113729339399 0 0 0 0 149.9659256869345 125.16488015743198 0 125.16488015743198 -18.191273294698249 0 0 0 0 197.21106739828247 159.91372399193278 0 159.91372399193278 -7.500403863363772 0 0 0 0 255.44193609507056 227.96795836680758 0 227.96795836680758 42.941091912384309 0 0 0 0 37.056505412514525 173.77765638430481 0 173.77765638430481 192.97411056677265 0 0 0 0 -23.338950891731656 19.09342338276565 0 19.09342338276565 30.720027874910784 0 0 0 0 -5.7904685406896306 4.8972979212227727 0 4.8972979212227727 6.2174352672443138 0 0 0 0 274.33732090769627 18.858640665952962 0 18.858640665952962 -15.845806931601146 0 0 0 0 97.173335448151192 -2.5558606141424889 0 -2.5558606141424889 -8.1728824600077132 0 0 0 0 7.4651472699004984 2.6314770241312573 0 2.6314770241312573 -0.13204809179137555 0 0 0 0 -37.374451680618222 17.272376817942131 0 17.272376817942131 42.085200352509673 0 0 0 0 37.192575303124613 35.878366755029731 0 35.878366755029731 -109.75095223962421 0 0 0 0 14.617450064455625 112.62688115665242 0 112.62688115665242 14.011997968023024 0 0 0 0 14.192950589805861 4.7045875996768913 0 4.7045875996768913 -0.036553530037667592 0 0 0 0 14.940304753035889 -20.189587215648999 0 -20.189587215648999 -113.45493043409176 0 0 0 0 203.93248604625114 100.33666404705673 0 100.33666404705673 -98.909549277383121 0 0 0 0 33.602388527877338 174.8103252592598 0 174.8103252592598 -4.6538541543395695 0 0 0 0 131.34805856909952 79.004485989027216 0 79.004485989027216 159.27057880282689 0 0 0 0 220.47103857304501 247.33284466774052 0 247.33284466774052 216.15136305666283 0 0 0 0 180.77526025884072 34.819764107094045 0 34.819764107094045 56.924565631223686 0 0 0 0 153.23016914830077 147.26718762636324 0 147.26718762636324 35.131640667435477 0 0 0 0 171.49899326766899 151.32618834825007 0 151.32618834825007 108.39783293979372 0 0 0 0 17.077426575720892 -115.63813130592496 0 -115.63813130592496 -283.06365566155785 0 0 0 0 66.541611302411184 -70.519159990419325 0 -70.519159990419325 -285.55709708265334 0 0 0 0 1.7514926498946863 -0.86090390994670685 0 -0.86090390994670685 -0.68224577223832661 0 0 0 0 23.048775548923004 -44.067362380294099 0 -44.067362380294099 -238.92493017643184 0 0 0 0 44.462063465805841 -23.916902974684945 0 -23.916902974684945 -220.70338637341024 0 0 0 0 -18.045504060672101 -76.717441365596926 0 -76.717441365596926 -195.89420271683821 0 0 0 0 52.606076137271884 -26.768394183569683 0 -26.768394183569683 -233.69732021326297 0 0 0 0 53.308713077189168 -3.3805547286647268 0 -3.3805547286647268 -284.30748783442175 0 0 0 0 50.148983511295228 -5.9542173211980725 0 -5.9542173211980725 -216.25607960110642 0 0 0 0 52.609653402359982 -6.8145678543154418 0 -6.8145678543154418 -228.40668511118565 0 0 0 0 48.647325556157739 6.3026634088191216 0 6.3026634088191216 -232.21672148927269 0 0 0 0 47.664434462843928 4.4868310085598964 0 4.4868310085598964 -201.9400573831152 0 0 0 0 40.95352112231194 26.510009450961178 0 26.510009450961178 -223.81244374936136 0 0 0 0 51.612667171233625 -7.2644689783890044 0 -7.2644689783890044 -207.40104560961913 0 0 0 0 60.712717382681149 -9.5258714063656953 0 -9.5258714063656953 -229.89902746323469 0 0 0 0 61.061795024485036 -6.1292381154748909 0 -6.1292381154748909 -205.15699798458627 0 0 0 0 55.264495780284051 -18.017389146211485 0 -18.017389146211485 -201.25865367143228 0 0 0 0 55.019476350207697 -14.95693987835466 0 -14.95693987835466 -201.53872287875393 0 0 0 0 61.544892210404214 -15.611969281201141 0 -15.611969281201141 -223.20340936534672 0 0 0 0 59.127878371902625 -14.682573637440555 0 -14.682573637440555 -208.4190574480628 0 0 0 0 53.038485101940751 -23.253134850763388 0 -23.253134850763388 -195.94762211980162 0 0 0 0 57.06982389499899 -15.35910245992585 0 -15.35910245992585 -223.01059962468767 0 0 0 0 57.67543422626477 -13.681995265561653 0 -13.681995265561653 -219.09962493908995 0 0 0 0 47.496904466082924 -37.981880894177806 0 -37.981880894177806 -234.77323983061976 0 0 0 0 54.216994159341994 -72.117377445446067 0 -72.117377445446067 -133.37209897629151 0 0 0 0 73.319859646595432 -86.92543951619794 0 -86.92543951619794 -312.57950360316585 0 0 0 0 -196.15708657473442 -264.87291705381915 0 -264.87291705381915 -80.739360796799275 0 0 0 0 165.37012008838065 225.33155297799982 0 225.33155297799982 307.03915032024173 0 0 0 0 175.82419884229603 56.725903048915484 0 56.725903048915484 -785.47609434281276 0 0 0 0 56.560731468354305 17.877135188724516 0 17.877135188724516 1.5076454224459912 0 0 0 0 40.994204049951804 18.444777611251538 0 18.444777611251538 -258.6669059568336 0 0 0 0 -195.6161754210043 -188.6842511573708 0 -188.6842511573708 350.02303350046765 0 0 0 0 1288.5665811734507 280.33540544807147 0 280.33540544807147 -144.63852890035221 0 0 0 0 1018.4590028171297 732.88875495850107 0 732.88875495850107 -8.5320421016131149 0 0 0 0 2694.9754490865453 -2490.0820084500911 0 -2490.0820084500911 2026.5009881035933 0 0 0 0 18.581657125713662 -1.3232147468806659 0 -1.3232147468806659 0.24384873165896326 0 0 0 0 21.382551416958449 94.718046483065791 0 94.718046483065791 -174.05731293583085 0 0 0 0 44.232417607355217 -0.69113838379169934 0 -0.69113838379169934 -0.32594653258127504 0 0 0 0 221.77884177453234 -393.50988375528391 0 -393.50988375528391 105.86887161616005 0 0 0 0 -56.613726971016149 -125.78324739780487 0 -125.78324739780487 -135.20331310923677 0 0 0 0 4129.4267395963179 -1506.2789356805595 0 -1506.2789356805595 300.30033225502382 0 0 0 0 4050.3274371182488 -1332.7552990551708 0 -1332.7552990551708 1118.5920939859363 0 0 0 0 4537.8713654563617 -1291.5497718046051 0 -1291.5497718046051 -50.413572614636728 0 0 0 0 662.2282921197766 -673.25829645461988 0 -673.25829645461988 523.01881440937893 0 0 0 0 4500.1081015259551 -1525.8328801593207 0 -1525.8328801593207 68.550204906838559 0 0 0 0 4394.4271990797133 -1207.1225026636432 0 -1207.1225026636432 640.78422930362933 0 0 0 0 5770.7673360504559 -1151.1111201909775 0 -1151.1111201909775 636.07697625483013 0 0 0 0 4919.3720385518973 -2236.7579935133294 0 -2236.7579935133294 832.04611940807774 0 0 0 0 4070.1020247386041 -2330.8297204678011 0 -2330.8297204678011 835.00973678281116 0 0 0 0 27.564507275021469 6.8155732116052974 0 6.8155732116052974 1.0315461432438182 0 0 0 0 609.60472278081579 1235.9307343285759 0 1235.9307343285759 -257.12657339111274 0 0 0 0 4502.325870655477 -631.95854813883477 0 -631.95854813883477 1964.7871468760807 0 0 0 0 5228.5201463900376 -960.06389686691512 0 -960.06389686691512 -307.85180187682505 0 0 0 0 3134.2951614624471 -329.34232497999324 0 -329.34232497999324 -297.62893654030324 0 0 0 0 3570.9580512062385 913.45246231873875 0 913.45246231873875 -294.47881197760188 0 0 0 0 845.59915715593525 577.27752904776173 0 577.27752904776173 363.55405498889661 0 0 0 0 3213.0967862395773 -122.34079443889812 0 -122.34079443889812 110.86766952907391 0 0 0 0 910.51356902359839 427.76206556648202 0 427.76206556648202 236.70143033070389 0 0 0 0 579.27216131071327 -117.58617701945822 0 -117.58617701945822 328.00611665705418 0 0 0 0 3032.9279207182772 -1419.8171932347552 0 -1419.8171932347552 133.78349940726602 0 0 0 0 4491.58133433271 -837.09678325354673 0 -837.09678325354673 -687.36365483845555 0 0 0 0 -11.901935374284221 -138.47257136271776 0 -138.47257136271776 -10.813737035565993 0 0 0 0 38.053682506659243 -101.11134795585546 0 -101.11134795585546 -264.88467185893796 0 0 0 0 276.7041206361755 254.31621779249258 0 254.31621779249258 184.40596715662736 0 0 0 0 783.37797337574011 204.7645799344335 0 204.7645799344335 128.81926338559919 0 0 0 0 268.65701849473407 386.90251455441893 0 386.90251455441893 -90.324948469873732 0 0 0 0 258.60036989496439 358.05010399075832 0 358.05010399075832 490.41406180011251 0 0 0 0 583.92122410388401 873.93998396179074 0 873.93998396179074 955.89170156431828 0 0 0 0 469.48074113862822 770.59771435305242 0 770.59771435305242 397.36035226037859 0 0 0 0 -27.08147461428598 788.76209192188571 0 788.76209192188571 467.56002964839126 0 0 0 0 704.32552590318301 521.28061669045417 0 521.28061669045417 -467.65137374662163 0 0 0 0 1.2773699332119719 4.182116552098762 0 4.182116552098762 4.8456038468003513 0 0 0 0 -652.00975317174743 430.87001421331649 0 430.87001421331649 304.28194697716253 0 0 0 0 1566.973984621698 372.83504444758847 0 372.83504444758847 -439.43812363905454 0 0 0 0 157.05437026351865 300.69965117695671 0 300.69965117695671 281.67823971013871 0 0 0 0 -157.76881123932981 124.96998468967229 0 124.96998468967229 -182.04818909744654 0 0 0 0 16.967124651244376 373.31537514393557 0 373.31537514393557 51.320210131328224 0 0 0 0 220.49506482887955 327.38761437383874 0 327.38761437383874 56.103306763714954 0 0 0 0 218.10934554987034 218.48122268866922 0 218.48122268866922 -394.93198547748102 0 0 0 0 54.132264153246069 80.160572209782458 0 80.160572209782458 -298.23600699435224 0 0 0 0 24.774539254998672 88.873951431958517 0 88.873951431958517 -204.78940784537042 0 0 0 0 2.1255259536374069 118.21806933624819 0 118.21806933624819 -184.93635354419757 0 0 0 0 1809.8932702300008 212.41725385574455 0 212.41725385574455 -1068.2924497918759 0 0 0 0 -27.566839815423009 103.66256786096949 0 103.66256786096949 -188.69049922263719 0 0 0 0 4.5358148239512346 4.8916220562510944 0 4.8916220562510944 7.1855328904934339 0 0 0 0 539.29656890303886 -815.42474765134284 0 -815.42474765134284 2455.3965212623871 0 0 0 0 10.869738469135939 -5.3377189818936372 0 -5.3377189818936372 2.7658077992861734 0 0 0 0 -247.12306194783014 -1065.0505641987011 0 -1065.0505641987011 352.72840144302319 0 0 0 0 966.92408711169264 178.75126563042403 0 178.75126563042403 -702.58344369010797 0 0 0 0 401.87318668293301 519.92088314405794 0 519.92088314405794 76.436002296514175 0 0 0 0 17.695270562056976 16.651775642598636 0 16.651775642598636 29.952450372533349 0 0 0 0 20.307601170444656 -10.236057793644733 0 -10.236057793644733 3.3841751406884844 0 0 0 0 272.70159137166229 -381.44425124597416 0 -381.44425124597416 -914.14208716777853 0 0 0 0 170.51625906703703 -255.31462896274218 0 -255.31462896274218 342.53950639076538 0 0 0 0 4477.9863720231588 315.46536062577792 0 315.46536062577792 -438.19093346840089 0 0 0 0 14.201852334407874 -2.8054824586282479 0 -2.8054824586282479 1.7616443433570284 0 0 0 0 4494.7896712340453 976.89430918830226 0 976.89430918830226 121.24024312269219 0 0 0 0 4489.3725371146893 -1312.0253829740584 0 -1312.0253829740584 -165.45762575944485 0 0 0 0 588.91625948368528 174.87843350953398 0 174.87843350953398 39.437309591679863 0 0 0 0 569.49910151150834 -79.749985106447312 0 -79.749985106447312 -88.112312540395322 0 0 0 0 28.446688479710645 -12.205707901602935 0 -12.205707901602935 2.3578870912579166 0 0 0 0 42.799535933208972 4.8165704257168613 0 4.8165704257168613 -23.422302252107215 0 0 0 0 -8.9988367311889306 82.938091915104337 0 82.938091915104337 -205.79362516997367 0 0 0 0 18.830825592453976 -7.6464285059158072 0 -7.6464285059158072 0.80116633678138482 0 0 0 0 25.74458814173704 -19.194174170456336 0 -19.194174170456336 -18.528845648462664 0 0 0 0 26.53655648293352 272.28929416171525 0 272.28929416171525 769.8368644928687 0 0 0 0 869.30834130349103 453.89213285047208 0 453.89213285047208 -183.40710788993692 0 0 0 0 1518.4626493400865 851.0315610927297 0 851.0315610927297 -84.279015699987212 0 0 0 0 24.87880729958124 -35.948622042727003 0 -35.948622042727003 31.001644354933646 0 0 0 0 21.712033404340779 -10.937966413855165 0 -10.937966413855165 -2.3241588231723882 0 0 0 0 -1.0761593635611462 0.17669629269887821 0 0.17669629269887821 1.0148870505468794 0 0 0 0 -366.00279506391962 -686.8814347020998 0 -686.8814347020998 -803.95696341076473 0 0 0 0 890.2471892668982 -170.06414117793656 0 -170.06414117793656 -743.50837556080842 0 0 0 0 718.62547175204963 -60.637567293907978 0 -60.637567293907978 -557.27919630573933 0 0 0 0 673.61275673913769 102.10448701682003 0 102.10448701682003 -418.84822478159049 0 0 0 0 1021.3801122505611 443.92622634686421 0 443.92622634686421 -505.00861386286851 0 0 0 0 27.148013690868652 -6.572082707673033 0 -6.572082707673033 -2.3140891579690295 0 0 0 0 366.63245774587267 271.69694224846108 0 271.69694224846108 136.17068781620571 0 0 0 0 222.50653990448336 114.17635483864197 0 114.17635483864197 177.44274341286641 0 0 0 0 24.483647553691299 -10.970243654893657 0 -10.970243654893657 -11.739924638395792 0 0 0 0 679.83953702509461 167.05047512500295 0 167.05047512500295 -283.50183853219835 0 0 0 0 -167.42722064135887 -182.48111845240641 0 -182.48111845240641 -10.141966485994143 0 0 0 0 21.691158169833614 -10.048990421003623 0 -10.048990421003623 -4.0992598916098606 0 0 0 0 384.23365559407102 40.880680092504207 0 40.880680092504207 18.739396780010765 0 0 0 0 -141.84512741850631 28.964400048117483 0 28.964400048117483 77.446280522466139 0 0 0 0 23.627155603513955 -2.9865959086997211 0 -2.9865959086997211 -1.909019512817892 0 0 0 0 -152.19562542079302 -407.93597425770929 0 -407.93597425770929 -892.20604248233167 0 0 0 0 320.25676280429616 -647.48631258952219 0 -647.48631258952219 -772.06535191351281 0 0 0 0 314.13640265502181 -128.67366388811379 0 -128.67366388811379 44.543380872503747 0 0 0 0 7.6184797925460011 -1.6191623650877744 0 -1.6191623650877744 -3.2641093317316576 0 0 0 0 23.45667849185736 -9.6312107999758787 0 -9.6312107999758787 -1.5675649243142171 0 0 0 0 38.325685058851377 -38.261915178311256 0 -38.261915178311256 -48.474003324920886 0 0 0 0 13.818145737435771 116.23418780810891 0 116.23418780810891 -248.76822017078302 0 0 0 0 33.977635715113138 -433.89548426789918 0 -433.89548426789918 -549.45027839677368 0 0 0 0 -194.62929030080704 -471.56217333812322 0 -471.56217333812322 377.00702757684525 0 0 0 0 47.499175965953327 -297.2422504461365 0 -297.2422504461365 169.44200032220988 0 0 0 0 -373.69020830996305 -715.21906780628797 0 -715.21906780628797 85.217552258897868 0 0 0 0 88.535429129740805 -595.14375559367443 0 -595.14375559367443 131.82749075947305 0 0 0 0 -427.99901335133472 -97.75322355753049 0 -97.75322355753049 9.6703116681655761 0 0 0 0 188.79987022159912 -563.57314202156499 0 -563.57314202156499 352.32789729042838 0 0 0 0 281.80245304932032 44.636719260603186 0 44.636719260603186 193.75082201100639 0 0 0 0 1533.8183608242243 -625.32700708102277 0 -625.32700708102277 374.43815328204096 0 0 0 0 4490.9846359599906 100.64424736303427 0 100.64424736303427 -1001.3268294906297 0 0 0 0 1586.9294491979745 -45.768950788116783 0 -45.768950788116783 -448.51208147352719 0 0 0 0 13.296228174226371 -0.19818925775576712 0 -0.19818925775576712 -0.84540967953628066 0 0 0 0 1418.816897914734 1274.1568179473797 0 1274.1568179473797 -699.45378193360659 0 0 0 0 77.169663442866295 -680.56271021082762 0 -680.56271021082762 131.05479794422331 0 0 0 0 -290.02476428414229 -205.48270476729999 0 -205.48270476729999 1359.912986230413 0 0 0 0 1.5011668176716029 -1.6476131744436628 0 -1.6476131744436628 1.5798858684312078 0 0 0 0 546.01523597235791 380.35021453155275 0 380.35021453155275 1414.8903745337439 0 0 0 0 1540.2391557139927 -1039.0821230903989 0 -1039.0821230903989 1652.959952976516 0 0 0 0 70.251852817877079 186.47247186982821 0 186.47247186982821 1031.3617485577417 0 0 0 0 415.43588257586453 -470.43813196220663 0 -470.43813196220663 975.58089509422575 0 0 0 0 261.63053495076747 37.632367028610815 0 37.632367028610815 645.36530362626456 0 0 0 0 414.21612059168547 224.14039872064046 0 224.14039872064046 213.15510667210208 0 0 0 0 648.4810868817076 196.37248180086794 0 196.37248180086794 585.22791586925996 0 0 0 0 85.702275361123611 -23.154133863487914 0 -23.154133863487914 517.09621041024957 0 0 0 0 544.83417879795888 -373.97963091545546 0 -373.97963091545546 279.80065337901203 0 0 0 0 1636.6487716200645 -684.75421559393294 0 -684.75421559393294 340.10621062494874 0 0 0 0 602.67417715121701 -628.99951162273646 0 -628.99951162273646 309.84154890769076 0 0 0 0 206.82004746988787 -428.4296876430659 0 -428.4296876430659 275.39489181254498 0 0 0 0 -9.7584682204760611 -313.24502500855033 0 -313.24502500855033 575.84439833036913 0 0 0 0 86.465041086557903 23.282685259482605 0 23.282685259482605 6.2714771263806597 0 0 0 0 79.869253053031571 -275.74943967508875 0 -275.74943967508875 82.030562323483991 0 0 0 0 -17.993336714054749 -28.103182706442567 0 -28.103182706442567 347.45459802817504 0 0 0 0 1.3915338153921937 -5.8551087452931512 0 -5.8551087452931512 0.03525001033074876 0 0 0 0 167.18321848150299 -393.6781586603152 0 -393.6781586603152 970.6412968371742 0 0 0 0 14.206282095807722 -4.3499038634728784 0 -4.3499038634728784 1.6537302204667581 0 0 0 0 883.39924985647667 1099.7843169684861 0 1099.7843169684861 1427.3946571404831 0 0 0 0 1182.5469557851611 1326.7288302265133 0 1326.7288302265133 898.47939390344254 0 0 0 0 435.34581658161869 -167.60278649606175 0 -167.60278649606175 -482.42325439201295 0 0 0 0 1151.1195721520926 746.02319715502608 0 746.02319715502608 -291.62799506503848 0 0 0 0 764.18806381513423 748.7337011315052 0 748.7337011315052 942.55294047422751 0 0 0 0 893.43887147437636 445.52209785442466 0 445.52209785442466 -113.19591340125889 0 0 0 0 364.24538972110167 332.31154049835283 0 332.31154049835283 1.4599531917006061 0 0 0 0 606.28691058473487 929.01595593206173 0 929.01595593206173 924.87298998422295 0 0 0 0 613.6967348537728 439.22614002544742 0 439.22614002544742 25.538374338139874 0 0 0 0 424.55567009473452 339.63320271588418 0 339.63320271588418 -119.76723947805158 0 0 0 0 572.16792040346627 489.61028211582095 0 489.61028211582095 -21.022556192619504 0 0 0 0 603.57508853786931 365.74449928331285 0 365.74449928331285 -235.05484209070255 0 0 0 0 965.84141014721536 603.67680793958834 0 603.67680793958834 -158.49933166068877 0 0 0 0 531.38924828981544 661.1393986331318 0 661.1393986331318 332.72956860874274 0 0 0 0 463.88597218917857 392.23992236522395 0 392.23992236522395 -12.854556300181002 0 0 0 0 1.3413915871152255 -1.2168154903213519 0 -1.2168154903213519 -3.5376237347249604 0 0 0 0 42.83617548284019 -41.803621186635866 0 -41.803621186635866 55.212917365928774 0 0 0 0 394.09607317083282 102.37017361020241 0 102.37017361020241 -48.081550826673748 0 0 0 0 748.15567842043674 -317.77101268380017 0 -317.77101268380017 156.5152324184109 0 0 0 0 338.65964840312517 -138.0769769869396 0 -138.0769769869396 399.60240653417833 0 0 0 0 518.61051844440954 -246.50928726500536 0 -246.50928726500536 263.04843332043833 0 0 0 0 320.71262455960095 -38.256103374094835 0 -38.256103374094835 39.834129296567994 0 0 0 0 513.74072606494883 -59.066446125248092 0 -59.066446125248092 24.487567163735321 0 0 0 0 298.4207840344352 -70.598962136229304 0 -70.598962136229304 -5.6053527883997276 0 0 0 0 181.82939245424495 76.643944463268639 0 76.643944463268639 -10.884304334273125 0 0 0 0 102.88921500294236 -73.380874513614529 0 -73.380874513614529 19.207967128691298 0 0 0 0 321.54200153314014 -8.155326541016791 0 -8.155326541016791 -40.854157693401774 0 0 0 0 10.106555099281138 10.246378488953518 0 10.246378488953518 2.1252852156156603 0 0 0 0 1668.4584448370151 -95.127678461397409 0 -95.127678461397409 -57.528038664897167 0 0 0 0 84.821357805471052 286.2080526058935 0 286.2080526058935 723.10108731461844 0 0 0 0 770.29376129421871 987.49354030423137 0 987.49354030423137 705.93556274446382 0 0 0 0 -55.601311920501757 -17.821845489762381 0 -17.821845489762381 374.13496074097475 0 0 0 0 6.0485390224448423 8.9055994209556673 0 8.9055994209556673 -15.833759208737888 0 0 0 0 -5.478191483689443 -3.978839690558587 0 -3.978839690558587 21.761777270627476 0 0 0 0 20.036445591114898 -15.204962548297729 0 -15.204962548297729 -51.588321365106481 0 0 0 0 58.228363701564376 73.96157024915901 0 73.96157024915901 -12.582052484463038 0 0 0 0 24.918114022723017 13.536208207211025 0 13.536208207211025 -0.32765317692187151 0 0 0 0 483.72822589159478 -138.38712524258801 0 -138.38712524258801 57.653360699338975 0 0 0 0 4.6746518930801102 5.0470072166542508 0 5.0470072166542508 -4.6283983815313512 0 0 0 0 28.917218047965434 1.6870868158418659 0 1.6870868158418659 -99.58595950328413 0 0 0 0 27.179690560733434 38.495584875928301 0 38.495584875928301 -136.86324222341986 0 0 0 0 32.638952305162093 49.889329303179053 0 49.889329303179053 -136.71770445061105 0 0 0 0 15.419458661797762 26.36896632860153 0 26.36896632860153 -64.373158784554676 0 0 0 0 43.971067187041626 8.1251642988746582 0 8.1251642988746582 -172.5943938432369 0 0 0 0 44.28113857779681 5.8922957485052727 0 5.8922957485052727 -198.17707221542398 0 0 0 0 4.0871810033422662 22.491972806443613 0 22.491972806443613 -142.19089719747637 0 0 0 0 -48.889755230513401 -14.849057879544461 0 -14.849057879544461 -107.58730399078917 0 0 0 0 206.98354164128114 -90.568882744366263 0 -90.568882744366263 16.557692943944335 0 0 0 0 216.09578084783425 -27.033008712586479 0 -27.033008712586479 -20.795887059420934 0 0 0 0 22.682239421263006 8.8537912769481721 0 8.8537912769481721 1.1051824800901335 0 0 0 0 32.947931081600473 52.372061791687472 0 52.372061791687472 -215.39144677227839 0 0 0 0 32.360000368185865 22.163086491864362 0 22.163086491864362 -197.63782555406121 0 0 0 0 16.776864335850576 6.1815795992274474 0 6.1815795992274474 -0.20448692448327588 0 0 0 0 488.73796867995407 -241.06024223429446 0 -241.06024223429446 91.43479877389683 0 0 0 0 416.48739059524814 -227.88037580757731 0 -227.88037580757731 90.251311387136894 0 0 0 0 521.38851151795097 -162.70492655013464 0 -162.70492655013464 -54.377504576861135 0 0 0 0 475.20066365181628 -221.83781690157065 0 -221.83781690157065 108.65152027476381 0 0 0 0 420.19828056938422 20.620503003794624 0 20.620503003794624 27.799517341994271 0 0 0 0 606.02972700592363 -117.42232871869888 0 -117.42232871869888 17.733394027426357 0 0 0 0 386.94997030650848 -50.32785046968074 0 -50.32785046968074 -69.723666765108192 0 0 0 0 412.55157291403157 -42.764677570010136 0 -42.764677570010136 -67.132279118575454 0 0 0 0 700.16097069431999 -66.271007701482475 0 -66.271007701482475 -85.149502311456629 0 0 0 0 633.99708451226616 -263.12304673151618 0 -263.12304673151618 34.103808308917017 0 0 0 0 552.21046477869822 -114.87951070086423 0 -114.87951070086423 -70.842749034483788 0 0 0 0 382.67012247921957 -82.532629954693974 0 -82.532629954693974 -31.204355079763566 0 0 0 0 253.72232890946907 -41.310135489249362 0 -41.310135489249362 -27.345853841596558 0 0 0 0 224.10473822739004 -105.36697038266004 0 -105.36697038266004 41.583908920034702 0 0 0 0 406.26310193622339 -138.44028342593683 0 -138.44028342593683 -0.32933864973477966 0 0 0 0 501.73198436126404 -147.23321824772648 0 -147.23321824772648 -41.600385014083429 0 0 0 0 447.45657136339287 -96.920904470247535 0 -96.920904470247535 -65.793482949401266 0 0 0 0 332.91846506892307 -97.75657592595465 0 -97.75657592595465 -18.229038181213525 0 0 0 0 512.8656022084906 -116.08846148974828 0 -116.08846148974828 -21.12035243369413 0 0 0 0 490.44627812142426 -148.43488534465689 0 -148.43488534465689 -28.461761757205409 0 0 0 0 497.79140890460985 -163.12873066497124 0 -163.12873066497124 -58.079407214222925 0 0 0 0 532.84269890112046 -174.7478189645613 0 -174.7478189645613 -58.018381518004027 0 0 0 0 -52.05107718743966 -115.07748935999939 0 -115.07748935999939 -14.608331011060955 0 0 0 0 26.801278115575492 -35.669779006192641 0 -35.669779006192641 -8.8853917923040466 0 0 0 0 117.2033865054982 -1.4707333565535805 0 -1.4707333565535805 -6.7715723560534684 0 0 0 0 111.46417894987826 -23.039040611050751 0 -23.039040611050751 -79.810997825463573 0 0 0 0 41.974489813048422 -46.829180595577043 0 -46.829180595577043 8.1538465097000881 0 0 0 0 43.060404356874642 -52.244850253790901 0 -52.244850253790901 24.599087782168681 0 0 0 0 30.403206575101649 -2.1925268342668005 0 -2.1925268342668005 16.955977289663679 0 0 0 0 21.451827432960272 -20.635579070118183 0 -20.635579070118183 -20.896184674544202 0 0 0 0 -9.1482426037546247 -32.617434516658705 0 -32.617434516658705 -15.87326364988985 0 0 0 0 -1.5367909815601593 1.1637011074668635 0 1.1637011074668635 1.3612818349607707 0 0 0 0 59.12407069278305 0.97826920003045359 0 0.97826920003045359 -9.3777368498644069 0 0 0 0 36.385319486652406 -35.793514372855853 0 -35.793514372855853 -7.4058505820813902 0 0 0 0 10.583864997986062 -0.60105497671949593 0 -0.60105497671949593 -1.7197990457562846 0 0 0 0 -151.56650475072092 -113.093393842083 0 -113.093393842083 -129.43322847020727 0 0 0 0 -236.32389380339009 -218.30167358229369 0 -218.30167358229369 -73.560735624410086 0 0 0 0 5.4070793568586737 -4.2335221885379113 0 -4.2335221885379113 -2.9886132535805965 0 0 0 0 21.394836381943065 -19.100559952334919 0 -19.100559952334919 -2.0554933090043033 0 0 0 0 84.481257798011939 -3.4689223904767346 0 -3.4689223904767346 -117.3604073147867 0 0 0 0 60.594889292973676 -8.8451150624673005 0 -8.8451150624673005 -6.5003956354624961 0 0 0 0 -125.93165773467626 -210.93619862098183 0 -210.93619862098183 175.00032346885962 0 0 0 0 58.348979172307736 -97.652148449740764 0 -97.652148449740764 -187.4849206147494 0 0 0 0 -263.5420495911967 -288.97996872606325 0 -288.97996872606325 -134.36286708403497 0 0 0 0 -445.33215733260295 -41.539624273484122 0 -41.539624273484122 -30.872074522620437 0 0 0 0 -273.42058018800162 -156.32240127976411 0 -156.32240127976411 -44.108060612182385 0 0 0 0 -114.14681719764485 -139.56338947899758 0 -139.56338947899758 -37.181319934934436 0 0 0 0 -180.51686407825036 -213.41907357114098 0 -213.41907357114098 -57.288841937194775 0 0 0 0 -114.0017791140549 -69.084910476033201 0 -69.084910476033201 -5.6444572614784647 0 0 0 0 -132.57801648251188 -130.53182355142636 0 -130.53182355142636 -65.276000457546132 0 0 0 0 -103.19708215365245 -162.95077527629417 0 -162.95077527629417 -183.85454902883802 0 0 0 0 -79.216851959572523 -85.657083943937963 0 -85.657083943937963 -9.6584002518552836 0 0 0 0 -31.542575552666676 -59.523026975849852 0 -59.523026975849852 -27.387799536498747 0 0 0 0 81.84132239012979 -42.254894630140157 0 -42.254894630140157 -30.607122219959564 0 0 0 0 39.568633256683825 25.412989841893346 0 25.412989841893346 0.11571722699538073 0 0 0 0 -60.598960150542553 -69.702542525120464 0 -69.702542525120464 -84.23236493340346 0 0 0 0 -155.82679757462756 -64.428674316535023 0 -64.428674316535023 -30.337309652856675 0 0 0 0 -78.687517289035895 -12.091840344268661 0 -12.091840344268661 -191.91780479503666 0 0 0 0 10.774503973108949 -115.98266916434744 0 -115.98266916434744 -83.318273163965159 0 0 0 0 -76.845701062256921 29.18265570549854 0 29.18265570549854 -27.522729395705824 0 0 0 0 93.698704699418158 6.6710044255971184 0 6.6710044255971184 6.8697633453558922 0 0 0 0 306.75994037222699 36.592762059183656 0 36.592762059183656 -65.776948362449787 0 0 0 0 246.58886608303874 -36.719847974671382 0 -36.719847974671382 0.98775978387430996 0 0 0 0 242.14891613143845 29.425482220582865 0 29.425482220582865 -23.046406252846666 0 0 0 0 132.64662964151648 56.661632088056194 0 56.661632088056194 -8.4926895890644403 0 0 0 0 97.693175849024556 -4.6667793481614215 0 -4.6667793481614215 21.804414500917471 0 0 0 0 173.14620774987634 -58.15162509080379 0 -58.15162509080379 3.7783681056434935 0 0 0 0 189.46368194995739 -38.535312052234474 0 -38.535312052234474 21.160317127979852 0 0 0 0 201.00063578653499 -78.453446712441178 0 -78.453446712441178 30.135746325498019 0 0 0 0 64.077831067068473 -59.848244043008904 0 -59.848244043008904 29.9258216928705 0 0 0 0 20.810631460699369 -21.800396190681113 0 -21.800396190681113 55.269295574566513 0 0 0 0 -30.05114453717033 -73.250555510773694 0 -73.250555510773694 27.496683519775939 0 0 0 0 -24.281402938897372 -23.657556943250739 0 -23.657556943250739 39.434498532854931 0 0 0 0 -57.716746410784253 -101.36161251986616 0 -101.36161251986616 -1.9512580132216613 0 0 0 0 -82.619841459352756 -75.469873514418865 0 -75.469873514418865 28.559292348448281 0 0 0 0 -16.785372309066588 -68.074456114974851 0 -68.074456114974851 16.532703348461979 0 0 0 0 -50.630393874940637 -73.316029579842478 0 -73.316029579842478 34.887997192415753 0 0 0 0 -17.456039355609391 -43.442463492137449 0 -43.442463492137449 13.097805473643348 0 0 0 0 -7.6760308828124835 -59.095027541837737 0 -59.095027541837737 28.322893486785006 0 0 0 0 -59.285498993016517 -53.99395325707787 0 -53.99395325707787 -8.1607903367956567 0 0 0 0 -41.338305757864873 -85.977171652429604 0 -85.977171652429604 2.0010773959187418 0 0 0 0 21.564359310400363 -36.030902230133321 0 -36.030902230133321 -14.374011526426644 0 0 0 0 -4.8701495310451719 -92.521743217867538 0 -92.521743217867538 -18.052431971816119 0 0 0 0 -8.9984275940059888 -14.030848858187795 0 -14.030848858187795 62.295117032843791 0 0 0 0 -11.356978128198534 -63.503266295202579 0 -63.503266295202579 -54.092835931585796 0 0 0 0 -74.277126130815304 26.071634329132394 0 26.071634329132394 38.286483900785242 0 0 0 0 -97.56874193350086 -17.605950384836731 0 -17.605950384836731 -3.3831530920313071 0 0 0 0 -76.802313773976493 -77.934062934118913 0 -77.934062934118913 3.5258826882754875 0 0 0 0 10.274806118191918 -14.125807195100492 0 -14.125807195100492 -76.932121515031895 0 0 0 0 2.6873471754297498 -12.225674265831913 0 -12.225674265831913 37.285159643354746 0 0 0 0 28.726023574126884 -4.2165552025741135 0 -4.2165552025741135 6.8214625034531764 0 0 0 0 8.7503020529984497 55.632764114943939 0 55.632764114943939 26.192436748748122 0 0 0 0 1.5688028607432187 -0.34683290890359331 0 -0.34683290890359331 -1.2360364936109725 0 0 0 0 19.421274474319944 7.7250344254669017 0 7.7250344254669017 -19.079290686244576 0 0 0 0 13.192843176439055 25.808601538138305 0 25.808601538138305 35.164955817120585 0 0 0 0 31.785058819841652 -17.782297713231912 0 -17.782297713231912 64.731026494802109 0 0 0 0 76.501997942170419 -18.362502388323719 0 -18.362502388323719 19.99381431037466 0 0 0 0 80.742319199989197 -71.296228751169295 0 -71.296228751169295 96.0380980658515 0 0 0 0 19.084092027587758 -35.156652764302407 0 -35.156652764302407 50.961210728355582 0 0 0 0 86.146823445851624 -6.4381090678630244 0 -6.4381090678630244 53.726711360227569 0 0 0 0 106.33910613000626 20.879485990075182 0 20.879485990075182 -28.885887591728761 0 0 0 0 17.424723928153099 1.7512653971115797 0 1.7512653971115797 0.4056577340569204 0 0 0 0 101.93708333996619 -10.54303532786173 0 -10.54303532786173 -39.005469070147456 0 0 0 0 38.543274168659991 50.509971557400604 0 50.509971557400604 71.721922463878286 0 0 0 0 122.11173482194135 47.765173023438933 0 47.765173023438933 60.35197000327264 0 0 0 0 9.2550324017647654 -15.340588011302543 0 -15.340588011302543 54.725251011586636 0 0 0 0 38.694545650629152 38.849798177488992 0 38.849798177488992 66.539003879297468 0 0 0 0 31.876704132533632 -22.91860636184856 0 -22.91860636184856 -9.6059724610813646 0 0 0 0 23.987282245024687 -0.51353661489048674 0 -0.51353661489048674 -2.303070801546808 0 0 0 0 33.623231924902939 -2.4152851378596552 0 -2.4152851378596552 -2.0554791975953322 0 0 0 0 45.118295201813453 -9.6853403804657319 0 -9.6853403804657319 -29.681380552210726 0 0 0 0 21.459164007268555 19.949432228413229 0 19.949432228413229 40.81560291002927 0 0 0 0 26.286711962922709 -16.059018408370207 0 -16.059018408370207 39.979851122258879 0 0 0 0 33.556831578745914 28.912794054889559 0 28.912794054889559 -1.952048074823125 0 0 0 0 33.577245612520528 -2.609959796670843 0 -2.609959796670843 5.032603439637569 0 0 0 0 301.44261714743334 186.36630312992338 0 186.36630312992338 -301.84231639222298 0 0 0 0 28.458681198860347 -13.208704985696457 0 -13.208704985696457 -9.6905105611929478 0 0 0 0 -15.552473631040726 -11.243064134083268 0 -11.243064134083268 -2.0196623352803922 0 0 0 0 288.21946003023186 -177.59850394399461 0 -177.59850394399461 58.683222683506301 0 0 0 0 -100.28695428318315 -227.13768517017161 0 -227.13768517017161 33.950898496688751 0 0 0 0 609.0762194437084 117.75069988581492 0 117.75069988581492 480.55065386405181 0 0 0 0 556.27218148902466 1.0801889354573291 0 1.0801889354573291 223.73463178720107 0 0 0 0 340.00366486280836 -105.14786410327577 0 -105.14786410327577 532.46964169637386 0 0 0 0 496.4451088249225 -161.3915099562978 0 -161.3915099562978 131.77100606462056 0 0 0 0 530.04870902034963 -78.15286214961435 0 -78.15286214961435 40.776777933010408 0 0 0 0 593.74558329287538 -167.44055387742662 0 -167.44055387742662 -37.40760107556315 0 0 0 0 380.04588861374941 -178.7709132711766 0 -178.7709132711766 91.476473803402314 0 0 0 0 370.74381241036463 -151.82770680986926 0 -151.82770680986926 51.207885721706702 0 0 0 0 38.307568214870116 7.6590757248520731 0 7.6590757248520731 96.97358000992233 0 0 0 0 97.573318185294738 -115.51070120300217 0 -115.51070120300217 161.35275893473272 0 0 0 0 786.86552938935347 -122.67593533448837 0 -122.67593533448837 52.746792112496792 0 0 0 0 6.9858068795196573 0.27890189620178951 0 0.27890189620178951 0.39920640796822593 0 0 0 0 376.15679083295254 400.58895840859407 0 400.58895840859407 392.08170097042125 0 0 0 0 311.03832567675272 -329.31714688733041 0 -329.31714688733041 272.57251820471015 0 0 0 0 146.69822131440014 203.64575948716447 0 203.64575948716447 235.9395476500066 0 0 0 0 21.521134199068911 57.691195394323245 0 57.691195394323245 162.13232546904283 0 0 0 0 819.83328033402358 186.37895117660401 0 186.37895117660401 100.43515457240846 0 0 0 0 497.01266176070931 300.20014684030201 0 300.20014684030201 97.826679309688345 0 0 0 0 750.16640518775239 -104.20391230950281 0 -104.20391230950281 389.03659773657614 0 0 0 0 462.75216379607446 144.11628453090293 0 144.11628453090293 206.39468682525626 0 0 0 0 389.21547982862103 -36.106120149585763 0 -36.106120149585763 705.70875643776492 0 0 0 0 390.19794068688861 -38.13819679227722 0 -38.13819679227722 608.45687349944649 0 0 0 0 250.14694470880931 97.719283594544663 0 97.719283594544663 505.44215079175285 0 0 0 0 484.37714148804662 93.711788677219943 0 93.711788677219943 194.82971312937502 0 0 0 0 352.67415520598297 210.46814335862609 0 210.46814335862609 156.77316256702306 0 0 0 0 437.66332221025368 149.84797847758739 0 149.84797847758739 -138.2889942945269 0 0 0 0 387.83465101486217 243.28122915185611 0 243.28122915185611 27.888063270596604 0 0 0 0 228.70198762608561 96.996717890067544 0 96.996717890067544 -100.9736457478657 0 0 0 0 369.30740015082119 134.33546727132693 0 134.33546727132693 -175.0454292122468 0 0 0 0 479.26116085448302 220.17275688676688 0 220.17275688676688 -81.047865176142295 0 0 0 0 417.20169353591336 165.65115418623941 0 165.65115418623941 -69.515351370834537 0 0 0 0 389.5573898646835 201.50777490233463 0 201.50777490233463 -108.25088592650491 0 0 0 0 479.5767300534535 235.93349201472705 0 235.93349201472705 -6.3905464749173007 0 0 0 0 596.4676512780643 166.37971165474437 0 166.37971165474437 34.22025675872419 0 0 0 0 502.99512449450413 219.9184082001392 0 219.9184082001392 -83.979420173326929 0 0 0 0 422.22289038346207 138.80657278915828 0 138.80657278915828 53.334893500722956 0 0 0 0 412.71239438675548 199.99280766132767 0 199.99280766132767 12.101396531808746 0 0 0 0 450.6923050605692 230.41476189504152 0 230.41476189504152 30.475315665243215 0 0 0 0 382.37795220580301 237.63653006404479 0 237.63653006404479 61.361704163262743 0 0 0 0 256.1605943325776 115.67483446211884 0 115.67483446211884 17.413312523791319 0 0 0 0 421.91035842282145 265.80378030391745 0 265.80378030391745 71.635572451117923 0 0 0 0 467.22729518397114 117.62290033095518 0 117.62290033095518 -51.255426844456224 0 0 0 0 473.04123628626257 210.25926217529991 0 210.25926217529991 -48.561381662774124 0 0 0 0 496.50125690267305 229.03736924653231 0 229.03736924653231 -37.290986912765447 0 0 0 0 506.69113719899178 220.73799296513369 0 220.73799296513369 -76.591820180313107 0 0 0 0 493.79393264261307 201.37327957127218 0 201.37327957127218 -64.563551234398005 0 0 0 0 566.61749891166255 194.05387383687616 0 194.05387383687616 -53.100115839151954 0 0 0 0 491.74653314944953 202.38947259360839 0 202.38947259360839 -53.999427812883823 0 0 0 0 492.74750176436282 266.24843934346075 0 266.24843934346075 43.724369790211767 0 0 0 0 460.06362887166324 119.65152111332657 0 119.65152111332657 -48.537990601299953 0 0 0 0 651.79942086248047 126.4438577393795 0 126.4438577393795 -98.102772510551404 0 0 0 0 920.97634727445984 324.58065574258433 0 324.58065574258433 1.7524434733146563 0 0 0 0 546.7693588923903 204.56717700899048 0 204.56717700899048 28.484247700290098 0 0 0 0 495.23873025341891 337.99626208086761 0 337.99626208086761 244.07277446678833 0 0 0 0 301.73659431929991 188.31519046506799 0 188.31519046506799 185.89101981703158 0 0 0 0 275.61481013340381 81.219469580220562 0 81.219469580220562 22.888277614653362 0 0 0 0 50.865054714582001 -32.239512892086971 0 -32.239512892086971 15.754274501407421 0 0 0 0 80.765130160658373 -78.912922619494566 0 -78.912922619494566 -154.74291275811993 0 0 0 0 64.10012915149855 -75.018954174639475 0 -75.018954174639475 -154.7705481657751 0 0 0 0 78.15614409391128 -67.048319633427127 0 -67.048319633427127 -154.27656602510683 0 0 0 0 239.50876871209766 84.383307241951002 0 84.383307241951002 86.393161412921927 0 0 0 0 6.8248237976592634 -14.379954257759355 0 -14.379954257759355 -1.1158487568964288 0 0 0 0 140.07395194010314 124.35161275733219 0 124.35161275733219 -120.3423161344017 0 0 0 0 253.88843308601645 22.168748475239227 0 22.168748475239227 -152.94491413506071 0 0 0 0 283.17397910054206 96.306477455408412 0 96.306477455408412 -71.211298398161944 0 0 0 0 373.96902936162951 161.33296276670376 0 161.33296276670376 -25.623930652566514 0 0 0 0 373.38791827567911 164.57977908110627 0 164.57977908110627 -42.137360668815063 0 0 0 0 89.091720267213532 311.57836062756974 0 311.57836062756974 -311.02354634274059 0 0 0 0 1425.9550042644551 -96.683178664872685 0 -96.683178664872685 -489.9590041785159 0 0 0 0 -132.82475939407595 218.52671543237921 0 218.52671543237921 210.42894758067996 0 0 0 0 -248.30981667473679 171.58841104260432 0 171.58841104260432 196.90988919440133 0 0 0 0 4.5865019383636536 225.33993959288443 0 225.33993959288443 24.285645036689857 0 0 0 0 33.45901452365797 119.58558549417467 0 119.58558549417467 14.724538156521248 0 0 0 0 331.80427092463651 88.364174207741598 0 88.364174207741598 -111.41737309542305 0 0 0 0 60.631406078970031 97.942833195620608 0 97.942833195620608 -75.592134247151989 0 0 0 0 62.247675371378136 44.880855962508292 0 44.880855962508292 -12.056426147011507 0 0 0 0 -6.4489458790631033 77.36318930850075 0 77.36318930850075 42.095644427088899 0 0 0 0 23.26646126084961 25.266020394252905 0 25.266020394252905 46.305408222629012 0 0 0 0 -22.367069504574829 23.461020745330359 0 23.461020745330359 96.203896924650508 0 0 0 0 -43.25402203860358 36.441040288059071 0 36.441040288059071 90.711162807082928 0 0 0 0 -10.839819394348524 65.013541057753542 0 65.013541057753542 92.010061530635085 0 0 0 0 -117.47913943575986 85.082476911245294 0 85.082476911245294 92.939735682634591 0 0 0 0 -101.187079007188 118.51502486167129 0 118.51502486167129 161.23313754953051 0 0 0 0 -244.81024572512251 62.006135290809198 0 62.006135290809198 142.493421563933 0 0 0 0 -155.46468877072039 34.489488064656371 0 34.489488064656371 113.18660964154651 0 0 0 0 -58.339583982422482 24.008687664871218 0 24.008687664871218 114.31663750968164 0 0 0 0 28.643435509555275 -22.458807751244876 0 -22.458807751244876 78.766781178601349 0 0 0 0 -20.501977706255275 1.746961516162628 0 1.746961516162628 75.755612588850397 0 0 0 0 177.07029462154605 -7.5398979961719306 0 -7.5398979961719306 34.526001237629089 0 0 0 0 141.47940868430305 22.123144041290743 0 22.123144041290743 56.680297636698128 0 0 0 0 44.034652555608773 9.0544735127407421 0 9.0544735127407421 65.842384060003496 0 0 0 0 95.573122358196997 12.090731664577788 0 12.090731664577788 66.760415051054451 0 0 0 0 29.284966795676155 3.0450781775929272 0 3.0450781775929272 73.666109738238902 0 0 0 0 40.621618388104253 27.584417521301475 0 27.584417521301475 60.740092683639432 0 0 0 0 40.554867669056875 26.730551065855181 0 26.730551065855181 86.428582627765536 0 0 0 0 94.553326502667915 73.738504060994046 0 73.738504060994046 113.91282352792928 0 0 0 0 252.32979633816285 110.41693916623672 0 110.41693916623672 63.512303052678703 0 0 0 0 309.17664497323858 128.72262899018688 0 128.72262899018688 20.291106272593026 0 0 0 0 133.72874167681584 43.860971633564503 0 43.860971633564503 38.582000231714574 0 0 0 0 312.10743809839914 36.829541271347466 0 36.829541271347466 9.6524975453388606 0 0 0 0 179.05466385796171 -12.56750057824604 0 -12.56750057824604 12.879251191096273 0 0 0 0 286.52652317845786 21.962451168985353 0 21.962451168985353 -7.149925867111051 0 0 0 0 377.03157960972749 -42.972048474873986 0 -42.972048474873986 -25.556669761794637 0 0 0 0 506.40089227321732 -49.307161840460651 0 -49.307161840460651 15.624910462556954 0 0 0 0 621.6989274468433 67.325359277616599 0 67.325359277616599 -28.633296000354107 0 0 0 0 530.67132543215848 -146.22316008375969 0 -146.22316008375969 -44.620866222028667 0 0 0 0 405.04927637002402 48.789484930524964 0 48.789484930524964 -53.482674186012332 0 0 0 0 289.7986988663979 -209.60617643715401 0 -209.60617643715401 5.4826425114661106 0 0 0 0 65.781429016773473 -24.743617390548593 0 -24.743617390548593 11.451897481361357 0 0 0 0 -247.57919901065179 -135.13047320461726 0 -135.13047320461726 103.90663461432996 0 0 0 0 61.67532660048164 -46.392684936396194 0 -46.392684936396194 -51.438900196402756 0 0 0 0 -52.787210277681879 -131.35658045011598 0 -131.35658045011598 13.186350103295354 0 0 0 0 176.64157257968327 -125.9431665218367 0 -125.9431665218367 13.745664774758172 0 0 0 0 47.826459980882646 -20.977192284295143 0 -20.977192284295143 24.672030439779064 0 0 0 0 44.420772719880915 -62.977403988243395 0 -62.977403988243395 45.466925799679075 0 0 0 0 -62.127837107836967 -37.548257594220104 0 -37.548257594220104 65.809313514346741 0 0 0 0 -210.46261961138225 -5.7331207460181304 0 -5.7331207460181304 100.60174611802813 0 0 0 0 -234.25730531702357 75.008433704005085 0 75.008433704005085 113.29689928144398 0 0 0 0 -181.68697186224017 -12.514595543111795 0 -12.514595543111795 76.370220444074732 0 0 0 0 -164.07773834682303 20.287329803079956 0 20.287329803079956 21.567905664013551 0 0 0 0 -312.07933964973654 178.86794899492583 0 178.86794899492583 -197.43304183131977 0 0 0 0 -305.6102315867829 -49.978607387238867 0 -49.978607387238867 0.6004975420169103 0 0 0 0 -339.04847500422329 137.5225092791286 0 137.5225092791286 -32.365108604054171 0 0 0 0 55.414786689245375 9.6131567310327455 0 9.6131567310327455 -93.090999799550929 0 0 0 0 821.49338042906311 193.33648003090622 0 193.33648003090622 653.36041091346351 0 0 0 0 -0.90563005213397929 2.0339077324414347 0 2.0339077324414347 -3.2399114003090252 0 0 0 0 767.09006555944143 387.03590286583267 0 387.03590286583267 -34.179774913740744 0 0 0 0 -335.23296202139318 84.281090831186816 0 84.281090831186816 71.039082374370082 0 0 0 0 -376.4112061946289 75.687087398930657 0 75.687087398930657 62.374750863600639 0 0 0 0 -331.85709688419593 102.15438381114416 0 102.15438381114416 164.45277960938256 0 0 0 0 -269.85456595809956 31.967241828650685 0 31.967241828650685 69.871527605576318 0 0 0 0 55.702719959394017 -41.94372031986677 0 -41.94372031986677 11.240120331826802 0 0 0 0 -10.163148442617967 -11.179288597939376 0 -11.179288597939376 41.940399760766013 0 0 0 0 27.80775340220643 -0.72115591999137507 0 -0.72115591999137507 -11.92822516871194 0 0 0 0 24.308676432554421 19.407654801935379 0 19.407654801935379 -14.401173241990364 0 0 0 0 21.501652583530813 -24.039383965079651 0 -24.039383965079651 47.160095596613246 0 0 0 0 29.270873509765806 9.694754551107394 0 9.694754551107394 -13.439559113315227 0 0 0 0 61.856559386385925 -17.318780136989943 0 -17.318780136989943 -26.547500613078228 0 0 0 0 48.983114441169164 11.117622824523835 0 11.117622824523835 -27.757235574145966 0 0 0 0 30.864636388133931 -3.7431631754877799 0 -3.7431631754877799 3.3325664972544473 0 0 0 0 18.739246443481534 8.8108352720854555 0 8.8108352720854555 0.30768154850829887 0 0 0 0 -0.46926727919508338 0.58305370097258447 0 0.58305370097258447 -2.468340989969025 0 0 0 0 -809.82332589042926 211.86488813898222 0 211.86488813898222 95.178580820956768 0 0 0 0 -410.4899235301782 -31.423916899832989 0 -31.423916899832989 -126.38584204487915 0 0 0 0 -592.80087800054025 299.51734425769541 0 299.51734425769541 61.843308000934826 0 0 0 0 4.2573404040742204 0.86204431443968588 0 0.86204431443968588 -8.9502712315706709 0 0 0 0 41.662651103746612 6.8127414231690437 0 6.8127414231690437 -21.622562791187235 0 0 0 0 -449.0863393786567 197.09594044306459 0 197.09594044306459 -151.37500663980791 0 0 0 0 28.678038694611232 8.4579089701061534 0 8.4579089701061534 -17.231255266400279 0 0 0 0 68.250145500431245 177.01259803351377 0 177.01259803351377 -202.53936355187034 0 0 0 0 -419.39021163732104 318.08133257755856 0 318.08133257755856 331.32823568782896 0 0 0 0 -304.9825051720909 184.03160774195908 0 184.03160774195908 27.359560008170092 0 0 0 0 -21.4969383525995 -12.551305587465805 0 -12.551305587465805 341.06062597128857 0 0 0 0 -32.547294011375925 -74.768374667194394 0 -74.768374667194394 35.112437778997446 0 0 0 0 1624.6427031802668 289.88888295153583 0 289.88888295153583 84.090019916112908 0 0 0 0 748.67382108152378 -49.374730845540284 0 -49.374730845540284 59.394480251312643 0 0 0 0 830.39566296871635 -391.17565016821641 0 -391.17565016821641 273.4242690688634 0 0 0 0 -36.913877567192685 287.82015655404928 0 287.82015655404928 823.12284550748427 0 0 0 0 1123.4454870998743 585.27325986588767 0 585.27325986588767 -227.72756088900951 0 0 0 0 82.595072402247752 341.39367616744221 0 341.39367616744221 -229.87947468653692 0 0 0 0 178.06220175312046 405.94348337997189 0 405.94348337997189 -236.84834228131149 0 0 0 0 -239.86022039603267 349.96623002132765 0 349.96623002132765 -229.18859028800944 0 0 0 0 146.49870259358067 -98.711536315016929 0 -98.711536315016929 -571.91288586016526 0 0 0 0 2.8041717480536761 7.6414622740725733 0 7.6414622740725733 -3.8724016212923296 0 0 0 0 254.99602972296998 206.10116564630334 0 206.10116564630334 -752.7105877967233 0 0 0 0 292.22869414525485 646.05216456006292 0 646.05216456006292 -381.49407475214502 0 0 0 0 109.51705125000444 -56.383474938384097 0 -56.383474938384097 -633.03022956245104 0 0 0 0 25.877755592795438 115.29350663551122 0 115.29350663551122 -111.88099715407952 0 0 0 0 148.52036277191655 59.442721329050073 0 59.442721329050073 -125.05782858788098 0 0 0 0 11.517998822339621 -12.048349171241854 0 -12.048349171241854 -4.5822576600359763 0 0 0 0 61.289689842917142 146.90992943802121 0 146.90992943802121 -203.48981094823648 0 0 0 0 -20.879846344858379 75.991282041647082 0 75.991282041647082 -41.851133655383819 0 0 0 0 57.535730150397285 69.210122860065894 0 69.210122860065894 -47.306818951194145 0 0 0 0 125.84567167888599 885.48271312117095 0 885.48271312117095 -672.19060797986094 0 0 0 0 2.0150506638389629 0.32257146073906284 0 0.32257146073906284 -1.5984054244790276 0 0 0 0 -80.633390801078349 29.532376078678226 0 29.532376078678226 253.9958148892656 0 0 0 0 -463.26071214927651 138.73239366330199 0 138.73239366330199 -120.51854140682781 0 0 0 0 -332.78614703366475 517.83501063974109 0 517.83501063974109 -311.00312003628778 0 0 0 0 1.2022557701639016 50.170710517391854 0 50.170710517391854 -12.24867903327322 0 0 0 0 15.722061794347265 21.599541584964278 0 21.599541584964278 -36.11997952195334 0 0 0 0 136.78687379564508 -17.411578928101221 0 -17.411578928101221 -61.04406665195711 0 0 0 0 -3.9607398331575041 6.0558689426944525 0 6.0558689426944525 -4.6052527199634739 0 0 0 0 114.73078093457298 -17.71648804689039 0 -17.71648804689039 -50.222258142442683 0 0 0 0 113.94848246092624 18.937940225738572 0 18.937940225738572 -41.701603488872706 0 0 0 0 24.905599305769158 19.87293289966113 0 19.87293289966113 -37.81771556643703 0 0 0 0 108.11595866219432 31.714702235234654 0 31.714702235234654 -41.430452510125178 0 0 0 0 107.51085805478397 43.412879293489368 0 43.412879293489368 -39.649427105566247 0 0 0 0 173.13982022765413 17.00098038189617 0 17.00098038189617 -58.312303076952958 0 0 0 0 104.72616878936969 -17.954225373064787 0 -17.954225373064787 -7.0537007848256508 0 0 0 0 100.34501338922564 5.0627550087381223 0 5.0627550087381223 -76.063717003884449 0 0 0 0 -51.120312996652501 -101.46781931736041 0 -101.46781931736041 -33.807191197428892 0 0 0 0 55.23992834622004 -44.626499743562476 0 -44.626499743562476 -3.466274175885701 0 0 0 0 114.30241171295341 -65.655727264347291 0 -65.655727264347291 -145.83297652040619 0 0 0 0 70.288599659448664 -157.60913390378346 0 -157.60913390378346 -68.302689541271775 0 0 0 0 23.06412908274433 -98.893089428878284 0 -98.893089428878284 -104.82505081607815 0 0 0 0 91.131034969286702 -111.29395679262689 0 -111.29395679262689 -147.13089162304232 0 0 0 0 91.251799905669486 -103.01283692739563 0 -103.01283692739563 -153.89463667915879 0 0 0 0 89.739281611298793 -115.68296509099912 0 -115.68296509099912 -150.85626339871658 0 0 0 0 77.603717343314202 -92.47252066985584 0 -92.47252066985584 -160.3973546305233 0 0 0 0 98.516823222089442 -86.37662367054611 0 -86.37662367054611 -199.74037264695426 0 0 0 0 108.04935660454794 -89.064493356316689 0 -89.064493356316689 -202.5148530040334 0 0 0 0 78.234579034202397 -92.506485924942695 0 -92.506485924942695 -193.75904368482406 0 0 0 0 5.205963323330252 -224.50120036326263 0 -224.50120036326263 -267.04297135205934 0 0 0 0 -20.948051748127909 -131.55436068576398 0 -131.55436068576398 -182.38199857975087 0 0 0 0 79.205085072044312 -82.200768788651203 0 -82.200768788651203 -199.9833677805625 0 0 0 0 29.437942462602564 -19.949916343893285 0 -19.949916343893285 14.09401485441667 0 0 0 0 1294.9085266876791 904.52795882636599 0 904.52795882636599 590.5389531964147 0 0 0 0 493.40158600349901 374.51889328112117 0 374.51889328112117 421.27155451830595 0 0 0 0 9.9191378363807132 -6.7221864189379161 0 -6.7221864189379161 5.952454069387521 0 0 0 0 72.467175646481337 -99.45415979369227 0 -99.45415979369227 -258.91992183641446 0 0 0 0 -147.53518454588266 -334.59247690120446 0 -334.59247690120446 111.30466650664084 0 0 0 0 64.303756143603096 -252.41605010069088 0 -252.41605010069088 -104.33820065632062 0 0 0 0 453.40583201258414 -548.2477507154972 0 -548.2477507154972 46.863143011335637 0 0 0 0 1161.1317583114869 -314.36949284713319 0 -314.36949284713319 -381.95755673575695 0 0 0 0 513.4723721539267 -258.25189456223416 0 -258.25189456223416 -355.91421749783331 0 0 0 0 682.18969263939653 103.52663374083932 0 103.52663374083932 -532.05180823871888 0 0 0 0 413.18100090061489 -175.81860441152457 0 -175.81860441152457 -423.36381469107255 0 0 0 0 292.15285688727454 -34.979427424268579 0 -34.979427424268579 -364.09215430317818 0 0 0 0 343.50845555600245 19.594267246389791 0 19.594267246389791 -368.40607065869335 0 0 0 0 299.62144323964458 -282.05771280721592 0 -282.05771280721592 -128.98153530878881 0 0 0 0 186.84674709209503 -119.1361400504029 0 -119.1361400504029 -183.21345081684376 0 0 0 0 154.07209334064828 -174.33276803452463 0 -174.33276803452463 -206.23752102732988 0 0 0 0 134.74002847972224 -119.79711003513239 0 -119.79711003513239 -140.99034354297419 0 0 0 0 158.57131160574318 -153.1094586504405 0 -153.1094586504405 -117.42468774467488 0 0 0 0 60.27658437395803 -126.51685044507383 0 -126.51685044507383 -105.56982963568225 0 0 0 0 110.7682191357344 -173.39747390090906 0 -173.39747390090906 -99.444417697446625 0 0 0 0 99.698047231675446 -161.00112541664612 0 -161.00112541664612 -112.93932568354194 0 0 0 0 115.22049427395177 -145.64227640891022 0 -145.64227640891022 -112.98495990048241 0 0 0 0 89.487637034602812 -118.90064383065101 0 -118.90064383065101 -117.98531027511672 0 0 0 0 104.61929905477155 -124.58162603462642 0 -124.58162603462642 -103.97278972438107 0 0 0 0 107.94947955439784 -127.80376673399451 0 -127.80376673399451 -118.59699352819371 0 0 0 0 128.60457603837858 -103.39442793912349 0 -103.39442793912349 -83.624674537924875 0 0 0 0 118.06213067039062 -123.68905579328748 0 -123.68905579328748 -106.58905547631821 0 0 0 0 117.98026621544419 -100.50950472805354 0 -100.50950472805354 -79.804925286796788 0 0 0 0 106.38309677841971 -106.87996351531183 0 -106.87996351531183 -65.239339030438714 0 0 0 0 121.20008328245603 -91.306078765488564 0 -91.306078765488564 -67.250421717782501 0 0 0 0 100.56937692603969 -83.120005504549226 0 -83.120005504549226 -33.813903996804584 0 0 0 0 97.252350794864469 -108.01167454195638 0 -108.01167454195638 -71.255145795505086 0 0 0 0 110.44821572735236 -103.86316823018933 0 -103.86316823018933 -96.513873775875254 0 0 0 0 105.95690070159617 -119.53397723075796 0 -119.53397723075796 -100.40870361444468 0 0 0 0 86.717097781392567 -68.063641416910741 0 -68.063641416910741 -18.685240655038797 0 0 0 0 88.347270941053466 -90.696508875157974 0 -90.696508875157974 -40.721888917098113 0 0 0 0 98.139420074709051 -72.491767623636406 0 -72.491767623636406 -17.584510294280335 0 0 0 0 96.625547317336896 -90.355246990729938 0 -90.355246990729938 -34.357468312118726 0 0 0 0 109.9097384452034 -82.108011171339967 0 -82.108011171339967 -49.9067543695528 0 0 0 0 90.122174003889086 -99.9636895562071 0 -99.9636895562071 -58.964812028612869 0 0 0 0 106.42115857126919 -94.37421047234966 0 -94.37421047234966 -83.590059100726648 0 0 0 0 90.585697591865028 -89.41894445100661 0 -89.41894445100661 -76.979007363006531 0 0 0 0 89.176998315444507 -79.532792267609693 0 -79.532792267609693 -49.438659840129731 0 0 0 0 62.777995277690934 -91.08454617948837 0 -91.08454617948837 -77.075612367440044 0 0 0 0 83.234585785008676 -106.41696406282426 0 -106.41696406282426 -86.490578599977198 0 0 0 0 85.856390687165913 -110.87468713060434 0 -110.87468713060434 -112.20576302838708 0 0 0 0 80.48928729373074 -101.48748933754405 0 -101.48748933754405 -118.83198104244457 0 0 0 0 80.108709250976972 -119.29009966115473 0 -119.29009966115473 -121.84092923645312 0 0 0 0 99.143404852075037 -115.1031027496374 0 -115.1031027496374 -102.18667120161399 0 0 0 0 103.73649498599843 -117.25432707101982 0 -117.25432707101982 -124.74097820105817 0 0 0 0 93.494992040665238 -115.14733916674686 0 -115.14733916674686 -99.475590871982831 0 0 0 0 100.3290482875891 -106.2026318683611 0 -106.2026318683611 -115.5263926567859 0 0 0 0 98.872274877754535 -116.12148829515013 0 -116.12148829515013 -157.61601786919982 0 0 0 0 93.319021235693072 -114.20852953812391 0 -114.20852953812391 -124.6711349982275 0 0 0 0 100.53101558257549 -116.78415232496764 0 -116.78415232496764 -152.89060143923689 0 0 0 0 100.09824082271371 -96.002625200844932 0 -96.002625200844932 -181.67762410221479 0 0 0 0 102.34402794441485 -112.03127418997417 0 -112.03127418997417 -182.67115483661178 0 0 0 0 94.213499048573794 -109.51017046083643 0 -109.51017046083643 -156.86644580445136 0 0 0 0 60.398321083312112 -129.01538810557042 0 -129.01538810557042 -152.10714058652366 0 0 0 0 52.223019383734936 -156.74644184254453 0 -156.74644184254453 -210.3832319879275 0 0 0 0 75.825368464864368 -113.92027954591754 0 -113.92027954591754 -168.62932399888859 0 0 0 0 90.032420643630758 -128.30449598686994 0 -128.30449598686994 -196.29284822724514 0 0 0 0 102.64012946297589 -118.9120291453446 0 -118.9120291453446 -225.1930674031978 0 0 0 0 102.14598052349766 -124.48717314425747 0 -124.48717314425747 -284.31785983211603 0 0 0 0 111.09270525768807 -90.166771544565108 0 -90.166771544565108 -289.00680079498943 0 0 0 0 90.104740505787049 -89.135127538511938 0 -89.135127538511938 -273.29524072402864 0 0 0 0 113.24362733249291 -78.289055535097759 0 -78.289055535097759 -224.50704503887118 0 0 0 0 122.08284854055819 -88.137963893207598 0 -88.137963893207598 -243.68614716890329 0 0 0 0 122.0733828129305 -79.531070401077613 0 -79.531070401077613 -209.47096123674419 0 0 0 0 108.04529669867483 -87.654524765473511 0 -87.654524765473511 -214.05740946724291 0 0 0 0 107.98910606896243 -103.70890132400586 0 -103.70890132400586 -205.40016634022714 0 0 0 0 108.37376400066205 -104.69902037404984 0 -104.69902037404984 -204.00747420303492 0 0 0 0 13.711725634933828 -169.56129689729772 0 -169.56129689729772 -251.97102664286595 0 0 0 0 200.91120844137549 -308.5304290617446 0 -308.5304290617446 -633.34473755884528 0 0 0 0 75.442011841732892 -168.52908438510804 0 -168.52908438510804 -546.0849006914641 0 0 0 0 1.308943675698174 -175.50898457842061 0 -175.50898457842061 -273.11948537925696 0 0 0 0 90.415924363900558 -69.491231032440282 0 -69.491231032440282 -486.55464164859313 0 0 0 0 91.607120148286413 -88.871431974541792 0 -88.871431974541792 -275.35294674293436 0 0 0 0 53.881697511256789 -148.9552921269451 0 -148.9552921269451 -264.0699442963421 0 0 0 0 4.6410607540037745 -189.27327185482227 0 -189.27327185482227 -201.67856929761683 0 0 0 0 5.5772515876360558 -163.00502347660654 0 -163.00502347660654 -128.13528888687506 0 0 0 0 31.671951054409874 -102.33954046908366 0 -102.33954046908366 -99.660784974029639 0 0 0 0 47.68449105495165 -135.32106351743641 0 -135.32106351743641 -213.33491513395848 0 0 0 0 1.5895243036814009 -183.02405983151877 0 -183.02405983151877 -27.912827018105418 0 0 0 0 174.12346910791712 -175.73448056176383 0 -175.73448056176383 -251.7988849897184 0 0 0 0 -9.9110987334024685 -68.347970173582326 0 -68.347970173582326 -83.998609045765988 0 0 0 0 37.182932882074965 -65.497333815625097 0 -65.497333815625097 -88.792562771690427 0 0 0 0 -39.696406368719181 -81.52740613877404 0 -81.52740613877404 -39.956406445030268 0 0 0 0 35.02092407319833 -100.01325419057866 0 -100.01325419057866 -105.39305030644391 0 0 0 0 65.208515139409428 -94.059434486741338 0 -94.059434486741338 -104.7028125791652 0 0 0 0 33.752068674768452 -81.278954312182577 0 -81.278954312182577 -63.237760353349586 0 0 0 0 61.279072872559482 -85.801786799649562 0 -85.801786799649562 -68.038993170690446 0 0 0 0 27.107814951570617 -80.676846252050382 0 -80.676846252050382 1.2617946617829148 0 0 0 0 65.851427693400183 -69.296354728447113 0 -69.296354728447113 -25.278876202981337 0 0 0 0 66.784609167858434 -90.136902079484571 0 -90.136902079484571 -41.379187846589048 0 0 0 0 39.713591865925991 -58.290933546973974 0 -58.290933546973974 39.690985213019303 0 0 0 0 58.04690269735147 -80.990652952998062 0 -80.990652952998062 -17.074432780427742 0 0 0 0 75.071495931377285 -56.241201458426076 0 -56.241201458426076 15.778772351462976 0 0 0 0 43.689223393199569 -32.281800907284769 0 -32.281800907284769 24.087397396113538 0 0 0 0 1660.9600306823718 185.50351736020173 0 185.50351736020173 -755.03096742721164 0 0 0 0 497.15260872455383 2074.5639315079361 0 2074.5639315079361 959.89430774538505 0 0 0 0 27.124523066111578 -92.333237349737828 0 -92.333237349737828 -63.406435708826393 0 0 0 0 99.835540111460432 126.47589581707598 0 126.47589581707598 1210.6687368507046 0 0 0 0 616.37029379675778 -164.19911742716113 0 -164.19911742716113 742.8149214603809 0 0 0 0 19.58474379362724 530.66497416834864 0 530.66497416834864 615.77396469500354 0 0 0 0 -234.78652598164081 195.61414088634547 0 195.61414088634547 -214.93864695442386 0 0 0 0 496.34720627430897 238.62831810446573 0 238.62831810446573 -212.450086735083 0 0 0 0 216.05310198460484 120.26912784772856 0 120.26912784772856 -448.29096307076293 0 0 0 0 13.906340262661615 -70.017252500951145 0 -70.017252500951145 -257.71064634781192 0 0 0 0 -1000.1631193570247 -604.27017160651735 0 -604.27017160651735 -473.18469572382185 0 0 0 0 0.64244647625481699 3.4121100910535418 0 3.4121100910535418 8.3741427484571691 0 0 0 0 -1194.0401660609891 -365.14517376270624 0 -365.14517376270624 810.44977043392737 0 0 0 0 1258.7104533609299 -838.69750853553114 0 -838.69750853553114 -607.17733200966495 0 0 0 0 -13.451052086349819 -206.44185431863619 0 -206.44185431863619 75.68180569584456 0 0 0 0 12.456964738432102 -7.9037483370712502 0 -7.9037483370712502 7.4037066963135274 0 0 0 0 1784.1391756241414 1763.8465954769383 0 1763.8465954769383 1235.2269636574692 0 0 0 0 3402.3580055789448 -1158.9862980555974 0 -1158.9862980555974 -323.87039739108525 0 0 0 0 4492.1580511927232 -1870.2701978371772 0 -1870.2701978371772 -503.03300916552172 0 0 0 0 -197.13605595081208 610.53707013723158 0 610.53707013723158 157.61530831313712 0 0 0 0 1957.1403377794077 -212.52608980914533 0 -212.52608980914533 404.58926479903084 0 0 0 0 1047.1195238099081 -1791.0389704798697 0 -1791.0389704798697 751.24263175561828 0 0 0 0 2586.3513237772013 2.3780848200717912 0 2.3780848200717912 -181.81046347596998 0 0 0 0 2949.7556091120578 -858.96821723067615 0 -858.96821723067615 -485.50247309541152 0 0 0 0 4499.9204158242956 -389.20648682767279 0 -389.20648682767279 -737.28363480408439 0 0 0 0 3311.2544740126586 161.2653818407891 0 161.2653818407891 -595.37198666512609 0 0 0 0 2457.4869993801558 176.33359155148369 0 176.33359155148369 -141.79932073278985 0 0 0 0 3151.79941428846 -130.88657800335 0 -130.88657800335 -195.13467309985884 0 0 0 0 3123.559832466558 540.81085447264422 0 540.81085447264422 -151.97784415657361 0 0 0 0 3368.0350294354357 250.29732728588661 0 250.29732728588661 -598.13829618326838 0 0 0 0 4500.3635932654506 825.32862391546871 0 825.32862391546871 -638.97034728362655 0 0 0 0 249.26766074778243 -404.4132233980327 0 -404.4132233980327 23.481005090273872 0 0 0 0 -2.0547074245125305 15.452100681010048 0 15.452100681010048 6.9334287144185867 0 0 0 0 508.39034510829379 1267.7442553827409 0 1267.7442553827409 553.21569678439232 0 0 0 0 -470.3532166426142 216.99312304532683 0 216.99312304532683 28.92038637395558 0 0 0 0 832.51222839081606 -138.39412289483082 0 -138.39412289483082 -424.74436196199542 0 0 0 0 171.04743442396102 -60.551947101276937 0 -60.551947101276937 -391.24036701944237 0 0 0 0 326.46203727416241 93.097905216771778 0 93.097905216771778 -193.47540838636633 0 0 0 0 215.26604287439295 -146.86310808887674 0 -146.86310808887674 -547.56147204760873 0 0 0 0 82.319489271685143 73.829199027852837 0 73.829199027852837 -113.99495357534943 0 0 0 0 14.497613181755209 20.139764734463231 0 20.139764734463231 -16.841680684798671 0 0 0 0 203.38392228426073 197.58002667031997 0 197.58002667031997 1.9577942625596734 0 0 0 0 207.0297683130093 12.952695177173155 0 12.952695177173155 -246.57790315047396 0 0 0 0 119.36772841729544 -140.65534723865267 0 -140.65534723865267 -40.779900806574005 0 0 0 0 103.68895153241399 -42.915278454787149 0 -42.915278454787149 15.963534393461558 0 0 0 0 40.082590180165425 -191.7160918550976 0 -191.7160918550976 116.2789495015104 0 0 0 0 -19.594695365689404 -87.89557771670593 0 -87.89557771670593 55.768596227707349 0 0 0 0 123.41564330571418 -50.586932447407435 0 -50.586932447407435 -173.02321774471966 0 0 0 0 3055.9417115227443 1204.6769694444956 0 1204.6769694444956 -6.5749472658301258 0 0 0 0 2546.5986394860247 249.95090711270294 0 249.95090711270294 -154.83244861115213 0 0 0 0 1625.9884954936879 576.7290798877774 0 576.7290798877774 255.26354770295825 0 0 0 0 2310.638107625291 999.37264997374359 0 999.37264997374359 345.16413829729822 0 0 0 0 56.064001057232758 -10.42485967622893 0 -10.42485967622893 0.67938765461407336 0 0 0 0 2312.418856414919 1021.1788888566634 0 1021.1788888566634 -41.047600473758237 0 0 0 0 4492.6659098694627 3053.9617172735338 0 3053.9617172735338 1279.1936692766481 0 0 0 0 20.344614325535503 -5.432042568791168 0 -5.432042568791168 6.5222419472465836 0 0 0 0 1011.2825650450395 -1760.6242236578801 0 -1760.6242236578801 3060.8256369692085 0 0 0 0 385.34999444166897 -36.409308684765278 0 -36.409308684765278 355.36833676870617 0 0 0 0 166.00552634605265 -117.51387641872611 0 -117.51387641872611 1353.6637427073997 0 0 0 0 29.885365278078389 -7.0554209423794987 0 -7.0554209423794987 -1.0598906862376296 0 0 0 0 130.98929979988316 -103.14298144601435 0 -103.14298144601435 339.05378500184042 0 0 0 0 28.429044010132202 -16.16205654589362 0 -16.16205654589362 888.11639388017647 0 0 0 0 117.60401255189208 -452.39863699755813 0 -452.39863699755813 908.71405685184448 0 0 0 0 600.162551862275 -364.35928873334956 0 -364.35928873334956 452.42327493889917 0 0 0 0 1217.3194370645033 -1379.8138995235004 0 -1379.8138995235004 1496.7851803302653 0 0 0 0 4495.5234479892424 -1939.0604152672163 0 -1939.0604152672163 209.24282720532443 0 0 0 0 2897.4665558116103 -670.10033176206036 0 -670.10033176206036 -185.20446622289032 0 0 0 0 -71.607959914836101 -278.94671136918487 0 -278.94671136918487 377.53494814862154 0 0 0 0 116.64537457834194 -238.28310194090466 0 -238.28310194090466 165.12489455211562 0 0 0 0 -27.126499756239355 -185.28192033671894 0 -185.28192033671894 322.56220845752705 0 0 0 0 -26.840169265802615 -189.53608615159573 0 -189.53608615159573 372.92356306747024 0 0 0 0 11.128236795193516 -51.002653403227669 0 -51.002653403227669 183.71123104951221 0 0 0 0 8.5658449353941251 99.133048233337377 0 99.133048233337377 144.91622585333198 0 0 0 0 23.217269275686704 -116.25740752679803 0 -116.25740752679803 356.4946596174068 0 0 0 0 -77.481762498948228 -105.16516957770301 0 -105.16516957770301 688.20283705084194 0 0 0 0 39.278560219179781 -39.52596596966373 0 -39.52596596966373 412.9341096143562 0 0 0 0 -81.164220555030624 -150.25830361272392 0 -150.25830361272392 404.7270688378444 0 0 0 0 -112.40154610214267 -291.420395420879 0 -291.420395420879 525.51641816754636 0 0 0 0 -116.24603610907798 -293.54381571372289 0 -293.54381571372289 683.79752710016453 0 0 0 0 -136.81052707381605 -239.57828460682413 0 -239.57828460682413 603.05391555160861 0 0 0 0 80.376400441124133 -237.80228430686859 0 -237.80228430686859 565.76624122175554 0 0 0 0 -301.37601807510146 -374.52654231540953 0 -374.52654231540953 599.26201679717315 0 0 0 0 -109.63768504628024 -466.94209377089027 0 -466.94209377089027 373.08491488403831 0 0 0 0 -84.230734068914899 -259.12763009464811 0 -259.12763009464811 547.09818906959526 0 0 0 0 1.6790341267260374 -346.93930940616269 0 -346.93930940616269 382.22812412896792 0 0 0 0 34.260046042065369 -377.69429912526903 0 -377.69429912526903 391.52277938830366 0 0 0 0 197.66744501478388 -495.19365426569988 0 -495.19365426569988 292.48387145155561 0 0 0 0 306.85951186168677 -288.96510088493642 0 -288.96510088493642 155.44085057467646 0 0 0 0 201.54765381228935 -134.64955052821347 0 -134.64955052821347 58.310531629168509 0 0 0 0 81.879084235612027 -128.93732957826859 0 -128.93732957826859 57.482031350342368 0 0 0 0 256.88380121519731 111.72182644313398 0 111.72182644313398 2.3937822709676766 0 0 0 0 375.97091665389598 -137.70007654069241 0 -137.70007654069241 -32.227007710444468 0 0 0 0 151.28216763948876 -919.45383417850201 0 -919.45383417850201 -236.73775818182276 0 0 0 0 639.31407853125711 287.24103736781103 0 287.24103736781103 167.28486138703829 0 0 0 0 1.4632463618481779 -1.1054762575063393 0 -1.1054762575063393 0.3824199254085574 0 0 0 0 902.1015350505113 -361.43872157620467 0 -361.43872157620467 102.15569635054294 0 0 0 0 318.82910079725843 84.057045304079452 0 84.057045304079452 -431.7015212070537 0 0 0 0 164.0288678958168 246.92940521880973 0 246.92940521880973 171.28828353270342 0 0 0 0 118.99618326030031 220.3701260121843 0 220.3701260121843 213.66291600292146 0 0 0 0 336.2515642242397 76.447621503661054 0 76.447621503661054 -143.55254570171428 0 0 0 0 43.517823434602178 58.884391254143566 0 58.884391254143566 -113.50663581085951 0 0 0 0 260.90369178434412 58.98751801017562 0 58.98751801017562 -280.74845233980091 0 0 0 0 125.25173547513259 106.25776081333061 0 106.25776081333061 49.069668484972681 0 0 0 0 -38.253463878993898 -376.09659198139605 0 -376.09659198139605 -569.19867819365209 0 0 0 0 2.1051618515093082 -0.74896834855439209 0 -0.74896834855439209 -1.2638699349217291 0 0 0 0 130.06669932461955 82.13472135266511 0 82.13472135266511 86.142044633645128 0 0 0 0 37.901776824583067 67.22511985958181 0 67.22511985958181 43.188887040661143 0 0 0 0 114.88028733466126 -28.045717774519517 0 -28.045717774519517 -134.70117684459274 0 0 0 0 81.600739504903217 -20.351061714255252 0 -20.351061714255252 -11.038607814802202 0 0 0 0 74.984777534868044 72.66108226633969 0 72.66108226633969 -97.150121616325123 0 0 0 0 10.886003296367306 6.8880365256581655 0 6.8880365256581655 -12.854874942156929 0 0 0 0 82.156482919615883 -131.94874920630758 0 -131.94874920630758 -268.26481453965152 0 0 0 0 76.132408178551486 -66.13111777050517 0 -66.13111777050517 -110.37207963670244 0 0 0 0 104.73140970603527 -29.877310825622317 0 -29.877310825622317 -146.34085107529336 0 0 0 0 100.75863850132737 -64.817205725255917 0 -64.817205725255917 -163.9021433749067 0 0 0 0 103.48152070869764 -67.150429429771521 0 -67.150429429771521 -214.42387070464338 0 0 0 0 120.36418326480816 -48.658930346414309 0 -48.658930346414309 -345.53676204171643 0 0 0 0 120.79274035037452 -21.452576511464031 0 -21.452576511464031 -234.15407096934177 0 0 0 0 120.52030219861263 -27.537008093299391 0 -27.537008093299391 -269.80538586370312 0 0 0 0 96.116452005568135 69.644291451510071 0 69.644291451510071 -200.62888736249806 0 0 0 0 206.56913471327425 33.962791330053278 0 33.962791330053278 -233.86917650641817 0 0 0 0 97.287564356676071 -18.97901521478942 0 -18.97901521478942 -9.7460445223500578 0 0 0 0 29.846403680094227 -166.67797848847158 0 -166.67797848847158 -618.13678321538555 0 0 0 0 11.72578957936171 12.902825175475009 0 12.902825175475009 -12.437623585909879 0 0 0 0 195.91692552702079 -31.635845833949134 0 -31.635845833949134 -946.18395012543851 0 0 0 0 102.3621829040419 -39.371175787621233 0 -39.371175787621233 12.571453757590627 0 0 0 0 6.0317523778351969 -17.071904404414983 0 -17.071904404414983 2.3192564493907213 0 0 0 0 132.45907231336878 -160.19185820417988 0 -160.19185820417988 -30.669796224786751 0 0 0 0 -18.352006110962975 -37.442149080938179 0 -37.442149080938179 -536.81937563280781 0 0 0 0 69.40493366944429 -113.75670122554402 0 -113.75670122554402 -133.75371517355779 0 0 0 0 173.79810901690507 -153.17985803698411 0 -153.17985803698411 -219.17325976413213 0 0 0 0 179.59198868619569 -180.70908961096029 0 -180.70908961096029 -0.22295049552849378 0 0 0 0 245.90004341228996 -117.15499581364838 0 -117.15499581364838 -135.26892997327559 0 0 0 0 170.28982842736878 -11.842958325502877 0 -11.842958325502877 -107.66647454511531 0 0 0 0 65.305493725412816 -29.450700169782067 0 -29.450700169782067 -108.96375158572118 0 0 0 0 17.758455497321847 18.211519604870091 0 18.211519604870091 2.4253044543829674 0 0 0 0 22.194985539354093 10.254045208727121 0 10.254045208727121 12.342680398621724 0 0 0 0 15.257663475502341 16.394883751771886 0 16.394883751771886 16.569155496547864 0 0 0 0 11.723138829016534 22.234578741499831 0 22.234578741499831 7.2209509692129359 0 0 0 0 9.3844631370957359 7.1283034199602753 0 7.1283034199602753 21.682195105994197 0 0 0 0 14.237361779167259 10.659477545786785 0 10.659477545786785 16.948501366003981 0 0 0 0 11.579516403441659 -3.2106440660994053 0 -3.2106440660994053 -0.76515763524393243 0 0 0 0 14.610077045472281 10.023993585723133 0 10.023993585723133 16.479193500938891 0 0 0 0 14.53020957374406 -2.4660568642188991 0 -2.4660568642188991 -0.73380919872684114 0 0 0 0 33.807254658655438 3.1316268499585931 0 3.1316268499585931 -1.987339620335888 0 0 0 0 220.12195783559218 54.778881954194908 0 54.778881954194908 66.408800460529164 0 0 0 0 2.8996142562707821 8.3856866040515428 0 8.3856866040515428 3.9705250601746584 0 0 0 0 2.8613317924736172 2.2036467465737388 0 2.2036467465737388 0.28706494644611702 0 0 0 0 28.597351998967497 -20.685810375604447 0 -20.685810375604447 40.82102947749172 0 0 0 0 4.0559016204235263 1.3625720550560132 0 1.3625720550560132 0.098433850261173461 0 0 0 0 28.86652324241004 7.450414177263383 0 7.450414177263383 2.4397731707801995 0 0 0 0 22.338007358477626 8.8681271476293659 0 8.8681271476293659 5.48574772440179 0 0 0 0 28.753783634888805 9.0645002776378476 0 9.0645002776378476 0.10369054108241471 0 0 0 0 42.218745129015588 5.2732830547133744 0 5.2732830547133744 -3.9417448272838556 0 0 0 0 9.1752670177022821 1.8450905529264645 0 1.8450905529264645 -0.11925569029897609 0 0 0 0 -12.71155598446785 -23.663466194364673 0 -23.663466194364673 56.625945300389503 0 0 0 0 281.81643182985863 -41.301812291725355 0 -41.301812291725355 -55.305264485813041 0 0 0 0 122.45777844461554 -2.3058558294994782 0 -2.3058558294994782 -54.137671335110099 0 0 0 0 135.02622199140023 -66.865275825920207 0 -66.865275825920207 34.519661823216317 0 0 0 0 17.569423909826185 -2.4601766246481009 0 -2.4601766246481009 -0.50720616208020064 0 0 0 0 178.07402635898325 -13.498254046318834 0 -13.498254046318834 -138.01980534300264 0 0 0 0 40.038238963964858 3.7124601716281416 0 3.7124601716281416 -1.3540734559072864 0 0 0 0 33.589815790852299 11.661453048375506 0 11.661453048375506 -7.8733712549610573 0 0 0 0 28.529386028583076 13.182017093614483 0 13.182017093614483 -4.2146807881977111 0 0 0 0 29.807594885689468 10.505174115224122 0 10.505174115224122 -2.139126365192169 0 0 0 0 14.442450262074999 26.164167235275386 0 26.164167235275386 6.5149773781965905 0 0 0 0 26.859464902554464 18.400086060951935 0 18.400086060951935 -23.152982346505269 0 0 0 0 28.907952926595726 4.9074521197167611 0 4.9074521197167611 0.20753730593589054 0 0 0 0 24.736106771350023 21.04130183248003 0 21.04130183248003 -25.487930869323463 0 0 0 0 21.419632831326453 39.63580397400392 0 39.63580397400392 -18.684095298908474 0 0 0 0 -5.1916038466051475 3.9269605171203352 0 3.9269605171203352 -0.97819622971670661 0 0 0 0 28.325300466909539 19.570530264786612 0 19.570530264786612 -68.374568815701423 0 0 0 0 16.71350082810244 4.4759529059674534 0 4.4759529059674534 -0.24756873300032922 0 0 0 0 17.830646803769923 6.2688208791690272 0 6.2688208791690272 -35.876572488504735 0 0 0 0 19.352166675731496 25.37880728607302 0 25.37880728607302 -47.698652595943713 0 0 0 0 22.230577717029746 -31.275189453625593 0 -31.275189453625593 -133.850293676609 0 0 0 0 114.40525586744479 182.92432577046429 0 182.92432577046429 288.51387819761078 0 0 0 0 0.15377143353228462 0.35943937879793797 0 0.35943937879793797 -0.164006269068942 0 0 0 0 25.099292964230699 81.330697577468754 0 81.330697577468754 23.296967149334705 0 0 0 0 57.470503839795128 46.389894769723924 0 46.389894769723924 -93.736994994019483 0 0 0 0 26.026638829302101 38.121886313208734 0 38.121886313208734 -31.056889337920893 0 0 0 0 22.812103077361826 26.377964313984648 0 26.377964313984648 -49.307578593861763 0 0 0 0 4.2853689804945816 1.5642100692764345 0 1.5642100692764345 -1.0175428275320755 0 0 0 0 29.250632961338852 292.92756813889264 0 292.92756813889264 184.19072443118853 0 0 0 0 165.66929915742367 3.6124547935055489 0 3.6124547935055489 -29.052788443340546 0 0 0 0 -147.68318285004352 -117.78976139342285 0 -117.78976139342285 8.8861660316246116 0 0 0 0 -155.7552505665808 170.07796789716031 0 170.07796789716031 177.30289602823211 0 0 0 0 153.15607694492792 218.19074400239845 0 218.19074400239845 341.31976922270701 0 0 0 0 261.00799098853167 -352.28002463773396 0 -352.28002463773396 -40.722763689559542 0 0 0 0 0.86886923510706993 -0.046153125820737273 0 -0.046153125820737273 -0.1310862758414153 0 0 0 0 615.11788550474739 -103.68334849305961 0 -103.68334849305961 110.12760373872561 0 0 0 0 94.336964494561471 132.68172076985488 0 132.68172076985488 85.052476626056432 0 0 0 0 426.91934066164686 -115.17702015114151 0 -115.17702015114151 80.377969653952732 0 0 0 0 1.4155771130959067 0.95068320130019401 0 0.95068320130019401 0.69609274622106998 0 0 0 0 -0.46264289344253484 -24.129799568809858 0 -24.129799568809858 147.351226152241 0 0 0 0 642.39866616464133 -50.750795300228901 0 -50.750795300228901 85.525759457377262 0 0 0 0 426.44059080385341 -132.14737835083633 0 -132.14737835083633 179.54456630617642 0 0 0 0 -3.1982505108899204 18.76828810264783 0 18.76828810264783 79.832158011721958 0 0 0 0 -3.5034588738053571 23.88810928436169 0 23.88810928436169 32.564054027369821 0 0 0 0 7.5147286033716227 -8.1926037493935269 0 -8.1926037493935269 47.255792673726319 0 0 0 0 10.996808152216545 0.72426841419473931 0 0.72426841419473931 25.843544259253122 0 0 0 0 10.540781499264995 2.6556823039190931 0 2.6556823039190931 32.637877238223005 0 0 0 0 4.8410446088329309 0.91614168498306725 0 0.91614168498306725 1.5021967210414662 0 0 0 0 14.239945017296122 -2.2888867760520952 0 -2.2888867760520952 25.774730275513964 0 0 0 0 62.741368845945544 16.807761847849008 0 16.807761847849008 90.433730278124358 0 0 0 0 62.837847665010486 -102.24391027700858 0 -102.24391027700858 224.37200086899156 0 0 0 0 59.290835552043063 -123.2999081205794 0 -123.2999081205794 520.32974227660725 0 0 0 0 154.79102372274792 25.844340241470491 0 25.844340241470491 290.71065675280443 0 0 0 0 96.151233722252073 169.45434694254345 0 169.45434694254345 -14.411128292669673 0 0 0 0 -16.134082480377401 274.04968609732578 0 274.04968609732578 668.69287100020119 0 0 0 0 253.71997949620709 691.61022357055481 0 691.61022357055481 -24.805883197143885 0 0 0 0 5.3530938370766989 -4.386326110567822 0 -4.386326110567822 2.6455453429470221 0 0 0 0 21.079195658297976 21.899146817371729 0 21.899146817371729 503.65538505654467 0 0 0 0 9.9440357555577066 -616.91133358411298 0 -616.91133358411298 102.56831641313602 0 0 0 0 233.16920619057782 -196.52765009357529 0 -196.52765009357529 57.003998861694299 0 0 0 0 -99.899063653923804 -277.96672915167892 0 -277.96672915167892 457.87623472373605 0 0 0 0 512.19318309072696 -113.59505050013183 0 -113.59505050013183 97.120106352780567 0 0 0 0 424.16187002614606 -46.936897885769667 0 -46.936897885769667 103.09859145586226 0 0 0 0 366.00327338722127 -137.3842834172724 0 -137.3842834172724 136.31954029002338 0 0 0 0 177.81584907041724 -205.20773465503476 0 -205.20773465503476 125.45684652972341 0 0 0 0 195.20613302852144 -137.25973447160914 0 -137.25973447160914 139.20374726584396 0 0 0 0 219.31425352361111 23.126936949684932 0 23.126936949684932 71.22737576268446 0 0 0 0 400.16675882476557 -12.685049726484522 0 -12.685049726484522 29.368642787778754 0 0 0 0 258.23295838036574 -27.669467634565081 0 -27.669467634565081 106.89071608349332 0 0 0 0 368.97007376670081 -55.857694209787951 0 -55.857694209787951 112.98048489063149 0 0 0 0 377.69933513332217 -62.906251312495442 0 -62.906251312495442 102.87378631345292 0 0 0 0 521.02070858239313 -25.221939212152392 0 -25.221939212152392 37.6991799516627 0 0 0 0 397.96037548863387 -0.13223218700932193 0 -0.13223218700932193 34.667807401473283 0 0 0 0 525.14553278913081 -33.109655107917774 0 -33.109655107917774 21.679678041516127 0 0 0 0 582.38313366553484 43.068622824015392 0 43.068622824015392 -55.781793615744391 0 0 0 0 552.42514891897736 22.347949494701879 0 22.347949494701879 -23.009628788815462 0 0 0 0 424.65184943389613 17.169038433755759 0 17.169038433755759 -19.031421528723058 0 0 0 0 554.4632182681371 8.7351988484365961 0 8.7351988484365961 -22.973160992535668 0 0 0 0 455.79149632359622 51.68032729776678 0 51.68032729776678 -41.634325959978014 0 0 0 0 387.81773848101147 49.327254528400772 0 49.327254528400772 -27.159652516345204 0 0 0 0 443.71190668304916 8.5388662829200257 0 8.5388662829200257 -50.873508643186369 0 0 0 0 347.31099396089849 -12.338193449654341 0 -12.338193449654341 -24.737171177876917 0 0 0 0 278.4070873302262 37.015184860156751 0 37.015184860156751 14.436936884692841 0 0 0 0 244.13256677266327 -9.1892490362765784 0 -9.1892490362765784 63.107381221716992 0 0 0 0 206.7287469400726 -81.154856064067928 0 -81.154856064067928 -111.33093910550087 0 0 0 0 229.3091625378147 28.67830269148817 0 28.67830269148817 -18.009473291592712 0 0 0 0 150.56715875506779 17.825184884399391 0 17.825184884399391 -52.215634681659594 0 0 0 0 231.32635541262698 36.878731837568353 0 36.878731837568353 5.5910586013724242 0 0 0 0 337.06535020178126 78.393613126557739 0 78.393613126557739 -29.543282402509249 0 0 0 0 224.97127413842827 -50.008247400980508 0 -50.008247400980508 -36.154816433986525 0 0 0 0 321.24787104377174 -6.0636556480767467 0 -6.0636556480767467 -79.125899568070508 0 0 0 0 357.76040062797256 11.727101848761777 0 11.727101848761777 -49.762344832985491 0 0 0 0 332.64061620074426 40.423716689169908 0 40.423716689169908 -32.211397482663415 0 0 0 0 419.35452014298062 84.901605033774558 0 84.901605033774558 -31.03151508436622 0 0 0 0 379.53128545961226 33.951698811619735 0 33.951698811619735 -33.837222795786715 0 0 0 0 462.39564633602276 114.22326401603914 0 114.22326401603914 -40.656678471714258 0 0 0 0 576.66292160992452 34.267857989532786 0 34.267857989532786 -76.32010231383174 0 0 0 0 696.23024892024114 44.375418465995608 0 44.375418465995608 -83.110592380273374 0 0 0 0 624.71529916732106 78.4437150641279 0 78.4437150641279 -67.331602643129372 0 0 0 0 616.40497752826195 72.389437089880175 0 72.389437089880175 -76.900604662750084 0 0 0 0 503.65518208240974 23.858847529189006 0 23.858847529189006 -55.605203382033778 0 0 0 0 85.642671620589681 -85.936147578446253 0 -85.936147578446253 37.808704126400698 0 0 0 0 48.33887461277763 -12.334599795900807 0 -12.334599795900807 -26.755351233090341 0 0 0 0 87.587588713329751 -102.74206227746527 0 -102.74206227746527 22.62940947738025 0 0 0 0 61.412132873898372 -98.299620654051978 0 -98.299620654051978 31.525693470895931 0 0 0 0 74.943157917063218 -92.37433553621122 0 -92.37433553621122 32.090668578108307 0 0 0 0 49.527756052557379 -97.206093253047584 0 -97.206093253047584 31.374911543002781 0 0 0 0 53.775112985458691 -101.93003770943687 0 -101.93003770943687 30.581285649943311 0 0 0 0 95.175859994278653 -179.31614069649484 0 -179.31614069649484 -64.531261381729564 0 0 0 0 136.01293535961304 -99.27667486316841 0 -99.27667486316841 -92.750267876998805 0 0 0 0 36.175843920733314 -77.062027673509874 0 -77.062027673509874 12.839982724181027 0 0 0 0 -45.773801970703062 -7.7085319761936262 0 -7.7085319761936262 -34.391223986564 0 0 0 0 122.56232724076835 -143.94418795655838 0 -143.94418795655838 -22.496014895141343 0 0 0 0 85.080948933493346 -90.083832239030926 0 -90.083832239030926 -25.430246647680178 0 0 0 0 83.003923709096853 -75.825746188175799 0 -75.825746188175799 -54.329666896839626 0 0 0 0 67.465470099152299 -1.2441714438546114 0 -1.2441714438546114 -192.06832131725241 0 0 0 0 176.00561843058676 63.560713965726336 0 63.560713965726336 -530.91181721162684 0 0 0 0 9.4212687808177691 -14.492989413177462 0 -14.492989413177462 3.2060442902714463 0 0 0 0 -50.073453450138004 59.474686223182403 0 59.474686223182403 -89.720410807754888 0 0 0 0 231.31471331938519 -890.13737237687019 0 -890.13737237687019 -793.36900736067582 0 0 0 0 -235.43831013799354 -198.9942210365366 0 -198.9942210365366 -20.780184352424385 0 0 0 0 -36.610057978476107 -130.34788509871055 0 -130.34788509871055 -26.696958319507715 0 0 0 0 278.70986256223114 -87.543049862837961 0 -87.543049862837961 -670.35654186367492 0 0 0 0 206.16477450777893 28.621831222878427 0 28.621831222878427 -11.543044101525979 0 0 0 0 230.77706919629418 42.112127454630127 0 42.112127454630127 -48.878918982011783 0 0 0 0 44.310204449460613 -39.630110508974425 0 -39.630110508974425 28.311239246546702 0 0 0 0 -40.373805603601795 -69.223370072573744 0 -69.223370072573744 14.056359632666954 0 0 0 0 55.080134369204643 -47.584797553969224 0 -47.584797553969224 0.92001495013391832 0 0 0 0 55.751752246800606 -50.047414216501238 0 -50.047414216501238 -138.55831669447525 0 0 0 0 65.477103039582289 -44.793545380362957 0 -44.793545380362957 -29.753195946997948 0 0 0 0 157.38501896732487 -109.83450456558057 0 -109.83450456558057 76.852364367841801 0 0 0 0 60.267295083964939 -28.330515073929298 0 -28.330515073929298 -30.101445838603624 0 0 0 0 143.81137359286367 -110.02403594402131 0 -110.02403594402131 80.555435521817344 0 0 0 0 123.80925600603223 -102.11357427950861 0 -102.11357427950861 90.217745763075072 0 0 0 0 156.88768603432982 -104.54181233977079 0 -104.54181233977079 68.927205549407518 0 0 0 0 146.92240023671184 -97.666242732731916 0 -97.666242732731916 71.340760188226341 0 0 0 0 162.19019166986982 -91.245949366883906 0 -91.245949366883906 59.527306426651194 0 0 0 0 137.27223057847004 -87.119286468245264 0 -87.119286468245264 67.642957555102839 0 0 0 0 110.78035028366139 -89.153487165847764 0 -89.153487165847764 95.026386952826215 0 0 0 0 105.99983193791559 -55.475745593755164 0 -55.475745593755164 56.76438310546223 0 0 0 0 146.15974125871435 -52.833946259219374 0 -52.833946259219374 56.655246102508272 0 0 0 0 159.17030260665342 -83.444788628126844 0 -83.444788628126844 58.210044247214682 0 0 0 0 178.09048917595646 -84.611752353584961 0 -84.611752353584961 54.098007349086402 0 0 0 0 207.00231618262478 -90.870080088898249 0 -90.870080088898249 54.090501563063299 0 0 0 0 180.77639433584409 -58.488413953355121 0 -58.488413953355121 52.198104891016555 0 0 0 0 168.59065464837477 -81.625966493815213 0 -81.625966493815213 54.244362109384383 0 0 0 0 151.87071787205059 -84.637174291470728 0 -84.637174291470728 58.054784490838756 0 0 0 0 144.3452246174711 -69.575684673271098 0 -69.575684673271098 55.601169891033351 0 0 0 0 142.71143241680693 -70.430389491302776 0 -70.430389491302776 55.371837627476907 0 0 0 0 161.05372917634668 -78.985135073759011 0 -78.985135073759011 54.098140784750285 0 0 0 0 122.13623245587223 -52.698204385005738 0 -52.698204385005738 56.878585300214127 0 0 0 0 152.88537953828927 -60.601134588673631 0 -60.601134588673631 53.882648166083527 0 0 0 0 158.39546462714497 -53.766193451988329 0 -53.766193451988329 57.571566854945559 0 0 0 0 118.99855663621565 -47.854903044259117 0 -47.854903044259117 60.351409724506993 0 0 0 0 124.36337602429558 -49.053224725240398 0 -49.053224725240398 51.737910619146533 0 0 0 0 99.890052051487146 -59.437119688866005 0 -59.437119688866005 58.812306097624969 0 0 0 0 96.918846199769177 -47.686520997306161 0 -47.686520997306161 51.962191405385965 0 0 0 0 28.675432590018318 4.4162329668047278 0 4.4162329668047278 -1.3726140339958874 0 0 0 0 107.47667072417607 -49.433484495622679 0 -49.433484495622679 53.082028778585482 0 0 0 0 22.959914569838418 8.841243005016878 0 8.841243005016878 0.32397748224378198 0 0 0 0 98.33349944416841 -57.485358827294476 0 -57.485358827294476 53.249066905961627 0 0 0 0 131.72207446701941 -65.260665379453712 0 -65.260665379453712 54.257560032669971 0 0 0 0 92.426778517619823 -68.634895306227691 0 -68.634895306227691 61.191830666026362 0 0 0 0 89.062673072847247 -130.97357355374152 0 -130.97357355374152 109.4897985900152 0 0 0 0 120.10517227617675 -99.22743083300611 0 -99.22743083300611 45.194300826626431 0 0 0 0 119.552823354461 -95.675094865185201 0 -95.675094865185201 22.997235417662523 0 0 0 0 101.25917679566192 -91.762914503677166 0 -91.762914503677166 36.89126955649408 0 0 0 0 90.815620901761577 -79.348391755700504 0 -79.348391755700504 22.262201684196043 0 0 0 0 102.13785042031668 -87.548716437184339 0 -87.548716437184339 44.429625949178444 0 0 0 0 103.95621842652326 -82.75256762685467 0 -82.75256762685467 47.131341721855279 0 0 0 0 105.5956942755729 -76.089616989920614 0 -76.089616989920614 41.041135159000987 0 0 0 0 104.48522505222354 -83.150334617715998 0 -83.150334617715998 33.705765814809638 0 0 0 0 108.07329785474576 -72.070347589691664 0 -72.070347589691664 46.448815713025397 0 0 0 0 120.72958299933816 -83.188743891290869 0 -83.188743891290869 47.942522761415603 0 0 0 0 107.99616475607036 -70.793578312368481 0 -70.793578312368481 59.398994611525268 0 0 0 0 110.80324456226663 -87.219630739214153 0 -87.219630739214153 56.282742779250839 0 0 0 0 109.52746471425053 -83.143690659973799 0 -83.143690659973799 43.355307376010387 0 0 0 0 108.07190775230993 -76.277934990039284 0 -76.277934990039284 81.815733685791201 0 0 0 0 124.57042567641474 -92.795927055374705 0 -92.795927055374705 73.63971273527568 0 0 0 0 124.6479705607926 -92.377866271460334 0 -92.377866271460334 54.934259451856633 0 0 0 0 124.79951166518731 -89.679077233260614 0 -89.679077233260614 54.574827858734352 0 0 0 0 120.08749489940237 -93.422702073993605 0 -93.422702073993605 57.546286498485642 0 0 0 0 129.62858545256313 -85.068169360392403 0 -85.068169360392403 63.836504684819374 0 0 0 0 107.975054378403 -91.315259757954664 0 -91.315259757954664 58.651532752021467 0 0 0 0 94.194608210924798 -162.38663061596867 0 -162.38663061596867 14.335279808976338 0 0 0 0 103.80365003128827 -89.74060073407054 0 -89.74060073407054 27.171155294145137 0 0 0 0 14.401648629725969 -4.9229691815655769 0 -4.9229691815655769 -5.4401000021932759 0 0 0 0 14.064732342633192 -1.0116486473941251 0 -1.0116486473941251 -5.2071711905993805 0 0 0 0 21.774308720829509 -89.706175473318524 0 -89.706175473318524 121.06738763506701 0 0 0 0 15.144749459523155 2.9863267728666898 0 2.9863267728666898 6.142673398811894 0 0 0 0 20.684851308753423 -2.0200961530731547 0 -2.0200961530731547 -5.1990388180968239 0 0 0 0 14.470399526345318 -1.2907000209829107 0 -1.2907000209829107 15.017947683411876 0 0 0 0 11.625279350734701 -2.0255275761753353 0 -2.0255275761753353 -2.233767385042805 0 0 0 0 21.394291524782602 5.6235757125139116 0 5.6235757125139116 9.6627844712486421 0 0 0 0 39.166772859935008 7.3055302661871337 0 7.3055302661871337 0.045419958997626964 0 0 0 0 0.45334882280048383 8.1251647675552761 0 8.1251647675552761 7.2795947527003229 0 0 0 0 408.87344452975231 -66.508164852460027 0 -66.508164852460027 -76.590511163012991 0 0 0 0 290.45497725758196 -10.886855937505523 0 -10.886855937505523 -59.41932073184762 0 0 0 0 4.8212641507277514 8.377441124658759 0 8.377441124658759 9.4908073478659496 0 0 0 0 367.02996797041851 41.749670761457367 0 41.749670761457367 -4.527283890966828 0 0 0 0 32.180097848409787 12.265289313053927 0 12.265289313053927 2.8229157630667032 0 0 0 0 29.076363500891603 8.7752291993117524 0 8.7752291993117524 8.6388030181342401 0 0 0 0 36.885430974779439 11.208698328043283 0 11.208698328043283 1.2009744235754294 0 0 0 0 25.368496252834774 -6.3716897106539108 0 -6.3716897106539108 22.900613447534983 0 0 0 0 59.566094344932935 10.067389598904356 0 10.067389598904356 10.630651524593532 0 0 0 0 99.708984354212589 -58.892044729122972 0 -58.892044729122972 56.684664131083537 0 0 0 0 112.20200723782909 -46.366616956377584 0 -46.366616956377584 48.338444534301743 0 0 0 0 62.942128010849956 -4.7418379197756622 0 -4.7418379197756622 13.170539861803263 0 0 0 0 65.681481108476873 -51.643357104640017 0 -51.643357104640017 63.213654645334827 0 0 0 0 116.82381740762139 -79.940508827658093 0 -79.940508827658093 238.87933494993149 0 0 0 0 27.096339249612356 13.09559671439979 0 13.09559671439979 10.026255654607212 0 0 0 0 23.627553953354862 17.397026855907221 0 17.397026855907221 4.9259334683770879 0 0 0 0 505.26962792256381 -93.678736906183076 0 -93.678736906183076 -66.253459239124936 0 0 0 0 -117.50662238955556 -175.30025664563834 0 -175.30025664563834 164.80520594276481 0 0 0 0 538.35613950138213 19.104277188807032 0 19.104277188807032 -83.168399394738117 0 0 0 0 383.1351544405843 221.46996240085167 0 221.46996240085167 -299.67427251458366 0 0 0 0 204.24355312089392 -384.83693332530618 0 -384.83693332530618 223.59414801161336 0 0 0 0 603.65262750231341 290.23472159985698 0 290.23472159985698 308.83554268908688 0 0 0 0 464.84178869116295 -224.94774610778779 0 -224.94774610778779 236.99012381920645 0 0 0 0 724.3495826199578 150.85457383260783 0 150.85457383260783 8.393518376998145 0 0 0 0 2.2050554332020624 -2.0248235110925634 0 -2.0248235110925634 1.4092820288038275 0 0 0 0 -57.415267381657031 42.333631627510172 0 42.333631627510172 -114.27420872592251 0 0 0 0 263.59263471029408 59.851308507221461 0 59.851308507221461 10.80166935372786 0 0 0 0 83.730052469463772 -35.883254511109726 0 -35.883254511109726 14.828937326841697 0 0 0 0 46.996653713119798 -0.90024974053900308 0 -0.90024974053900308 -15.269364101237429 0 0 0 0 19.994395885308919 -48.047836822777775 0 -48.047836822777775 16.437221686636903 0 0 0 0 -147.38260180404177 -68.126719070984564 0 -68.126719070984564 -45.450796552202519 0 0 0 0 -238.76661468607199 -136.85859032001184 0 -136.85859032001184 93.746335034252553 0 0 0 0 58.99056698307686 -43.533745147007892 0 -43.533745147007892 9.5143350283142354 0 0 0 0 80.174616361851804 -30.791433059340989 0 -30.791433059340989 13.263735942157837 0 0 0 0 34.787360500120769 -42.405854901445814 0 -42.405854901445814 7.6886364212041745 0 0 0 0 93.321488395253255 -28.410100008546578 0 -28.410100008546578 -0.96612660473181222 0 0 0 0 77.34608068822854 -24.200559730034911 0 -24.200559730034911 -2.0414451989470308 0 0 0 0 68.673117055693098 -33.947122571217207 0 -33.947122571217207 14.359588237483671 0 0 0 0 62.408995053393575 -0.52447573368852574 0 -0.52447573368852574 -14.029917736059311 0 0 0 0 84.206084201542851 15.4395540373012 0 15.4395540373012 -13.65144904144695 0 0 0 0 -21.443555033816665 -21.268017225721906 0 -21.268017225721906 11.321038140444728 0 0 0 0 113.36056998774529 -17.479675407728848 0 -17.479675407728848 -22.144281490625417 0 0 0 0 45.783787439998605 -15.349665803103264 0 -15.349665803103264 -6.1019904723192067 0 0 0 0 106.22910252501606 -34.998307569708004 0 -34.998307569708004 5.4333177373375747 0 0 0 0 78.568408899547649 -12.781488693834035 0 -12.781488693834035 -11.628763777032418 0 0 0 0 79.007627409388078 -10.08010001720163 0 -10.08010001720163 -11.118434512673275 0 0 0 0 81.546202880284909 1.5721774439671208 0 1.5721774439671208 -0.37655748923771171 0 0 0 0 84.817888186356868 -8.2473508844984735 0 -8.2473508844984735 -15.071141325938925 0 0 0 0 102.50953284863499 -12.456357548482174 0 -12.456357548482174 -17.772331630734925 0 0 0 0 108.77643318282207 15.154990850931028 0 15.154990850931028 0.73820670535098998 0 0 0 0 94.935871433743159 1.0028106791651226 0 1.0028106791651226 -13.572392072769617 0 0 0 0 87.646926502464339 9.109787021762827 0 9.109787021762827 -1.904735282163756 0 0 0 0 102.58055124652464 -6.3840590785394378 0 -6.3840590785394378 -26.319202885609684 0 0 0 0 73.310322261015244 -1.5484588792970726 0 -1.5484588792970726 -13.281925277928167 0 0 0 0 115.30855624178366 -23.989171659131046 0 -23.989171659131046 -16.619419504892221 0 0 0 0 198.54300040232192 11.104487685444838 0 11.104487685444838 -21.724742749437812 0 0 0 0 115.01247298569797 -27.273656967408868 0 -27.273656967408868 28.315316079978714 0 0 0 0 -5.3585359252008402 -7.9964758680824986 0 -7.9964758680824986 6.2613300151819349 0 0 0 0 -91.084939435240813 -36.427760938190659 0 -36.427760938190659 -0.93169245948418222 0 0 0 0 83.133331637783158 3.3160872747015162 0 3.3160872747015162 6.8929285356578021 0 0 0 0 82.309361754640122 8.0517463416368855 0 8.0517463416368855 23.072855122256726 0 0 0 0 123.98075429943128 54.571462298518043 0 54.571462298518043 71.120065520045387 0 0 0 0 19.367723033602225 -23.648525581832544 0 -23.648525581832544 -3.9894081617246187 0 0 0 0 291.63469822040497 -130.18222855262673 0 -130.18222855262673 -21.118599833462099 0 0 0 0 34.783278364033322 -101.8209899483528 0 -101.8209899483528 8.0428084112409124 0 0 0 0 388.35455822814401 49.845143528556378 0 49.845143528556378 -21.915283212201075 0 0 0 0 416.60952492505749 -18.114004156647525 0 -18.114004156647525 -94.607793287868844 0 0 0 0 398.27508097560894 33.681734142752063 0 33.681734142752063 -65.367692367066866 0 0 0 0 268.35273751919158 -15.770334367519126 0 -15.770334367519126 -68.742180547477915 0 0 0 0 -9.6474179101104482 -11.904257582776808 0 -11.904257582776808 5.0971816964391827 0 0 0 0 242.16654708737587 -6.4953379731943528 0 -6.4953379731943528 -33.175597499399828 0 0 0 0 35.569588825732353 -20.504824984157267 0 -20.504824984157267 -7.2952541713070218 0 0 0 0 47.84138125931517 -22.893908227351972 0 -22.893908227351972 -12.841057646087416 0 0 0 0 244.92742275962155 31.280926274474041 0 31.280926274474041 -46.300743903431794 0 0 0 0 -28.430225684467587 -104.82179666059608 0 -104.82179666059608 -175.85831083176276 0 0 0 0 20.281827295097173 15.548858330478652 0 15.548858330478652 14.710012769365221 0 0 0 0 -77.062896419934987 21.18914782875936 0 21.18914782875936 19.821632581920539 0 0 0 0 -122.2512908363351 -161.49652210043064 0 -161.49652210043064 36.613254022122646 0 0 0 0 84.032853138751307 -1.0899814736988986 0 -1.0899814736988986 -14.724225884535628 0 0 0 0 -26.039873956914562 -81.262150034697441 0 -81.262150034697441 -44.916637475195785 0 0 0 0 6.095338539797801 1.3657484756849172 0 1.3657484756849172 -1.9258654297873692 0 0 0 0 1.0630329170048753 -1.0792573099578959 0 -1.0792573099578959 2.7625430419468007 0 0 0 0 1209.7169889066936 203.20498070978113 0 203.20498070978113 -171.35227383365327 0 0 0 0 2.2814271555280712 3.7088375045524131 0 3.7088375045524131 5.6922824200240303 0 0 0 0 1124.787134917271 -53.306694399969956 0 -53.306694399969956 116.08567238990304 0 0 0 0 935.65879623354704 -282.51101889354049 0 -282.51101889354049 -139.6001349682665 0 0 0 0 667.59883475134848 154.74177455266545 0 154.74177455266545 10.658715154156198 0 0 0 0 274.95244659709715 -120.28704698322588 0 -120.28704698322588 122.1366133013471 0 0 0 0 591.44713776472781 259.55158326437595 0 259.55158326437595 138.46317261250897 0 0 0 0 491.40530988406681 154.0906326000154 0 154.0906326000154 166.91664775928064 0 0 0 0 393.44728306267643 39.737709400323183 0 39.737709400323183 90.473508522772818 0 0 0 0 400.73997581011645 49.533360022694751 0 49.533360022694751 -118.94618423032534 0 0 0 0 -803.508485972372 331.26967177049141 0 331.26967177049141 -9.2460495618206551 0 0 0 0 -0.11568306127058747 0.37206132863932595 0 0.37206132863932595 1.8005921748630769 0 0 0 0 5.0459091469983619 10.314959289225918 0 10.314959289225918 15.868137252985271 0 0 0 0 181.03099028792167 141.53521425557602 0 141.53521425557602 95.325435501905758 0 0 0 0 556.77898682393425 -110.32197591652994 0 -110.32197591652994 -64.759301402373694 0 0 0 0 -869.7338196407818 -16.049606608801696 0 -16.049606608801696 -76.614088134472695 0 0 0 0 284.8110644579574 -78.022436145854499 0 -78.022436145854499 69.609192030894064 0 0 0 0 0.38366148892549745 3.4730472284626543 0 3.4730472284626543 4.9214402241246571 0 0 0 0 348.76229728343242 -87.736109130853293 0 -87.736109130853293 -38.4360002990677 0 0 0 0 -677.65539868977794 345.77479525263703 0 345.77479525263703 -113.71580596614069 0 0 0 0 266.52289610647313 30.720296017003875 0 30.720296017003875 9.2028197356703458 0 0 0 0 81.000922336785152 -40.639581161550893 0 -40.639581161550893 34.200508152375505 0 0 0 0 73.352782556004968 85.350589722543589 0 85.350589722543589 -15.789607910719099 0 0 0 0 139.97666558961646 132.41036755731329 0 132.41036755731329 16.49035153917248 0 0 0 0 410.87201206375903 68.403985636698962 0 68.403985636698962 -80.917283505037858 0 0 0 0 24.212091407669419 -11.942326698009062 0 -11.942326698009062 -6.5119880964925017 0 0 0 0 -341.74699670659902 -14.282148802320535 0 -14.282148802320535 122.34882984636624 0 0 0 0 48.370928480380826 -54.315247803178096 0 -54.315247803178096 -2.6204058848055638 0 0 0 0 -36.649910670683312 -19.716699259977339 0 -19.716699259977339 12.325050714238539 0 0 0 0 2.0459306370555126 -5.6623365084060566 0 -5.6623365084060566 2.5675050930018317 0 0 0 0 44.053659982469981 15.58547468444452 0 15.58547468444452 43.894480674993133 0 0 0 0 127.36951362514083 -85.776215835531644 0 -85.776215835531644 -21.969253755479542 0 0 0 0 106.2877569506818 90.981155049066729 0 90.981155049066729 -104.06149622396242 0 0 0 0 3.5067142335091148 0.63542032229095469 0 0.63542032229095469 3.1627610671124358 0 0 0 0 111.64011244080029 -124.47695866493495 0 -124.47695866493495 51.183017765210764 0 0 0 0 12.506179251278809 65.196919700307944 0 65.196919700307944 135.86365040871283 0 0 0 0 157.90042197366347 -24.625483966426714 0 -24.625483966426714 91.395981972705158 0 0 0 0 11.59672444082414 15.163536831424722 0 15.163536831424722 21.879637059893057 0 0 0 0 -111.046049554192 170.3176181104061 0 170.3176181104061 53.295349136335062 0 0 0 0 132.44934744691272 130.78969866654802 0 130.78969866654802 15.220956191715231 0 0 0 0 201.34483508623089 783.09272182122004 0 783.09272182122004 -235.00625005948677 0 0 0 0 93.606238380110881 -97.506618598218893 0 -97.506618598218893 -42.048452091855779 0 0 0 0 -74.356028470439924 -16.359961868511732 0 -16.359961868511732 67.552663788390419 0 0 0 0 589.04175916720851 -0.72790898107427893 0 -0.72790898107427893 -22.400213582915285 0 0 0 0 341.48058406772907 -55.015177489591224 0 -55.015177489591224 -79.454990747539796 0 0 0 0 525.48927883448778 49.87757625927361 0 49.87757625927361 -13.302357640882292 0 0 0 0 424.75060220371961 100.30699776973233 0 100.30699776973233 11.398956911210007 0 0 0 0 242.35706963970733 35.116647215205148 0 35.116647215205148 55.181501811094222 0 0 0 0 266.50086812199879 -26.209222107605569 0 -26.209222107605569 196.41547954358521 0 0 0 0 104.67470829382364 -130.30534417080571 0 -130.30534417080571 221.94104176499511 0 0 0 0 408.3937831937219 -130.72829460967978 0 -130.72829460967978 266.30697773294696 0 0 0 0 643.96598409422586 199.1983186468226 0 199.1983186468226 130.74341127388243 0 0 0 0 393.55898784312012 127.80746946397664 0 127.80746946397664 345.03084764622463 0 0 0 0 2.7043144028354291 4.6460267177305923 0 4.6460267177305923 -9.7081552894603682 0 0 0 0 2.345702775088796 0.22620914978340068 0 0.22620914978340068 1.0455228800674519 0 0 0 0 808.87975519899555 -55.448298449412277 0 -55.448298449412277 3.9465777210698434 0 0 0 0 294.80782146445563 205.06901512052019 0 205.06901512052019 154.07566633539363 0 0 0 0 380.70086660680681 356.85704159997033 0 356.85704159997033 280.20094828353467 0 0 0 0 711.77039887180581 71.149709855597507 0 71.149709855597507 78.329345788707087 0 0 0 0 598.19870719264145 15.020393924238363 0 15.020393924238363 -13.184384439707628 0 0 0 0 6.1954394904062227 -6.9440463633491376 0 -6.9440463633491376 8.475027234824859 0 0 0 0 36.742703060201165 3.9653926270077591 0 3.9653926270077591 21.185772350514526 0 0 0 0 6.6973446007459074 0.93480901457811427 0 0.93480901457811427 -0.26537647656394425 0 0 0 0 513.58556854755443 426.67885426438858 0 426.67885426438858 118.59053625210501 0 0 0 0 228.43756923275942 379.8797761904795 0 379.8797761904795 134.03521602383054 0 0 0 0 -116.74774124761461 10.57053763982533 0 10.57053763982533 30.094800030601668 0 0 0 0 603.03648707990942 210.5150337448836 0 210.5150337448836 -27.947549809427869 0 0 0 0 386.83862546357705 253.32018278641343 0 253.32018278641343 24.01906359158005 0 0 0 0 281.52334771247843 111.78892010790571 0 111.78892010790571 74.789158321975265 0 0 0 0 403.48831967285514 190.4961082587202 0 190.4961082587202 34.825054586427939 0 0 0 0 347.47289950714185 192.37479002773944 0 192.37479002773944 75.244018633735067 0 0 0 0 35.340152516946546 -16.110396952750797 0 -16.110396952750797 78.844263286964932 0 0 0 0 383.33835274608282 21.569199860942291 0 21.569199860942291 80.580740261110577 0 0 0 0 188.39108031085925 16.973185416983824 0 16.973185416983824 188.86120728603737 0 0 0 0 267.80556280816381 72.758242246445548 0 72.758242246445548 -190.93060535703538 0 0 0 0 13.283049805684669 -5.7201393891740366 0 -5.7201393891740366 -0.44386738107774026 0 0 0 0 196.58594077894668 -156.12570187103933 0 -156.12570187103933 -354.21147516595579 0 0 0 0 130.36793836327706 89.399111481417322 0 89.399111481417322 57.635598187144694 0 0 0 0 46.585359907148813 -31.422466605036561 0 -31.422466605036561 -23.423442663082142 0 0 0 0 43.078407628636342 -33.324055732932209 0 -33.324055732932209 -14.475650127130848 0 0 0 0 -111.85681272798683 -350.8920099312553 0 -350.8920099312553 -330.28381846265836 0 0 0 0 173.40265460778028 109.48514098371105 0 109.48514098371105 0.31114890669124406 0 0 0 0 14.339909974101928 2.5539229434469917 0 2.5539229434469917 -5.5374398671564142 0 0 0 0 19.098756920640966 0.78596110924670626 0 0.78596110924670626 -8.9147964969976226 0 0 0 0 211.34315005998542 -115.16450601372219 0 -115.16450601372219 -138.11548206877808 0 0 0 0 238.70372507307911 57.402795975664105 0 57.402795975664105 -261.24910801585474 0 0 0 0 45.794902607339452 -25.817871929802372 0 -25.817871929802372 -2.4532927061361423 0 0 0 0 -123.13806257597753 -8.0654679557205782 0 -8.0654679557205782 230.7564269272913 0 0 0 0 -144.00825815556163 -259.51336260755465 0 -259.51336260755465 142.31589538969308 0 0 0 0 -11.699809064870351 -50.422390213166921 0 -50.422390213166921 89.585718850736157 0 0 0 0 -54.881812409556005 -149.38187033067885 0 -149.38187033067885 145.05562399105372 0 0 0 0 -16.358875556536077 -147.93513287853531 0 -147.93513287853531 -58.110010058741182 0 0 0 0 25.552693634141178 -69.671636622460028 0 -69.671636622460028 59.913384416724853 0 0 0 0 11.50611377966915 -9.9273879301285177 0 -9.9273879301285177 -0.63936537117970826 0 0 0 0 39.821404937392799 -60.832161673931139 0 -60.832161673931139 -35.747748725651718 0 0 0 0 -209.71407194341009 98.377274497870957 0 98.377274497870957 57.731946116350599 0 0 0 0 -12.841483185020479 -57.268379521614918 0 -57.268379521614918 62.971755989001849 0 0 0 0 72.436507282237045 -8.8492624749877464 0 -8.8492624749877464 -0.022178113450912473 0 0 0 0 91.448784769094345 -18.896321889849688 0 -18.896321889849688 -73.260198874295327 0 0 0 0 63.791054861605517 -92.064040311920394 0 -92.064040311920394 -63.867263203569081 0 0 0 0 71.012305273587117 -7.8180687145278398 0 -7.8180687145278398 -3.301904440003625 0 0 0 0 81.912385569215985 -6.3235886379865747 0 -6.3235886379865747 -25.755963712462062 0 0 0 0 98.718636472192884 -0.86485837638414864 0 -0.86485837638414864 -25.856028691773759 0 0 0 0 76.344335329456953 -6.459839526572182 0 -6.459839526572182 -24.339504837614534 0 0 0 0 86.947359114703431 -13.757417521671243 0 -13.757417521671243 -33.854864278799596 0 0 0 0 101.13744741195478 26.371904617318378 0 26.371904617318378 20.733318385584084 0 0 0 0 106.49586900829672 27.772738811169745 0 27.772738811169745 -29.310965943546535 0 0 0 0 85.72909041337698 8.7986865789226272 0 8.7986865789226272 -12.146937293206832 0 0 0 0 83.403539826080305 -21.890475795636696 0 -21.890475795636696 -92.36934899124094 0 0 0 0 90.072074181228345 27.520641555667162 0 27.520641555667162 -75.890488745171979 0 0 0 0 46.419856893247925 -12.15006240234743 0 -12.15006240234743 -60.003506880312216 0 0 0 0 46.471407916510657 -8.9067485116138254 0 -8.9067485116138254 -110.67846357723738 0 0 0 0 41.619840886443853 -41.076141330615997 0 -41.076141330615997 -68.120414983783121 0 0 0 0 18.248931797026671 -4.7051692451787375 0 -4.7051692451787375 8.2866309396005846 0 0 0 0 55.402409824586357 -26.158176858754587 0 -26.158176858754587 -41.897037339449469 0 0 0 0 70.053187611280009 -32.355987721309248 0 -32.355987721309248 -70.89238921968672 0 0 0 0 45.124815631450474 -48.898297420560937 0 -48.898297420560937 -51.763194190266404 0 0 0 0 185.79233950423077 21.662045871766168 0 21.662045871766168 126.36696362040675 0 0 0 0 31.551486513602697 -10.043459116810283 0 -10.043459116810283 -9.0956665389542959 0 0 0 0 -0.69639056819141842 -25.064305406564586 0 -25.064305406564586 -5.1756091583409329 0 0 0 0 -33.052996459824499 27.965354401999321 0 27.965354401999321 -81.803372192703648 0 0 0 0 4.230081328338585 -6.1236282479766544 0 -6.1236282479766544 5.4380407556513228 0 0 0 0 -115.7092640435003 -21.227370617225972 0 -21.227370617225972 -24.405813899477607 0 0 0 0 100.85259807520197 205.62926828590207 0 205.62926828590207 -7.0119583091053528 0 0 0 0 -73.62034064602085 -237.80292636822961 0 -237.80292636822961 -69.359141189785419 0 0 0 0 -22.584080200656899 -58.225305838860265 0 -58.225305838860265 -44.066266006828471 0 0 0 0 169.82646195402776 28.012394544761079 0 28.012394544761079 -40.272152509063687 0 0 0 0 27.532648948328927 -13.915673152561084 0 -13.915673152561084 -8.8663137743146923 0 0 0 0 84.853049049095716 -60.224689983104327 0 -60.224689983104327 -9.5093935705911008 0 0 0 0 253.18122393894009 -7.1359601776171075 0 -7.1359601776171075 175.83559141494516 0 0 0 0 13.7062255020046 12.273211766335237 0 12.273211766335237 -12.447793164284576 0 0 0 0 252.90629005128358 -237.2269629909548 0 -237.2269629909548 193.13053510912778 0 0 0 0 144.16987275780411 -119.27454669405211 0 -119.27454669405211 90.826080403053538 0 0 0 0 -64.280089335821685 -2.9022961312884945 0 -2.9022961312884945 -64.885189321030794 0 0 0 0 361.67726184695493 48.774599819637842 0 48.774599819637842 -35.541972879197829 0 0 0 0 369.2735599004809 -75.31050137180091 0 -75.31050137180091 -155.01271430821089 0 0 0 0 451.52061991395021 -72.838033543575079 0 -72.838033543575079 -125.09777649753187 0 0 0 0 508.61173924840114 48.337524866477452 0 48.337524866477452 -4.5889043675510948 0 0 0 0 1.141182272760517 -4.0039803263951654 0 -4.0039803263951654 2.5108098375777286 0 0 0 0 291.07655726830126 23.310764371042183 0 23.310764371042183 -132.9138899171603 0 0 0 0 0.38102427287230967 -65.020835300077465 0 -65.020835300077465 135.64966343669062 0 0 0 0 -75.927276467654337 23.440702050231053 0 23.440702050231053 -36.596821566557082 0 0 0 0 23.23562364998098 -24.997612980495205 0 -24.997612980495205 5.181463432146538 0 0 0 0 -95.182235209278588 -84.673124372991197 0 -84.673124372991197 -1.7657150208973578 0 0 0 0 53.532398095600087 -14.184039679313589 0 -14.184039679313589 2.1507168349153232 0 0 0 0 1.5403618437407971 -0.93331804885718128 0 -0.93331804885718128 2.5786806041091759 0 0 0 0 434.48215091534075 -138.5163946085604 0 -138.5163946085604 -39.435780126544273 0 0 0 0 354.59521939887782 140.36361018632397 0 140.36361018632397 3.3314789554667641 0 0 0 0 404.35299072567432 -68.153235456424454 0 -68.153235456424454 -110.03353652903684 0 0 0 0 -15.172977226193325 -284.23949202652796 0 -284.23949202652796 238.77100213713561 0 0 0 0 68.901777560407936 -11.691093862517619 0 -11.691093862517619 -6.1445850287558414 0 0 0 0 71.944949116325006 -15.690939248524444 0 -15.690939248524444 -1.4751958738615372 0 0 0 0 22.05580187116945 -4.1198089640102182 0 -4.1198089640102182 -0.79440737213154966 0 0 0 0 -263.75010843526979 -260.30896447828536 0 -260.30896447828536 -25.419874026549223 0 0 0 0 8.5052221268302759 -5.4181563205902137 0 -5.4181563205902137 5.9810773525473397 0 0 0 0 86.500765649878304 -217.01735501817802 0 -217.01735501817802 -175.72875201769693 0 0 0 0 -11.264012970554177 8.0738608342421685 0 8.0738608342421685 -65.445520349927961 0 0 0 0 118.78448299619049 33.054738095092233 0 33.054738095092233 -5.9775973275585557 0 0 0 0 88.913283410751319 3.5857992303727997 0 3.5857992303727997 -5.0581651111533574 0 0 0 0 94.475083475976135 20.377934096236913 0 20.377934096236913 20.29750966288907 0 0 0 0 116.43353091538302 23.815707990603244 0 23.815707990603244 -12.485645752614751 0 0 0 0 0.62976457841158151 -3.8344588404775379 0 -3.8344588404775379 8.3623038399589493 0 0 0 0 70.99850574669108 7.5287702852255052 0 7.5287702852255052 -18.827139590947354 0 0 0 0 -471.20839264625101 -173.3758323563697 0 -173.3758323563697 241.05583448620564 0 0 0 0 158.2651180403991 240.86293600628096 0 240.86293600628096 581.9686293009197 0 0 0 0 500.80481340459664 -335.64631092259924 0 -335.64631092259924 253.5394223955484 0 0 0 0 1120.3124635690474 36.534864361884956 0 36.534864361884956 -108.14700818508345 0 0 0 0 44.501374751929689 -139.15118838994795 0 -139.15118838994795 170.85041117778655 0 0 0 0 544.23191079162643 -164.21517944120615 0 -164.21517944120615 -87.974778131860603 0 0 0 0 505.29729705065074 92.638028756580866 0 92.638028756580866 -110.23421218193607 0 0 0 0 112.75974405135275 -57.672998154752804 0 -57.672998154752804 -74.894976861050054 0 0 0 0 558.9999365148833 115.23413690937832 0 115.23413690937832 -104.06826055888178 0 0 0 0 471.12336896341003 217.67406848777762 0 217.67406848777762 40.12211928371471 0 0 0 0 89.743306619653595 38.206052560481567 0 38.206052560481567 12.363443162750457 0 0 0 0 505.33123281527514 456.71010231910736 0 456.71010231910736 251.83179225092999 0 0 0 0 327.72445082943887 -447.96509360322602 0 -447.96509360322602 512.38951559944474 0 0 0 0 6.5465807721177498 -0.49934042685184155 0 -0.49934042685184155 0.29463926721500849 0 0 0 0 82.261207996576559 -178.33344872274574 0 -178.33344872274574 229.69700674958972 0 0 0 0 505.66527875256543 -353.64616658912058 0 -353.64616658912058 0.33185137497548567 0 0 0 0 385.9048995354533 -236.48278389434992 0 -236.48278389434992 -102.43641187845583 0 0 0 0 275.60697808113764 -297.65733636377252 0 -297.65733636377252 -135.66928666128774 0 0 0 0 41.000509268029418 -98.229335334396126 0 -98.229335334396126 -12.916040226963787 0 0 0 0 152.39276506283204 157.1611535092905 0 157.1611535092905 -122.33331755994521 0 0 0 0 428.0262068001839 -34.239364093168746 0 -34.239364093168746 -28.421050437864096 0 0 0 0 1008.1051267090807 -143.40435306654655 0 -143.40435306654655 -13.981720710515901 0 0 0 0 -150.56519218092581 127.34843992897936 0 127.34843992897936 160.31533063040547 0 0 0 0 -195.35933547919194 50.721753194236953 0 50.721753194236953 54.597401941907947 0 0 0 0 118.32869646206382 36.359376758026997 0 36.359376758026997 18.106745027661031 0 0 0 0 0.58123028884143935 -1.7452386315185464 0 -1.7452386315185464 5.723756811168073 0 0 0 0 -84.755927078665991 36.976905877632419 0 36.976905877632419 47.549516402570362 0 0 0 0 156.01496415445945 34.926977731865946 0 34.926977731865946 -410.07282998435483 0 0 0 0 15.360090157288795 -2.2415310351641988 0 -2.2415310351641988 -0.38859348371357283 0 0 0 0 26.037797580353072 -22.185362312139631 0 -22.185362312139631 -326.94871459325185 0 0 0 0 46.471196051898005 132.15871351903982 0 132.15871351903982 -204.70124179426762 0 0 0 0 -86.698369300102058 -48.800956842215783 0 -48.800956842215783 -59.119882331262033 0 0 0 0 153.02935554098076 -86.783352293875396 0 -86.783352293875396 -189.96408448394209 0 0 0 0 67.299942067154916 170.06618434859894 0 170.06618434859894 -34.350276182860853 0 0 0 0 404.21966172965767 -314.72671536378505 0 -314.72671536378505 -172.43038098284953 0 0 0 0 367.33175087217387 306.0129993248986 0 306.0129993248986 -65.66607732201328 0 0 0 0 6.705524711146694 -1.517116542014195 0 -1.517116542014195 -0.0015148916225951048 0 0 0 0 -82.213921385882713 -160.06351046058683 0 -160.06351046058683 -151.54622015722225 0 0 0 0 -127.0403180870926 -94.45810866995896 0 -94.45810866995896 -47.668222285430602 0 0 0 0 -159.68728977412684 -128.2278640955825 0 -128.2278640955825 76.996612149070813 0 0 0 0 1.7673350847860689 -1.8905400064566464 0 -1.8905400064566464 2.3786958459083238 0 0 0 0 -221.31470693225856 -111.71214294185225 0 -111.71214294185225 72.779775529454525 0 0 0 0 -223.31593751001844 -17.250288660321374 0 -17.250288660321374 90.443018406374989 0 0 0 0 37.020582792749337 310.11797464051142 0 310.11797464051142 -70.729043111492047 0 0 0 0 166.89031020528637 -208.3286468460945 0 -208.3286468460945 -163.25233825397737 0 0 0 0 257.52499299988995 -74.976748995417253 0 -74.976748995417253 88.518822659794978 0 0 0 0 334.21157733595828 31.456260334238422 0 31.456260334238422 -36.747132112063241 0 0 0 0 -64.808065897050255 -13.716622037029538 0 -13.716622037029538 7.3753336780996506 0 0 0 0 -2.8065704160391292 -2.2848059329500927 0 -2.2848059329500927 2.1493502919003022 0 0 0 0 357.32919065888564 -14.448001835620119 0 -14.448001835620119 24.438285215368523 0 0 0 0 278.49829764027527 87.55640266984895 0 87.55640266984895 -85.66095979745694 0 0 0 0 74.441383709621732 87.948981287690572 0 87.948981287690572 2.1533223280420088 0 0 0 0 191.04458179253561 16.425199233522136 0 16.425199233522136 39.862447787013082 0 0 0 0 81.474291487262235 8.2789863925407872 0 8.2789863925407872 63.109249208377605 0 0 0 0 125.23790012382324 0.10844938034833351 0 0.10844938034833351 52.983636316236726 0 0 0 0 103.29448126378702 7.498749085560803 0 7.498749085560803 54.640383264829609 0 0 0 0 129.67301073220733 28.470408781201691 0 28.470408781201691 42.123479392804093 0 0 0 0 100.06698394817067 60.452333622516662 0 60.452333622516662 10.070099824315733 0 0 0 0 82.134396950357768 6.5161736122568392 0 6.5161736122568392 113.27646719143928 0 0 0 0 96.897151821671287 15.305635968427879 0 15.305635968427879 73.216681308423134 0 0 0 0 94.98741720905673 21.82439269000885 0 21.82439269000885 51.382889164850226 0 0 0 0 275.85658672743739 -4.6709977909106328 0 -4.6709977909106328 -32.421198011641309 0 0 0 0 0.078523957316292581 -0.052242498605266974 0 -0.052242498605266974 1.9595794824195132 0 0 0 0 103.76189385198813 -2.2679546698398383 0 -2.2679546698398383 35.69975730502199 0 0 0 0 15.044698833378106 -2.5503000970320535 0 -2.5503000970320535 -0.14955936828922953 0 0 0 0 388.04998336464632 -95.848167818745424 0 -95.848167818745424 -187.78373202715076 0 0 0 0 21.067548632134276 -244.57700695755523 0 -244.57700695755523 -115.99978176142781 0 0 0 0 117.484745546466 -119.13489140087248 0 -119.13489140087248 -334.31710401753821 0 0 0 0 -24.180002828448778 3.6598499433615643 0 3.6598499433615643 16.092884850052553 0 0 0 0 -40.429632221663269 -175.3667619898865 0 -175.3667619898865 61.664444656021715 0 0 0 0 120.67608410622051 174.22208022222549 0 174.22208022222549 -28.93910606311681 0 0 0 0 -143.73240991408602 46.78157068454172 0 46.78157068454172 64.873223992339945 0 0 0 0 2.1833060280623613 153.67594568881248 0 153.67594568881248 -5.8975831383875175 0 0 0 0 215.08105861902004 109.97769942988896 0 109.97769942988896 -14.361626263793369 0 0 0 0 141.08154678117717 277.00770234408753 0 277.00770234408753 16.899404433758377 0 0 0 0 6.4333558789851679 -1.6115129249071387 0 -1.6115129249071387 0.31081077937688273 0 0 0 0 218.70090390559562 129.6011252797272 0 129.6011252797272 -108.6063951850723 0 0 0 0 314.91436194450944 180.16986959437918 0 180.16986959437918 -83.882352953666441 0 0 0 0 395.56169752989081 273.22470039646385 0 273.22470039646385 -661.20075134457534 0 0 0 0 1.1690743909078378 -5.578435845334905 0 -5.578435845334905 -1.6419365004634159 0 0 0 0 157.01414316357113 383.892942513712 0 383.892942513712 -195.17240210580553 0 0 0 0 213.70994455637992 -55.52382901044075 0 -55.52382901044075 -254.82305313129285 0 0 0 0 607.02937767423282 -324.61190070808721 0 -324.61190070808721 -198.67068923681904 0 0 0 0 73.350053808906523 -255.19478936182253 0 -255.19478936182253 117.26274604251932 0 0 0 0 8.8462421528941775 -8.4164159065454811 0 -8.4164159065454811 -5.324193732938614 0 0 0 0 10.715237159782369 -8.0351918442306527 0 -8.0351918442306527 -6.6575912443502752 0 0 0 0 197.42962372560396 -283.10397825417022 0 -283.10397825417022 623.92199526545164 0 0 0 0 3.972411630791612 -32.589405761021681 0 -32.589405761021681 0.044757386960718293 0 0 0 0 -16.054337080050146 -8.890215625335891 0 -8.890215625335891 -0.82616478511582792 0 0 0 0 106.55207859200891 -36.320718177410527 0 -36.320718177410527 -33.125560659129633 0 0 0 0 92.558502860105364 -39.584782990028998 0 -39.584782990028998 -20.778812423222007 0 0 0 0 -51.259884455648717 -41.101299112795814 0 -41.101299112795814 8.508098162043396 0 0 0 0 25.899192335248102 -32.209070145961519 0 -32.209070145961519 -17.763975743327201 0 0 0 0 103.14657381589859 19.657236356319117 0 19.657236356319117 -34.10047801829478 0 0 0 0 93.76212915834185 0.97935590959173169 0 0.97935590959173169 -70.694299801971283 0 0 0 0 46.372765595798114 11.412549888540994 0 11.412549888540994 0.35253594699221136 0 0 0 0 47.309985233456246 -14.294304709966582 0 -14.294304709966582 -43.86999182350246 0 0 0 0 85.361815278662107 -18.909575133169255 0 -18.909575133169255 -70.960881488474115 0 0 0 0 50.648086904750016 63.93516412340076 0 63.93516412340076 -177.6094899614136 0 0 0 0 101.11368806060636 -41.748266334832579 0 -41.748266334832579 -121.20383412555907 0 0 0 0 30.396461784546574 10.825984805373025 0 10.825984805373025 3.2459577220540101 0 0 0 0 38.399431645593722 -222.71498482239463 0 -222.71498482239463 248.83633487168504 0 0 0 0 164.0368500744371 -153.56451593694192 0 -153.56451593694192 60.607318612047152 0 0 0 0 135.7458568481743 -169.30281239530677 0 -169.30281239530677 12.378167050938334 0 0 0 0 11.517718317918479 145.06664881469419 0 145.06664881469419 -222.01769147431787 0 0 0 0 150.06081225660091 92.651553472092985 0 92.651553472092985 -0.851740950000476 0 0 0 0 74.961722400181316 -58.046471168557787 0 -58.046471168557787 28.483982772780564 0 0 0 0 132.14147782304644 -77.405651172866442 0 -77.405651172866442 -45.379682021083681 0 0 0 0 65.989867173731909 -19.579138932417891 0 -19.579138932417891 -61.576173669580839 0 0 0 0 96.966359912476037 -66.443618825250951 0 -66.443618825250951 -52.469645807704865 0 0 0 0 82.682810189777229 -56.749447855983135 0 -56.749447855983135 -12.812983122705646 0 0 0 0 72.174891039161594 -74.658893142208854 0 -74.658893142208854 58.678822325450255 0 0 0 0 78.484929067526537 -73.706715366304707 0 -73.706715366304707 -8.0548236358713439 0 0 0 0 61.659176106462837 -63.656472776169721 0 -63.656472776169721 35.054291141903377 0 0 0 0 56.621838902879972 -51.543840925348832 0 -51.543840925348832 8.3788411724626712 0 0 0 0 43.849433591207344 -42.099593676208713 0 -42.099593676208713 2.4201370234004571 0 0 0 0 78.749037249435787 -46.800765048639732 0 -46.800765048639732 -18.113801219940342 0 0 0 0 789.83607394427236 62.243149254973332 0 62.243149254973332 55.159454630125992 0 0 0 0 314.90136030411668 185.01337518228149 0 185.01337518228149 39.767023921815735 0 0 0 0 301.74085424652367 133.27571560018015 0 133.27571560018015 -42.862098714994545 0 0 0 0 337.83227713057568 -135.46230156685141 0 -135.46230156685141 114.79187058124671 0 0 0 0 53.069517040152277 39.513049711158601 0 39.513049711158601 19.119213429517913 0 0 0 0 50.381075352146581 -35.813641199901667 0 -35.813641199901667 213.36188256412834 0 0 0 0 146.74387903683237 -137.98181988647207 0 -137.98181988647207 -33.765508252535028 0 0 0 0 20.444442723992296 6.3683706079474334 0 6.3683706079474334 1.4739034531447004 0 0 0 0 108.1246082495345 -202.74779116035506 0 -202.74779116035506 326.40330958508321 0 0 0 0 120.33814943631296 -90.42469903065421 0 -90.42469903065421 240.03852145211363 0 0 0 0 7.2541531806916737 2.5022941443990518 0 2.5022941443990518 1.1326849665986591 0 0 0 0 547.1852918793229 -362.63760561831873 0 -362.63760561831873 404.67186569247133 0 0 0 0 -30.573079177014733 336.68406519204677 0 336.68406519204677 84.777024165127841 0 0 0 0 80.698559595977713 -44.300144295016025 0 -44.300144295016025 -109.50085261023014 0 0 0 0 518.18028324443731 327.98379128944748 0 327.98379128944748 29.581730463252597 0 0 0 0 280.86200096269022 296.07708094290717 0 296.07708094290717 34.624018822883613 0 0 0 0 775.18662612596381 -6.8504329523186698 0 -6.8504329523186698 -33.588088067310764 0 0 0 0 279.64559019792068 338.01096900405196 0 338.01096900405196 364.36890262421048 0 0 0 0 133.98484516957978 19.971252644987658 0 19.971252644987658 51.890571108261611 0 0 0 0 162.17316281925014 -92.119957754880033 0 -92.119957754880033 427.86903421997818 0 0 0 0 -204.37653588820831 -32.668898048602045 0 -32.668898048602045 109.36108877044262 0 0 0 0 -159.01797087668092 -3.5267028963141911 0 -3.5267028963141911 106.25010153195944 0 0 0 0 -114.37914760093736 -163.92244356452773 0 -163.92244356452773 -118.82821239939312 0 0 0 0 -2.2947354077531728 0.0036471812794189873 0 0.0036471812794189873 39.616828200421928 0 0 0 0 -19.402931045173318 7.5773021301301924 0 7.5773021301301924 61.681941972796267 0 0 0 0 3.3496718215000385 11.369690200842033 0 11.369690200842033 1.5823304910253371 0 0 0 0 -18.823800108984869 5.9671110483163829 0 5.9671110483163829 65.729020262908307 0 0 0 0 -5.5151299347635359 -20.148743021031805 0 -20.148743021031805 5.7346715759776998 0 0 0 0 -20.529622706024384 1.5286727471284394 0 1.5286727471284394 80.032266516544041 0 0 0 0 -17.222997332046361 -1.1996343098403486 0 -1.1996343098403486 26.066359894231937 0 0 0 0 -17.937315161922015 -3.2109319209521345 0 -3.2109319209521345 25.107391640100104 0 0 0 0 -6.9015968656617463 2.3328907144948232 0 2.3328907144948232 39.901016262210078 0 0 0 0 -164.57257456726802 -96.996690862329842 0 -96.996690862329842 212.0536574756652 0 0 0 0 177.72177399674365 96.39499649383157 0 96.39499649383157 45.515527957305494 0 0 0 0 91.392721640208038 88.814920691006591 0 88.814920691006591 80.691323569595625 0 0 0 0 1.1920721418280067 2.1253302485899184 0 2.1253302485899184 1.7502399437655143 0 0 0 0 0.44654738116514636 5.7639809772863373 0 5.7639809772863373 5.9439316392054025 0 0 0 0 22.625050441216445 27.154635000135542 0 27.154635000135542 4.0565064516387679 0 0 0 0 -0.30768948683595454 22.908493447077262 0 22.908493447077262 15.736971019057435 0 0 0 0 3.0286989622616858 13.840430533627199 0 13.840430533627199 18.756050174995593 0 0 0 0 8.5971116865863451 11.020303755687848 0 11.020303755687848 -2.9536595052431078 0 0 0 0 12.938610322074965 20.800188680506722 0 20.800188680506722 10.845897074951154 0 0 0 0 16.5212415032438 18.772207433126511 0 18.772207433126511 -0.81286637699571429 0 0 0 0 12.246850966301281 18.511814377369319 0 18.511814377369319 5.3024562244156641 0 0 0 0 12.235020031026579 18.672064739184144 0 18.672064739184144 3.1577987587335201 0 0 0 0 0.70524977429818136 -2.03339509688346 0 -2.03339509688346 -3.7661665877573176 0 0 0 0 40.676716547954129 41.213236074192537 0 41.213236074192537 37.462690368366566 0 0 0 0 8.253388042881852 65.357596677989932 0 65.357596677989932 130.2782517197702 0 0 0 0 4.3056135092047043 54.941872124934889 0 54.941872124934889 103.02258093295313 0 0 0 0 2.4383735897077372 5.2272209311355553 0 5.2272209311355553 4.0513753718170022 0 0 0 0 -0.57006594975246117 56.824560472128724 0 56.824560472128724 102.38599213408452 0 0 0 0 1.0793601649493212 29.622720425632451 0 29.622720425632451 88.736363604366488 0 0 0 0 1.612314253434306 34.5658510599078 0 34.5658510599078 88.159667025503495 0 0 0 0 29.511379092582501 48.574268119413318 0 48.574268119413318 91.068524876353422 0 0 0 0 8.3968493951379912 13.72093551022774 0 13.72093551022774 -3.4763095412878915 0 0 0 0 26.479095173825044 46.519429291724009 0 46.519429291724009 72.473637381700428 0 0 0 0 11.725857615747373 18.738697687540956 0 18.738697687540956 3.6144005602165237 0 0 0 0 -11.480529164633481 35.7868233051895 0 35.7868233051895 93.116789289630105 0 0 0 0 -5.8372515606752131 14.043212633187068 0 14.043212633187068 67.048942460705803 0 0 0 0 -48.199500899791019 -14.650999384835814 0 -14.650999384835814 96.091499479477307 0 0 0 0 -20.790146674720745 -28.871679389395922 0 -28.871679389395922 24.37088360546295 0 0 0 0 5.4634855995100224 35.600816089418913 0 35.600816089418913 82.499470993234354 0 0 0 0 -29.731005000925506 29.301246243435344 0 29.301246243435344 145.61907844592315 0 0 0 0 66.632562904051156 -39.252376475395067 0 -39.252376475395067 -32.475229772826424 0 0 0 0 26.534766789060086 84.886262840002018 0 84.886262840002018 131.38876853355578 0 0 0 0 -2.04239524578594 0.075105251521634386 0 0.075105251521634386 -0.55093803416923048 0 0 0 0 -7.073451404372463 -18.297520636575427 0 -18.297520636575427 114.7856184356242 0 0 0 0 5.4384143863680947 -10.618438644430853 0 -10.618438644430853 41.93727346225387 0 0 0 0 -5.0559139898854539 0.3054560078806503 0 0.3054560078806503 6.0334700370090744 0 0 0 0 1.4700419238652103 -53.74142863204861 0 -53.74142863204861 72.638912052062381 0 0 0 0 4.0076589838336076 -11.075811417546333 0 -11.075811417546333 67.973144513715852 0 0 0 0 -28.67536200160248 113.88578624027195 0 113.88578624027195 124.99348026739074 0 0 0 0 -115.50235881528351 49.350389572633503 0 49.350389572633503 83.883786747361228 0 0 0 0 -11.453392980227363 -4.4584627128106149 0 -4.4584627128106149 55.942048039750716 0 0 0 0 -17.10993546393729 2.5516817941029331 0 2.5516817941029331 47.254926162531774 0 0 0 0 -0.10154491542582278 -7.1243017444088395 0 -7.1243017444088395 36.812325618374196 0 0 0 0 20.861917155882111 -28.39927284664509 0 -28.39927284664509 36.64708916697532 0 0 0 0 -1.3864931271673413 -1.7384967835541829 0 -1.7384967835541829 30.390349475844232 0 0 0 0 296.22422036707758 155.96937312183559 0 155.96937312183559 4.0493956487889591 0 0 0 0 240.86558095769578 49.934312735459002 0 49.934312735459002 -117.93533831217667 0 0 0 0 677.24484622232558 32.9203330697718 0 32.9203330697718 -234.5964688449576 0 0 0 0 142.05746831413853 87.192411839924858 0 87.192411839924858 515.37960119533136 0 0 0 0 169.24080557120033 -55.408359668773301 0 -55.408359668773301 -27.73908545773611 0 0 0 0 87.178746159392176 -32.522115182554444 0 -32.522115182554444 -28.470904332868031 0 0 0 0 -1.530461153386689 -6.9843062047751658 0 -6.9843062047751658 22.200525366290719 0 0 0 0 -5.6850518751739401 4.7145569382511212 0 4.7145569382511212 -4.6503332279708047 0 0 0 0 -0.41657551991891495 -5.7032090009759031 0 -5.7032090009759031 31.009404617048578 0 0 0 0 13.618376376405649 -46.112704633884277 0 -46.112704633884277 19.908140500772788 0 0 0 0 0.52597786353726406 -60.741899728063117 0 -60.741899728063117 46.364375439786272 0 0 0 0 -4.8969304670026759 -87.147591382516566 0 -87.147591382516566 16.367403454861687 0 0 0 0 -9.0099835434521083 -81.103407224074545 0 -81.103407224074545 50.886064227785027 0 0 0 0 17.937925183505286 -87.843122665662577 0 -87.843122665662577 13.811832474520997 0 0 0 0 24.098402330972021 -76.481517432528562 0 -76.481517432528562 17.19701143850881 0 0 0 0 60.738859964010771 -99.545573836541735 0 -99.545573836541735 5.6971032131805259 0 0 0 0 59.482207452500006 -78.535513766434633 0 -78.535513766434633 -3.5912571942831164 0 0 0 0 24.380310609529261 -89.674839524504478 0 -89.674839524504478 55.091197684472718 0 0 0 0 268.74551793609862 -109.60507135041553 0 -109.60507135041553 53.988174007847192 0 0 0 0 0.041005251689057332 -70.754873521695117 0 -70.754873521695117 51.877442236970182 0 0 0 0 101.58911603024899 -124.21845996172715 0 -124.21845996172715 34.53659993779911 0 0 0 0 4.1680355195082086 1.780403415388875 0 1.780403415388875 -1.4157732990989116 0 0 0 0 4.9391761918907946 2.1199997098159642 0 2.1199997098159642 -0.70235644836259414 0 0 0 0 26.471536730372463 -62.775610191635678 0 -62.775610191635678 -118.98847663574065 0 0 0 0 -5.5815208262529268 -28.885136310538115 0 -28.885136310538115 -58.45325507475809 0 0 0 0 -7.3901026058268826 7.8734664807647974 0 7.8734664807647974 -4.3893330962447887 0 0 0 0 58.469575214548968 40.051852756072776 0 40.051852756072776 -65.02521478973398 0 0 0 0 2.9382640530602657 44.240569091479301 0 44.240569091479301 61.377565014016 0 0 0 0 29.56130092487922 -3.2833711219161472 0 -3.2833711219161472 -0.036920033880480485 0 0 0 0 -14.154195750896179 -3.4789469290096804 0 -3.4789469290096804 21.931103656873347 0 0 0 0 87.689267071909853 150.89955114778377 0 150.89955114778377 136.10727025415554 0 0 0 0 -132.07146916077909 -59.575203644452131 0 -59.575203644452131 30.976574532983705 0 0 0 0 358.72515395798837 -446.57289758379557 0 -446.57289758379557 161.110412679609 0 0 0 0 116.57062585663516 -61.004390792893261 0 -61.004390792893261 47.430994627532129 0 0 0 0 6.1938002794288298 -8.3190452753560606 0 -8.3190452753560606 4.7060720156817686 0 0 0 0 589.16351014633983 -159.22343433054749 0 -159.22343433054749 -212.74697983047366 0 0 0 0 363.3089997695497 -114.72372519596722 0 -114.72372519596722 -220.88095464187666 0 0 0 0 -119.64070352626368 195.02628343769933 0 195.02628343769933 44.919358014030877 0 0 0 0 563.87236948814825 74.858537818213335 0 74.858537818213335 -171.85190546398553 0 0 0 0 -1.4735944014828419 -65.053179386897227 0 -65.053179386897227 -78.506751673439851 0 0 0 0 -6.8856109374282823 -163.19411542761338 0 -163.19411542761338 -84.035230956038504 0 0 0 0 119.19415182199009 -198.42006716366495 0 -198.42006716366495 -151.42296588559827 0 0 0 0 76.319925168128975 -46.57394966626282 0 -46.57394966626282 -409.29910763663975 0 0 0 0 380.65940290883736 -113.24038997176137 0 -113.24038997176137 -479.54022395700486 0 0 0 0 28.497230089830879 -4.5927352273713922 0 -4.5927352273713922 -0.076016393116514536 0 0 0 0 32.362110929205897 -4.816272965152514 0 -4.816272965152514 0.11296572487389556 0 0 0 0 28.794673459095065 -0.40341316272451877 0 -0.40341316272451877 135.86105602710188 0 0 0 0 59.843351498944685 -86.867185006380168 0 -86.867185006380168 -302.03517499236 0 0 0 0 223.67140303042106 29.407060409520113 0 29.407060409520113 -291.50748104761419 0 0 0 0 123.08467372291489 36.987305189176823 0 36.987305189176823 -114.17575879586639 0 0 0 0 -141.88259213585116 143.4741951391934 0 143.4741951391934 153.65690710465924 0 0 0 0 -7.2399315783004567 -56.111645297381301 0 -56.111645297381301 -92.883411485617216 0 0 0 0 7.8181724407622823 -95.45082890078902 0 -95.45082890078902 -83.117527667675631 0 0 0 0 25.149008367705392 -116.60143814057574 0 -116.60143814057574 -258.47687470149231 0 0 0 0 -0.50088550966211187 -24.481055306288567 0 -24.481055306288567 -217.03001780794693 0 0 0 0 5.7960888048546622 -116.48738260913069 0 -116.48738260913069 -95.396523366555812 0 0 0 0 -11.977894821029622 -62.244144501081792 0 -62.244144501081792 -74.64952828214814 0 0 0 0 -4.2482458877893805 -116.91741238093344 0 -116.91741238093344 -15.039653863740568 0 0 0 0 -28.107374402010464 -68.963785287040082 0 -68.963785287040082 56.776890315534729 0 0 0 0 -12.706142613431439 -96.743873060203441 0 -96.743873060203441 15.908108209316651 0 0 0 0 -10.863053821067297 -64.867671269823745 0 -64.867671269823745 -12.229046591568476 0 0 0 0 -22.021212929408648 -56.692057904908324 0 -56.692057904908324 119.08723289031786 0 0 0 0 -13.219616785208927 -73.55926746967225 0 -73.55926746967225 58.191948696749023 0 0 0 0 -34.383287202574138 -63.508308016703268 0 -63.508308016703268 154.74222240126528 0 0 0 0 0.26904344291324378 -49.606430462242997 0 -49.606430462242997 79.051337107516702 0 0 0 0 51.348457800646429 -107.82073397896829 0 -107.82073397896829 145.38365786580289 0 0 0 0 0.69690966369671514 -131.34732496302649 0 -131.34732496302649 55.217122973848745 0 0 0 0 195.72308670000348 -159.27891717977582 0 -159.27891717977582 88.31359620283456 0 0 0 0 50.198532198141038 -11.252721871159792 0 -11.252721871159792 -50.150629921331529 0 0 0 0 76.718254619725485 -55.034725637217662 0 -55.034725637217662 124.6193011537971 0 0 0 0 -36.51702775011654 -62.464075206791676 0 -62.464075206791676 211.91576050024651 0 0 0 0 -70.545921110722702 3.9088401307944878 0 3.9088401307944878 176.45238628717289 0 0 0 0 -11.89026654639747 -1.8327663684967774 0 -1.8327663684967774 142.97346787034712 0 0 0 0 23.81266040787159 -73.664312700554774 0 -73.664312700554774 232.00154678187664 0 0 0 0 5.7420617544848938 -11.426537040820676 0 -11.426537040820676 102.32724090540614 0 0 0 0 -41.619056223024018 -39.217514484818253 0 -39.217514484818253 144.30163259776691 0 0 0 0 -35.493434936623089 -0.71932226208627981 0 -0.71932226208627981 220.11421587773748 0 0 0 0 -0.40167249027624052 0.25643296887164269 0 0.25643296887164269 0.11670705454655472 0 0 0 0 -15.284254708138178 -29.761288771631371 0 -29.761288771631371 -40.455321012870627 0 0 0 0 -35.415355590375839 40.238358711316778 0 40.238358711316778 140.01151743213995 0 0 0 0 -13.333125764525903 69.865282791982054 0 69.865282791982054 77.745454161537054 0 0 0 0 -12.248388054256793 -10.53583510336739 0 -10.53583510336739 176.18880742055353 0 0 0 0 -22.004611005933839 8.6467288316180202 0 8.6467288316180202 141.07253571816727 0 0 0 0 -59.921440969112155 62.964173760877202 0 62.964173760877202 171.58940014964537 0 0 0 0 0.073750294364941738 0.22366062770036166 0 0.22366062770036166 -0.21347215271048725 0 0 0 0 20.490940045623574 25.932087604062872 0 25.932087604062872 93.199218623051365 0 0 0 0 -5.2331782440582231 13.701681526366626 0 13.701681526366626 4.1014062688518038 0 0 0 0 2.7263757168275333 7.6659218131306943 0 7.6659218131306943 34.927451671729614 0 0 0 0 1.3880980127833027 14.062607529030686 0 14.062607529030686 2.0106419496580656 0 0 0 0 0.60993944231870501 0.9419621045198312 0 0.9419621045198312 2.8860285554507552 0 0 0 0 4.3083281875933608 10.711218764899286 0 10.711218764899286 42.298172868642723 0 0 0 0 9.8054487649787916 -23.29848298433717 0 -23.29848298433717 125.84360575064602 0 0 0 0 1.4532537034808115 15.155660481152946 0 15.155660481152946 5.9519254907267101 0 0 0 0 -1.2490554787509609 16.842575074462729 0 16.842575074462729 46.696867766950163 0 0 0 0 20.332584902847884 -41.116552880302152 0 -41.116552880302152 147.35993840478113 0 0 0 0 -19.395645962838898 49.724542991036742 0 49.724542991036742 78.666354061868333 0 0 0 0 -36.503019488016434 65.44287747172325 0 65.44287747172325 215.65058377164314 0 0 0 0 -32.108776603185106 46.600061725396699 0 46.600061725396699 143.60875848986962 0 0 0 0 -26.141213753959164 3.4301907841972934 0 3.4301907841972934 46.20395125676032 0 0 0 0 -34.887313702307438 25.922700586819133 0 25.922700586819133 65.62886204273309 0 0 0 0 -9.7291153700400628 8.0619043109289024 0 8.0619043109289024 -12.214538343570894 0 0 0 0 -9.1796328259079019 46.118771501276569 0 46.118771501276569 23.407229221726084 0 0 0 0 -12.643966465984704 63.140668777463361 0 63.140668777463361 16.692877656214932 0 0 0 0 -7.2292873946862528 -14.988958987379419 0 -14.988958987379419 40.420011613186944 0 0 0 0 -11.357193551433738 9.9007430192218635 0 9.9007430192218635 25.259724771293349 0 0 0 0 -12.935135417601515 15.611249090265858 0 15.611249090265858 3.1530618811120403 0 0 0 0 -21.677170280935059 6.7262081813441625 0 6.7262081813441625 7.6548708605738236 0 0 0 0 -25.895164479414234 74.836222542271912 0 74.836222542271912 12.779587471244668 0 0 0 0 7.6854753636383464 6.1898179561662729 0 6.1898179561662729 2.5536349337151938 0 0 0 0 37.375385516017047 15.206209799349473 0 15.206209799349473 4.5532666776831618 0 0 0 0 37.955744550767122 31.511299542508823 0 31.511299542508823 -108.77981226760448 0 0 0 0 79.989319290776621 40.336252154210086 0 40.336252154210086 -20.456554703371808 0 0 0 0 39.332914799102582 28.836719931518019 0 28.836719931518019 -108.22392316046989 0 0 0 0 617.91367105566314 109.44170512444998 0 109.44170512444998 -173.09111168479421 0 0 0 0 -41.859782622457715 82.187568158766823 0 82.187568158766823 12.164279915789542 0 0 0 0 -466.17457092608674 -65.12803961872396 0 -65.12803961872396 137.65281629234414 0 0 0 0 8.009413378793397 27.340559163297939 0 27.340559163297939 -19.284884370358327 0 0 0 0 -92.879749336343593 -27.75845919365895 0 -27.75845919365895 -45.759071316771042 0 0 0 0 -73.98028571670875 66.356334027240564 0 66.356334027240564 25.540129464066581 0 0 0 0 16.362354758588481 64.105350533970523 0 64.105350533970523 -67.982623815514671 0 0 0 0 34.221462610177696 64.888256504020319 0 64.888256504020319 -68.042484636375889 0 0 0 0 41.957956719037611 81.722297182891452 0 81.722297182891452 -48.540538100003687 0 0 0 0 32.892384074097208 69.24669669416221 0 69.24669669416221 -59.222019695933341 0 0 0 0 23.355062643182464 67.632860015824917 0 67.632860015824917 -57.199556610437867 0 0 0 0 29.135108612790646 74.177019768192622 0 74.177019768192622 -35.679308520142513 0 0 0 0 48.98977711473708 63.885742398497314 0 63.885742398497314 -64.538232492639963 0 0 0 0 20.685594258131459 53.529020928671343 0 53.529020928671343 -65.727139089160119 0 0 0 0 1.4075311544147553 51.202341400393379 0 51.202341400393379 -67.279719162821493 0 0 0 0 11.054020189625589 24.828467571032775 0 24.828467571032775 -90.046891067882825 0 0 0 0 29.856297167410958 59.411600751921924 0 59.411600751921924 -69.408742065681508 0 0 0 0 34.8800721179432 39.468060421015252 0 39.468060421015252 -79.745339281418637 0 0 0 0 39.75849365151953 42.910215894294197 0 42.910215894294197 -82.102799241306457 0 0 0 0 48.775381667684997 35.459048502298174 0 35.459048502298174 -97.858532099401316 0 0 0 0 45.446404241833079 27.533498169753329 0 27.533498169753329 -108.18004115261647 0 0 0 0 36.951321139466017 34.879026347919535 0 34.879026347919535 -97.879476344927753 0 0 0 0 40.744158635090571 30.559077556667035 0 30.559077556667035 -88.391086505798739 0 0 0 0 54.681308980842005 37.568546324986528 0 37.568546324986528 -85.632880162698712 0 0 0 0 46.074947989967768 37.295476554011202 0 37.295476554011202 -74.315788735912065 0 0 0 0 57.029442379367538 48.880294127434354 0 48.880294127434354 -77.745792397842479 0 0 0 0 65.15169166817941 61.516406853674198 0 61.516406853674198 -63.684505096423891 0 0 0 0 42.594412592137814 53.081908378351272 0 53.081908378351272 -66.613165285994 0 0 0 0 81.508426950400462 38.998527241359625 0 38.998527241359625 -74.422733078347733 0 0 0 0 84.301920392914326 51.245187720697686 0 51.245187720697686 -58.266070188402409 0 0 0 0 59.976566277517122 75.647581103981793 0 75.647581103981793 -58.388271375731733 0 0 0 0 67.132865668630984 82.136001517188561 0 82.136001517188561 -59.528037396084073 0 0 0 0 55.055277465737163 89.200181647754675 0 89.200181647754675 -60.304815139466882 0 0 0 0 57.353436689052614 87.188754891392819 0 87.188754891392819 -58.546963717692961 0 0 0 0 37.495712233598169 89.672402418750607 0 89.672402418750607 -58.090422192708502 0 0 0 0 39.229292349205934 76.106264161299805 0 76.106264161299805 -58.395336354758911 0 0 0 0 44.027687374386005 -13.239699975373696 0 -13.239699975373696 -56.934709402494718 0 0 0 0 57.667942524756654 -17.700307913381948 0 -17.700307913381948 -56.456468071156451 0 0 0 0 54.399250476635643 -1.5051004578003813 0 -1.5051004578003813 -53.266694148301895 0 0 0 0 80.277671960468069 -24.209088424510014 0 -24.209088424510014 -34.680963855837035 0 0 0 0 98.070388365202234 29.379396044698751 0 29.379396044698751 -56.702552713330078 0 0 0 0 63.52779641248344 26.294755695151707 0 26.294755695151707 -73.533870064337862 0 0 0 0 61.556538505494245 17.87403804461519 0 17.87403804461519 -60.235965123117239 0 0 0 0 54.919120183796622 -12.418805871715449 0 -12.418805871715449 -59.382495267904687 0 0 0 0 46.777560653252294 16.009130771087257 0 16.009130771087257 -79.662008330303252 0 0 0 0 27.747944936039858 25.013749671337791 0 25.013749671337791 -83.19120956635561 0 0 0 0 44.760692457202822 34.452399704069649 0 34.452399704069649 -103.61418693420455 0 0 0 0 43.494730399805121 22.006941066264744 0 22.006941066264744 -118.16799396189435 0 0 0 0 22.496977306727786 6.7367398565529584 0 6.7367398565529584 -72.419233534850491 0 0 0 0 49.921932427096181 -0.61548383993977041 0 -0.61548383993977041 -76.093297586350673 0 0 0 0 45.158115284426458 -13.449558488506796 0 -13.449558488506796 -57.089794429432004 0 0 0 0 69.28227086689003 16.913325382362927 0 16.913325382362927 -64.64653835700301 0 0 0 0 0.31392062245328134 3.2169289118891626 0 3.2169289118891626 3.5141056440018179 0 0 0 0 51.729977237642743 -10.715388492171769 0 -10.715388492171769 -89.360073404010109 0 0 0 0 23.360909422553959 11.627281642201524 0 11.627281642201524 7.4319920201455716 0 0 0 0 96.910357364467927 17.238480156061541 0 17.238480156061541 -85.402890935231994 0 0 0 0 20.32052992201352 24.522914564598977 0 24.522914564598977 -106.27633982114753 0 0 0 0 4.0855797526943434 4.6939958084784337 0 4.6939958084784337 2.6529598027329708 0 0 0 0 22.009022729951539 -9.5227534183559328 0 -9.5227534183559328 -136.61717879199705 0 0 0 0 -22.834951323920876 14.443737234712799 0 14.443737234712799 16.620428996199934 0 0 0 0 37.16346888559201 42.399500813713985 0 42.399500813713985 12.417683547244906 0 0 0 0 -1.7253797176090302 19.266592838748693 0 19.266592838748693 14.484852072107515 0 0 0 0 4.1153345676597155 21.289954630599105 0 21.289954630599105 13.795012200107115 0 0 0 0 -13.945741208174695 23.867842857916983 0 23.867842857916983 12.803530409340055 0 0 0 0 0.0020604620076483116 13.458735917403374 0 13.458735917403374 2.0608717829553029 0 0 0 0 157.75385692091368 130.97275443268245 0 130.97275443268245 -99.459722399463317 0 0 0 0 4.3453044326940073 12.981335338848886 0 12.981335338848886 8.9981428653691857 0 0 0 0 -126.00141807700857 1.9718673292700259 0 1.9718673292700259 145.76168837882688 0 0 0 0 8.8565574165986618 16.981854561661294 0 16.981854561661294 2.1089452462474583 0 0 0 0 -67.223228335613385 -21.765687531281174 0 -21.765687531281174 110.74891135488997 0 0 0 0 1.1247104449807637 6.0728079909061847 0 6.0728079909061847 -13.066852872174483 0 0 0 0 13.077691578888334 16.513839360271959 0 16.513839360271959 0.19289463577496235 0 0 0 0 10.586873384061619 19.818914601880579 0 19.818914601880579 -1.2970493625275594 0 0 0 0 10.862310580094345 18.007252906839085 0 18.007252906839085 3.321125303235732 0 0 0 0 11.526235351353534 18.850844485479001 0 18.850844485479001 3.4114181537256627 0 0 0 0 12.663413302012486 18.51316427260349 0 18.51316427260349 3.2694006985021247 0 0 0 0 14.140437886744621 17.433532728162049 0 17.433532728162049 -1.1653328141969723 0 0 0 0 12.494449415506097 16.862540370834495 0 16.862540370834495 3.0262427447963205 0 0 0 0 25.040044299836154 6.0930091578213705 0 6.0930091578213705 -4.1422847716557385 0 0 0 0 22.110798363508366 12.680634641410734 0 12.680634641410734 -18.528949754595033 0 0 0 0 36.155898255761713 39.06051277361621 0 39.06051277361621 -58.151635246341357 0 0 0 0 93.57096678564676 71.321107280217632 0 71.321107280217632 -43.39111366052839 0 0 0 0 -124.6755815810684 -18.574068510895131 0 -18.574068510895131 39.525430699909975 0 0 0 0 -42.062939711482613 -154.5133241941686 0 -154.5133241941686 -25.619424405753762 0 0 0 0 -2.194603111886579 -0.11360288910805139 0 -0.11360288910805139 7.0030907228718071 0 0 0 0 -64.276356888542068 33.882952375414447 0 33.882952375414447 14.526682623054512 0 0 0 0 -26.530261199295637 4.8366856561645477 0 4.8366856561645477 5.9361901163538278 0 0 0 0 37.372788485801721 8.4279261639743481 0 8.4279261639743481 -5.4136300953903174 0 0 0 0 27.530829287614324 4.9085631405629329 0 4.9085631405629329 2.0138369647929721 0 0 0 0 0.16959096527512685 -5.2320706747901937 0 -5.2320706747901937 3.990692739632002 0 0 0 0 9.5412888391747401 6.1020995411415981 0 6.1020995411415981 4.8213737106254655 0 0 0 0 25.324587380921002 8.195477695405998 0 8.195477695405998 9.4833118449896574 0 0 0 0 -51.012338992761215 -7.1157833834250823 0 -7.1157833834250823 5.1752526932777982 0 0 0 0 -5.5880688282777555 -40.832797560769563 0 -40.832797560769563 16.510641104159959 0 0 0 0 9.7900919989624526 -39.162435873764252 0 -39.162435873764252 24.894914920925203 0 0 0 0 -34.123425437359401 -48.351660302393043 0 -48.351660302393043 47.901079410517923 0 0 0 0 -15.376297086433624 -59.66047935055942 0 -59.66047935055942 -26.734792780177969 0 0 0 0 -22.544442087244533 -54.547242900050605 0 -54.547242900050605 33.091250365166843 0 0 0 0 -20.432852637051838 -54.100203971220139 0 -54.100203971220139 8.8629588164208144 0 0 0 0 -14.861194690281991 -53.350225459196622 0 -53.350225459196622 7.9091823034812592 0 0 0 0 -1.6070712065848056 -92.720727077137184 0 -92.720727077137184 -51.516925862590682 0 0 0 0 -45.407734187188908 -79.871984803719812 0 -79.871984803719812 -8.7001924840967604 0 0 0 0 45.828528743746574 11.27608689146723 0 11.27608689146723 5.3593697067262838 0 0 0 0 25.567565586752607 -53.647001195317571 0 -53.647001195317571 -16.81360844636832 0 0 0 0 12.723020251454727 22.053443606626516 0 22.053443606626516 80.98804827846061 0 0 0 0 -1.6320139065635573 -7.476950915094335 0 -7.476950915094335 -7.3954769247549228 0 0 0 0 83.066586465447472 -4.9228674800041148 0 -4.9228674800041148 -22.87534739414923 0 0 0 0 2.348038249037927 -81.459170466962703 0 -81.459170466962703 -39.47914920573551 0 0 0 0 8.5116981966964538 -11.554868224382815 0 -11.554868224382815 -19.172064108616766 0 0 0 0 104.34731072516297 -25.840793439302615 0 -25.840793439302615 -65.228536067315872 0 0 0 0 241.11117420002847 89.372279962840196 0 89.372279962840196 -99.633329206619237 0 0 0 0 82.715440335814492 -34.357013602049847 0 -34.357013602049847 -28.590112704427838 0 0 0 0 38.220850768237142 4.2756357311184274 0 4.2756357311184274 9.0262159772207724 0 0 0 0 -50.583184549293946 -112.8177804863285 0 -112.8177804863285 -50.385246299748317 0 0 0 0 1.3497597340536345 -0.21504395901645523 0 -0.21504395901645523 -0.57842257124075858 0 0 0 0 6.1096335108766482 0.1402789577889223 0 0.1402789577889223 -3.865808893613532 0 0 0 0 -79.997121365653584 -59.010743144146204 0 -59.010743144146204 -26.278009903040697 0 0 0 0 -19.981623034545919 -50.324476949257473 0 -50.324476949257473 -110.01697789785567 0 0 0 0 12.917207715028781 24.020204855856946 0 24.020204855856946 -39.343792995849981 0 0 0 0 29.060314537142403 5.3596142165411038 0 5.3596142165411038 -21.404513892645809 0 0 0 0 28.815243586082943 1.0770844379580922 0 1.0770844379580922 -69.975084848352708 0 0 0 0 44.692876947985496 24.713675982482982 0 24.713675982482982 -55.425645993125727 0 0 0 0 -0.96421414651541681 2.1384647148772871 0 2.1384647148772871 -7.94547013819993 0 0 0 0 -6.5904775369417621 2.4698378092173243 0 2.4698378092173243 7.4327368043448132 0 0 0 0 -57.469758054387057 -18.843803815356296 0 -18.843803815356296 53.135514663105369 0 0 0 0 -75.042436954019649 -108.57412137203801 0 -108.57412137203801 -75.871948115342093 0 0 0 0 -0.46585940819822724 1.02409497936371 0 1.02409497936371 -2.3824162579860637 0 0 0 0 -2.1370149021022371 140.11389701708458 0 140.11389701708458 135.6615051743629 0 0 0 0 -19.258735537398024 -26.253291262259381 0 -26.253291262259381 -28.754873542066889 0 0 0 0 45.596118559864408 -4.6179193890434362 0 -4.6179193890434362 -37.349137970682932 0 0 0 0 36.454473319638055 -38.149550101097702 0 -38.149550101097702 -71.612285154067649 0 0 0 0 60.070410821121186 -14.044801054475101 0 -14.044801054475101 -78.663777950051781 0 0 0 0 13.379834031089558 43.112033686083123 0 43.112033686083123 140.13920060258579 0 0 0 0 51.9272963689873 28.919830990381342 0 28.919830990381342 9.6710686511005406 0 0 0 0 5.0105705585014988 0.35057706701941527 0 0.35057706701941527 -0.1760134192729037 0 0 0 0 49.482023359654704 16.222401571783848 0 16.222401571783848 11.172141154747806 0 0 0 0 70.787857770177652 -5.0104324325191101 0 -5.0104324325191101 -123.7851351101217 0 0 0 0 29.458625158273207 -32.213151156622416 0 -32.213151156622416 -84.386517164077304 0 0 0 0 37.036256505263736 -9.2220487187541949 0 -9.2220487187541949 -57.814993563097232 0 0 0 0 84.238731426856248 24.659153787870309 0 24.659153787870309 -83.237096997729168 0 0 0 0 85.316398267452314 -94.033718580971481 0 -94.033718580971481 -251.52849886395416 0 0 0 0 57.053746746307297 -37.482647704091278 0 -37.482647704091278 15.633575846433814 0 0 0 0 6.5804295713288354 -3.0207870470385103 0 -3.0207870470385103 1.7571673600604747 0 0 0 0 -167.79180967801949 -220.33355936661064 0 -220.33355936661064 -436.88497458694474 0 0 0 0 18.349551164218639 0.78606177293649893 0 0.78606177293649893 -8.9337040179759875 0 0 0 0 83.575550826353719 159.46289129339584 0 159.46289129339584 11.81478322288649 0 0 0 0 162.68921023400617 143.79567444643817 0 143.79567444643817 -247.63843723069292 0 0 0 0 64.7147969052603 -23.900756208040548 0 -23.900756208040548 -16.604521437968657 0 0 0 0 20.626088517601147 -8.3955547135336701 0 -8.3955547135336701 1.2910117823092788 0 0 0 0 25.500122642894752 -3.10347947544318 0 -3.10347947544318 -8.0308508835059875 0 0 0 0 21.329774065932725 -9.6985205235391732 0 -9.6985205235391732 7.2664387650013396 0 0 0 0 66.728888892480427 -9.1143035948290532 0 -9.1143035948290532 -18.90625358023226 0 0 0 0 28.080121933948249 -1.0055996738833528 0 -1.0055996738833528 -8.7572944507141983 0 0 0 0 20.319222651485063 0.40466667014732138 0 0.40466667014732138 -5.5465492006263464 0 0 0 0 34.439977705435012 -3.7572740478694868 0 -3.7572740478694868 -7.5686461972941288 0 0 0 0 21.285486846657278 -8.5096467561859725 0 -8.5096467561859725 -10.747996665657313 0 0 0 0 35.778516686812509 -12.621692330346377 0 -12.621692330346377 2.1328436299027089 0 0 0 0 21.837887393643086 4.1446415495740752 0 4.1446415495740752 -12.00521373247738 0 0 0 0 23.48981824239192 9.0981984561281166 0 9.0981984561281166 -8.2870595876105035 0 0 0 0 7.557671541639138 27.036836873252469 0 27.036836873252469 -26.634310891122823 0 0 0 0 15.08324784366414 8.3463073919399449 0 8.3463073919399449 -13.282301019216902 0 0 0 0 29.270593584118615 -21.275732601406531 0 -21.275732601406531 -2.6596426694541151 0 0 0 0 40.621182693406809 10.733419453139874 0 10.733419453139874 -15.760632889047884 0 0 0 0 21.985550232341154 -6.2855591481913216 0 -6.2855591481913216 -1.1155887528303321 0 0 0 0 30.343001087981975 -10.411978663630634 0 -10.411978663630634 -27.81160654646078 0 0 0 0 102.8996288147755 -25.580214074553169 0 -25.580214074553169 -32.392487891516794 0 0 0 0 73.258668093410961 -13.152696212014462 0 -13.152696212014462 -18.51552606540281 0 0 0 0 29.852484847440053 -7.223217934823559 0 -7.223217934823559 -9.2407076905825871 0 0 0 0 48.123822516583914 -10.488443940313189 0 -10.488443940313189 -19.774556047033325 0 0 0 0 9.9456696690302522 -6.9676376728099711 0 -6.9676376728099711 1.8928382169411577 0 0 0 0 93.072922825900605 -49.064858013363846 0 -49.064858013363846 10.873847486956947 0 0 0 0 70.997090136210318 -12.818010240955346 0 -12.818010240955346 -14.410971680550574 0 0 0 0 32.868492714660533 -26.611782934056009 0 -26.611782934056009 -2.6893727402834884 0 0 0 0 7.3578138004811251 -18.553633931998178 0 -18.553633931998178 -12.347462555741464 0 0 0 0 91.321260099415667 -22.24462014723531 0 -22.24462014723531 -18.186129897361752 0 0 0 0 68.019867601775331 -30.714652064474421 0 -30.714652064474421 3.7271540755864407 0 0 0 0 27.739192252862267 -15.245739365094323 0 -15.245739365094323 3.3872110992315356 0 0 0 0 31.521196143884936 -42.537434749555402 0 -42.537434749555402 27.671731919829654 0 0 0 0 30.956824525018874 -31.229538848431346 0 -31.229538848431346 -9.1344944374377519 0 0 0 0 85.298741244841949 -43.602102042547358 0 -43.602102042547358 -9.5027549769049529 0 0 0 0 94.167138445979617 -24.90066083437867 0 -24.90066083437867 -17.488864345954426 0 0 0 0 -3.9057526725794958 -15.613298927387405 0 -15.613298927387405 -14.437930182828705 0 0 0 0 55.417176872957498 -67.754301704525915 0 -67.754301704525915 10.791837137741823 0 0 0 0 55.675166708751931 -66.213440403393179 0 -66.213440403393179 -24.964088947147502 0 0 0 0 20.546722304245307 -21.560054745634034 0 -21.560054745634034 -17.352356198109433 0 0 0 0 27.818114040110231 14.278867160951336 0 14.278867160951336 -7.6463238743722286 0 0 0 0 108.52910358163354 -3.4544146741279746 0 -3.4544146741279746 -6.3874182597091931 0 0 0 0 35.975639662161427 19.913023430722092 0 19.913023430722092 -0.078207907105454666 0 0 0 0 62.017335999827409 -0.69400579787995298 0 -0.69400579787995298 -5.4502925811000953 0 0 0 0 45.97069974571059 -2.5370492553157646 0 -2.5370492553157646 -24.293453066906295 0 0 0 0 60.063893749800627 -22.005694286258461 0 -22.005694286258461 -7.2094101819911316 0 0 0 0 69.868451312591787 -14.358877233546423 0 -14.358877233546423 -6.227787210984161 0 0 0 0 70.14314946677041 -8.1777134515231182 0 -8.1777134515231182 -13.21661576705651 0 0 0 0 58.110087807144737 59.829153316656857 0 59.829153316656857 -21.177553053693828 0 0 0 0 125.21498682146193 46.213462362775431 0 46.213462362775431 -21.696231904797969 0 0 0 0 33.033270374129643 -0.8045109056874935 0 -0.8045109056874935 11.210261876663935 0 0 0 0 40.292131837435591 22.184928178613347 0 22.184928178613347 -3.358582466975804 0 0 0 0 48.119706265279092 39.25030340652529 0 39.25030340652529 8.70692791898 0 0 0 0 41.146739126153989 32.147514758190937 0 32.147514758190937 4.2453240895965791 0 0 0 0 30.075494611277463 16.105182672715756 0 16.105182672715756 0.7265345330520212 0 0 0 0 -21.55912283458747 67.124435335822454 0 67.124435335822454 -16.045425628874 0 0 0 0 32.404735979445888 14.227774013391212 0 14.227774013391212 -4.7454603911202469 0 0 0 0 52.681426001843647 15.741274752680965 0 15.741274752680965 -14.138540871291298 0 0 0 0 -38.504077558463905 43.411712012980388 0 43.411712012980388 39.39630533599302 0 0 0 0 121.71646439452888 101.28588407910865 0 101.28588407910865 -74.955680236877924 0 0 0 0 293.5760947989329 49.098844706864838 0 49.098844706864838 -48.114083520974418 0 0 0 0 138.25176810659468 136.98282822470355 0 136.98282822470355 63.427217764758097 0 0 0 0 32.514853593966109 24.18532801631136 0 24.18532801631136 -30.035335003325599 0 0 0 0 92.691235172915185 5.8953122541622633 0 5.8953122541622633 -56.478363988970159 0 0 0 0 66.123793961625779 88.388786372214781 0 88.388786372214781 -77.9474494399999 0 0 0 0 56.365370543615427 -1.8232162236340628 0 -1.8232162236340628 -128.25446013508463 0 0 0 0 66.515093604306458 27.905552579455161 0 27.905552579455161 -73.034073764196364 0 0 0 0 45.897861597726518 12.00081632545853 0 12.00081632545853 -1.4283873759647738 0 0 0 0 43.214902493946738 8.8890658820740143 0 8.8890658820740143 -1.5658130134338171 0 0 0 0 81.75169321753836 -13.15400258786142 0 -13.15400258786142 -6.6225564548442257 0 0 0 0 262.73852832036209 -21.722224188803466 0 -21.722224188803466 -99.194469174179176 0 0 0 0 78.762146669207908 -11.103412642355941 0 -11.103412642355941 -3.3638257188742715 0 0 0 0 144.28985505134915 -150.24778313748629 0 -150.24778313748629 -148.48366872809424 0 0 0 0 140.29642756070825 -97.094628121423739 0 -97.094628121423739 -115.32740147161485 0 0 0 0 185.68754579416418 38.873392348513335 0 38.873392348513335 -113.51117061378136 0 0 0 0 285.44025129100191 188.67463804262707 0 188.67463804262707 37.434681003997525 0 0 0 0 -2.1646766790363472 62.126332896879831 0 62.126332896879831 102.9159996133485 0 0 0 0 48.925685671871179 -44.879240476233463 0 -44.879240476233463 -70.288067869818406 0 0 0 0 72.472533158130545 -8.5758580807956122 0 -8.5758580807956122 -8.3500854415704691 0 0 0 0 44.041645936784334 -58.472965160902504 0 -58.472965160902504 -11.927259672532273 0 0 0 0 64.542240792827215 -1.960157692829398 0 -1.960157692829398 -32.007696923255253 0 0 0 0 147.08162900301977 -115.87586115798285 0 -115.87586115798285 115.67175320114711 0 0 0 0 77.082799370102293 29.621217305261439 0 29.621217305261439 -4.8590892995080139 0 0 0 0 120.27410280901677 96.988833387664044 0 96.988833387664044 96.16249039842387 0 0 0 0 262.27123085097992 19.533958106172577 0 19.533958106172577 -36.402454459735964 0 0 0 0 71.889674130143248 43.073880373730844 0 43.073880373730844 -36.074519842872178 0 0 0 0 29.961186101922067 6.5234169532013766 0 6.5234169532013766 27.556787984252423 0 0 0 0 57.9558924514713 39.985496208973473 0 39.985496208973473 -32.921865197982697 0 0 0 0 73.967890224666917 59.277063024533618 0 59.277063024533618 -40.906630389923521 0 0 0 0 68.800835763617215 73.959868837173872 0 73.959868837173872 -76.250711343096555 0 0 0 0 121.05136527410286 66.372016252792605 0 66.372016252792605 -56.488002449166743 0 0 0 0 104.60036436865994 15.69454408692917 0 15.69454408692917 -43.353057835027357 0 0 0 0 88.988710975827416 77.780190230010703 0 77.780190230010703 -18.152837736283573 0 0 0 0 153.74702365277335 34.585859582733065 0 34.585859582733065 -37.142076023904337 0 0 0 0 111.60308908348088 -51.327462927942179 0 -51.327462927942179 4.1709774909872976 0 0 0 0 45.544136847092886 -8.0666129859373541 0 -8.0666129859373541 -23.918120998286668 0 0 0 0 58.584886321274098 9.3079704525225679 0 9.3079704525225679 -42.318022473935343 0 0 0 0 16.243626065406715 -0.48557170701326413 0 -0.48557170701326413 6.4003588286650483 0 0 0 0 44.970953831158113 -6.5536011784492985 0 -6.5536011784492985 1.8100337920377569 0 0 0 0 29.036062495768419 -0.48050524356358437 0 -0.48050524356358437 3.6350250902914922 0 0 0 0 -10.003485603723675 9.7846186449583001 0 9.7846186449583001 19.527950192681601 0 0 0 0 5.0095567970733441 3.4214347779921823 0 3.4214347779921823 0.40234933980475951 0 0 0 0 -15.06717455816397 27.686843223672895 0 27.686843223672895 12.791044067129405 0 0 0 0 7.1224388458940666 14.149287909543091 0 14.149287909543091 17.102128703653761 0 0 0 0 8.2237622465327149 33.626319073523746 0 33.626319073523746 165.29299707586142 0 0 0 0 178.59009790411801 -98.160053570708442 0 -98.160053570708442 59.847495366252815 0 0 0 0 1.9931441702566701 0.6746691243781413 0 0.6746691243781413 0.36977419520160915 0 0 0 0 19.411922984851117 -21.185347073024218 0 -21.185347073024218 23.623727447406054 0 0 0 0 -15.136770457662351 50.595537136518843 0 50.595537136518843 155.2873707871039 0 0 0 0 -0.96753634321956383 1.6665585432866266 0 1.6665585432866266 5.2866858913039021 0 0 0 0 375.25520385931304 23.539560720994132 0 23.539560720994132 23.054074989268884 0 0 0 0 -108.23224356981427 295.89973816952278 0 295.89973816952278 283.99489240724552 0 0 0 0 309.18048844247824 267.35015349572575 0 267.35015349572575 59.717594029205316 0 0 0 0 135.06625724319019 128.85944285490496 0 128.85944285490496 116.05912026533736 0 0 0 0 46.728972869168501 167.67776452122826 0 167.67776452122826 99.024965432723548 0 0 0 0 87.705481412573135 -23.203483958570132 0 -23.203483958570132 18.821459839398017 0 0 0 0 23.579144250790705 -21.011951318137108 0 -21.011951318137108 14.632216925803277 0 0 0 0 30.069082552668988 -8.0300606877981409 0 -8.0300606877981409 29.686862589830298 0 0 0 0 12.790887811813974 3.149956756518236 0 3.149956756518236 3.5098227715046253 0 0 0 0 46.592513187424629 -47.860043623366892 0 -47.860043623366892 39.573448487680366 0 0 0 0 52.281912800070131 -43.27031158405066 0 -43.27031158405066 39.617290895245105 0 0 0 0 32.316723455558531 -8.3029678890468404 0 -8.3029678890468404 -14.882425549659274 0 0 0 0 63.771505271324713 -79.447933452576763 0 -79.447933452576763 107.32572650998236 0 0 0 0 6.0500639073723903 4.2431747096126884 0 4.2431747096126884 2.7974209008921145 0 0 0 0 86.712159530470672 -63.918452701938577 0 -63.918452701938577 58.599755341041373 0 0 0 0 -3.3175735650147544 25.88168743455094 0 25.88168743455094 40.872363476233886 0 0 0 0 41.503617341779318 45.560904086607223 0 45.560904086607223 4.9846420237140592 0 0 0 0 -7.7878436909131779 91.217687124542039 0 91.217687124542039 292.54634876630485 0 0 0 0 1.9777440333505467 1.6376688714804288 0 1.6376688714804288 1.6048694951591118 0 0 0 0 324.33295119830291 -171.92401197033541 0 -171.92401197033541 153.25706696166696 0 0 0 0 105.93099876169072 -105.18567726119585 0 -105.18567726119585 134.96233366447723 0 0 0 0 250.29528213587764 -29.8466383095124 0 -29.8466383095124 28.563972338848529 0 0 0 0 189.75039735247265 15.141831218947004 0 15.141831218947004 93.961532291909407 0 0 0 0 383.92441732660882 51.736379944770931 0 51.736379944770931 99.96755248308591 0 0 0 0 349.43154265662452 -28.87443552642867 0 -28.87443552642867 298.06242809174273 0 0 0 0 177.6494016996935 -244.38137966515228 0 -244.38137966515228 130.82470116445143 0 0 0 0 4.710371136365552 -0.51833172369089198 0 -0.51833172369089198 -0.74983723974183636 0 0 0 0 126.40926356516138 234.71358826481276 0 234.71358826481276 130.32771544653269 0 0 0 0 71.424090215901742 131.90466649108802 0 131.90466649108802 1.1929056754273688 0 0 0 0 9.015082331194975 -2.0319124330328009 0 -2.0319124330328009 -0.63139539388359234 0 0 0 0 -72.876680609129835 -33.870147616447525 0 -33.870147616447525 1.2529328465122516 0 0 0 0 356.43238046090119 205.96902706102856 0 205.96902706102856 120.22701871161394 0 0 0 0 579.22287344725191 14.183165761623627 0 14.183165761623627 -61.537672992268881 0 0 0 0 529.1903811613447 -93.701656317446236 0 -93.701656317446236 -63.450295387257256 0 0 0 0 264.9165378537873 -81.296466496274633 0 -81.296466496274633 161.98508260646497 0 0 0 0 211.06929371604929 82.177390304369254 0 82.177390304369254 222.34669374642999 0 0 0 0 360.27639031480066 112.91573087987558 0 112.91573087987558 104.62480872709568 0 0 0 0 441.86424094068934 113.02390530390886 0 113.02390530390886 72.857063798115632 0 0 0 0 149.98908103811846 166.52824842107918 0 166.52824842107918 91.252547749109453 0 0 0 0 275.5654401199572 61.846810062872123 0 61.846810062872123 5.9480884937457859 0 0 0 0 288.96708340027544 185.96120346980683 0 185.96120346980683 104.47555538117535 0 0 0 0 388.56748696195427 169.81977118093039 0 169.81977118093039 89.3686628091898 0 0 0 0 258.30039165478956 125.3975417694129 0 125.3975417694129 -12.842148343401277 0 0 0 0 311.44564352045563 68.903985757278974 0 68.903985757278974 -7.2292547996912617 0 0 0 0 100.42337397587835 34.649966508269017 0 34.649966508269017 61.101887240369479 0 0 0 0 316.70597826888843 25.519450032888471 0 25.519450032888471 -35.824100715016527 0 0 0 0 515.06914515618701 199.98695684661413 0 199.98695684661413 -14.878511368695399 0 0 0 0 227.64654780372803 -114.26964842671669 0 -114.26964842671669 -138.98553227872048 0 0 0 0 261.13754239867558 56.569039518757563 0 56.569039518757563 -38.507314380806747 0 0 0 0 134.60694013127068 -32.490553837952575 0 -32.490553837952575 -38.594847315007442 0 0 0 0 122.55451839099987 -27.759691799638404 0 -27.759691799638404 15.684563942660589 0 0 0 0 37.527798131690361 -71.918169674818159 0 -71.918169674818159 14.610596224934945 0 0 0 0 131.6314718429494 -8.8222664108567983 0 -8.8222664108567983 10.944906895479107 0 0 0 0 20.491148450273613 -32.880260673292355 0 -32.880260673292355 23.476941046327738 0 0 0 0 26.981379523844225 -39.884381520953212 0 -39.884381520953212 7.4325953502537914 0 0 0 0 20.850921997407568 -49.286998828582796 0 -49.286998828582796 -34.790762089778241 0 0 0 0 -33.30424656017567 -55.295140340404686 0 -55.295140340404686 12.779352062500948 0 0 0 0 6.5796800061361864 -28.129519211203558 0 -28.129519211203558 31.02871847073925 0 0 0 0 94.581552153453231 0.90745426456494727 0 0.90745426456494727 9.099477351197919 0 0 0 0 214.0339150475902 74.711971742043005 0 74.711971742043005 43.842190017545903 0 0 0 0 94.687907715444453 -4.5921470678641185 0 -4.5921470678641185 41.426394141741035 0 0 0 0 34.994788366428111 -8.4839519506618899 0 -8.4839519506618899 59.373684916866267 0 0 0 0 246.56325527949775 -4.4993032056376521 0 -4.4993032056376521 -40.614080225336693 0 0 0 0 -2.8133890069730114 47.846637012945848 0 47.846637012945848 -46.149489891880194 0 0 0 0 31.173697940335842 -95.927560369638059 0 -95.927560369638059 -217.7061572931575 0 0 0 0 -3.9417413415940246 -41.334516217983264 0 -41.334516217983264 -58.795877247705562 0 0 0 0 -18.409658794640563 -84.880921510283201 0 -84.880921510283201 -89.244422417792975 0 0 0 0 -10.778007458749926 -90.971114177197705 0 -90.971114177197705 -113.1500157696598 0 0 0 0 -24.08635515881906 -52.435008069929907 0 -52.435008069929907 -28.39992981629689 0 0 0 0 41.880867354563634 -66.056774662605605 0 -66.056774662605605 -47.348250058615918 0 0 0 0 22.257844511579606 -24.984455944195361 0 -24.984455944195361 -0.27455140302936343 0 0 0 0 26.563470441222307 -13.486952955376182 0 -13.486952955376182 -12.591717357368907 0 0 0 0 0.30651962032763436 -2.9366942642993727 0 -2.9366942642993727 2.4699158127476344 0 0 0 0 -19.453122626902768 -37.05656292134131 0 -37.05656292134131 -0.60643019998235559 0 0 0 0 16.395411198946704 -11.148176460522933 0 -11.148176460522933 5.7013151302731711 0 0 0 0 10.508950492891017 -80.729128402332321 0 -80.729128402332321 -10.684271961233208 0 0 0 0 295.54403395636473 -31.056329852038289 0 -31.056329852038289 -136.92937801859239 0 0 0 0 -4.9226686548627185 -44.913457493213855 0 -44.913457493213855 274.12444017016696 0 0 0 0 17.666227938854718 8.5800002896485239 0 8.5800002896485239 40.748217307719187 0 0 0 0 30.881538359812112 -26.748715784919114 0 -26.748715784919114 0.027238170879513746 0 0 0 0 11.775381166983607 -69.134707744190791 0 -69.134707744190791 111.39328844817192 0 0 0 0 11.142907567613292 -61.114545863319563 0 -61.114545863319563 10.739354740842828 0 0 0 0 63.458827271126211 -97.882519980660732 0 -97.882519980660732 -63.252821800955644 0 0 0 0 49.009177487387205 -72.728118004984026 0 -72.728118004984026 -38.902823068763382 0 0 0 0 83.348862454397022 -131.27063016646252 0 -131.27063016646252 -4.241339268995489 0 0 0 0 156.14340251947215 -265.75981725094096 0 -265.75981725094096 220.88246051637634 0 0 0 0 666.4802636109016 -68.226643958796558 0 -68.226643958796558 -200.80721170005836 0 0 0 0 148.71558352171996 -74.4393640906369 0 -74.4393640906369 -192.84230852747885 0 0 0 0 21.840175882105541 313.95536292927954 0 313.95536292927954 -126.03850207979582 0 0 0 0 317.01657213065482 251.46729583219485 0 251.46729583219485 -134.74334699266456 0 0 0 0 441.28529722540043 368.12857491665181 0 368.12857491665181 -52.314411974730319 0 0 0 0 232.28642519444111 -115.34668706911702 0 -115.34668706911702 559.14171921316847 0 0 0 0 235.05228660786725 -79.142776321028393 0 -79.142776321028393 -244.45654175130858 0 0 0 0 812.55657798187895 -186.7492124045632 0 -186.7492124045632 -70.294132762414392 0 0 0 0 6.1280739394831585 -3.631167382689398 0 -3.631167382689398 2.6903946403556791 0 0 0 0 662.7255538712343 170.91821901491267 0 170.91821901491267 15.767160539034649 0 0 0 0 555.38402007584227 -36.892276471620335 0 -36.892276471620335 -119.37748216538557 0 0 0 0 245.8036346690933 107.74928653971051 0 107.74928653971051 9.0749447886728376 0 0 0 0 292.91188267115467 -7.57687198258661 0 -7.57687198258661 -85.134910989740547 0 0 0 0 349.68571233384137 -26.093897321341956 0 -26.093897321341956 -62.173754516495592 0 0 0 0 478.03539567311236 -135.22320976274659 0 -135.22320976274659 -71.378431057168086 0 0 0 0 45.904634981052368 7.5663620829967613 0 7.5663620829967613 91.06791276038166 0 0 0 0 33.880519869024283 34.958260265045283 0 34.958260265045283 79.038063366405822 0 0 0 0 267.97905572411764 -113.82020148477284 0 -113.82020148477284 49.385692045734231 0 0 0 0 1.5627578331695986 33.366087743792832 0 33.366087743792832 77.657670771713128 0 0 0 0 29.802389676773601 32.204296234641674 0 32.204296234641674 76.386052655318053 0 0 0 0 33.790249781959574 27.782025211882456 0 27.782025211882456 49.244282232627484 0 0 0 0 -30.181579178053653 91.911835019971022 0 91.911835019971022 57.664322283086221 0 0 0 0 32.377953863899165 96.984752402954655 0 96.984752402954655 -108.39708019920636 0 0 0 0 -144.23926979298994 -8.3016437254545963 0 -8.3016437254545963 121.74204101897658 0 0 0 0 -36.147354053508025 168.22596248549667 0 168.22596248549667 -138.36357253518872 0 0 0 0 2.6401703021688832 3.8797629769274806 0 3.8797629769274806 -1.7839522268372363 0 0 0 0 -8.2157154619490029 365.55293215217171 0 365.55293215217171 -28.141771820151234 0 0 0 0 92.979637453514442 338.56975569478163 0 338.56975569478163 -222.92839678156543 0 0 0 0 -124.67805427778876 161.83034075673663 0 161.83034075673663 -113.39400334346465 0 0 0 0 404.21183329226915 158.44683993484796 0 158.44683993484796 -123.32128483971428 0 0 0 0 7.9450680380105041 17.448888937955417 0 17.448888937955417 10.529713741285377 0 0 0 0 16.395958091110771 27.829444447375238 0 27.829444447375238 -14.4437820927589 0 0 0 0 -180.22029015266162 -26.804930381238592 0 -26.804930381238592 287.03819036109599 0 0 0 0 -32.577484968467616 -342.11575284056926 0 -342.11575284056926 -282.41039384994656 0 0 0 0 2.0205946396591798 4.2259427526069189 0 4.2259427526069189 -0.61857381812007439 0 0 0 0 9.6446289582618192 -31.401527216881959 0 -31.401527216881959 -101.98257956658563 0 0 0 0 64.482797261167434 34.37049481681197 0 34.37049481681197 -194.53955458426663 0 0 0 0 -1.3769260552362539 -85.309314807760984 0 -85.309314807760984 -282.22017250753834 0 0 0 0 47.393960934408824 76.437078161880891 0 76.437078161880891 -315.1367668397661 0 0 0 0 40.908627009510383 76.504656424969198 0 76.504656424969198 -102.30901857102617 0 0 0 0 63.919017060878105 36.72411606699643 0 36.72411606699643 -87.624229363861559 0 0 0 0 66.185788238330133 44.119743058437507 0 44.119743058437507 -99.162926019576844 0 0 0 0 71.132826173663489 36.190102898784062 0 36.190102898784062 -96.848615897271884 0 0 0 0 39.305970117975164 5.6667021362514731 0 5.6667021362514731 -6.5750004249323926 0 0 0 0 35.917182029239484 0.21053445262623427 0 0.21053445262623427 -72.564126659602152 0 0 0 0 51.320284895773511 -2.6831637138766382 0 -2.6831637138766382 -24.216514282965363 0 0 0 0 51.703787935621222 -8.1560105790608759 0 -8.1560105790608759 -96.772051705820559 0 0 0 0 124.20587704720674 -156.76899770113687 0 -156.76899770113687 -7.631833581900537 0 0 0 0 9.8787222663974035 -9.8068887734807149 0 -9.8068887734807149 -0.73635327896512948 0 0 0 0 77.962990460480796 20.660609947546618 0 20.660609947546618 -86.315927644410294 0 0 0 0 144.51392826827941 53.060504109829708 0 53.060504109829708 -106.99492099621057 0 0 0 0 85.600705184860942 -7.4268808377899518 0 -7.4268808377899518 -0.54893910902528376 0 0 0 0 179.35718599637767 -20.541852420760279 0 -20.541852420760279 -81.625910622004085 0 0 0 0 76.788167026912561 14.810672393258756 0 14.810672393258756 -67.793256573767394 0 0 0 0 84.736722860863665 20.984258813330598 0 20.984258813330598 -82.65755322014229 0 0 0 0 62.477115115034394 38.048859019724659 0 38.048859019724659 -72.81585810570914 0 0 0 0 125.94971544321015 -18.716919511200103 0 -18.716919511200103 -60.559980408143019 0 0 0 0 42.874374924904259 36.343054828289496 0 36.343054828289496 -60.122398876230363 0 0 0 0 41.941157783876406 58.536442364601953 0 58.536442364601953 -24.572605870787811 0 0 0 0 15.466180662537226 -9.174185842182851 0 -9.174185842182851 -60.073768979896485 0 0 0 0 42.205540855822619 66.687900782726047 0 66.687900782726047 -88.201864768940368 0 0 0 0 30.211504507489735 81.468137583668977 0 81.468137583668977 -18.470138417855196 0 0 0 0 33.733062519517262 55.503042588292828 0 55.503042588292828 -24.901802091153996 0 0 0 0 41.997692111399374 43.284530958212372 0 43.284530958212372 -12.580278737791559 0 0 0 0 59.572874031313404 163.50782818298146 0 163.50782818298146 176.15404081774307 0 0 0 0 448.01991949550575 -55.428523314604263 0 -55.428523314604263 -31.119836083476571 0 0 0 0 8.8985722092151605 -1.1722319691068037 0 -1.1722319691068037 -1.5637034573893951 0 0 0 0 71.930824521608884 -99.297260062144233 0 -99.297260062144233 -13.616333804582609 0 0 0 0 22.223352617293131 -135.40528012712184 0 -135.40528012712184 181.94635853170803 0 0 0 0 3.0494919732616381 -0.66999350167452576 0 -0.66999350167452576 -2.3398548814050706 0 0 0 0 69.341659472149331 -68.306844820938295 0 -68.306844820938295 68.104383716535835 0 0 0 0 64.9751515356038 -106.14462958399258 0 -106.14462958399258 52.681060823516873 0 0 0 0 5.8066439759131754 3.4425081075205526 0 3.4425081075205526 59.874101262262116 0 0 0 0 77.11945617866877 -1.0705082877593668 0 -1.0705082877593668 -41.005654727556248 0 0 0 0 -1.1467684072544841 -2.9488206512525323 0 -2.9488206512525323 5.9594643294799887 0 0 0 0 497.97940029669553 286.49862125868322 0 286.49862125868322 -226.4288794903041 0 0 0 0 -7.0780707802477991 -63.886151661641634 0 -63.886151661641634 167.76755850770928 0 0 0 0 52.446005885256454 -37.905293780186184 0 -37.905293780186184 74.197654208731365 0 0 0 0 205.37130214580975 -60.763369373846217 0 -60.763369373846217 13.812007002864448 0 0 0 0 66.0852207528078 -2.8061759372067172 0 -2.8061759372067172 -4.0357932883371177 0 0 0 0 171.00835294218268 -11.571060988340832 0 -11.571060988340832 -73.320442719881612 0 0 0 0 83.277444028746686 45.447912523150535 0 45.447912523150535 35.03372566928374 0 0 0 0 19.925492404823274 -4.9400445641012141 0 -4.9400445641012141 9.6110249649440291 0 0 0 0 206.84121774307607 85.220842809013604 0 85.220842809013604 -6.7395303215744207 0 0 0 0 38.111216923774919 -46.853222530868152 0 -46.853222530868152 8.7118926706152706 0 0 0 0 59.139879279537865 -0.02547486095189555 0 -0.02547486095189555 4.1202887695620483 0 0 0 0 122.68506359252206 -11.186852192895458 0 -11.186852192895458 -47.690374482412153 0 0 0 0 122.60328916217259 -31.192073259036079 0 -31.192073259036079 -43.621686736065385 0 0 0 0 112.32261456879496 -21.346354692313071 0 -21.346354692313071 -34.299454755000625 0 0 0 0 11.26090857287636 167.54198783927313 0 167.54198783927313 236.73085914458352 0 0 0 0 205.92041578871431 -26.789137862075222 0 -26.789137862075222 -38.021569333575371 0 0 0 0 114.12031667732663 -63.415711011212807 0 -63.415711011212807 85.083294411375391 0 0 0 0 92.093707210413413 -6.3635153912559872 0 -6.3635153912559872 -32.256618126997637 0 0 0 0 88.022452118901128 386.90511110362081 0 386.90511110362081 -76.839060138127934 0 0 0 0 -5.7536454317872767 24.450673582855593 0 24.450673582855593 2.0444755466363169 0 0 0 0 119.17670065424403 9.3522970474065943 0 9.3522970474065943 -4.9420439039170923 0 0 0 0 295.37337551044766 217.13137984548666 0 217.13137984548666 -174.13244838767241 0 0 0 0 376.45084381125707 -210.40195077087822 0 -210.40195077087822 -63.764453490166943 0 0 0 0 140.10291837979457 -29.439177947249846 0 -29.439177947249846 13.055828709992056 0 0 0 0 98.997343907703566 -4.4997353917948564 0 -4.4997353917948564 -11.635211847396967 0 0 0 0 82.547942134813638 -19.277442099813015 0 -19.277442099813015 -49.724058014509865 0 0 0 0 15.651487376324951 -6.2709929690253006 0 -6.2709929690253006 2.3134566153186409 0 0 0 0 43.056097186612135 0.91740722090550975 0 0.91740722090550975 3.4646375958369902 0 0 0 0 33.926596770179458 -18.903172167945741 0 -18.903172167945741 -46.825427165564179 0 0 0 0 99.754218525486067 -44.899463065999953 0 -44.899463065999953 -43.804749659390836 0 0 0 0 94.056422333549563 -23.042622720439113 0 -23.042622720439113 -79.50746236226405 0 0 0 0 71.392189972684719 -61.370700781923006 0 -61.370700781923006 -51.941533114144931 0 0 0 0 89.787221063568722 -97.279753284884464 0 -97.279753284884464 20.155028139147362 0 0 0 0 96.835902542024996 -40.686656454126364 0 -40.686656454126364 -35.575760175355754 0 0 0 0 96.320631871945807 -39.430707784225206 0 -39.430707784225206 29.090667375066005 0 0 0 0 103.60419041039131 -57.700746837496808 0 -57.700746837496808 -41.663248198156623 0 0 0 0 82.903185510367621 -99.771490491687359 0 -99.771490491687359 95.548562737927114 0 0 0 0 77.00021353608463 -57.93403875146987 0 -57.93403875146987 23.699842163099675 0 0 0 0 95.924488234581077 -75.562376667240187 0 -75.562376667240187 38.404328417409033 0 0 0 0 84.195624095198582 -76.244997973722207 0 -76.244997973722207 85.656791824858828 0 0 0 0 152.13145204039756 -83.405055464363159 0 -83.405055464363159 11.906350769485471 0 0 0 0 133.03788375615841 -61.414277004422274 0 -61.414277004422274 7.9271231822422124 0 0 0 0 299.33456305821892 -63.635467788365986 0 -63.635467788365986 -57.571106404603142 0 0 0 0 205.38552570556931 -15.102973720495811 0 -15.102973720495811 -79.752395799212536 0 0 0 0 68.713999608211452 59.889147468047668 0 59.889147468047668 -48.979490228639406 0 0 0 0 208.45575476752128 20.244020009016822 0 20.244020009016822 -61.875041412301016 0 0 0 0 258.18503206501919 92.350604455428083 0 92.350604455428083 -187.05347284768322 0 0 0 0 323.99657939100871 160.29490226987309 0 160.29490226987309 -151.01723501300876 0 0 0 0 131.34717070223996 211.98816390971297 0 211.98816390971297 -40.952197404407343 0 0 0 0 61.895134008198511 54.304521904221474 0 54.304521904221474 -53.400060757401661 0 0 0 0 33.880437298736069 -5.0444680956425145 0 -5.0444680956425145 -75.863292545705008 0 0 0 0 98.706367525483074 -58.416142161257881 0 -58.416142161257881 -55.377801640306643 0 0 0 0 77.641637809283566 -38.500190916034626 0 -38.500190916034626 -9.7263544297952649 0 0 0 0 54.354415037829312 35.845125721464683 0 35.845125721464683 -222.16490616302144 0 0 0 0 -34.054261621422484 -172.64147856607906 0 -172.64147856607906 217.75786861405504 0 0 0 0 22.076059957002428 3.9469742514818833 0 3.9469742514818833 -1.2047865876995232 0 0 0 0 88.235884870613518 -34.392366420615417 0 -34.392366420615417 -135.15132711132901 0 0 0 0 2.5093667525798082 -73.297667050313976 0 -73.297667050313976 -167.57530893874537 0 0 0 0 9.9168694587424397 35.549436106717621 0 35.549436106717621 -88.98644779602364 0 0 0 0 164.0704901630379 48.610567725489091 0 48.610567725489091 -401.70122392959547 0 0 0 0 64.054861413105641 6.3779387154420917 0 6.3779387154420917 -3.0520464680032742 0 0 0 0 8.9666941937786078 -0.76882633381669052 0 -0.76882633381669052 -2.0786400455212988 0 0 0 0 181.96063491821405 262.31220538043453 0 262.31220538043453 -107.27426191792256 0 0 0 0 -883.8173788455606 -574.70624618683541 0 -574.70624618683541 294.96235150604957 0 0 0 0 99.531721678446047 -4.2381696095744701 0 -4.2381696095744701 -74.048174095743889 0 0 0 0 84.620119655147903 -5.7645263861903544 0 -5.7645263861903544 -14.508291210319596 0 0 0 0 575.6235026436625 163.70202536076067 0 163.70202536076067 156.97799001078602 0 0 0 0 -119.05344187587616 32.003628045205915 0 32.003628045205915 -45.378845541919418 0 0 0 0 -42.687671512743691 156.10026465982446 0 156.10026465982446 -57.253586800936318 0 0 0 0 78.92954736360133 12.982673729924585 0 12.982673729924585 -13.879812092567303 0 0 0 0 42.902531485444342 1.005092469934425 0 1.005092469934425 13.707710856953781 0 0 0 0 1449.7576119622681 406.40463861293028 0 406.40463861293028 31.655340581364726 0 0 0 0 92.279785371012622 -130.42272725244504 0 -130.42272725244504 -110.57674339847199 0 0 0 0 72.449166947422782 -14.135484528218058 0 -14.135484528218058 -89.836354934607016 0 0 0 0 116.98848903163162 -49.214213150183923 0 -49.214213150183923 -264.03991022509763 0 0 0 0 78.743936557590587 2.9459842712874202 0 2.9459842712874202 -0.067233993354394173 0 0 0 0 95.986159794570995 15.922155171848317 0 15.922155171848317 -51.634756998019839 0 0 0 0 -124.91018071093276 346.43928270234915 0 346.43928270234915 -391.15648030921784 0 0 0 0 82.481904366791923 12.795462291952816 0 12.795462291952816 -12.994643302847733 0 0 0 0 -419.40572134936519 -30.36400595038549 0 -30.36400595038549 -68.154215900905911 0 0 0 0 132.65999011357781 -635.91807673779385 0 -635.91807673779385 -422.20994366187233 0 0 0 0 568.35642608595663 330.81929839035092 0 330.81929839035092 -153.01365833347381 0 0 0 0 834.3780173604755 -3.1222520204826196 0 -3.1222520204826196 -379.46750188644182 0 0 0 0 321.17307653176249 -199.42083165724034 0 -199.42083165724034 -426.70316932128094 0 0 0 0 460.4380061700067 2.457155536481423 0 2.457155536481423 -184.26779497786629 0 0 0 0 258.04277261089373 -142.36398865016056 0 -142.36398865016056 -84.346242971213542 0 0 0 0 305.7357578559895 -71.510636224118116 0 -71.510636224118116 -213.63042844401662 0 0 0 0 202.38713488413487 -123.33841973123253 0 -123.33841973123253 -183.81354086221017 0 0 0 0 76.570419809941086 -17.971570151788683 0 -17.971570151788683 -15.904903639380791 0 0 0 0 45.575062990057631 -29.368189048011118 0 -29.368189048011118 -224.29169861694027 0 0 0 0 295.36747470320552 99.177847718220391 0 99.177847718220391 46.234788729545699 0 0 0 0 249.65139167124289 -47.368659704367928 0 -47.368659704367928 -75.598444100613051 0 0 0 0 342.09481841110392 -97.883432913269417 0 -97.883432913269417 -48.765976925727955 0 0 0 0 287.92087617272045 -115.91385166721466 0 -115.91385166721466 22.342992589293772 0 0 0 0 322.85988894014736 -88.963272084767141 0 -88.963272084767141 -44.347865254045246 0 0 0 0 552.16285138638341 -125.75726752246351 0 -125.75726752246351 7.8780796307091805 0 0 0 0 968.67627993879432 -359.71827605646087 0 -359.71827605646087 127.01076748631526 0 0 0 0 268.12414472759701 -373.84898673031671 0 -373.84898673031671 375.97453561274472 0 0 0 0 738.16785166920454 385.0509863321746 0 385.0509863321746 100.41237277105893 0 0 0 0 95.047742705322889 107.23964083241216 0 107.23964083241216 140.80643675494048 0 0 0 0 760.61335694530862 -388.5065159148395 0 -388.5065159148395 191.99766011780005 0 0 0 0 239.10345949367183 136.78927056871356 0 136.78927056871356 646.13226584120559 0 0 0 0 640.01860746422608 -5.0485528841257086 0 -5.0485528841257086 -89.845268848683602 0 0 0 0 306.21983438869211 -248.23120569360808 0 -248.23120569360808 161.67073666008753 0 0 0 0 581.36336914608546 49.856902905337456 0 49.856902905337456 -0.26374455057969093 0 0 0 0 247.52507777389837 167.93467331188137 0 167.93467331188137 148.80943271514445 0 0 0 0 -1.2188033634156454 102.94157320222357 0 102.94157320222357 132.54502882025844 0 0 0 0 8.8169361304748008 -1.478214967427526 0 -1.478214967427526 0.91673462979547882 0 0 0 0 381.47727280609251 -471.21687721262924 0 -471.21687721262924 636.21605565078039 0 0 0 0 716.47478275735193 546.09140876273386 0 546.09140876273386 52.739538138796362 0 0 0 0 24.710702227428555 25.847623978236811 0 25.847623978236811 202.80197427831425 0 0 0 0 1186.0251850108907 -103.24442384090949 0 -103.24442384090949 -72.580781529923442 0 0 0 0 298.83410822756559 -187.09449011794851 0 -187.09449011794851 -87.31802398925177 0 0 0 0 -526.30571147915907 618.2012568058957 0 618.2012568058957 -282.37675917069123 0 0 0 0 4.2632216604652058 -2.9433418109045988 0 -2.9433418109045988 -2.0275859120855104 0 0 0 0 219.07267751358449 -24.767319259901136 0 -24.767319259901136 -57.189406043769509 0 0 0 0 46.760475196293555 -117.91462639372773 0 -117.91462639372773 213.34140201014228 0 0 0 0 231.83311279088957 -63.743203008636023 0 -63.743203008636023 60.949002064200315 0 0 0 0 164.24017628162255 -10.469714516145924 0 -10.469714516145924 0.15115763459022924 0 0 0 0 255.38293805281864 39.535156791805214 0 39.535156791805214 -10.220236734898187 0 0 0 0 14.027542367810383 32.662498033405576 0 32.662498033405576 1.0662591493653983 0 0 0 0 46.184923908440396 6.9086686832012694 0 6.9086686832012694 13.841464801998299 0 0 0 0 89.076471421634778 -19.784333198825763 0 -19.784333198825763 0.53179180887640598 0 0 0 0 74.577924445387907 10.230969689514723 0 10.230969689514723 -22.313340770946851 0 0 0 0 19.761956788607449 -4.7739767081339419 0 -4.7739767081339419 -0.4262712760476382 0 0 0 0 -105.35959815391107 53.707262895225426 0 53.707262895225426 86.703509062473842 0 0 0 0 -3.3872111167875119 33.538623841744801 0 33.538623841744801 -27.326750670236802 0 0 0 0 4.6507323831516487 -0.42481701012141571 0 -0.42481701012141571 -0.15210162008507677 0 0 0 0 102.51713801233564 16.582319431309564 0 16.582319431309564 -71.673704941080487 0 0 0 0 24.22898290217563 -19.586184391766892 0 -19.586184391766892 -2.4119729714518598 0 0 0 0 -22.942487888969481 2.1392397703029928 0 2.1392397703029928 24.298320361214991 0 0 0 0 6.0131333502114899 -0.48776038993605653 0 -0.48776038993605653 0.35754399364046818 0 0 0 0 99.956786667666165 -108.89295524305339 0 -108.89295524305339 205.75607837951407 0 0 0 0 84.254999026132282 -192.60115440061804 0 -192.60115440061804 380.08672352975191 0 0 0 0 61.641275267917081 -133.57947385943493 0 -133.57947385943493 365.9462924477607 0 0 0 0 241.97935064265039 -262.03273013532043 0 -262.03273013532043 199.11685652363076 0 0 0 0 174.28817253913439 -184.63779270036667 0 -184.63779270036667 110.63277160666803 0 0 0 0 164.57135033188388 -204.2127672094839 0 -204.2127672094839 190.99333697071711 0 0 0 0 204.75554878839466 -160.81186481003556 0 -160.81186481003556 57.409397008199448 0 0 0 0 223.71947698650183 -197.10723632891677 0 -197.10723632891677 112.05201717511682 0 0 0 0 320.62443296547281 -183.12056682231878 0 -183.12056682231878 18.678063551597006 0 0 0 0 250.91062071593478 -98.47217051533039 0 -98.47217051533039 -80.202929811766808 0 0 0 0 198.08661216670589 -133.17205494497921 0 -133.17205494497921 48.341078194865077 0 0 0 0 110.50896897952043 -120.1994227779735 0 -120.1994227779735 129.12440484146691 0 0 0 0 113.94787629292114 -137.56425403999935 0 -137.56425403999935 129.87646395875981 0 0 0 0 181.36930297431536 -100.20253027249146 0 -100.20253027249146 27.019579753878816 0 0 0 0 130.31887485773768 -160.34852247555409 0 -160.34852247555409 150.3205420687259 0 0 0 0 3.6278307330609891 0.58013829773139491 0 0.58013829773139491 -1.0272034460475372 0 0 0 0 -17.665701177436858 -2.3510734385495198 0 -2.3510734385495198 72.798057318532074 0 0 0 0 3.9045247708362467 -0.23692351969194192 0 -0.23692351969194192 -2.1022420013064487 0 0 0 0 62.628997727151727 -14.417127960240009 0 -14.417127960240009 7.8402505045866349 0 0 0 0 85.945253103622235 15.653182064515249 0 15.653182064515249 4.5531915500214382 0 0 0 0 32.328784348123008 -23.227308694716029 0 -23.227308694716029 24.461907338942638 0 0 0 0 76.188333861748106 -100.09103156973254 0 -100.09103156973254 -136.76033804658232 0 0 0 0 159.75508799764793 79.33067397010295 0 79.33067397010295 96.36443080147032 0 0 0 0 17.507696632645093 -105.82821925556598 0 -105.82821925556598 285.10753789269495 0 0 0 0 344.10394435143098 -203.23726187052102 0 -203.23726187052102 109.98561029141672 0 0 0 0 -141.66652031429112 -59.135226285940917 0 -59.135226285940917 73.801455347844922 0 0 0 0 57.714475612883689 -230.76560749606824 0 -230.76560749606824 2.1118584076266984 0 0 0 0 3.4645521423954051 -44.818042156312032 0 -44.818042156312032 17.397153483302475 0 0 0 0 -24.978490757202962 -18.827490690969086 0 -18.827490690969086 27.927657460363662 0 0 0 0 -9.180731646658387 -40.961476469953709 0 -40.961476469953709 65.885019884957273 0 0 0 0 -6.3816438613721402 -34.347743051641302 0 -34.347743051641302 13.164943693177577 0 0 0 0 -15.979784250434022 -5.7408324528106434 0 -5.7408324528106434 43.597834526082693 0 0 0 0 -15.277749046101235 11.477216691378089 0 11.477216691378089 -63.698536936002938 0 0 0 0 76.200746963237179 -51.570236176052845 0 -51.570236176052845 -156.21756897949933 0 0 0 0 99.851380236788827 -68.038881307060109 0 -68.038881307060109 -35.638771889393411 0 0 0 0 27.383439076309969 -5.3773561636136655 0 -5.3773561636136655 -0.71572884309807816 0 0 0 0 -38.380755282443715 14.267616310935574 0 14.267616310935574 -1.2790874411330861 0 0 0 0 -21.574815984175075 -28.627649908328195 0 -28.627649908328195 -18.94044146627774 0 0 0 0 23.76737629512354 4.7960451719398467 0 4.7960451719398467 -10.231762801391305 0 0 0 0 6.1790795585111482 -15.473536101565674 0 -15.473536101565674 -6.0556957647474015 0 0 0 0 -5.6346129456651397 -14.154906648117734 0 -14.154906648117734 -6.1126505350443026 0 0 0 0 1.1743908679927699 -12.674128161113964 0 -12.674128161113964 -0.020789688661642818 0 0 0 0 8.8247316390625201 -11.560591608223024 0 -11.560591608223024 -9.6631913129239475 0 0 0 0 14.172120167757384 -12.353598864126905 0 -12.353598864126905 -10.00854894816759 0 0 0 0 15.54941047669854 -3.7174707853200744 0 -3.7174707853200744 -0.10046819736658108 0 0 0 0 8.9692202789301518 -17.453015325971098 0 -17.453015325971098 -37.21798298102383 0 0 0 0 16.74848626772291 -6.8376049742531784 0 -6.8376049742531784 -28.367155295621703 0 0 0 0 19.112219998554792 -2.2882405233239882 0 -2.2882405233239882 -21.011810322689243 0 0 0 0 14.09346379918145 0.23080176646914907 0 0.23080176646914907 0.018575343778394784 0 0 0 0 3.7546663913526572 -20.956759161190618 0 -20.956759161190618 -25.18792243074666 0 0 0 0 22.480898609879659 2.4501806053789323 0 2.4501806053789323 -26.614441242742487 0 0 0 0 23.923377701023128 -2.5540299844672685 0 -2.5540299844672685 0.85720971306113403 0 0 0 0 30.098689325013311 -2.2207403149168581 0 -2.2207403149168581 -1.71960301897057 0 0 0 0 19.783709472918417 -0.69234678489698886 0 -0.69234678489698886 0.11095994129893061 0 0 0 0 24.222363004884301 0.098049305338104631 0 0.098049305338104631 -1.3508427456118617 0 0 0 0 25.258098538266495 -3.8766433429236979 0 -3.8766433429236979 -2.1504790747612614 0 0 0 0 18.58495926149044 0.73527517198776104 0 0.73527517198776104 -1.4580468068181229 0 0 0 0 21.410957790591056 -3.3935633801132914 0 -3.3935633801132914 -0.0095586263266729463 0 0 0 0 22.427039325732039 -0.52638878283315371 0 -0.52638878283315371 -5.8677339423971189 0 0 0 0 14.365734939991853 -9.9650354358715454 0 -9.9650354358715454 -6.1386312292578769 0 0 0 0 23.687312656984432 -2.5362389810573265 0 -2.5362389810573265 -3.2622401120659879 0 0 0 0 21.63056017505005 0.34565674247960487 0 0.34565674247960487 -27.376916784503237 0 0 0 0 26.669063295950764 -0.3313055587745341 0 -0.3313055587745341 -2.8345071648973352 0 0 0 0 33.140534861042397 -1.8497385782038049 0 -1.8497385782038049 -2.987840511087303 0 0 0 0 20.487318748485563 7.7377799431283734 0 7.7377799431283734 -7.1400071935413614 0 0 0 0 -9.2494080259930342 -46.747806186689559 0 -46.747806186689559 -33.581300974337864 0 0 0 0 13.138451918261126 -11.465038704127437 0 -11.465038704127437 -44.166208937793272 0 0 0 0 37.33407038213204 20.96103296664738 0 20.96103296664738 -6.0617347409266902 0 0 0 0 21.749608620820254 -10.85533821677636 0 -10.85533821677636 -5.7444661959303591 0 0 0 0 60.899972035898827 53.455828475774979 0 53.455828475774979 39.426304477220128 0 0 0 0 54.300493423186708 29.137046189488501 0 29.137046189488501 -12.671202205375266 0 0 0 0 27.00874390557874 35.493679160268584 0 35.493679160268584 2.5475428029494651 0 0 0 0 -13.940949396899668 -49.491186187793915 0 -49.491186187793915 -97.783455206565236 0 0 0 0 12.828150017652661 20.05256847660803 0 20.05256847660803 -4.7368439372582998 0 0 0 0 23.585804707341595 27.987841877595088 0 27.987841877595088 -11.305807628158163 0 0 0 0 30.968732596258633 47.447088223818355 0 47.447088223818355 28.64856084670879 0 0 0 0 0.38094545629508048 -2.3042664074091466 0 -2.3042664074091466 -3.0154876512157531 0 0 0 0 54.268134545722205 27.762590484220041 0 27.762590484220041 -12.024291750752127 0 0 0 0 14.772374951663494 22.564335793798392 0 22.564335793798392 -15.465305253710508 0 0 0 0 59.906397373531945 104.488154760116 0 104.488154760116 -168.63177184263367 0 0 0 0 -33.500977618794423 33.854777484959385 0 33.854777484959385 -120.74342096132476 0 0 0 0 -7.9651140887324914 9.1136203880085702 0 9.1136203880085702 -3.3837002280347588 0 0 0 0 2.8169017649364605 2.9219323708311009 0 2.9219323708311009 -1.1814941396964751 0 0 0 0 220.40060744134098 243.44061963597943 0 243.44061963597943 -39.828772608862323 0 0 0 0 -13.272822142404038 114.05583625661816 0 114.05583625661816 149.94515069095274 0 0 0 0 94.765406684324262 258.13792592672758 0 258.13792592672758 -40.469578215815659 0 0 0 0 1.7639280768775052 1.1592094057786113 0 1.1592094057786113 -1.7221881797237288 0 0 0 0 54.118899755587336 -98.926563979302756 0 -98.926563979302756 141.77360201200153 0 0 0 0 218.47329670064209 -94.427021567882235 0 -94.427021567882235 25.669683803372891 0 0 0 0 -9.8569660218781792 84.771591327172075 0 84.771591327172075 -12.322264857793073 0 0 0 0 78.6780601403334 -25.360562739520248 0 -25.360562739520248 -74.928816105492388 0 0 0 0 70.844464817288099 -42.626424095929451 0 -42.626424095929451 18.421434459337434 0 0 0 0 71.032263188992147 -63.693091977997597 0 -63.693091977997597 -0.43463825042272219 0 0 0 0 90.618388484566822 -101.46747983608589 0 -101.46747983608589 -24.368365824373996 0 0 0 0 68.265039610734675 84.066525815826935 0 84.066525815826935 -297.84392388258664 0 0 0 0 18.291837972645567 4.6106941526570608 0 4.6106941526570608 -1.1929338232633637 0 0 0 0 24.839626528773806 11.544304054854479 0 11.544304054854479 -16.508796294083368 0 0 0 0 3.4514881121504004 -8.1525702654724626 0 -8.1525702654724626 -69.978067725714766 0 0 0 0 77.279175059291447 58.542726902749905 0 58.542726902749905 -40.767694612500918 0 0 0 0 239.8611679594469 -75.66134152120415 0 -75.66134152120415 -43.519091766021745 0 0 0 0 116.60153029025241 -48.629112369617445 0 -48.629112369617445 -35.835779053107217 0 0 0 0 194.9400558933994 -29.097508032599421 0 -29.097508032599421 -41.851533163349359 0 0 0 0 313.56007800463703 -74.490562001982198 0 -74.490562001982198 -24.630976069747931 0 0 0 0 89.361659201298608 29.085348704305261 0 29.085348704305261 31.204556823702433 0 0 0 0 9.7873604470660212 11.25677914575158 0 11.25677914575158 27.561227982616629 0 0 0 0 -76.679754080534622 175.44011225721289 0 175.44011225721289 -18.675775139786538 0 0 0 0 44.315135375029058 28.900878086945966 0 28.900878086945966 -15.583186076160018 0 0 0 0 144.82664902036777 48.212420646313149 0 48.212420646313149 44.004657497183416 0 0 0 0 315.0125746983249 158.59489243230038 0 158.59489243230038 -3.9997712884030463 0 0 0 0 155.39843748948988 5.2569310954804962 0 5.2569310954804962 30.812604067903635 0 0 0 0 355.05855412889468 -82.169312010597565 0 -82.169312010597565 -2.8122700499545772 0 0 0 0 -194.91073636202782 192.17327931021498 0 192.17327931021498 5.6041320995208537 0 0 0 0 -0.34191236826106319 0.30357109703203378 0 0.30357109703203378 1.5035028164357105 0 0 0 0 143.05156748590525 -70.985269367439628 0 -70.985269367439628 16.752509313732162 0 0 0 0 -173.94785360117385 53.507150728838383 0 53.507150728838383 -6.6887054535030188 0 0 0 0 78.967623979307973 18.415141431782331 0 18.415141431782331 16.544584531213332 0 0 0 0 150.90429170748394 12.8169402082479 0 12.8169402082479 7.2165192733755248 0 0 0 0 200.25201155887044 -30.1646168206737 0 -30.1646168206737 -16.73693386034347 0 0 0 0 170.7819750941635 17.14690160635763 0 17.14690160635763 16.864082332766657 0 0 0 0 190.35019537563494 -31.520269335354214 0 -31.520269335354214 -16.465315279105653 0 0 0 0 9.6692390601165243 -39.113426153374007 0 -39.113426153374007 12.137621089986169 0 0 0 0 160.5785600857198 -44.124185795967946 0 -44.124185795967946 11.252544770899476 0 0 0 0 0.4345627301300965 -0.74360217612328938 0 -0.74360217612328938 0.56225246396705231 0 0 0 0 31.770337429268693 -44.140415157740222 0 -44.140415157740222 69.308552381222171 0 0 0 0 4.8872673517868179 -0.062902078151665819 0 -0.062902078151665819 -1.5586102818401297 0 0 0 0 40.727367602507002 -47.790020967412033 0 -47.790020967412033 -42.033888436536358 0 0 0 0 39.87145223801781 -30.448973079353891 0 -30.448973079353891 -15.442618736012605 0 0 0 0 0.13441172195291529 1.0837594506838855 0 1.0837594506838855 1.5640937352120097 0 0 0 0 -125.16035467613256 161.32600375804952 0 161.32600375804952 -62.006368516074907 0 0 0 0 -0.14693462641298538 11.847178154420419 0 11.847178154420419 -100.94910373262564 0 0 0 0 21.474225948295498 87.141002726690715 0 87.141002726690715 141.58778232262512 0 0 0 0 -8.3350447547418298 145.29425295476358 0 145.29425295476358 -59.750415354207234 0 0 0 0 33.24007476904444 -12.50998729065239 0 -12.50998729065239 -160.45296105159332 0 0 0 0 197.71485652480624 74.801600707790271 0 74.801600707790271 -137.78038095397505 0 0 0 0 3.4645564403596723 5.3949939702009999 0 5.3949939702009999 -1.1395977541254521 0 0 0 0 140.8621887071422 -35.515995683925894 0 -35.515995683925894 -127.61669537583703 0 0 0 0 155.40119284733373 -111.91486706850367 0 -111.91486706850367 3.2546948367025834 0 0 0 0 114.10474757500924 -62.220104048728189 0 -62.220104048728189 9.1139477828862709 0 0 0 0 90.806085016884026 -17.12605094073183 0 -17.12605094073183 -12.619018034985817 0 0 0 0 85.050006973833661 -15.486403938076204 0 -15.486403938076204 -9.0460478360510166 0 0 0 0 21.640269704101129 -23.039469598718597 0 -23.039469598718597 -8.9330867175564386 0 0 0 0 66.28957172886885 -4.7455736687081114 0 -4.7455736687081114 -11.858643197477518 0 0 0 0 88.612489007668046 -7.4787821953750999 0 -7.4787821953750999 -8.8307895226601545 0 0 0 0 117.55039859475801 -8.2497949338057879 0 -8.2497949338057879 -7.2587058895782093 0 0 0 0 11.525596429169397 -1.060374751194928 0 -1.060374751194928 -1.9679238552590494 0 0 0 0 90.354898030665936 38.877199054187543 0 38.877199054187543 -1.6048150059847686 0 0 0 0 3.4371275496540079 -2.7400700518280594 0 -2.7400700518280594 0.89679413279692222 0 0 0 0 99.490120805377956 -105.71878700651433 0 -105.71878700651433 96.645442740165777 0 0 0 0 87.266582071970333 -41.621965616959415 0 -41.621965616959415 -65.088448791536848 0 0 0 0 15.123185699702459 -15.834409844531507 0 -15.834409844531507 -15.901338095189672 0 0 0 0 116.60676631548267 -12.774220940582381 0 -12.774220940582381 -36.991866599030232 0 0 0 0 96.219293892470887 -13.364424063740337 0 -13.364424063740337 -13.552422144871997 0 0 0 0 90.410031431989751 4.0807326634582708 0 4.0807326634582708 -4.6868433747796852 0 0 0 0 70.103350940269593 15.650922407831558 0 15.650922407831558 -4.3711009057597039 0 0 0 0 90.381245428667171 16.665180887614497 0 16.665180887614497 -31.362098470825913 0 0 0 0 82.226319167049951 3.9502053341341252 0 3.9502053341341252 -1.1358150742887148 0 0 0 0 120.45563454485455 -19.444255153423249 0 -19.444255153423249 -61.339614306294834 0 0 0 0 96.344164633424953 2.5296248223349949 0 2.5296248223349949 -16.40071370173473 0 0 0 0 24.098955064241668 -0.91018751642232587 0 -0.91018751642232587 -13.016118396797163 0 0 0 0 79.650043450325029 10.920388875868923 0 10.920388875868923 -2.5816690967899376 0 0 0 0 -51.133265164287877 166.99229673679565 0 166.99229673679565 -183.38270561515947 0 0 0 0 12.899471637486997 -0.67117810947226531 0 -0.67117810947226531 2.9924118757039211 0 0 0 0 72.520971961252314 16.45216684030089 0 16.45216684030089 -13.408391726024233 0 0 0 0 80.236695830679309 2.4301406017964666 0 2.4301406017964666 3.0213607046788979 0 0 0 0 152.50426354213414 95.68014897294438 0 95.68014897294438 -307.34769446057271 0 0 0 0 232.68339703421316 22.044224058070728 0 22.044224058070728 -45.273916103870278 0 0 0 0 118.19765229726909 4.6044287990938528 0 4.6044287990938528 -37.334879482730344 0 0 0 0 -13.022540440259036 -50.770074633953783 0 -50.770074633953783 -30.577239515942551 0 0 0 0 41.893071005528327 -16.363767013957727 0 -16.363767013957727 25.99890047355666 0 0 0 0 116.30932153452886 -10.404326071757851 0 -10.404326071757851 7.7645596001791546 0 0 0 0 64.713845420919824 16.622850234531995 0 16.622850234531995 -3.1213846356647821 0 0 0 0 75.222725691797677 -11.954519638880129 0 -11.954519638880129 23.212841059613766 0 0 0 0 64.645230825510225 -14.523741290099224 0 -14.523741290099224 27.103292666003199 0 0 0 0 59.532014270702348 -10.016086966742879 0 -10.016086966742879 28.053287300565103 0 0 0 0 68.361243547798949 -40.543762305042037 0 -40.543762305042037 50.797008944310164 0 0 0 0 198.28382256391342 -40.151066696254929 0 -40.151066696254929 -12.400547497736397 0 0 0 0 3.4794608691897224 3.0930291817043525 0 3.0930291817043525 3.2389080902317495 0 0 0 0 132.70997750206152 -90.384711237174315 0 -90.384711237174315 72.011988077352726 0 0 0 0 7.6340236614727246 11.640371393411996 0 11.640371393411996 6.3640042009741098 0 0 0 0 8.1944292827247409 28.01476209850739 0 28.01476209850739 5.1786480998775914 0 0 0 0 -10.727779594992171 9.9175581576450327 0 9.9175581576450327 56.156067620341673 0 0 0 0 69.608651489470503 153.20303783280724 0 153.20303783280724 123.18455442370305 0 0 0 0 5.4636656587572361 62.566680404290139 0 62.566680404290139 187.42017623464881 0 0 0 0 -70.435212496828171 204.96125775166058 0 204.96125775166058 261.3677671114724 0 0 0 0 12.821626821860633 28.873749130634451 0 28.873749130634451 -4.5249501284594249 0 0 0 0 -143.16061219562835 90.028353519655866 0 90.028353519655866 160.57137705444643 0 0 0 0 2.3160113460471621 67.446034149978686 0 67.446034149978686 -44.81040584314178 0 0 0 0 8.0872639191566122 546.35619092508 0 546.35619092508 39.409909728527907 0 0 0 0 34.102687433376559 -92.999532242635496 0 -92.999532242635496 107.87831166208036 0 0 0 0 1.8766231762177767 1.1735067616901347 0 1.1735067616901347 -0.18917877496452817 0 0 0 0 238.62514051109974 30.223564378542477 0 30.223564378542477 -237.70434648610853 0 0 0 0 -421.56558498908998 -21.636714334630483 0 -21.636714334630483 159.37152531340712 0 0 0 0 -91.380434181293822 -39.211697829755337 0 -39.211697829755337 39.322165881338393 0 0 0 0 -383.65563745927284 177.48969726786711 0 177.48969726786711 95.721954161875004 0 0 0 0 -6.4285388048196523 -0.055781526062133935 0 -0.055781526062133935 4.5248107931907704 0 0 0 0 -194.34310710063437 10.499967867081551 0 10.499967867081551 -100.2248893203075 0 0 0 0 -91.687277394230478 -66.66048045176727 0 -66.66048045176727 -54.208263817990215 0 0 0 0 28.089015227509663 14.377063806737052 0 14.377063806737052 0.03085461492951223 0 0 0 0 9.6190931122705479 10.988752320068258 0 10.988752320068258 10.329264168594404 0 0 0 0 257.31556063593962 -82.963264468337201 0 -82.963264468337201 17.750423863747471 0 0 0 0 -164.44121140244533 68.554537154309756 0 68.554537154309756 0.2449035872436463 0 0 0 0 57.24904842091928 111.07547753232757 0 111.07547753232757 -4.5014182776740199 0 0 0 0 59.739390355112846 88.429195476187488 0 88.429195476187488 51.977380847349565 0 0 0 0 70.39848265107139 79.081366078326027 0 79.081366078326027 1.9341428178668139 0 0 0 0 7.4891051938679389 33.440257953387089 0 33.440257953387089 24.202872542824782 0 0 0 0 82.536813281069044 74.681602781362017 0 74.681602781362017 -10.028911951009377 0 0 0 0 49.679198586207349 -0.13662951586607264 0 -0.13662951586607264 -17.233971655301357 0 0 0 0 112.25006455695257 30.714478871304891 0 30.714478871304891 50.796659623621963 0 0 0 0 62.603416386007609 2.4932118927826821 0 2.4932118927826821 -16.829578804555183 0 0 0 0 -1.5455779135286214 35.514209182004521 0 35.514209182004521 40.726567872853771 0 0 0 0 14.58800199958813 -3.5849178920107363 0 -3.5849178920107363 -11.318675857074103 0 0 0 0 29.152791445958428 12.269896127218109 0 12.269896127218109 -0.074130399069704686 0 0 0 0 34.082566894588517 10.58059597695447 0 10.58059597695447 -1.1131348328035955 0 0 0 0 41.725334442744497 -5.7808269318481527 0 -5.7808269318481527 -0.02302759443931672 0 0 0 0 49.580422730825376 -1.7875698473658268 0 -1.7875698473658268 -28.101801003024256 0 0 0 0 43.160739171842579 -4.2954742900072738 0 -4.2954742900072738 6.5704483543628669 0 0 0 0 92.394970545487013 -21.568180590838725 0 -21.568180590838725 -13.395594170042152 0 0 0 0 95.412781483784784 -14.843062470327091 0 -14.843062470327091 -0.025221350267152453 0 0 0 0 171.77518648021214 -30.625611175600049 0 -30.625611175600049 -18.879005054062951 0 0 0 0 142.07499761972576 30.262760052279901 0 30.262760052279901 11.774738325609 0 0 0 0 -46.469864322454669 -32.860517542739814 0 -32.860517542739814 135.0131611157465 0 0 0 0 73.257707217663608 -11.656767675760335 0 -11.656767675760335 -15.917534394312613 0 0 0 0 26.596598785137758 -86.085954898808069 0 -86.085954898808069 -30.732074981116074 0 0 0 0 545.63208768890763 -135.20358487271392 0 -135.20358487271392 -308.79059252543721 0 0 0 0 -170.54061563129653 152.74776734032935 0 152.74776734032935 483.36998409447119 0 0 0 0 -75.059616114467644 -124.01296332111951 0 -124.01296332111951 63.26365405424076 0 0 0 0 304.55950453234254 37.413117113647985 0 37.413117113647985 -88.83393525151962 0 0 0 0 80.094940730909116 -19.061097925456664 0 -19.061097925456664 -10.936747235053634 0 0 0 0 120.69714729779662 76.537742089948551 0 76.537742089948551 59.772795459730787 0 0 0 0 396.75525312533136 -170.63164168019557 0 -170.63164168019557 92.177492415974939 0 0 0 0 458.81508497496543 149.56845306309492 0 149.56845306309492 73.770489272605118 0 0 0 0 53.017948183926478 -14.749627670630431 0 -14.749627670630431 -6.180986210886906 0 0 0 0 115.73397622963785 52.343705362055658 0 52.343705362055658 -5.4641976024604446 0 0 0 0 37.70144195541792 -11.204915593927296 0 -11.204915593927296 0.10238578213320437 0 0 0 0 -82.442032263576039 -115.48791663071096 0 -115.48791663071096 -55.395963495781928 0 0 0 0 11.058319076553744 36.10911749302818 0 36.10911749302818 118.29415346264523 0 0 0 0 108.46450969509897 98.885665031991721 0 98.885665031991721 10.69538258966179 0 0 0 0 17.334473087018694 5.3440021558124045 0 5.3440021558124045 1.5634792345551132 0 0 0 0 -1.0910798740806058 -16.483528432696971 0 -16.483528432696971 7.2665950767722478 0 0 0 0 -1.5551683864032384 -86.238345768526031 0 -86.238345768526031 -11.128152687739984 0 0 0 0 36.809603842149954 -26.03341652083575 0 -26.03341652083575 -42.156400834093787 0 0 0 0 66.784569687981275 -15.107033830399182 0 -15.107033830399182 -3.0557938910757514 0 0 0 0 52.283653837010206 -2.5408265870323481 0 -2.5408265870323481 14.933322649098873 0 0 0 0 103.92168642242905 -68.603008465486624 0 -68.603008465486624 -19.659239151449913 0 0 0 0 42.06190304007032 -29.857510315335041 0 -29.857510315335041 7.2373553469517304 0 0 0 0 95.048517930321395 -30.272681851147119 0 -30.272681851147119 7.227682614829277 0 0 0 0 75.606699225085322 -17.464613270301498 0 -17.464613270301498 0.034817475422932918 0 0 0 0 100.96842499694321 8.9732960890624121 0 8.9732960890624121 11.211060364896301 0 0 0 0 135.32022805343149 -10.288990546247827 0 -10.288990546247827 -0.025366906258318344 0 0 0 0 139.31763863867673 -11.905820615495564 0 -11.905820615495564 -14.283247888904491 0 0 0 0 212.35554823663551 -4.6221251252060824 0 -4.6221251252060824 -14.437780680959618 0 0 0 0 105.25254578508611 -17.908020716189284 0 -17.908020716189284 1.8153165937199276 0 0 0 0 5.4873066790759708 2.140151820115932 0 2.140151820115932 -0.81559248626880576 0 0 0 0 10.894365367596038 -17.286929941535128 0 -17.286929941535128 -22.013352386833745 0 0 0 0 101.71567476692144 -20.961099198515338 0 -20.961099198515338 -0.013269259933585872 0 0 0 0 151.54700067469093 -32.563730537674132 0 -32.563730537674132 -6.2168796677661398 0 0 0 0 71.124585661120364 -45.03285729644535 0 -45.03285729644535 11.379130616554967 0 0 0 0 159.27783664497838 -75.190810689791988 0 -75.190810689791988 11.486287755828869 0 0 0 0 21.45857047281811 7.6653161702973591 0 7.6653161702973591 -5.2024401760951751 0 0 0 0 41.136363312340109 -7.0266420132500116 0 -7.0266420132500116 -1.750883484070755 0 0 0 0 60.333064347994878 -1.4070124829682575 0 -1.4070124829682575 4.3401215702067475 0 0 0 0 44.089721773052588 -4.141302925714399 0 -4.141302925714399 -0.38361631481393488 0 0 0 0 21.399593336761654 8.2439610522567648 0 8.2439610522567648 -6.3577213575765148 0 0 0 0 32.775067025468161 5.7275952491927455 0 5.7275952491927455 -8.2857140957837601 0 0 0 0 47.185969310958171 -16.294791800936785 0 -16.294791800936785 56.126168903434419 0 0 0 0 23.61711762775667 6.356508934066369 0 6.356508934066369 -7.5355034799085843 0 0 0 0 102.08729943830986 92.799920845048291 0 92.799920845048291 -123.02740320417706 0 0 0 0 8.4643351368431468 40.8248334061268 0 40.8248334061268 -72.735994713577384 0 0 0 0 49.559996026321755 3.0317664118265952 0 3.0317664118265952 -12.53187738870213 0 0 0 0 31.456517770711798 84.127509005108095 0 84.127509005108095 -40.824324294669168 0 0 0 0 -0.2867997190769529 11.764374386341107 0 11.764374386341107 33.293203276976001 0 0 0 0 150.41267792115104 33.196050345533571 0 33.196050345533571 5.3723689308508114 0 0 0 0 254.30669648418552 26.893483430915552 0 26.893483430915552 -26.370982458914625 0 0 0 0 361.67240901035257 -64.791901359475261 0 -64.791901359475261 6.4143928054764956 0 0 0 0 153.07714127065719 1.3295417755622587 0 1.3295417755622587 51.308459816650455 0 0 0 0 11.435505647844053 -0.74975392112679629 0 -0.74975392112679629 -0.13367547547149394 0 0 0 0 440.99291465696297 -262.95483711926806 0 -262.95483711926806 49.913932993458587 0 0 0 0 287.52398307211115 -45.902247398035939 0 -45.902247398035939 12.012463946929927 0 0 0 0 251.50213679176522 -35.872269896526433 0 -35.872269896526433 14.453986214361294 0 0 0 0 -17.375876311895922 27.483837094595867 0 27.483837094595867 -4.1930839756240239 0 0 0 0 8.1968060023565386 8.0789714093111513 0 8.0789714093111513 2.8509716211667944 0 0 0 0 2.2490934139350429 13.496818308954289 0 13.496818308954289 -3.0678587351198985 0 0 0 0 52.70685795881468 7.2067350958411964 0 7.2067350958411964 -9.0057952243376196 0 0 0 0 -4.7617988072247925 40.063511164640374 0 40.063511164640374 -27.354621800466283 0 0 0 0 87.724934806123201 134.14432818278766 0 134.14432818278766 51.368656653696462 0 0 0 0 131.68162948789541 92.30784326287278 0 92.30784326287278 1.9261076884659332 0 0 0 0 -3.3003361457061828 5.3352181667189313 0 5.3352181667189313 1.877905206911143 0 0 0 0 -124.89591426640982 -159.42363674889441 0 -159.42363674889441 300.58785116030947 0 0 0 0 440.82241624261951 10.634543311542188 0 10.634543311542188 -266.26301054626754 0 0 0 0 -47.545784749230734 69.160864792823588 0 69.160864792823588 -15.227313343476283 0 0 0 0 67.948741533618886 63.615241832129641 0 63.615241832129641 21.986216509943688 0 0 0 0 84.850684299928616 -71.46575709586736 0 -71.46575709586736 15.173156168299101 0 0 0 0 58.871951246090816 -13.854301668955713 0 -13.854301668955713 -6.0153374631103036 0 0 0 0 732.79917958728038 -518.01896445160764 0 -518.01896445160764 236.14061462487734 0 0 0 0 194.36396891975892 72.578420550718036 0 72.578420550718036 -30.447456085545426 0 0 0 0 23.900271805557907 -19.026999057264675 0 -19.026999057264675 1.276751351504555 0 0 0 0 6.8576549753197469 -34.358920655261045 0 -34.358920655261045 -52.548561766970806 0 0 0 0 64.783646059193416 32.039528872713788 0 32.039528872713788 -61.472722011569608 0 0 0 0 -20.208630855282536 -78.212571236168714 0 -78.212571236168714 -70.220275931146944 0 0 0 0 111.05779545887344 -47.198132031561521 0 -47.198132031561521 68.065704782394533 0 0 0 0 83.081106488301884 -75.373753456457735 0 -75.373753456457735 -47.558068929534016 0 0 0 0 146.31423995114164 40.066284698705658 0 40.066284698705658 -266.38254056472272 0 0 0 0 62.250464548918728 -8.0546279422718356 0 -8.0546279422718356 -12.273659856985184 0 0 0 0 196.21288224621094 -14.469370417041091 0 -14.469370417041091 -208.88752449796812 0 0 0 0 -125.15624582051532 329.25411646340496 0 329.25411646340496 -281.59175474318579 0 0 0 0 -997.11729616776574 42.218218384333227 0 42.218218384333227 505.16438307070911 0 0 0 0 10.720240534865297 109.60448192869637 0 109.60448192869637 72.467294264777593 0 0 0 0 90.282231277757091 106.10395316419226 0 106.10395316419226 -20.880561024257986 0 0 0 0 -32.076143674552441 19.926971500994568 0 19.926971500994568 35.052576122239998 0 0 0 0 -7.3710706428738462 39.315919206481993 0 39.315919206481993 -10.89503681109186 0 0 0 0 109.95152529381994 2.1997152368701336 0 2.1997152368701336 3.4734576300734261 0 0 0 0 419.34553314215736 33.254726801553261 0 33.254726801553261 -28.31255373122076 0 0 0 0 232.69472413131371 111.29803477332933 0 111.29803477332933 -179.64516879242001 0 0 0 0 204.2657031040435 12.535634516442315 0 12.535634516442315 9.2113643438636927 0 0 0 0 41.167642242864531 -11.769044841205414 0 -11.769044841205414 -8.891303646952565 0 0 0 0 63.170997000837815 73.952567046500917 0 73.952567046500917 42.582729513784216 0 0 0 0 5.644126853881744 4.4994288915108456 0 4.4994288915108456 -0.97230383644193363 0 0 0 0 12.193611505435868 13.627286554622827 0 13.627286554622827 -13.378447670363506 0 0 0 0 14.735831993661122 -16.227553022502832 0 -16.227553022502832 -42.628402954064683 0 0 0 0 1.9384325332758863 -0.57926795301463585 0 -0.57926795301463585 -3.7561605291210491 0 0 0 0 -0.40949536037030043 0.698387243250437 0 0.698387243250437 -0.60169384085199884 0 0 0 0 -17.025318916668766 7.0213163054769723 0 7.0213163054769723 11.722365444766126 0 0 0 0 -4.7902328328156614 6.2439834560338596 0 6.2439834560338596 -6.297384294816716 0 0 0 0 131.49838396438281 103.98391665860868 0 103.98391665860868 -66.936487239470921 0 0 0 0 129.34693395157228 113.3634547857427 0 113.3634547857427 124.02215650763947 0 0 0 0 -2.0936851034113033 1.0806942027446809 0 1.0806942027446809 0.12937897586683178 0 0 0 0 7.4523671547649428 17.688274287827241 0 17.688274287827241 24.003444453280849 0 0 0 0 21.714080020494293 29.940018458035297 0 29.940018458035297 26.16069947487594 0 0 0 0 3.5778446666008676 25.627626164100434 0 25.627626164100434 26.494033733638048 0 0 0 0 -87.030082077515544 92.246251364515615 0 92.246251364515615 58.574822741857602 0 0 0 0 32.201632293243165 -63.012883248064711 0 -63.012883248064711 83.57597926857818 0 0 0 0 67.183002925317851 4.1978901299985409 0 4.1978901299985409 14.458824177334236 0 0 0 0 67.954793612996582 5.7874049119245115 0 5.7874049119245115 13.85105679516488 0 0 0 0 64.982055611544638 3.6401996507636909 0 3.6401996507636909 22.581336864402147 0 0 0 0 27.596756656935554 -20.323816882013631 0 -20.323816882013631 4.6203474003767457 0 0 0 0 75.580829333877773 128.92991007365089 0 128.92991007365089 87.392472152394674 0 0 0 0 99.246586971843499 78.304276613015944 0 78.304276613015944 14.649771815747727 0 0 0 0 156.51422895101132 -315.64910204300759 0 -315.64910204300759 -158.90158249102137 0 0 0 0 518.99279740473139 -647.36210645551114 0 -647.36210645551114 -23.186377948773952 0 0 0 0 1178.2697126047715 -530.39607768148153 0 -530.39607768148153 -114.78203724374453 0 0 0 0 72.184498410992092 -572.18328190401644 0 -572.18328190401644 205.59767689961646 0 0 0 0 117.98838994169273 -389.05735083152757 0 -389.05735083152757 -138.27024653103354 0 0 0 0 231.89165647368645 -834.15366500221535 0 -834.15366500221535 166.98388629492058 0 0 0 0 185.70462302525993 -829.83828046056237 0 -829.83828046056237 295.45012434839737 0 0 0 0 999.96545671699278 -1221.9977107369368 0 -1221.9977107369368 809.52155514344395 0 0 0 0 193.0362466006045 -782.88438241900712 0 -782.88438241900712 572.26050472076361 0 0 0 0 20.794952683331928 -1.8175334984867675 0 -1.8175334984867675 -0.51092260682129176 0 0 0 0 2277.7585406090657 -286.41824605622008 0 -286.41824605622008 -103.09589905092992 0 0 0 0 991.96796290582279 785.5126680860069 0 785.5126680860069 379.21477649873486 0 0 0 0 36.650650618219515 436.13173810559613 0 436.13173810559613 391.54323327184488 0 0 0 0 -94.31275772726076 164.02090673441074 0 164.02090673441074 206.24591502839758 0 0 0 0 -58.631846128002508 112.08931999477022 0 112.08931999477022 133.29620076846095 0 0 0 0 334.29756638746767 128.35594457671959 0 128.35594457671959 -152.61993444244081 0 0 0 0 90.298648524447344 337.0142577410752 0 337.0142577410752 201.558411282717 0 0 0 0 78.539172074219096 258.11488299318694 0 258.11488299318694 -113.53180167304072 0 0 0 0 677.59667162052938 -186.31335079877545 0 -186.31335079877545 -75.296403844010115 0 0 0 0 933.60804085164273 344.18775349168732 0 344.18775349168732 -90.082619304556829 0 0 0 0 0.3191150359925814 203.31642382060636 0 203.31642382060636 -166.98698025957901 0 0 0 0 255.0554016760434 5.8949210911437149 0 5.8949210911437149 -770.34941100978301 0 0 0 0 414.41984065288852 -316.64326635041516 0 -316.64326635041516 -419.06060147679545 0 0 0 0 267.9455534097433 270.57533356141676 0 270.57533356141676 -627.28800869396218 0 0 0 0 41.760204491685727 -37.835835428392784 0 -37.835835428392784 77.157111825707034 0 0 0 0 2.6392870335020575 -3.1670449385193571 0 -3.1670449385193571 -0.65474641298611247 0 0 0 0 157.81298987836635 -231.33931555106403 0 -231.33931555106403 309.18135817619805 0 0 0 0 29.860988894026377 -73.592331627406111 0 -73.592331627406111 90.053687358525167 0 0 0 0 4.1072017876676341 -5.0832153491193495 0 -5.0832153491193495 -1.3257955474487457 0 0 0 0 -32.584726524342841 -329.91901731041787 0 -329.91901731041787 -69.606922162717638 0 0 0 0 197.91102674762078 -537.34549068934939 0 -537.34549068934939 89.509507468936135 0 0 0 0 70.030597256467445 -530.23636633413889 0 -530.23636633413889 323.4300346163127 0 0 0 0 274.05069741999614 -694.37534667369437 0 -694.37534667369437 434.54390087807769 0 0 0 0 -329.53621461230796 -220.86207307920631 0 -220.86207307920631 1159.10163369988 0 0 0 0 3.0041292814566987 -60.169914701781636 0 -60.169914701781636 15.807741445989677 0 0 0 0 133.88347864866955 -230.02394842963349 0 -230.02394842963349 -105.20896728222942 0 0 0 0 36.481681149647102 -21.42458311920609 0 -21.42458311920609 7.666153497283128 0 0 0 0 0.40600444756887555 -11.473265619324822 0 -11.473265619324822 0.72385479762862026 0 0 0 0 90.026853716059122 -24.006893406380755 0 -24.006893406380755 -71.69831354923511 0 0 0 0 -119.11974185149938 -300.36789153522648 0 -300.36789153522648 -7.4783868986737616 0 0 0 0 12.376133663032306 -25.024173957814924 0 -25.024173957814924 6.2126730898298774 0 0 0 0 -0.61680126689043391 -10.675270962232034 0 -10.675270962232034 4.5858192267038866 0 0 0 0 -69.04450715042185 -86.0678546006163 0 -86.0678546006163 28.134530021349065 0 0 0 0 45.659974031767888 -34.114499938045526 0 -34.114499938045526 17.980040168806021 0 0 0 0 -69.639297236441053 12.690613620770847 0 12.690613620770847 105.88053860630572 0 0 0 0 156.36570705178383 -126.44005844493734 0 -126.44005844493734 -16.562027111856878 0 0 0 0 58.263535749181756 -97.822971488680196 0 -97.822971488680196 -3.1980755001332 0 0 0 0 72.304391418991145 -32.212050401251872 0 -32.212050401251872 -87.08170898932849 0 0 0 0 44.22523418538367 -13.706376110992693 0 -13.706376110992693 -5.5218094001203895 0 0 0 0 32.769403174519539 -15.379860275204237 0 -15.379860275204237 -7.2242253268589138 0 0 0 0 43.072117319770769 -7.3315269487337389 0 -7.3315269487337389 -2.7129563873045299 0 0 0 0 39.899067837744951 -10.268976997056143 0 -10.268976997056143 -4.0487259975463985 0 0 0 0 22.327286983073691 -13.412143376401957 0 -13.412143376401957 5.0881362841231406 0 0 0 0 32.68860124962157 -38.490277827631971 0 -38.490277827631971 -51.527790543547326 0 0 0 0 32.851940011925763 -34.979587577985953 0 -34.979587577985953 -20.407651248693625 0 0 0 0 6.9278669421037193 -39.747489481899478 0 -39.747489481899478 -18.682961470332415 0 0 0 0 26.425640857025542 -13.22836086468277 0 -13.22836086468277 0.90783770547551867 0 0 0 0 17.501646545017138 -52.186280466944751 0 -52.186280466944751 -0.026734705225544241 0 0 0 0 8.7311626243026694 -39.246340702328382 0 -39.246340702328382 -19.041919872536184 0 0 0 0 -8.5694687803043053 -29.772583054936636 0 -29.772583054936636 -0.028650024861008885 0 0 0 0 6.8439091049531271 -35.524285026813203 0 -35.524285026813203 -15.268429900138329 0 0 0 0 8.1739602247835137 -40.111772609875331 0 -40.111772609875331 -19.693987221319951 0 0 0 0 -20.034129414125346 -40.437416539272078 0 -40.437416539272078 -14.924549933005897 0 0 0 0 5.5544596097451517 -1.4000298585307291 0 -1.4000298585307291 -2.052554930387231 0 0 0 0 105.25402612161633 1.4752893941763858 0 1.4752893941763858 25.592868963649948 0 0 0 0 36.131001022920827 -7.0515713829943696 0 -7.0515713829943696 -103.81693643661492 0 0 0 0 -3.1340340212182696 1.3103509535603592 0 1.3103509535603592 0.51286647104838179 0 0 0 0 37.822749187573208 -55.325257435104945 0 -55.325257435104945 -26.826628917596253 0 0 0 0 139.93980962647765 -111.46195320913381 0 -111.46195320913381 0.071663677104295248 0 0 0 0 269.20187912505935 119.65694148846562 0 119.65694148846562 -18.83766085277594 0 0 0 0 622.08903617074247 -100.22284162288054 0 -100.22284162288054 -161.58584234843721 0 0 0 0 703.32524414692307 33.503046945835649 0 33.503046945835649 10.755324960068037 0 0 0 0 681.45133686962072 -122.17305382043901 0 -122.17305382043901 -0.11068483753212802 0 0 0 0 886.20436330878874 2.4081830180064183 0 2.4081830180064183 -69.954083459222815 0 0 0 0 1119.5691885016277 -173.76251826157974 0 -173.76251826157974 -0.001844433586162611 0 0 0 0 1098.0375294699334 -241.23914554757459 0 -241.23914554757459 -109.44401565545012 0 0 0 0 1410.2845298955217 -207.83563696165419 0 -207.83563696165419 -106.38032613792419 0 0 0 0 1215.8476003022079 -394.60298580655467 0 -394.60298580655467 -45.289030271845149 0 0 0 0 1103.7080946109782 -134.41338793729693 0 -134.41338793729693 -100.61006076700933 0 0 0 0 1118.845958427657 -87.463475642536196 0 -87.463475642536196 21.531190220247026 0 0 0 0 1306.3282967777341 -189.59065472520251 0 -189.59065472520251 -19.951415307900106 0 0 0 0 1019.169337197236 -154.91770242850038 0 -154.91770242850038 285.8690772043683 0 0 0 0 1787.3678754922003 -287.3044622801869 0 -287.3044622801869 -159.68743732266535 0 0 0 0 1431.9803973833477 44.914911392931913 0 44.914911392931913 399.97768571557594 0 0 0 0 1343.8201204591023 -444.17722989265405 0 -444.17722989265405 422.24501196545066 0 0 0 0 1239.8779979257088 -420.29707283699736 0 -420.29707283699736 526.29927078373203 0 0 0 0 1568.3215060878283 -750.9275737755238 0 -750.9275737755238 399.06933836243411 0 0 0 0 1239.5745092549435 -304.98696472878407 0 -304.98696472878407 81.907497749985851 0 0 0 0 1566.0211228475091 -8.5556987875913819 0 -8.5556987875913819 -226.84757845977765 0 0 0 0 71.453088424779708 28.324055535148176 0 28.324055535148176 163.42510335330917 0 0 0 0 602.70265566348098 -103.63174255205627 0 -103.63174255205627 157.17297165760419 0 0 0 0 503.53775208498701 87.601510399632616 0 87.601510399632616 37.847663758445833 0 0 0 0 495.09538041173073 -50.20507909053174 0 -50.20507909053174 20.063958597228407 0 0 0 0 87.441544068919029 -50.982230303397557 0 -50.982230303397557 100.34641232764932 0 0 0 0 1046.6868189195084 -173.84763179493876 0 -173.84763179493876 -31.873026073247047 0 0 0 0 578.75447971353424 109.09673465403824 0 109.09673465403824 117.48961000744019 0 0 0 0 -687.80117386046913 -151.55973444028919 0 -151.55973444028919 520.9967079297237 0 0 0 0 -1.3722966371439327 -3.0015061296923022 0 -3.0015061296923022 -6.0253074616786737 0 0 0 0 -170.06745342924114 -131.25253894789273 0 -131.25253894789273 -77.213088239063836 0 0 0 0 -482.40508698340273 466.49066212714456 0 466.49066212714456 -240.36788556249087 0 0 0 0 435.63965824220213 433.14805355205471 0 433.14805355205471 -502.02662676419072 0 0 0 0 452.10847668653514 874.3606914821695 0 874.3606914821695 879.72402247416744 0 0 0 0 6.7174604735998287 0.35319634201141525 0 0.35319634201141525 -0.33015517398829947 0 0 0 0 -273.76847388833994 -3.6754581449949795 0 -3.6754581449949795 -0.0059223832244865819 0 0 0 0 661.55791572981252 -151.70888260774447 0 -151.70888260774447 -103.03861853051956 0 0 0 0 401.32816134745372 -238.85009602813992 0 -238.85009602813992 2.2653630182397211 0 0 0 0 346.1411695583447 -256.58086716852267 0 -256.58086716852267 -96.216384846909136 0 0 0 0 309.16151739604538 -80.219393957908039 0 -80.219393957908039 -117.29855305282911 0 0 0 0 437.18697410937733 -116.78525520801499 0 -116.78525520801499 -269.14544153354632 0 0 0 0 162.32188651329488 89.827973431359851 0 89.827973431359851 -349.18394654660545 0 0 0 0 100.51257723435992 -106.34335110323912 0 -106.34335110323912 -169.09751517338685 0 0 0 0 114.76906501805934 -121.45200462897674 0 -121.45200462897674 -215.82152214521216 0 0 0 0 -341.10243293613894 -450.46635502205504 0 -450.46635502205504 46.223293826109 0 0 0 0 493.98145955357904 -604.48462110864034 0 -604.48462110864034 45.203631789950123 0 0 0 0 372.35452162795991 -205.21977248026855 0 -205.21977248026855 -33.705317970713914 0 0 0 0 1093.0286869859883 -246.21741497111336 0 -246.21741497111336 -0.75607789431149208 0 0 0 0 853.97241951868637 -303.05295274776381 0 -303.05295274776381 13.116244272659685 0 0 0 0 1607.3319191239425 -356.76758593436114 0 -356.76758593436114 -76.184087048055517 0 0 0 0 1484.696085708696 -502.52640020420591 0 -502.52640020420591 -145.54854583786414 0 0 0 0 1.1487857662015131 -1.1639907320416683 0 -1.1639907320416683 0.81503372192815915 0 0 0 0 189.89812116531539 -290.94637048269817 0 -290.94637048269817 472.91093173183265 0 0 0 0 1698.7171865736018 -405.55958578115644 0 -405.55958578115644 -187.33523025111572 0 0 0 0 516.7380146246287 445.3958197033312 0 445.3958197033312 259.4443566201017 0 0 0 0 1329.3270701340225 135.14583537121575 0 135.14583537121575 31.723422035662225 0 0 0 0 10.221374244149047 -1.8298369082312576 0 -1.8298369082312576 -0.9151607664476693 0 0 0 0 -27.199996329829446 -41.034381253753395 0 -41.034381253753395 206.78517521265576 0 0 0 0 10.114457630475613 -3.8936029081215224 0 -3.8936029081215224 -7.6429074704901234 0 0 0 0 50.195057481876574 -61.663011731412837 0 -61.663011731412837 -220.19980877887656 0 0 0 0 7.0489671470920143 -1.5917400678480078 0 -1.5917400678480078 -1.9091205333721553 0 0 0 0 -40.19682844527415 -205.91347146035753 0 -205.91347146035753 -231.02454680235473 0 0 0 0 46.141523437428987 0.046675911801003167 0 0.046675911801003167 -146.48587056599456 0 0 0 0 243.41616633844387 -71.740642261302469 0 -71.740642261302469 -245.16470427825948 0 0 0 0 20.201668768946547 -1.3336668422625735 0 -1.3336668422625735 -16.543904735620799 0 0 0 0 15.437662414988722 -6.2015400446822539 0 -6.2015400446822539 -4.6326063508874142 0 0 0 0 11.822187637337947 -8.3604129152489293 0 -8.3604129152489293 -23.925916606824199 0 0 0 0 5.4165859135646315 -4.0366299114693902 0 -4.0366299114693902 -39.254364427166365 0 0 0 0 78.735519743306213 91.525467402496702 0 91.525467402496702 -175.41447683298907 0 0 0 0 -27.834306761913467 58.428606343532294 0 58.428606343532294 -180.45498079476238 0 0 0 0 -1.1989703760918928 -0.58238430246160533 0 -0.58238430246160533 -18.766719581453799 0 0 0 0 2.5121408756382095 -7.9610436779548479 0 -7.9610436779548479 -18.994996957893605 0 0 0 0 54.476877162320307 46.893655815084458 0 46.893655815084458 -4.8164123797084812 0 0 0 0 31.133052551816945 35.610944395625552 0 35.610944395625552 -8.80610186802096 0 0 0 0 22.377208055710071 2.137549940828535 0 2.137549940828535 -11.30612741380628 0 0 0 0 12.898905256885257 4.715539796437767 0 4.715539796437767 -5.7065453216255309 0 0 0 0 7.4903527585556731 6.6234573072624698 0 6.6234573072624698 -5.6287043035242732 0 0 0 0 8.7442969521387965 16.752912798566854 0 16.752912798566854 -0.39168311046781312 0 0 0 0 96.151230858900817 32.703843845265965 0 32.703843845265965 -34.548163200624344 0 0 0 0 -18.263836119193002 -81.851141752455305 0 -81.851141752455305 -3.1190218323963563 0 0 0 0 3.1991804007402607 4.1671137208159053 0 4.1671137208159053 -3.2839048382751184 0 0 0 0 739.52238494870835 149.33592906993363 0 149.33592906993363 -125.45049353028548 0 0 0 0 323.38758308211982 100.6422008707757 0 100.6422008707757 -126.26148715191266 0 0 0 0 267.49591060099192 -174.64786912178806 0 -174.64786912178806 48.345095703894003 0 0 0 0 263.2413927322923 135.50656401335732 0 135.50656401335732 -59.138615917037896 0 0 0 0 -0.72889157486264367 -0.18969886259264257 0 -0.18969886259264257 -1.461637176550719 0 0 0 0 292.95144138374599 187.70337026129687 0 187.70337026129687 -103.66029135185693 0 0 0 0 438.01677078468492 41.049403505875944 0 41.049403505875944 -77.636659277503213 0 0 0 0 608.32156171963288 284.30110680692826 0 284.30110680692826 113.76674629689978 0 0 0 0 912.11634601841797 300.56705526071937 0 300.56705526071937 -60.636788530863896 0 0 0 0 877.2367694847344 459.86219652818113 0 459.86219652818113 -213.03604302290523 0 0 0 0 699.59582142377621 344.82953250663013 0 344.82953250663013 20.175593702802871 0 0 0 0 1070.1742593313102 482.5449693733068 0 482.5449693733068 -217.63517305118876 0 0 0 0 717.67232157068793 286.06027012586947 0 286.06027012586947 -159.39376832653784 0 0 0 0 845.33393179154518 162.67469312529761 0 162.67469312529761 -305.83268768180915 0 0 0 0 1338.0507050428423 63.595612296649051 0 63.595612296649051 -351.51204146484815 0 0 0 0 1311.2897874652845 161.08357177515904 0 161.08357177515904 -496.21675793491977 0 0 0 0 1806.5794372071105 678.26512730860713 0 678.26512730860713 -670.03286687027503 0 0 0 0 2593.5051957411415 -1592.7612136807968 0 -1592.7612136807968 -431.10244349600964 0 0 0 0 3887.8833934451104 -491.69826924761628 0 -491.69826924761628 -647.97464375088839 0 0 0 0 -186.93530586918496 1369.0582670702593 0 1369.0582670702593 -733.68813489716467 0 0 0 0 64.301146949030226 -55.298171620364883 0 -55.298171620364883 -270.04701018346987 0 0 0 0 -290.09385712377843 143.05238062530498 0 143.05238062530498 141.95659029292528 0 0 0 0 53.040647471370619 12.169599070491486 0 12.169599070491486 2.0381819049240431 0 0 0 0 546.68243151297793 -1527.3524999457441 0 -1527.3524999457441 2427.7147391329236 0 0 0 0 109.96028922870755 -0.19015870895697162 0 -0.19015870895697162 -171.64018822537386 0 0 0 0 -1500.1526638960349 673.4826000744888 0 673.4826000744888 2232.8420659750564 0 0 0 0 8.2526599727279972 -188.18091661705034 0 -188.18091661705034 -88.79324686426753 0 0 0 0 -205.34777142031817 -165.797518817129 0 -165.797518817129 413.31552067597386 0 0 0 0 796.02977210943936 -491.04890158130866 0 -491.04890158130866 217.93411116676339 0 0 0 0 36.51228650752455 -83.533032455104603 0 -83.533032455104603 57.251508052249847 0 0 0 0 -166.6756691125338 41.625880878667886 0 41.625880878667886 128.24612014342483 0 0 0 0 -4.568916269505749 0.38717321150977568 0 0.38717321150977568 0.36937138653705404 0 0 0 0 -28.658568669587112 21.139618014062648 0 21.139618014062648 19.498998934863266 0 0 0 0 4.8734088386700023 -119.18365558368214 0 -119.18365558368214 173.216915258884 0 0 0 0 -128.76995595892731 201.69323575698598 0 201.69323575698598 -97.113624430666277 0 0 0 0 -222.91609582208912 21.259375271507452 0 21.259375271507452 104.01730953605011 0 0 0 0 55.257203734101097 16.477154266537674 0 16.477154266537674 -0.44248455150316179 0 0 0 0 67.355305636985577 16.491983950461456 0 16.491983950461456 -35.070660206567382 0 0 0 0 -7.7671532650463746 17.880358511628231 0 17.880358511628231 -1.4947420073386422 0 0 0 0 15.97650093100674 27.20786055203962 0 27.20786055203962 23.430269578130719 0 0 0 0 1580.5252158739459 -1006.8411736295911 0 -1006.8411736295911 349.05781635575704 0 0 0 0 391.49818651346141 -1038.9842739806593 0 -1038.9842739806593 573.34169233770137 0 0 0 0 517.50627894022909 -1165.6394054711554 0 -1165.6394054711554 1734.5435884696567 0 0 0 0 290.55883948932751 -451.39141084986204 0 -451.39141084986204 762.23862149593288 0 0 0 0 19.818589871176471 -4.6823291407714578 0 -4.6823291407714578 -0.32156549992398564 0 0 0 0 -149.48479311100436 39.396683993433243 0 39.396683993433243 194.750608967669 0 0 0 0 99.126472435891628 -405.93442252209547 0 -405.93442252209547 2043.5646373434411 0 0 0 0 636.38297791991499 284.80271310504077 0 284.80271310504077 -125.90719014776141 0 0 0 0 6.9618054359947337 0.19737003991480151 0 0.19737003991480151 -5.6603999037388562 0 0 0 0 1052.9428067883855 -533.64425330910785 0 -533.64425330910785 1096.0298662439204 0 0 0 0 884.91283694960293 -115.38248800387601 0 -115.38248800387601 234.52158481179026 0 0 0 0 989.78436299015448 -1.5141384624472494 0 -1.5141384624472494 344.39512214442857 0 0 0 0 896.2073330796411 290.15918469795679 0 290.15918469795679 153.09798388225954 0 0 0 0 767.07853465597145 394.20782924580408 0 394.20782924580408 171.18878299783023 0 0 0 0 1165.9755674814223 416.72317913663051 0 416.72317913663051 203.44285927947431 0 0 0 0 663.01318155712215 258.02891553322388 0 258.02891553322388 954.27384417115036 0 0 0 0 -282.05030974358169 -75.980383288611421 0 -75.980383288611421 -262.9521369880058 0 0 0 0 862.66246472745843 -4.4891200192835186 0 -4.4891200192835186 -309.65896600515725 0 0 0 0 -260.78961457384867 903.23745960448309 0 903.23745960448309 -327.32341413331619 0 0 0 0 352.20877033623401 596.65135733746592 0 596.65135733746592 43.110927553657348 0 0 0 0 834.49014045251533 716.80035419294563 0 716.80035419294563 -425.11885223791978 0 0 0 0 833.86059945091256 630.47662783504984 0 630.47662783504984 -268.0442815829947 0 0 0 0 1352.5319676968211 861.20569164683502 0 861.20569164683502 -1253.03111202645 0 0 0 0 32.475796004597157 -1.2320571917147767 0 -1.2320571917147767 -1.9956221387189692 0 0 0 0 3713.5558831761882 -1218.8001970328969 0 -1218.8001970328969 -507.66360154154194 0 0 0 0 543.25795860188373 1147.1677126917891 0 1147.1677126917891 -814.60331323307673 0 0 0 0 -1509.0866751618305 -480.1732753060183 0 -480.1732753060183 1698.7651285583293 0 0 0 0 -363.54340721131302 810.7766023593847 0 810.7766023593847 -970.94618893106463 0 0 0 0 63.104051484395654 0.76203316715912095 0 0.76203316715912095 -3.1637775154197403 0 0 0 0 605.986928215425 98.117830695662406 0 98.117830695662406 -1785.0232972838107 0 0 0 0 -65.819051056008902 -234.79596286564094 0 -234.79596286564094 -222.36762177294941 0 0 0 0 929.63247189913818 -336.60399667170964 0 -336.60399667170964 -291.79415295525291 0 0 0 0 362.64832595846383 -795.96903520720821 0 -795.96903520720821 -96.579753075056942 0 0 0 0 470.97084319901478 -554.77696282635088 0 -554.77696282635088 -991.11986909911514 0 0 0 0 51.787560465039292 -1.7289066916539433 0 -1.7289066916539433 -2.4671026631609614 0 0 0 0 398.561773427351 -368.64566764600636 0 -368.64566764600636 -331.04828900740699 0 0 0 0 66.541128322278382 134.34123324814982 0 134.34123324814982 -866.5946399995338 0 0 0 0 223.01269337869599 -415.2211271199559 0 -415.2211271199559 22.15501530438037 0 0 0 0 -38.680694168964692 -262.82207091311284 0 -262.82207091311284 181.9151240827818 0 0 0 0 -81.28486798146514 -310.70339344015093 0 -310.70339344015093 24.738678860167738 0 0 0 0 -183.95253886264254 -413.941094892222 0 -413.941094892222 221.9428860852413 0 0 0 0 93.099329143820796 -385.49801119339577 0 -385.49801119339577 -75.168828658269149 0 0 0 0 2818.8300788234192 454.35756256536013 0 454.35756256536013 -89.474381520022121 0 0 0 0 1851.7534899223101 -1974.4985567151402 0 -1974.4985567151402 1084.9887899071107 0 0 0 0 155.6194594277913 -709.67872056170427 0 -709.67872056170427 337.38453078030966 0 0 0 0 301.0176396260722 -363.41984208807094 0 -363.41984208807094 133.4918032706039 0 0 0 0 832.27214350778377 -581.48978829862904 0 -581.48978829862904 100.00071555721445 0 0 0 0 291.1194342419185 -253.82794420529621 0 -253.82794420529621 100.45082237752365 0 0 0 0 274.82308937679045 -307.80148918785028 0 -307.80148918785028 16.503447036488652 0 0 0 0 324.15298792297835 -273.47061383092068 0 -273.47061383092068 483.10972410386086 0 0 0 0 442.71294987252622 -267.30629727395728 0 -267.30629727395728 518.89163530653695 0 0 0 0 542.51641584877507 -398.90413275978381 0 -398.90413275978381 209.04860473429443 0 0 0 0 84.231446672099992 66.599708098429318 0 66.599708098429318 47.198618748861072 0 0 0 0 53.243352259036328 9.0371495538210915 0 9.0371495538210915 18.810875295614181 0 0 0 0 64.115328039091764 29.590050142304882 0 29.590050142304882 7.0724971708892781 0 0 0 0 26.131018699641572 0.38427202123284587 0 0.38427202123284587 49.70811219374815 0 0 0 0 12.788150602136739 0.95075225163489563 0 0.95075225163489563 49.93623328755605 0 0 0 0 8.6760859145251743 20.803757316383631 0 20.803757316383631 44.021553380906781 0 0 0 0 50.218677326047327 17.983409088377769 0 17.983409088377769 44.212991712225545 0 0 0 0 79.264647770512966 94.002507229075619 0 94.002507229075619 120.48392603867535 0 0 0 0 100.23458711137937 128.87471906212983 0 128.87471906212983 64.238446812198276 0 0 0 0 127.16537975413667 209.10345317738086 0 209.10345317738086 222.02623337939633 0 0 0 0 -1.5007090204599081 73.165248461902607 0 73.165248461902607 295.89793489087117 0 0 0 0 155.42897544908919 152.15792411217643 0 152.15792411217643 183.03833020362759 0 0 0 0 5.2660024564247578 -177.35328194075237 0 -177.35328194075237 39.890876472657908 0 0 0 0 26.367970494280712 2.5150476480355906 0 2.5150476480355906 0.074404581854760288 0 0 0 0 718.73526880366262 653.29543440977295 0 653.29543440977295 613.88599226675626 0 0 0 0 530.62365091015818 595.00826931263384 0 595.00826931263384 554.49358414561982 0 0 0 0 -122.83199897732993 48.202681377202822 0 48.202681377202822 474.92833332563475 0 0 0 0 1156.734601051372 -0.47906675690103384 0 -0.47906675690103384 3.435616747787094 0 0 0 0 512.24421899114168 50.794716703685751 0 50.794716703685751 -0.067617646323469671 0 0 0 0 601.28426030314586 95.571004669451725 0 95.571004669451725 -101.708276951073 0 0 0 0 -137.81810994475381 211.39466230209916 0 211.39466230209916 -15.623774880326096 0 0 0 0 351.51721432205522 -18.829151094289216 0 -18.829151094289216 -190.05362866709282 0 0 0 0 520.27084528050909 -56.57795466504524 0 -56.57795466504524 -13.459095868748136 0 0 0 0 -1.4425890534763539 -0.20546217076824291 0 -0.20546217076824291 -0.031296071848302631 0 0 0 0 136.47753303097852 143.07802450924959 0 143.07802450924959 68.956478806284963 0 0 0 0 350.24209561379394 146.87100804293792 0 146.87100804293792 28.845898265752567 0 0 0 0 168.1900014346611 120.28308562890982 0 120.28308562890982 56.258651986045379 0 0 0 0 161.12440441716171 97.430444241713303 0 97.430444241713303 19.200889470133006 0 0 0 0 133.27468480465177 105.97252385170759 0 105.97252385170759 53.001712894893672 0 0 0 0 106.0845122452738 72.140352736060322 0 72.140352736060322 61.818550844926222 0 0 0 0 149.45915526857789 75.034435343896007 0 75.034435343896007 20.021452806006209 0 0 0 0 167.16628629220213 82.829032972133405 0 82.829032972133405 -20.904063499406448 0 0 0 0 152.76909538225163 24.642350924883004 0 24.642350924883004 -10.057248364060445 0 0 0 0 164.69971348832769 77.502373451796984 0 77.502373451796984 4.8316036601964925 0 0 0 0 164.69074151047971 91.656184172103849 0 91.656184172103849 3.3817999952832452 0 0 0 0 147.18572229046549 84.625034915638764 0 84.625034915638764 11.905687176162246 0 0 0 0 149.39771737772389 90.998362518979604 0 90.998362518979604 15.772070617587815 0 0 0 0 270.54464052162439 108.60962993657239 0 108.60962993657239 -12.968497554531496 0 0 0 0 158.70833280055376 50.447488071007456 0 50.447488071007456 -40.244174391918364 0 0 0 0 133.91185160232618 19.595288783378251 0 19.595288783378251 -6.6029530656757069 0 0 0 0 206.34871435860259 39.99288346588537 0 39.99288346588537 -124.43749580947792 0 0 0 0 238.52542659216851 -41.953172065434387 0 -41.953172065434387 16.983104438561099 0 0 0 0 125.54311256403162 12.529743639709295 0 12.529743639709295 -8.8214286731271159 0 0 0 0 12.235779604038242 0.12789312117860163 0 0.12789312117860163 -8.2809378693557463 0 0 0 0 3.1237051365460502 127.36234031278724 0 127.36234031278724 -44.234740118122886 0 0 0 0 115.83187647028356 31.239360583251656 0 31.239360583251656 -2.4320798503924821 0 0 0 0 117.06641978377593 66.368600894785232 0 66.368600894785232 -24.045314534252157 0 0 0 0 162.42457978586754 -33.998755481457039 0 -33.998755481457039 -65.479821341729576 0 0 0 0 112.6372500713187 95.307185249964277 0 95.307185249964277 15.107144288275776 0 0 0 0 96.410028644364502 105.74346875891706 0 105.74346875891706 81.018932539559501 0 0 0 0 161.9162231800874 248.90012086678553 0 248.90012086678553 258.1120786131055 0 0 0 0 92.542546995915473 -25.933455577738641 0 -25.933455577738641 -247.68867879871186 0 0 0 0 31.563302140646101 -1.5378481084310636 0 -1.5378481084310636 -0.98798364828736496 0 0 0 0 79.735412774833094 82.444224103770921 0 82.444224103770921 110.74928581594213 0 0 0 0 212.87594503394212 177.16522586147175 0 177.16522586147175 2.4476360475819092 0 0 0 0 259.60919609868142 59.199491081677479 0 59.199491081677479 -275.14251206023937 0 0 0 0 11.755971253321576 2.3883540821103999 0 2.3883540821103999 -0.69531717367393497 0 0 0 0 199.00892933913565 643.5641866691858 0 643.5641866691858 973.80001520502219 0 0 0 0 206.47432188995299 74.035299366547861 0 74.035299366547861 57.978126019554111 0 0 0 0 -155.25634212171281 -151.68811963369262 0 -151.68811963369262 1080.0938040373221 0 0 0 0 846.54284031114003 609.4478303465653 0 609.4478303465653 -661.65447120104727 0 0 0 0 -85.069386846218549 -167.36169806506223 0 -167.36169806506223 -193.61955712945928 0 0 0 0 120.4488578228702 -118.63927709213567 0 -118.63927709213567 -213.84924043701903 0 0 0 0 340.97080724337138 -159.73755826275374 0 -159.73755826275374 -321.28509140880851 0 0 0 0 118.27398867554439 -258.72875555531573 0 -258.72875555531573 -316.59429316649266 0 0 0 0 353.17187439529516 -204.26085426431769 0 -204.26085426431769 329.7820730104134 0 0 0 0 339.46641603874741 -89.296861558322888 0 -89.296861558322888 148.64878562953598 0 0 0 0 275.36543991055805 12.440343818615133 0 12.440343818615133 118.69646004495394 0 0 0 0 270.41627128099208 14.958367139436405 0 14.958367139436405 343.97446988572733 0 0 0 0 469.33089608779119 -98.758629403998938 0 -98.758629403998938 450.69242016814434 0 0 0 0 632.94117471147911 -385.7028341145782 0 -385.7028341145782 361.12669064655233 0 0 0 0 577.0706732178769 -64.96134326154754 0 -64.96134326154754 364.3330235548882 0 0 0 0 640.39353053141895 -205.98498145407635 0 -205.98498145407635 420.36483928503355 0 0 0 0 129.61347449851746 -136.62642339713062 0 -136.62642339713062 406.99772144403437 0 0 0 0 179.18380994787731 -85.472748399548379 0 -85.472748399548379 -42.566019678191957 0 0 0 0 92.84694239998862 -74.256124727428215 0 -74.256124727428215 20.320819331522713 0 0 0 0 48.674476010579383 121.38366015167219 0 121.38366015167219 92.848403740400528 0 0 0 0 1.1654085599849964 8.0112638399942497 0 8.0112638399942497 5.3763714734654338 0 0 0 0 143.59604613842384 58.224433211484268 0 58.224433211484268 88.014698516840554 0 0 0 0 133.02694055292523 52.820335738783342 0 52.820335738783342 201.33147754219632 0 0 0 0 21.927035207889276 137.03393899961316 0 137.03393899961316 102.8984505435223 0 0 0 0 56.225401653064182 90.736479745925749 0 90.736479745925749 -128.87481839581369 0 0 0 0 12.783283681858336 35.603055843795282 0 35.603055843795282 3.1094829386060199 0 0 0 0 115.31564944144338 31.993341324468247 0 31.993341324468247 -13.231384712380532 0 0 0 0 101.55814028549867 76.642717815039532 0 76.642717815039532 46.200100947003193 0 0 0 0 62.135764427307564 49.094803489192728 0 49.094803489192728 28.578427086071112 0 0 0 0 40.500331342846039 111.14174174459117 0 111.14174174459117 83.748818301110532 0 0 0 0 56.775268144028473 10.927746928400165 0 10.927746928400165 0.79997224439417458 0 0 0 0 132.50807795531728 74.32430906145737 0 74.32430906145737 -134.91057159646107 0 0 0 0 86.583373466095509 107.60313523055447 0 107.60313523055447 -57.2398544358648 0 0 0 0 32.838762597588357 142.5461227252722 0 142.5461227252722 33.179125620920786 0 0 0 0 73.089520630638177 68.236794037397274 0 68.236794037397274 11.940559803101014 0 0 0 0 91.537535787807428 194.97805318887765 0 194.97805318887765 -73.715177400601078 0 0 0 0 5.2597818858921528 130.48793120636947 0 130.48793120636947 27.921357241720216 0 0 0 0 64.06449854656239 75.520697889492112 0 75.520697889492112 -24.860106335394448 0 0 0 0 205.98651562233863 142.98293329916442 0 142.98293329916442 -22.859600324290341 0 0 0 0 200.70049398980336 92.298661899763829 0 92.298661899763829 0.98677550941468439 0 0 0 0 152.14763482101262 98.005722312462694 0 98.005722312462694 15.588434503450344 0 0 0 0 238.70630838972284 126.0090822136757 0 126.0090822136757 -23.318981681564537 0 0 0 0 250.74590293147594 57.196811261747214 0 57.196811261747214 160.76211825458086 0 0 0 0 131.75691553809156 86.143136891003735 0 86.143136891003735 152.26768050320311 0 0 0 0 431.35966788472433 -24.177502106007069 0 -24.177502106007069 36.98480664716817 0 0 0 0 496.13617486218573 -136.70005950836435 0 -136.70005950836435 245.45131852374539 0 0 0 0 449.93576527069672 31.699276978629882 0 31.699276978629882 140.30781315915056 0 0 0 0 341.5533300475945 93.593615907785306 0 93.593615907785306 0.86966410469767652 0 0 0 0 311.25392987200757 28.371180528911736 0 28.371180528911736 210.73622226005415 0 0 0 0 265.58523630777199 -15.623247616732897 0 -15.623247616732897 -79.600574538302681 0 0 0 0 214.34771194691712 26.429149302741507 0 26.429149302741507 25.199326263328658 0 0 0 0 232.4064062791731 23.439061092499514 0 23.439061092499514 -124.65650390138947 0 0 0 0 788.92910680404748 -687.4555734439341 0 -687.4555734439341 6.3713679976535786 0 0 0 0 2044.4972050633569 -1110.3944538315172 0 -1110.3944538315172 63.28526664801575 0 0 0 0 -1.9315397584946723 -0.5974194389843035 0 -0.5974194389843035 -4.9646633268418938 0 0 0 0 1953.3086500791796 -728.9455893034899 0 -728.9455893034899 1733.6851507544586 0 0 0 0 -116.60376964828174 -70.437294999360233 0 -70.437294999360233 278.13086954841049 0 0 0 0 258.48441745922901 6.6035482628429918 0 6.6035482628429918 278.97562127353262 0 0 0 0 152.13549844489899 -437.64542951354377 0 -437.64542951354377 560.0351350457845 0 0 0 0 760.22189634453389 -265.36464283385794 0 -265.36464283385794 356.78248783730351 0 0 0 0 1271.5079265396926 -295.33242328484766 0 -295.33242328484766 326.70957397177625 0 0 0 0 1296.4195635750075 -407.89848641330457 0 -407.89848641330457 50.74558510533916 0 0 0 0 2181.8820907521149 -787.92571960002329 0 -787.92571960002329 203.98856273891113 0 0 0 0 662.16810221466585 -783.71045438412636 0 -783.71045438412636 772.25552845959453 0 0 0 0 3023.174016247518 -1636.4507846761792 0 -1636.4507846761792 -802.08850240096808 0 0 0 0 7.2372219622220655 -8.2652793956102357 0 -8.2652793956102357 10.371908001884641 0 0 0 0 3110.0085735699395 290.5110518509041 0 290.5110518509041 -72.407611611954849 0 0 0 0 1835.1561631003278 -536.41415392864178 0 -536.41415392864178 -75.387594388005709 0 0 0 0 557.15370140514278 357.59202409867646 0 357.59202409867646 -70.448451052149153 0 0 0 0 1484.9798696258367 43.20561801874976 0 43.20561801874976 471.02400659812452 0 0 0 0 1908.8386923574144 -211.19855439956973 0 -211.19855439956973 106.06515511183625 0 0 0 0 -331.77013456156419 -231.9252426428111 0 -231.9252426428111 -267.99767448122111 0 0 0 0 -51.507184850735939 -147.62022154095257 0 -147.62022154095257 -350.80358457595321 0 0 0 0 -11.925805982566089 -363.92407893893096 0 -363.92407893893096 -440.08386791604971 0 0 0 0 94.152497983261128 -107.14357588410098 0 -107.14357588410098 -337.35409598886145 0 0 0 0 17.808109352747408 -21.731271930661677 0 -21.731271930661677 21.901209155048857 0 0 0 0 349.71204703706462 -443.33526728142135 0 -443.33526728142135 249.13921364612861 0 0 0 0 -410.72720849787584 -753.0046747362685 0 -753.0046747362685 -561.5225812109145 0 0 0 0 -95.534718995928415 -146.99329949596867 0 -146.99329949596867 -520.54785338222609 0 0 0 0 -863.32026708047488 -1014.5214223931796 0 -1014.5214223931796 613.59276950917899 0 0 0 0 -66.697581208711199 -325.21999254445404 0 -325.21999254445404 76.41412398987427 0 0 0 0 242.87584340263857 -125.98843228750241 0 -125.98843228750241 -462.13294370816135 0 0 0 0 172.30672407120437 -33.782826355092197 0 -33.782826355092197 -243.2263435820787 0 0 0 0 479.10352455223619 -586.26115411995534 0 -586.26115411995534 171.5901406168224 0 0 0 0 424.45826333624245 -140.47811676911294 0 -140.47811676911294 44.691108869868458 0 0 0 0 69.485483523352741 -688.57564644864522 0 -688.57564644864522 513.76216978367711 0 0 0 0 642.92073784739478 -1490.0584059662688 0 -1490.0584059662688 663.775071648015 0 0 0 0 639.65323676880507 -888.2723020045396 0 -888.2723020045396 481.7346985786487 0 0 0 0 1035.6695395355346 307.3505119783772 0 307.3505119783772 -2.3692503861448131 0 0 0 0 454.37043721007649 -172.30591724094484 0 -172.30591724094484 78.148142485931544 0 0 0 0 1073.6312416560977 -408.88721312748112 0 -408.88721312748112 153.87771337260347 0 0 0 0 491.06807924139866 435.08015040752707 0 435.08015040752707 84.353792200616226 0 0 0 0 761.70690276680398 153.05387523423951 0 153.05387523423951 -38.601914957323515 0 0 0 0 541.37405636825133 240.05863689742941 0 240.05863689742941 -41.357135513406547 0 0 0 0 402.66842131518933 329.19480376024808 0 329.19480376024808 32.370786857531129 0 0 0 0 549.91964832809026 226.67214796677808 0 226.67214796677808 -118.15164520445342 0 0 0 0 532.99222752259811 289.12944615747801 0 289.12944615747801 -107.30780660067279 0 0 0 0 468.08494931968744 222.81924480736768 0 222.81924480736768 -170.78308763558925 0 0 0 0 373.00420580647187 145.1160187305918 0 145.1160187305918 -81.048255065679541 0 0 0 0 500.56942308825091 -134.40578177529005 0 -134.40578177529005 -63.090574102615619 0 0 0 0 569.38673085222035 -204.85497371026412 0 -204.85497371026412 9.0231201655756195 0 0 0 0 727.39237466653867 143.13496144665635 0 143.13496144665635 -96.276065315834103 0 0 0 0 -0.53713558766801839 0.57137893564186015 0 0.57137893564186015 -0.87883467960932826 0 0 0 0 -41.887550491184811 28.945725759399465 0 28.945725759399465 158.77950241332837 0 0 0 0 -47.268938921799418 55.96863478267187 0 55.96863478267187 -16.840168922385601 0 0 0 0 -18.362356754063512 -20.002439774681761 0 -20.002439774681761 72.28572614460154 0 0 0 0 -63.60021807134035 73.213892912817983 0 73.213892912817983 71.527966837545137 0 0 0 0 60.475314569281181 179.8480484925617 0 179.8480484925617 55.729043368161001 0 0 0 0 36.497394648380578 183.89391156059401 0 183.89391156059401 152.50059357126156 0 0 0 0 -70.792957590078004 257.64598709535767 0 257.64598709535767 333.05910524808132 0 0 0 0 -155.65423389544594 22.596985861115172 0 22.596985861115172 106.45112974168887 0 0 0 0 257.55809775930538 348.92142888774561 0 348.92142888774561 145.26856343990175 0 0 0 0 313.51211125831469 255.73724243554898 0 255.73724243554898 20.099210948844302 0 0 0 0 293.78996529629512 187.35114048591413 0 187.35114048591413 -60.72660746608608 0 0 0 0 465.72822218656074 223.42911342056823 0 223.42911342056823 -139.6582166117305 0 0 0 0 246.98950332961977 185.84451577486971 0 185.84451577486971 -57.037219373415496 0 0 0 0 124.96509096145746 135.17998284936493 0 135.17998284936493 -67.15152081820861 0 0 0 0 246.98845613307094 185.95160270938564 0 185.95160270938564 -47.252522995263234 0 0 0 0 120.13615990376275 152.33222004250973 0 152.33222004250973 -21.561346568832505 0 0 0 0 213.16198486596113 249.77309955237558 0 249.77309955237558 54.396603740875527 0 0 0 0 130.08314944762969 167.99185714024551 0 167.99185714024551 -12.049595983296335 0 0 0 0 5.7083554450166787 -1.6402733016335773 0 -1.6402733016335773 -2.5513155074920322 0 0 0 0 107.76512594315864 101.19939597776397 0 101.19939597776397 -163.62085421818733 0 0 0 0 3.7393405603361316 42.213208271021585 0 42.213208271021585 -30.660817814321945 0 0 0 0 43.15236119646579 108.76276309591503 0 108.76276309591503 80.296602689277165 0 0 0 0 112.96435620165721 119.58311228808861 0 119.58311228808861 -85.627818307958478 0 0 0 0 124.64485311817407 138.33756979647245 0 138.33756979647245 -39.511498542005029 0 0 0 0 136.68877353932476 154.24201238296476 0 154.24201238296476 -34.997934057473806 0 0 0 0 134.22824961590231 163.34414810059252 0 163.34414810059252 -52.976522172162049 0 0 0 0 -5.3108271531527862 49.708755337975617 0 49.708755337975617 55.859096065472386 0 0 0 0 28.788682204008381 8.6691541628873665 0 8.6691541628873665 2.4862681061881804 0 0 0 0 42.278023065417074 62.634292749965425 0 62.634292749965425 -82.189205801181743 0 0 0 0 -1892.2028417245019 -504.02409952013841 0 -504.02409952013841 -110.77169940156637 0 0 0 0 10.354468766774517 92.208971711677805 0 92.208971711677805 -20.059569585291683 0 0 0 0 28.943696416070452 60.040789028274276 0 60.040789028274276 6.5456094385990582 0 0 0 0 28.647529840061907 66.564907324694104 0 66.564907324694104 -50.013547673175708 0 0 0 0 33.38104246337025 63.357687693098342 0 63.357687693098342 -49.053259603579136 0 0 0 0 57.667688367131632 45.172230822644451 0 45.172230822644451 -81.841877195136476 0 0 0 0 53.132528467482189 21.402881029940545 0 21.402881029940545 -63.138716622559514 0 0 0 0 59.297542920292472 -11.433959294872238 0 -11.433959294872238 23.825374588483101 0 0 0 0 9.8080973805044778 85.495957588737838 0 85.495957588737838 93.10467224048989 0 0 0 0 1946.710354818264 604.94464451931344 0 604.94464451931344 -131.01013238453237 0 0 0 0 11.514163931489918 2.5803147768999608 0 2.5803147768999608 0.53662688993563989 0 0 0 0 -70.092878076291527 122.11281388906445 0 122.11281388906445 505.66536656292101 0 0 0 0 488.18716694283648 211.50356148162928 0 211.50356148162928 -226.09627973252157 0 0 0 0 48.073353488303837 -26.078222710347063 0 -26.078222710347063 126.41256394783886 0 0 0 0 282.95514156638819 116.91408459485183 0 116.91408459485183 -199.81632523423605 0 0 0 0 162.04647715255851 511.4765698750798 0 511.4765698750798 364.00774053973578 0 0 0 0 142.37666719956906 192.39173413551134 0 192.39173413551134 -205.67892171470885 0 0 0 0 -37.391163361098734 109.90067963567799 0 109.90067963567799 -154.60217571294743 0 0 0 0 27.645302887860453 143.92617746931955 0 143.92617746931955 173.42039635590902 0 0 0 0 29.465232680748159 149.93646467125836 0 149.93646467125836 -2.385149396439374 0 0 0 0 51.346708695637062 130.5482858642149 0 130.5482858642149 -82.361538070133975 0 0 0 0 57.421796328751952 87.364152073854257 0 87.364152073854257 -93.178684820038484 0 0 0 0 33.416817926961812 102.25761445192438 0 102.25761445192438 -16.004101663927941 0 0 0 0 36.211776937707327 93.639846014140858 0 93.639846014140858 -39.133071603952317 0 0 0 0 -92.653894460963784 -201.0396159799302 0 -201.0396159799302 -187.44783566919068 0 0 0 0 312.58517307523289 -191.08546125635166 0 -191.08546125635166 -373.22634056365541 0 0 0 0 286.54743528485415 -197.62867252361229 0 -197.62867252361229 -74.29683981172559 0 0 0 0 317.15680669214089 129.63342803772656 0 129.63342803772656 -7.7355716784768447 0 0 0 0 475.80301940385834 334.96326904963837 0 334.96326904963837 -133.15741654282465 0 0 0 0 627.28636729647405 418.67198501049552 0 418.67198501049552 -87.562811521704134 0 0 0 0 613.47778274715529 295.60547459184636 0 295.60547459184636 -185.08577304095729 0 0 0 0 -49.201274772087345 340.2141216766413 0 340.2141216766413 398.10157795506711 0 0 0 0 -230.44315773397102 -817.12770960639727 0 -817.12770960639727 -682.51926931610069 0 0 0 0 896.46710704227007 512.20941407983605 0 512.20941407983605 -80.539389602416122 0 0 0 0 -1.668237279122053 3.3464249316214278 0 3.3464249316214278 -5.8649030536886606 0 0 0 0 1593.1579327786312 -128.94748067895534 0 -128.94748067895534 -1181.8897270992466 0 0 0 0 592.04964866555383 -77.735051443743714 0 -77.735051443743714 -480.04632086632409 0 0 0 0 315.13545162144874 -193.37914180080497 0 -193.37914180080497 -527.81985180331776 0 0 0 0 64.538888561961357 -228.8484648798858 0 -228.8484648798858 -364.22792016425615 0 0 0 0 190.12349028339668 12.468777665136258 0 12.468777665136258 -111.63456130191844 0 0 0 0 -67.953811432424118 -139.41073521184535 0 -139.41073521184535 -183.63394821647489 0 0 0 0 242.40432322774723 -222.6383031274263 0 -222.6383031274263 -256.88512272226217 0 0 0 0 198.01257178069045 151.2841261765272 0 151.2841261765272 198.40979939021781 0 0 0 0 357.29598668502877 -112.57716092370629 0 -112.57716092370629 -115.22865009870475 0 0 0 0 262.25344667874742 -224.11462887059679 0 -224.11462887059679 -452.43611244225576 0 0 0 0 62.70822998095386 -23.479095703235352 0 -23.479095703235352 8.3840354823999323 0 0 0 0 -81.502257055559312 62.56902026298485 0 62.56902026298485 -166.86737353458193 0 0 0 0 38.39952199898633 -25.949656497990901 0 -25.949656497990901 15.513095199219437 0 0 0 0 30.369787583949801 -41.622227853056415 0 -41.622227853056415 14.942857188717426 0 0 0 0 37.211371710663343 -26.210646426213515 0 -26.210646426213515 12.74733434639394 0 0 0 0 113.07817855507164 -305.47105693104481 0 -305.47105693104481 -365.38668775904807 0 0 0 0 56.467651075552567 81.944916412688144 0 81.944916412688144 -84.604518362797535 0 0 0 0 59.769336513250892 41.238269540739452 0 41.238269540739452 -123.71283684444097 0 0 0 0 81.725071638647933 51.649473521056279 0 51.649473521056279 -265.16966295398697 0 0 0 0 -5.2704582148080021 9.1735056436995137 0 9.1735056436995137 -17.523351822919473 0 0 0 0 -47.258966702604084 -82.856663233725612 0 -82.856663233725612 -180.29962890061915 0 0 0 0 391.56382252243748 341.81255588126407 0 341.81255588126407 17.647199701757927 0 0 0 0 -66.322184052085504 -124.50331197147352 0 -124.50331197147352 65.598985180146201 0 0 0 0 11.427215024757231 18.351062764068701 0 18.351062764068701 -30.217933840317198 0 0 0 0 27.048547235259321 -19.322918465144085 0 -19.322918465144085 -56.719190794195583 0 0 0 0 25.323778215846687 8.3059131827881174 0 8.3059131827881174 -68.193445873141172 0 0 0 0 33.431803545085131 -1.1421509928546811 0 -1.1421509928546811 -53.17219455214763 0 0 0 0 30.023279039698537 -1.4785113731309139 0 -1.4785113731309139 -51.875304887831589 0 0 0 0 26.849631981123821 -22.123975561892166 0 -22.123975561892166 -20.335592921506759 0 0 0 0 71.773588500145706 -10.07925259458716 0 -10.07925259458716 9.3523141235004914 0 0 0 0 276.03447262175905 96.650179751803989 0 96.650179751803989 -228.51123250253659 0 0 0 0 76.321117253579189 -28.864813039574507 0 -28.864813039574507 6.4753856442839641 0 0 0 0 73.136956185175222 -14.897021987821063 0 -14.897021987821063 4.7940877344262844 0 0 0 0 61.622003780590603 -7.9681141638593544 0 -7.9681141638593544 0.70246529878113506 0 0 0 0 74.943129873354337 -18.234294684322549 0 -18.234294684322549 -20.954598960896874 0 0 0 0 71.881282315014687 9.9103844918315644 0 9.9103844918315644 -16.231631826198281 0 0 0 0 22.817933824803276 1.4872571077452506 0 1.4872571077452506 -3.072884107757698 0 0 0 0 -23.262245536083356 -173.27575625246203 0 -173.27575625246203 93.754411663386108 0 0 0 0 36.711145070396014 -11.589342090110677 0 -11.589342090110677 25.993113320036173 0 0 0 0 71.19822917524607 -24.140488677647319 0 -24.140488677647319 5.5881405065665604 0 0 0 0 -4.3397850949986605 70.319395501774466 0 70.319395501774466 57.262356004971707 0 0 0 0 55.764964113112001 -23.687659242385223 0 -23.687659242385223 6.4165863820762752 0 0 0 0 27.609320949962296 -23.656181901355936 0 -23.656181901355936 10.409137799773157 0 0 0 0 10.460356280498672 20.549974664054389 0 20.549974664054389 22.720344587289361 0 0 0 0 58.323252847229014 50.394394291548394 0 50.394394291548394 37.377051415366338 0 0 0 0 -13.155178595010511 50.952265392826064 0 50.952265392826064 84.162314194614396 0 0 0 0 17.475780025237327 -39.976096415158281 0 -39.976096415158281 273.96010841924164 0 0 0 0 593.22774276387645 -280.54578244255362 0 -280.54578244255362 160.25668724633908 0 0 0 0 1059.4445051439907 286.92023207790118 0 286.92023207790118 -192.40626954608661 0 0 0 0 1.085461764516765 -0.68976359612099714 0 -0.68976359612099714 0.56112681247794016 0 0 0 0 1128.4845515781635 -761.76043659591642 0 -761.76043659591642 500.24470010591511 0 0 0 0 1614.3663255411848 118.34283330445827 0 118.34283330445827 -340.97009977821313 0 0 0 0 946.82115651447384 679.80035305482147 0 679.80035305482147 -653.1501841953966 0 0 0 0 9.9290196777947131 253.88559281610705 0 253.88559281610705 -63.246040812192177 0 0 0 0 948.09041970693215 108.40023805091994 0 108.40023805091994 -126.13680740794894 0 0 0 0 969.17675874069391 424.94946805000217 0 424.94946805000217 -394.47197474834968 0 0 0 0 778.10519203558215 445.99802418730758 0 445.99802418730758 -119.93162905243275 0 0 0 0 853.4352009476861 351.82335679685843 0 351.82335679685843 -46.092227329180787 0 0 0 0 1672.768293974601 521.78634276504067 0 521.78634276504067 -58.512968749685456 0 0 0 0 1641.0738102410542 -279.37336897886678 0 -279.37336897886678 136.60068927031784 0 0 0 0 910.05761586860172 152.28159460316579 0 152.28159460316579 -86.617776448708355 0 0 0 0 723.35848522143169 -110.08666460976326 0 -110.08666460976326 776.24227079737602 0 0 0 0 944.50962169663399 -498.78231157720006 0 -498.78231157720006 609.79812263391204 0 0 0 0 412.8211305996665 -350.75734926134692 0 -350.75734926134692 328.89675639410029 0 0 0 0 926.41307151521323 831.64305608130348 0 831.64305608130348 507.42558676187355 0 0 0 0 13.217147467448399 -1.8311547654844347 0 -1.8311547654844347 0.29051294225666613 0 0 0 0 -5.0903895029332489 133.26598295072131 0 133.26598295072131 31.561490096872603 0 0 0 0 -177.63941776641877 -395.77865983450283 0 -395.77865983450283 -290.38727781468856 0 0 0 0 26.250017843092849 -15.129404576981678 0 -15.129404576981678 8.7362679887264569 0 0 0 0 33.063704742544132 -26.170499368460128 0 -26.170499368460128 22.750678939239144 0 0 0 0 -115.3416551289265 46.380352565618523 0 46.380352565618523 -5.5765719713513136 0 0 0 0 350.71636269432202 -103.95307323044949 0 -103.95307323044949 -186.09571755203842 0 0 0 0 8.1659891623057774 27.389072056113513 0 27.389072056113513 116.8214943570772 0 0 0 0 91.823772564763203 236.02661946607037 0 236.02661946607037 255.59823622360022 0 0 0 0 853.50548076903215 353.70390140000728 0 353.70390140000728 -109.38213295826381 0 0 0 0 3321.7970687348279 -2222.0435163977222 0 -2222.0435163977222 -343.60661397586131 0 0 0 0 3828.0320858148116 -1686.2654494961166 0 -1686.2654494961166 -793.21048168293032 0 0 0 0 744.77874020893069 -786.84457780702496 0 -786.84457780702496 -770.35090831341336 0 0 0 0 3071.5852000678133 -2546.7201907297276 0 -2546.7201907297276 -1474.6176260596731 0 0 0 0 3701.6749088066572 -2037.476455977446 0 -2037.476455977446 -1246.7270484781736 0 0 0 0 4499.6173787297739 -1316.9127433960109 0 -1316.9127433960109 -2001.5449327269068 0 0 0 0 743.30635734602401 -2014.9238025335328 0 -2014.9238025335328 -520.81692051104494 0 0 0 0 7.3504761241949552 -5.7005868529599866 0 -5.7005868529599866 -2.3921431335378491 0 0 0 0 2063.7889387769392 -72.583503992618176 0 -72.583503992618176 -803.46795975203031 0 0 0 0 3353.7491867603603 139.12898929330674 0 139.12898929330674 409.98234867570181 0 0 0 0 5540.4653473114158 -38.011798203341641 0 -38.011798203341641 -632.48106966524324 0 0 0 0 2928.6748574319208 -877.12432687920125 0 -877.12432687920125 421.90581985067354 0 0 0 0 1773.0416373674525 -977.98214912961657 0 -977.98214912961657 487.7272536936955 0 0 0 0 1786.73175963838 -401.67014937726276 0 -401.67014937726276 -195.63642276465248 0 0 0 0 2087.56551041684 -377.2915990673211 0 -377.2915990673211 1097.8890784752111 0 0 0 0 1253.0303215460008 -905.13698179127266 0 -905.13698179127266 941.57606563594197 0 0 0 0 3346.7712227214652 -468.6209649851121 0 -468.6209649851121 720.37660116730103 0 0 0 0 2142.5095828260819 515.30333535871705 0 515.30333535871705 -43.585615897365187 0 0 0 0 1097.7834083342022 2585.4380598077214 0 2585.4380598077214 -1124.1822436994944 0 0 0 0 1625.1583451704646 1231.0095380450675 0 1231.0095380450675 -784.66519187762606 0 0 0 0 -278.19408591263345 736.75448048098042 0 736.75448048098042 -29.596324839273166 0 0 0 0 -1949.0977314827614 1863.5035199949289 0 1863.5035199949289 -826.48357454453242 0 0 0 0 2011.7234975062311 -1039.3751968477061 0 -1039.3751968477061 -2294.2194389491192 0 0 0 0 1488.9717431078607 -929.52567800306872 0 -929.52567800306872 -891.574987558678 0 0 0 0 -1134.0145219713158 -1046.5809674068773 0 -1046.5809674068773 -895.84302138981684 0 0 0 0 943.44855843525147 871.12061463110649 0 871.12061463110649 -2583.0033522896515 0 0 0 0 374.73806711257203 998.33998080976016 0 998.33998080976016 -1523.2680647396528 0 0 0 0 62.024355054709872 9.2321899959066869 0 9.2321899959066869 -6.6278976821194799 0 0 0 0 3121.9479306350404 -1073.1851748457921 0 -1073.1851748457921 -279.08949104209023 0 0 0 0 1672.5868348215881 -1088.3026530622678 0 -1088.3026530622678 -254.04679290027684 0 0 0 0 -1652.4037497483805 39.912977646396257 0 39.912977646396257 -356.59189265057739 0 0 0 0 8.8585635188160836 -0.48712480701190941 0 -0.48712480701190941 -2.189533086501358 0 0 0 0 981.78914228160284 -1179.2860202717218 0 -1179.2860202717218 -135.53564889188073 0 0 0 0 1741.4072847958087 -991.97843376972833 0 -991.97843376972833 -234.1994336458024 0 0 0 0 1613.7334519723372 -779.43573187922902 0 -779.43573187922902 -463.1345459698432 0 0 0 0 901.33036689299479 505.07842805385218 0 505.07842805385218 -1911.4703737142852 0 0 0 0 133.17375679145334 -68.234956241035633 0 -68.234956241035633 -597.83954281440583 0 0 0 0 17.611198695902829 5.456259741306809 0 5.456259741306809 -1.4874720624118178 0 0 0 0 -549.21547877133708 199.65710508004031 0 199.65710508004031 -1152.516046454848 0 0 0 0 422.51420273108124 -1559.4926178760659 0 -1559.4926178760659 1246.6165458583016 0 0 0 0 3047.7528023215418 -3357.557958564305 0 -3357.557958564305 1762.6595589973817 0 0 0 0 4493.1228959237051 -3090.8018199699818 0 -3090.8018199699818 150.75975056905753 0 0 0 0 29.352967663060383 -0.6674486667066617 0 -0.6674486667066617 -2.5020420979384772 0 0 0 0 9.1123211419859445 5.7191583443811282 0 5.7191583443811282 0.10511928009711261 0 0 0 0 4442.8180465804762 722.01324404478146 0 722.01324404478146 -1214.2981258317423 0 0 0 0 -154.4825417671891 675.9349737527856 0 675.9349737527856 -1169.7905574080869 0 0 0 0 1175.0007366661594 2485.8849799552872 0 2485.8849799552872 -30.807123886148162 0 0 0 0 4489.5077937622591 1389.4345417577947 0 1389.4345417577947 -521.33835513589565 0 0 0 0 585.7812899278797 -419.92700361932594 0 -419.92700361932594 -724.37241426977255 0 0 0 0 3207.2900754490547 355.45159883454301 0 355.45159883454301 18.378652597823645 0 0 0 0 3119.4748332342424 234.10491451995475 0 234.10491451995475 812.0638719361823 0 0 0 0 3344.9168181143832 129.20524345206638 0 129.20524345206638 381.48083228951305 0 0 0 0 3972.3479919202218 -664.74736202520194 0 -664.74736202520194 0.60492469280936989 0 0 0 0 2130.3053765872755 544.23883221633423 0 544.23883221633423 -376.34562575074199 0 0 0 0 22.671372174556893 -5.4161493811934314 0 -5.4161493811934314 1.1982277432356061 0 0 0 0 4252.3869613601855 -328.28361305284659 0 -328.28361305284659 111.23179803357928 0 0 0 0 1614.117928390413 -1831.8092801843206 0 -1831.8092801843206 1268.6197569998583 0 0 0 0 2104.8512950482545 -941.48428529742841 0 -941.48428529742841 -131.7145958425333 0 0 0 0 1647.4609536485004 -1567.3569343476013 0 -1567.3569343476013 428.71486406900203 0 0 0 0 1763.1794242730393 -723.03687530527714 0 -723.03687530527714 70.738246672432382 0 0 0 0 753.77121538283245 24.509471830025291 0 24.509471830025291 -5.8318641363714505 0 0 0 0 1739.1505731377692 -855.43052102595448 0 -855.43052102595448 -623.2744872147664 0 0 0 0 1436.9918251557028 -1083.2001032426679 0 -1083.2001032426679 -155.76716021635684 0 0 0 0 1679.1266831174144 -1157.7287997307469 0 -1157.7287997307469 -511.37220009702514 0 0 0 0 1694.6069521101454 -1076.5261965556349 0 -1076.5261965556349 -91.896215734842372 0 0 0 0 733.9738952525222 -165.51398845569975 0 -165.51398845569975 -112.61804084414393 0 0 0 0 347.5015966972278 -446.60865218285403 0 -446.60865218285403 189.30349688686175 0 0 0 0 232.46763838739207 63.117954853084612 0 63.117954853084612 19.413213781534978 0 0 0 0 1016.3450895860296 -1027.6351397568244 0 -1027.6351397568244 55.323932158808589 0 0 0 0 1206.9467811630748 -552.36393456023552 0 -552.36393456023552 34.379620756078793 0 0 0 0 193.37410137425468 -800.87226696173093 0 -800.87226696173093 654.36212649411959 0 0 0 0 -416.12295547322719 -267.65800831151705 0 -267.65800831151705 -0.37267625534303023 0 0 0 0 207.10113347492006 56.242838162224189 0 56.242838162224189 -309.95321112935653 0 0 0 0 -48.488254812167725 -132.36061390486867 0 -132.36061390486867 -235.00974435426664 0 0 0 0 400.40018337218498 -325.1406133039111 0 -325.1406133039111 -855.64194565685852 0 0 0 0 52.163985827326428 -8.6177368935840146 0 -8.6177368935840146 0.19002951734699647 0 0 0 0 352.61780853387609 -15.859384758185342 0 -15.859384758185342 -975.12756195095994 0 0 0 0 279.54795253253542 128.94152372682944 0 128.94152372682944 -128.71431106951908 0 0 0 0 59.511145213380246 -6.8535292547098692 0 -6.8535292547098692 -0.37929502388487107 0 0 0 0 -7.9019222575007007 -198.94311687589584 0 -198.94311687589584 -521.82217910941961 0 0 0 0 31.658736295677954 10.350388161183622 0 10.350388161183622 -0.039110080204979247 0 0 0 0 147.72470982791856 344.68839903897219 0 344.68839903897219 -621.70193509129194 0 0 0 0 -65.204410599479161 73.924751440201248 0 73.924751440201248 266.54713350952125 0 0 0 0 275.99517664249288 -166.86916134865965 0 -166.86916134865965 -267.21040256157539 0 0 0 0 -361.19129474333022 -44.998659883363189 0 -44.998659883363189 -287.69488431290711 0 0 0 0 396.93524651721236 99.969513597003385 0 99.969513597003385 -484.68340164859364 0 0 0 0 305.70196881145239 -99.510837267622037 0 -99.510837267622037 -374.58230198382358 0 0 0 0 -0.1947665994394896 0.29603335176702217 0 0.29603335176702217 5.3538819287888337 0 0 0 0 -307.22688335908606 -121.96343186262973 0 -121.96343186262973 253.99193807386155 0 0 0 0 451.14389821329678 394.81329217600398 0 394.81329217600398 255.35615513048219 0 0 0 0 350.32873176221619 366.74011294365573 0 366.74011294365573 329.84303129587914 0 0 0 0 850.16387242345081 25.346331507777791 0 25.346331507777791 160.92153267048533 0 0 0 0 181.20851358977961 -36.37099655644856 0 -36.37099655644856 172.5754827688279 0 0 0 0 520.74184885957948 337.74485016148185 0 337.74485016148185 111.35059423555606 0 0 0 0 52.338774717005435 109.88552889523294 0 109.88552889523294 213.59778500940087 0 0 0 0 -266.63446142055182 -7.4614646888918514 0 -7.4614646888918514 69.809289814944805 0 0 0 0 -0.73479419921238787 -0.49742809182708925 0 -0.49742809182708925 13.201111885530501 0 0 0 0 -140.51827488427807 35.738164197265633 0 35.738164197265633 28.46051620453477 0 0 0 0 -166.1697561480396 70.050428052530378 0 70.050428052530378 14.783705375485169 0 0 0 0 -137.28685203756322 41.935593627511025 0 41.935593627511025 34.257945272698635 0 0 0 0 -126.76354707362771 45.897238870599267 0 45.897238870599267 9.5243890335345895 0 0 0 0 3.8332617936075195 1.4961466381555226 0 1.4961466381555226 16.942546949417373 0 0 0 0 9.229425971429805 4.3774049098705916 0 4.3774049098705916 5.2540056801973432 0 0 0 0 14.726337524101837 17.069548195945799 0 17.069548195945799 264.27144778040298 0 0 0 0 943.86600441770861 564.95760756988932 0 564.95760756988932 169.4437544193031 0 0 0 0 2056.9571218921774 -271.78500473101144 0 -271.78500473101144 -121.88313567286582 0 0 0 0 1766.8246909159352 -511.15991261086617 0 -511.15991261086617 255.17136273308279 0 0 0 0 1942.2815376423678 -892.47106726530455 0 -892.47106726530455 -354.09396906303914 0 0 0 0 2823.9484222049068 -1015.836090295405 0 -1015.836090295405 -105.70369791156372 0 0 0 0 2170.4847999944468 -566.78966265885992 0 -566.78966265885992 -88.848589005806616 0 0 0 0 2812.7041782727001 222.3988066210938 0 222.3988066210938 -408.14064349692944 0 0 0 0 2289.0754625131085 174.54224523311541 0 174.54224523311541 64.498972459229776 0 0 0 0 2265.9294203369491 5.5362220453838518 0 5.5362220453838518 179.41076970159338 0 0 0 0 1550.360691287955 35.100595631842452 0 35.100595631842452 -263.43262283298282 0 0 0 0 2164.6066629707493 2316.2544595983936 0 2316.2544595983936 240.84806241055412 0 0 0 0 2240.2641966570227 -1303.8083174316657 0 -1303.8083174316657 806.18407251386998 0 0 0 0 759.21193270981894 -85.943757147470706 0 -85.943757147470706 948.11467854037028 0 0 0 0 21.08675384244998 138.82058192648947 0 138.82058192648947 -241.46183175868464 0 0 0 0 1.1374164938713136 -10.731808332077463 0 -10.731808332077463 -1.5812654508444073 0 0 0 0 1346.8848232508608 3106.9026247307638 0 3106.9026247307638 -2547.0990699001645 0 0 0 0 3506.8775448229862 -885.06318375190858 0 -885.06318375190858 -289.537393820506 0 0 0 0 33.658317057567956 8.2735153206484995 0 8.2735153206484995 -2.0085220549074867 0 0 0 0 3007.5172830190859 2295.2910704696988 0 2295.2910704696988 -2472.6658003536131 0 0 0 0 5148.3794625144219 241.38927630269791 0 241.38927630269791 -408.01901892510716 0 0 0 0 4407.3844325150421 94.093658338722094 0 94.093658338722094 -475.15156218662332 0 0 0 0 3496.6903247447917 1726.2391036991366 0 1726.2391036991366 -2027.7571159545475 0 0 0 0 3753.1679624187673 2188.9433386560768 0 2188.9433386560768 -197.46926058136756 0 0 0 0 2101.6097099986509 1613.735001783454 0 1613.735001783454 -368.75667969033975 0 0 0 0 76.044601049202186 -14.329226609607609 0 -14.329226609607609 -1.7834060247789767 0 0 0 0 70.642791311973269 -30.086636986277426 0 -30.086636986277426 -43.381867183147733 0 0 0 0 954.9597037552885 122.55616190389151 0 122.55616190389151 23.236955523998404 0 0 0 0 823.44723575502212 261.23223566024376 0 261.23223566024376 -73.622255881989986 0 0 0 0 -370.32944602734642 -36.874717703115493 0 -36.874717703115493 164.77379350645151 0 0 0 0 2653.7986580969009 633.55739007295188 0 633.55739007295188 -269.72429305513242 0 0 0 0 593.99241979804356 516.85908451901605 0 516.85908451901605 -275.49587337023166 0 0 0 0 4.4545658148774976 -28.13631880808137 0 -28.13631880808137 3.9502142978404997 0 0 0 0 118.17347256146549 7.8118989816143483 0 7.8118989816143483 -11.156540855563405 0 0 0 0 57.832541944662808 -57.375693579036124 0 -57.375693579036124 -128.82030819215902 0 0 0 0 18.759054678085135 -17.64012415140208 0 -17.64012415140208 1.0967425782036826 0 0 0 0 35.496273130673217 -14.427729860294903 0 -14.427729860294903 -2.3150874760347051 0 0 0 0 27.048509383869884 -3.9155944987616351 0 -3.9155944987616351 4.3218267045273713 0 0 0 0 19.538560398439017 -1.9690880553828407 0 -1.9690880553828407 4.7031272255334979 0 0 0 0 29.953886955157941 0.10423511124282925 0 0.10423511124282925 12.441520867094141 0 0 0 0 15.389979853789555 1.9463062868570091 0 1.9463062868570091 23.249028994190212 0 0 0 0 18.441215105532308 1.6368080200612241 0 1.6368080200612241 6.5187363153548299 0 0 0 0 20.697976201830897 1.1010273284259826 0 1.1010273284259826 14.641514440819567 0 0 0 0 50.790761906289845 -53.010359898427396 0 -53.010359898427396 -30.615160224132296 0 0 0 0 30.493577311426634 1.3098537340266603 0 1.3098537340266603 7.3849720188499077 0 0 0 0 22.651365683827976 -5.5466803188799076 0 -5.5466803188799076 1.5324191606142639 0 0 0 0 -117.91494105958554 103.21021668171898 0 103.21021668171898 -9.6320795053742359 0 0 0 0 17.600082258293696 2.3038116400469946 0 2.3038116400469946 13.951681215006488 0 0 0 0 -91.512713351199636 163.23420142381588 0 163.23420142381588 112.16930382169494 0 0 0 0 18.138586656016059 8.2496421567231693 0 8.2496421567231693 11.799949186864648 0 0 0 0 327.50860816746717 -331.70175678075248 0 -331.70175678075248 137.58638776352882 0 0 0 0 -139.1480777129982 -122.70144675229767 0 -122.70144675229767 105.81952762492438 0 0 0 0 11.183112931822478 0.52521216476407062 0 0.52521216476407062 20.091336982706945 0 0 0 0 20.068111561718979 -14.023150595125117 0 -14.023150595125117 -39.990617751784612 0 0 0 0 204.56375837716041 73.853232154675425 0 73.853232154675425 -498.52362181691467 0 0 0 0 22.956748998313969 -4.5399508278092782 0 -4.5399508278092782 -0.58763549544041038 0 0 0 0 246.05654478268116 437.67389632007598 0 437.67389632007598 63.338694822336265 0 0 0 0 215.8522062272823 -49.681948284092414 0 -49.681948284092414 -383.55964570655806 0 0 0 0 28.995740994360915 1.4760049301115608 0 1.4760049301115608 -0.16904309251310368 0 0 0 0 39.35668101986812 31.621375245569425 0 31.621375245569425 -154.38133607018426 0 0 0 0 27.017064171726815 -3.9065168788674782 0 -3.9065168788674782 -21.439018205957609 0 0 0 0 5.3567496363268674 -2.7230248865547111 0 -2.7230248865547111 1.5791202789174958 0 0 0 0 24.516684126051075 -2.9220098571343911 0 -2.9220098571343911 1.477729830970361 0 0 0 0 24.658466713662563 -8.4809370117057767 0 -8.4809370117057767 2.0602128295849083 0 0 0 0 15.569050067177159 23.715202032875141 0 23.715202032875141 28.196614608847767 0 0 0 0 25.519889431801857 -1.4678290660128823 0 -1.4678290660128823 -23.390242697884105 0 0 0 0 25.521626263012877 -32.032252998372314 0 -32.032252998372314 0.521582577410868 0 0 0 0 143.15786514966749 80.457868016228531 0 80.457868016228531 -3.0411798864504362 0 0 0 0 27.433736223611049 26.755249216175571 0 26.755249216175571 45.854044808570052 0 0 0 0 242.86606783754542 195.31109814094498 0 195.31109814094498 73.643717664655924 0 0 0 0 200.46456177515938 208.33872802428738 0 208.33872802428738 98.262167669932751 0 0 0 0 31.676364985328803 -4.2512172357337477 0 -4.2512172357337477 -0.61626097648845679 0 0 0 0 202.70960364922939 176.78408256903992 0 176.78408256903992 163.46166821431189 0 0 0 0 158.96051466372228 -246.27775096103022 0 -246.27775096103022 -853.96305421970465 0 0 0 0 91.281512210087385 92.333282468345715 0 92.333282468345715 99.495049858125228 0 0 0 0 24.582723883679932 0.99088936352401191 0 0.99088936352401191 -0.48425881531342441 0 0 0 0 115.84886951687804 -22.29089372555427 0 -22.29089372555427 -55.316644119596504 0 0 0 0 95.81401684503362 61.368818393554307 0 61.368818393554307 -46.341904224704194 0 0 0 0 39.564199747329667 -5.5307744201522127 0 -5.5307744201522127 -0.85460388236100315 0 0 0 0 5.5077347102342173 17.73416699160407 0 17.73416699160407 -694.48808507601325 0 0 0 0 -28.86601286403311 -83.505512974742487 0 -83.505512974742487 -291.28946258563974 0 0 0 0 184.72335810164805 225.28919220169746 0 225.28919220169746 -222.72415328961324 0 0 0 0 56.678262848930899 158.58287812414665 0 158.58287812414665 -75.205735324008856 0 0 0 0 190.57754783054406 121.29670642203644 0 121.29670642203644 -582.27652768303074 0 0 0 0 -7.2633571192927775 -27.943132287990352 0 -27.943132287990352 -257.62068497442579 0 0 0 0 442.96237864671275 204.33591239946554 0 204.33591239946554 -207.76517325070711 0 0 0 0 498.9714698982425 109.47582084116766 0 109.47582084116766 52.53806695187086 0 0 0 0 169.93237294310529 -68.836595133421952 0 -68.836595133421952 -42.272438294756284 0 0 0 0 116.72711189648544 372.3123333391095 0 372.3123333391095 189.77891737256232 0 0 0 0 94.910552964516683 343.63641617528947 0 343.63641617528947 215.69683631292128 0 0 0 0 119.60670210423996 422.36669798760613 0 422.36669798760613 240.46146480808602 0 0 0 0 0.73240642422658198 -3.166551399566373 0 -3.166551399566373 9.0447085483746434 0 0 0 0 15.711536281469307 81.447671613876253 0 81.447671613876253 65.768271055688729 0 0 0 0 185.62952579207195 -48.363640293304798 0 -48.363640293304798 -135.9496935133684 0 0 0 0 24.541513260952343 244.08471984501966 0 244.08471984501966 349.539532714487 0 0 0 0 -0.056600890916229218 -0.38196934994442699 0 -0.38196934994442699 2.447957592536298 0 0 0 0 -191.30728987589828 20.596127229290232 0 20.596127229290232 50.469722346566869 0 0 0 0 -125.81625589350006 -1.6681554334852535 0 -1.6681554334852535 54.479283812318954 0 0 0 0 13.466256155467818 45.45526624318736 0 45.45526624318736 30.979472029145654 0 0 0 0 -145.620910013502 -70.264862760966025 0 -70.264862760966025 52.469221518109748 0 0 0 0 -90.398001974885119 -16.558568068139721 0 -16.558568068139721 70.952871146331745 0 0 0 0 -135.78424912921037 37.725411748087481 0 37.725411748087481 33.217029762071206 0 0 0 0 99.321993143938016 24.008744793604365 0 24.008744793604365 85.184585444294498 0 0 0 0 -14.306014256922936 76.775671420325864 0 76.775671420325864 121.67929444060701 0 0 0 0 -91.825743249733932 0.7876642075689233 0 0.7876642075689233 149.32848633468609 0 0 0 0 19.413879203319084 52.80583236581424 0 52.80583236581424 162.17936449783269 0 0 0 0 -135.49753551126923 -14.244376316744024 0 -14.244376316744024 174.9071593420606 0 0 0 0 -137.3546233688121 45.953644308286066 0 45.953644308286066 192.93606890337605 0 0 0 0 -119.62558768691088 4.0615123058727249 0 4.0615123058727249 184.03388000759787 0 0 0 0 115.24192208718159 316.91181876357825 0 316.91181876357825 18.089710959164677 0 0 0 0 -170.43018637452042 123.67173871120065 0 123.67173871120065 365.19958847373192 0 0 0 0 -37.685500947089167 23.430635638655986 0 23.430635638655986 -330.156920207741 0 0 0 0 -13.352973763947375 143.25582731058569 0 143.25582731058569 -411.79876358713454 0 0 0 0 -171.44518456921469 102.96121443779505 0 102.96121443779505 40.250396938187805 0 0 0 0 -55.000431754087913 20.9039626794534 0 20.9039626794534 -236.3646739683943 0 0 0 0 -65.634919999167323 0.36585284926712802 0 0.36585284926712802 -62.591754674859374 0 0 0 0 -37.646271444682498 -26.733347194866838 0 -26.733347194866838 56.814865487494558 0 0 0 0 -95.150856827371172 -42.11756395236614 0 -42.11756395236614 67.30432956247023 0 0 0 0 7.0522268130882253 -5.7127441585538108 0 -5.7127441585538108 -0.54798866057431095 0 0 0 0 22.339335598633625 -2.1982442978893681 0 -2.1982442978893681 -1.2358933692579332 0 0 0 0 55.261215325138721 -1.1618320841932182 0 -1.1618320841932182 -0.48529013848917202 0 0 0 0 96.404407461377559 -19.491100493883337 0 -19.491100493883337 -73.338097162086015 0 0 0 0 82.537870468368055 -13.275851015227772 0 -13.275851015227772 -587.88928383699999 0 0 0 0 -14.601974098186474 -130.41026799739441 0 -130.41026799739441 -401.95335097736188 0 0 0 0 1.6714720617474654 0.22193867785282251 0 0.22193867785282251 0.24571832032983776 0 0 0 0 2.2502386997221038 -2.763105028174015 0 -2.763105028174015 0.0030470472973027577 0 0 0 0 -208.75723706476856 -289.78890809810969 0 -289.78890809810969 181.14076688128921 0 0 0 0 -200.95662571625144 79.692555623649753 0 79.692555623649753 -348.94290996335849 0 0 0 0 -87.82498184684664 169.4556627318384 0 169.4556627318384 -419.33763562764 0 0 0 0 255.2284059071244 -80.777112264543064 0 -80.777112264543064 -168.41234336029044 0 0 0 0 -76.989629544848867 130.43621480723311 0 130.43621480723311 54.281766792223095 0 0 0 0 1067.5437086601596 571.23742678506164 0 571.23742678506164 -1334.9791908079023 0 0 0 0 2.3878696925676195 1.4213942272546101 0 1.4213942272546101 0.0069665027288868496 0 0 0 0 -44.232159531500656 -588.26166102089599 0 -588.26166102089599 -488.42600172510322 0 0 0 0 -454.56858473978355 339.64626829585836 0 339.64626829585836 -304.27737257323668 0 0 0 0 7.0950811800537963 4.62549403341173 0 4.62549403341173 -0.11145672883109663 0 0 0 0 234.73029476962984 -173.79462382740695 0 -173.79462382740695 -1096.8162432856773 0 0 0 0 47.536989789415429 1.8694514546553762 0 1.8694514546553762 -0.63168835666939016 0 0 0 0 29.09108980052406 0.97945127392310516 0 0.97945127392310516 -0.0077942133669397385 0 0 0 0 9.0459776546485955 3.5309971784599905 0 3.5309971784599905 -0.15350559056766361 0 0 0 0 -19.126035604858771 18.48499604229454 0 18.48499604229454 -535.49241353321815 0 0 0 0 -70.569953989732312 -68.631512642836981 0 -68.631512642836981 -280.14762959626182 0 0 0 0 24.186229066050146 -130.15487886144319 0 -130.15487886144319 67.032160559535896 0 0 0 0 -22.40134036391828 -226.90148624180463 0 -226.90148624180463 -295.87753558416307 0 0 0 0 -79.261822564229078 -58.897054051863364 0 -58.897054051863364 21.205441574125985 0 0 0 0 -30.600113965338096 -81.186846466859379 0 -81.186846466859379 -277.15333554827242 0 0 0 0 -83.650570300058462 -41.704198035984746 0 -41.704198035984746 86.942089939056814 0 0 0 0 15.265279264800483 -36.920043819692182 0 -36.920043819692182 57.521657588974222 0 0 0 0 -56.946029833488865 71.750705706095005 0 71.750705706095005 241.08183178379909 0 0 0 0 -54.908564673656656 130.74586340849424 0 130.74586340849424 372.86973173272827 0 0 0 0 231.7166222629603 123.7636987281835 0 123.7636987281835 248.94618247813651 0 0 0 0 53.838904878357425 466.56988698482428 0 466.56988698482428 710.92314381334018 0 0 0 0 -193.26545535810874 19.808335532262277 0 19.808335532262277 950.39256458426007 0 0 0 0 1518.6068146773614 -361.26868865564097 0 -361.26868865564097 -128.1115322070857 0 0 0 0 420.23096386244288 551.96461111519511 0 551.96461111519511 406.16248390011469 0 0 0 0 930.30102940851793 659.29956402365337 0 659.29956402365337 812.7236373163023 0 0 0 0 2247.2111155671882 -472.00574406231499 0 -472.00574406231499 -1156.2321358104855 0 0 0 0 1356.6991936178238 -891.02670514268038 0 -891.02670514268038 -1371.4138939429004 0 0 0 0 7.1355861217938923 -5.9564115519034999 0 -5.9564115519034999 5.5175129008696064 0 0 0 0 15.509218823070455 0.086559117544240394 0 0.086559117544240394 -3.9452773059012962 0 0 0 0 136.54998836680898 1690.4668757442041 0 1690.4668757442041 1443.4271957301416 0 0 0 0 1721.9524900572724 -18.993967776183126 0 -18.993967776183126 -1192.0609630239028 0 0 0 0 127.37129638082115 62.439022691861737 0 62.439022691861737 179.78684457892723 0 0 0 0 458.37815580668394 112.43872154381461 0 112.43872154381461 182.05797893031968 0 0 0 0 81.079769572897931 225.93065510165087 0 225.93065510165087 280.68212482070521 0 0 0 0 88.504566632967908 98.428330260793473 0 98.428330260793473 235.30753794477732 0 0 0 0 8.388094062836899 136.44102324149785 0 136.44102324149785 265.75888057047086 0 0 0 0 266.15995099542488 254.35922041991944 0 254.35922041991944 115.85482177728727 0 0 0 0 4.6924126931336332 -8.294843869933203 0 -8.294843869933203 14.374563937284059 0 0 0 0 123.39567438850645 174.80013654045365 0 174.80013654045365 163.06045865810097 0 0 0 0 -945.64018485469569 -208.46571536476768 0 -208.46571536476768 787.26010064354705 0 0 0 0 355.77835987313301 607.24757509891015 0 607.24757509891015 1028.3205965041852 0 0 0 0 1522.5037001099408 -74.511903463122962 0 -74.511903463122962 78.763628368431455 0 0 0 0 933.48554522305494 -569.23447185631812 0 -569.23447185631812 950.12084019260328 0 0 0 0 2242.0307532538136 -807.6416217084543 0 -807.6416217084543 -383.27467747228548 0 0 0 0 525.42478589896928 115.67387831379347 0 115.67387831379347 207.33615942611686 0 0 0 0 434.39449229568709 599.67991181454818 0 599.67991181454818 565.44701772395365 0 0 0 0 670.18948502332205 -539.86062152243176 0 -539.86062152243176 399.79354983008579 0 0 0 0 16.059943539758763 5.6797531452655221 0 5.6797531452655221 -1.0640087872225976 0 0 0 0 83.745807936560595 227.92891278460411 0 227.92891278460411 788.61927980753899 0 0 0 0 2161.9494177896686 22.981256505534247 0 22.981256505534247 -500.37336807892279 0 0 0 0 -553.56040243226744 -8.6583957992295382 0 -8.6583957992295382 362.54054554676986 0 0 0 0 7.0784583808247561 2.7166172574727909 0 2.7166172574727909 -0.64401858607514129 0 0 0 0 188.36082634195918 -244.29300371436784 0 -244.29300371436784 -109.08959056287313 0 0 0 0 134.86205182023696 208.47392416005005 0 208.47392416005005 -61.743794231567335 0 0 0 0 160.63929233199451 237.81063239288051 0 237.81063239288051 -124.84236730900557 0 0 0 0 -111.6752011984936 349.53485144889873 0 349.53485144889873 251.98029962169903 0 0 0 0 -159.41883004326519 485.50280411681752 0 485.50280411681752 -122.26492592917111 0 0 0 0 48.879213119886117 396.33610152536448 0 396.33610152536448 -387.56314029361965 0 0 0 0 23.809913785487879 -616.03782796965106 0 -616.03782796965106 -467.81788440292712 0 0 0 0 -619.61336811183719 61.991981567291077 0 61.991981567291077 330.45517812338403 0 0 0 0 -21.746283104032045 207.55296259490478 0 207.55296259490478 686.50463420410438 0 0 0 0 793.73343175612536 1002.9137092103782 0 1002.9137092103782 402.31747518175848 0 0 0 0 -341.9064972953056 528.6669342297771 0 528.6669342297771 349.08785948403988 0 0 0 0 99.804580747419095 484.51980982580221 0 484.51980982580221 353.48017969883267 0 0 0 0 197.91274768020958 97.763558893986442 0 97.763558893986442 -476.93373672167354 0 0 0 0 397.1178841204528 468.06289589761263 0 468.06289589761263 -418.17321049221096 0 0 0 0 32.024026021410691 -2.3213249491712418 0 -2.3213249491712418 -5.5359322855460169 0 0 0 0 177.96607872133609 7.0348981509664554 0 7.0348981509664554 -100.43297736638669 0 0 0 0 1084.2769811616163 1435.387234005349 0 1435.387234005349 -114.87616235757855 0 0 0 0 535.70016989350552 -221.85565458610131 0 -221.85565458610131 -206.12760484705248 0 0 0 0 -111.47764754621312 907.80734883934088 0 907.80734883934088 930.60264756731658 0 0 0 0 1149.9143454486475 163.76353804502435 0 163.76353804502435 -0.17771413615233614 0 0 0 0 14.734913589372582 5.4371061534038212 0 5.4371061534038212 1.2605817354784405 0 0 0 0 -187.24485471984372 257.05325030922427 0 257.05325030922427 213.98045694515037 0 0 0 0 37.970235669990245 9.019086131587791 0 9.019086131587791 0.47402428937227259 0 0 0 0 1.4468709540244618 -0.12541844018003445 0 -0.12541844018003445 0.19446338643381378 0 0 0 0 -60.734207187779248 -22.672063352742498 0 -22.672063352742498 -486.18149221633439 0 0 0 0 -326.77785190549548 153.23747292231934 0 153.23747292231934 -72.099201413484153 0 0 0 0 264.09233465045691 -777.80692087740704 0 -777.80692087740704 -361.28461727142741 0 0 0 0 159.92075065828976 -54.879392173027895 0 -54.879392173027895 0.22220224465473565 0 0 0 0 709.56152556437883 495.81662445895341 0 495.81662445895341 381.19287745285169 0 0 0 0 -297.65293135249522 -1024.980930919035 0 -1024.980930919035 1292.163248656155 0 0 0 0 436.35043888466316 615.95807006143673 0 615.95807006143673 390.87016701839093 0 0 0 0 23.242015460536606 -2.317876698459699 0 -2.317876698459699 -3.0521071848143362 0 0 0 0 180.95319163918612 30.339873609162169 0 30.339873609162169 14.681438360245011 0 0 0 0 381.28968816736597 233.85499600337607 0 233.85499600337607 -7.6093714467087921 0 0 0 0 199.24479261858505 112.79675713576671 0 112.79675713576671 201.10032363696564 0 0 0 0 396.49876405761461 119.98603875389426 0 119.98603875389426 -80.740487706731528 0 0 0 0 407.32120413106168 37.415249001497159 0 37.415249001497159 -179.11114999899655 0 0 0 0 808.7667733404669 461.11908971721925 0 461.11908971721925 -364.3868769722485 0 0 0 0 758.25796975084813 193.4414337702085 0 193.4414337702085 -589.6347236388583 0 0 0 0 302.54079911418376 -234.01065031913095 0 -234.01065031913095 -556.73193221024007 0 0 0 0 129.78978810328408 -2.7902376547854146 0 -2.7902376547854146 -33.928153865440436 0 0 0 0 130.33901892098947 0.50761506297567394 0 0.50761506297567394 -82.652910282136872 0 0 0 0 249.89033932173697 60.02426214834054 0 60.02426214834054 -53.324858556348772 0 0 0 0 117.09455275547225 52.239296445815853 0 52.239296445815853 9.0269810859003883 0 0 0 0 43.614051174925407 -20.505150430246431 0 -20.505150430246431 -22.170794723391737 0 0 0 0 293.10008089971961 188.75715146932271 0 188.75715146932271 -76.781984858876513 0 0 0 0 271.89872248203028 133.12826529052109 0 133.12826529052109 -218.33155787065698 0 0 0 0 312.82605633707135 141.99375294515448 0 141.99375294515448 -95.73015366134041 0 0 0 0 265.67266076655869 150.33597821866852 0 150.33597821866852 -94.690854362472237 0 0 0 0 292.78595604930888 213.19637841053373 0 213.19637841053373 -39.312305158366144 0 0 0 0 264.55759085441241 153.04593945860142 0 153.04593945860142 -56.432488131467835 0 0 0 0 -249.82715960312635 240.91277682479995 0 240.91277682479995 37.547255900451546 0 0 0 0 4.206728489359989 3.589901422866431 0 3.589901422866431 -0.51688709437188596 0 0 0 0 533.05812468304066 220.16756899486063 0 220.16756899486063 -68.551750429628555 0 0 0 0 24.65233854458188 16.528533177229399 0 16.528533177229399 6.2352181974915721 0 0 0 0 188.76057216129266 273.04448410042551 0 273.04448410042551 234.32013897532852 0 0 0 0 395.96230879132054 267.5608771320276 0 267.5608771320276 -3.8644344507747519 0 0 0 0 105.37064236140577 130.77034932134575 0 130.77034932134575 114.05255126513839 0 0 0 0 57.732114946935326 -10.482328628438154 0 -10.482328628438154 -44.661522757083731 0 0 0 0 11.305057776362901 1.4193979820151856 0 1.4193979820151856 -6.7213007081270479 0 0 0 0 24.289042845077347 -5.0849157613083662 0 -5.0849157613083662 -2.8067908996342794 0 0 0 0 43.390340762844119 19.621027400942459 0 19.621027400942459 2.6317896627398838 0 0 0 0 50.88439146579185 34.484916704135685 0 34.484916704135685 -23.131803349587244 0 0 0 0 131.27479828122887 -121.01275471417102 0 -121.01275471417102 -223.52947143103665 0 0 0 0 57.274228890398263 23.136326379143071 0 23.136326379143071 -9.5650828887783064 0 0 0 0 40.428723715733213 30.676684150550045 0 30.676684150550045 -12.722428690463403 0 0 0 0 47.778768679825589 0.66274144176486516 0 0.66274144176486516 -5.4927619402633354 0 0 0 0 30.391271401880658 16.03829946417909 0 16.03829946417909 -19.077665517431569 0 0 0 0 417.65393353086256 -104.15086048403873 0 -104.15086048403873 -567.23517020421014 0 0 0 0 12.18305130790435 12.797766738079844 0 12.797766738079844 -4.1400233593055979 0 0 0 0 762.16130284065002 -136.25784796998164 0 -136.25784796998164 -302.04551031404117 0 0 0 0 515.20874334369728 -394.96596657651389 0 -394.96596657651389 297.7296438028618 0 0 0 0 578.12436066626105 -255.68480759106865 0 -255.68480759106865 -379.53858548083281 0 0 0 0 467.55433009238914 -748.43297714720438 0 -748.43297714720438 -217.67203400807875 0 0 0 0 -121.02751434472157 -294.47686579140486 0 -294.47686579140486 -349.67011077758804 0 0 0 0 1053.5016285068123 -848.21476559864868 0 -848.21476559864868 -824.53989646594175 0 0 0 0 240.40476141907857 38.638416028125505 0 38.638416028125505 1672.4919641551896 0 0 0 0 6.7525691705778286 14.504610029043079 0 14.504610029043079 6.1542644955382695 0 0 0 0 1039.5015599140315 427.84490709550835 0 427.84490709550835 -158.16758230295272 0 0 0 0 470.70414707918098 650.4320268351911 0 650.4320268351911 762.94789267952456 0 0 0 0 197.41402352915611 176.08133475225623 0 176.08133475225623 192.34950334646908 0 0 0 0 12.186213332575505 -2.2559601794781585 0 -2.2559601794781585 0.57632232965956698 0 0 0 0 568.70389084945054 146.09702671177581 0 146.09702671177581 -55.334191172135888 0 0 0 0 318.53513002349064 279.8097783846631 0 279.8097783846631 150.80022731900146 0 0 0 0 383.64260768904205 -91.014155258805204 0 -91.014155258805204 -226.09559207367965 0 0 0 0 192.12477612448856 -58.971848975260741 0 -58.971848975260741 -10.674654320666832 0 0 0 0 106.2568427780534 74.851629301201086 0 74.851629301201086 37.636530697880517 0 0 0 0 4.1910800577341547 13.325920020257769 0 13.325920020257769 4.3199083381374059 0 0 0 0 41.296911544137402 35.395410452250417 0 35.395410452250417 17.766944881961535 0 0 0 0 0.68362261617892273 0.7010577895865282 0 0.7010577895865282 -0.7147271746806676 0 0 0 0 125.36041941161966 -20.696948072701161 0 -20.696948072701161 -3.269471249219805 0 0 0 0 80.230453970623785 -5.8116428568534957 0 -5.8116428568534957 -7.163085355954081 0 0 0 0 137.85706382837088 44.425767366682294 0 44.425767366682294 -3.9406086866556507 0 0 0 0 42.134608932043193 67.064052067857119 0 67.064052067857119 65.374222485358814 0 0 0 0 9.002143982808775 4.7029946483443155 0 4.7029946483443155 10.678562666685139 0 0 0 0 78.358617016216158 -40.199347357003717 0 -40.199347357003717 17.548468030789877 0 0 0 0 194.42192780282494 -14.861094038296415 0 -14.861094038296415 -12.046625414763184 0 0 0 0 152.04831212019781 28.618672676326923 0 28.618672676326923 -12.110119556421921 0 0 0 0 27.704294950516442 12.921471711069671 0 12.921471711069671 -4.7972740146891528 0 0 0 0 59.801491548427293 21.635547338528099 0 21.635547338528099 14.248240423199036 0 0 0 0 31.038252953222667 -3.1368780381929469 0 -3.1368780381929469 -9.5078526025024104 0 0 0 0 107.04079414503212 17.115639562010301 0 17.115639562010301 -14.535238839906924 0 0 0 0 13.60816195374818 -4.2466794167267494 0 -4.2466794167267494 -12.097517795558632 0 0 0 0 281.55439760888112 -19.768572091751594 0 -19.768572091751594 2.0159328656814068 0 0 0 0 250.56641730478805 51.483165659875851 0 51.483165659875851 -27.664778657313036 0 0 0 0 267.7342011892033 79.275811530756073 0 79.275811530756073 8.4885006111167058 0 0 0 0 158.09325599647127 51.654997079543136 0 51.654997079543136 29.6722594195287 0 0 0 0 193.65319568200357 89.319540982371564 0 89.319540982371564 56.118786303945853 0 0 0 0 207.02465288435633 -11.180419273533516 0 -11.180419273533516 -13.579283608570222 0 0 0 0 188.04634855185577 -14.711518771955525 0 -14.711518771955525 3.1916967557804128 0 0 0 0 184.02851165985885 -4.1774679209665351 0 -4.1774679209665351 -15.53156137006863 0 0 0 0 144.45662013502442 -16.399754449485954 0 -16.399754449485954 -17.866002215829667 0 0 0 0 158.28103445022498 13.402269804755292 0 13.402269804755292 -69.736572634162258 0 0 0 0 22.947768311831169 30.846776291508831 0 30.846776291508831 -33.211628059132636 0 0 0 0 122.82667166434476 0.51542817281256248 0 0.51542817281256248 -67.57253827358727 0 0 0 0 187.1194927803881 -24.233705225873109 0 -24.233705225873109 -41.548478364932635 0 0 0 0 127.07033453675103 17.115095168267544 0 17.115095168267544 -4.7834644084696265 0 0 0 0 295.14147022453471 34.74436953155714 0 34.74436953155714 13.051386721053859 0 0 0 0 290.83161412550544 133.62533321757996 0 133.62533321757996 0.24602861996572756 0 0 0 0 189.00818440890725 -25.704870731451251 0 -25.704870731451251 -22.703261214928716 0 0 0 0 192.5789905634083 -14.39240944157018 0 -14.39240944157018 -29.552428905215493 0 0 0 0 85.360826453042066 -53.73719879297505 0 -53.73719879297505 -37.00699119755857 0 0 0 0 106.4378979341418 74.825042404565465 0 74.825042404565465 8.016244865500326 0 0 0 0 81.336891947037657 85.100478387077487 0 85.100478387077487 44.87438655304959 0 0 0 0 50.571700811973827 78.314676715950469 0 78.314676715950469 22.216887965095172 0 0 0 0 106.47414369828039 69.197271328870329 0 69.197271328870329 27.917816994145369 0 0 0 0 165.63626501808176 73.599211651976248 0 73.599211651976248 7.1475151628644653 0 0 0 0 -23.694237008472555 170.38596776576333 0 170.38596776576333 -9.464949302656521 0 0 0 0 152.5532733280852 75.217871823874702 0 75.217871823874702 23.508963506012037 0 0 0 0 0.54420505682308118 0.81285690957221846 0 0.81285690957221846 -1.4751429841916028 0 0 0 0 386.10131246392484 57.510700423428034 0 57.510700423428034 95.618524869489192 0 0 0 0 373.38006393457181 99.267680295788068 0 99.267680295788068 -72.769368975907128 0 0 0 0 416.66853090185032 33.310224044657843 0 33.310224044657843 -29.908552194252479 0 0 0 0 476.5820420984528 -40.193315841597723 0 -40.193315841597723 151.35077408168809 0 0 0 0 349.35430340106541 58.483593172531073 0 58.483593172531073 130.82174184461655 0 0 0 0 795.16448104551 56.39137856880609 0 56.39137856880609 92.063110403014434 0 0 0 0 455.46004446351435 77.886248692677327 0 77.886248692677327 111.50021912824832 0 0 0 0 394.77526429769568 70.108065442014777 0 70.108065442014777 110.98632492784782 0 0 0 0 453.43335247629602 19.392195250053319 0 19.392195250053319 -21.628900192336005 0 0 0 0 411.16046723829641 -69.171159880954292 0 -69.171159880954292 -76.907416412243947 0 0 0 0 396.6331339784374 30.072653528798583 0 30.072653528798583 32.603258480562999 0 0 0 0 453.98780737617926 50.770196215918077 0 50.770196215918077 -30.033438128386479 0 0 0 0 528.3103642827773 20.863362537596913 0 20.863362537596913 27.240570620682774 0 0 0 0 43.256507596368408 78.593227993919683 0 78.593227993919683 29.600928688019813 0 0 0 0 -19.181040694562398 150.51970252702324 0 150.51970252702324 60.938164477220198 0 0 0 0 -201.75511566677596 28.59455613418686 0 28.59455613418686 7.28086129300209 0 0 0 0 5.7182106959670023 26.159760026791886 0 26.159760026791886 0.39436554176055916 0 0 0 0 33.195316938516584 2.5007096979748695 0 2.5007096979748695 -11.944055339114609 0 0 0 0 0.7422860620436964 0.32363650650687248 0 0.32363650650687248 -3.2093709922873153 0 0 0 0 -34.800679552514339 88.281421157389559 0 88.281421157389559 -12.021885252834181 0 0 0 0 239.0670842255895 271.76569365868477 0 271.76569365868477 -665.63931890204731 0 0 0 0 386.78423241931159 -123.91403720352673 0 -123.91403720352673 -219.97873013509843 0 0 0 0 251.63804056558001 -77.752255651359519 0 -77.752255651359519 -17.895634721846363 0 0 0 0 198.75829370585052 -17.943930830074351 0 -17.943930830074351 -2.1224781044729752 0 0 0 0 330.06989284825977 10.903035679596087 0 10.903035679596087 -39.231021060466446 0 0 0 0 330.83414442517096 9.0887505759224041 0 9.0887505759224041 -34.943958826814196 0 0 0 0 264.27759834515746 -12.268798895837335 0 -12.268798895837335 -34.545134259645437 0 0 0 0 261.55101908755751 -6.0556683932295527 0 -6.0556683932295527 -44.796428221567112 0 0 0 0 290.02939110867374 29.899958951860754 0 29.899958951860754 -29.282186772250498 0 0 0 0 207.10085570612864 -20.486103292118059 0 -20.486103292118059 -34.244446288773361 0 0 0 0 -62.170374848523352 -475.90700359801963 0 -475.90700359801963 44.511854482962008 0 0 0 0 29.524739192025109 -11.376206525613441 0 -11.376206525613441 6.4096455961745029 0 0 0 0 174.26233788583704 -23.488168591578869 0 -23.488168591578869 18.58176893359996 0 0 0 0 49.407234865970054 -25.930671075663184 0 -25.930671075663184 2.6557010738395093 0 0 0 0 210.97878672655497 30.411788638499274 0 30.411788638499274 5.0004354349066489 0 0 0 0 289.29115632857429 3.8009774489614756 0 3.8009774489614756 -51.221685769548913 0 0 0 0 289.70365555637545 9.2479726767123793 0 9.2479726767123793 -18.732604396502211 0 0 0 0 26.231340298833516 -21.677657363660572 0 -21.677657363660572 -0.75155427808284259 0 0 0 0 292.92694309743547 86.631524911405904 0 86.631524911405904 41.221917127541019 0 0 0 0 317.09440057590837 98.426694865855097 0 98.426694865855097 27.158321229198009 0 0 0 0 294.14301014342345 28.632319906279463 0 28.632319906279463 -30.712809449057204 0 0 0 0 365.1056340442301 85.606386251252843 0 85.606386251252843 15.021739751507994 0 0 0 0 119.8660884791534 15.519539134133765 0 15.519539134133765 28.106939183018767 0 0 0 0 96.241777816543618 -20.648111605790405 0 -20.648111605790405 23.134488987083387 0 0 0 0 29.592527378677005 -8.7958430763425639 0 -8.7958430763425639 1.9192644770556875 0 0 0 0 52.730819400050677 1.2304630547687339 0 1.2304630547687339 1.5791035165348148 0 0 0 0 317.62056826564367 88.641263354295916 0 88.641263354295916 29.46527904542836 0 0 0 0 377.94262103669462 165.02617969979451 0 165.02617969979451 96.461119666728337 0 0 0 0 35.127880490077132 -54.889412486504924 0 -54.889412486504924 -24.347081949362455 0 0 0 0 823.85817505056912 362.02975568487 0 362.02975568487 132.56502879574691 0 0 0 0 -61.251399017754011 -55.190455466890853 0 -55.190455466890853 -32.948231978034528 0 0 0 0 -10.517680157237152 -4.4002310955090138 0 -4.4002310955090138 1.1541979806942919 0 0 0 0 569.75943992823886 274.46827096709865 0 274.46827096709865 158.90260304744152 0 0 0 0 314.31332556935013 -62.729274727068855 0 -62.729274727068855 -11.893929637742986 0 0 0 0 147.44991368311457 54.654622867030866 0 54.654622867030866 -36.152891076246306 0 0 0 0 62.98285840325417 -54.226995673378255 0 -54.226995673378255 -41.398136675134239 0 0 0 0 505.2003934756649 -105.97015209173333 0 -105.97015209173333 -96.591039659955641 0 0 0 0 53.845149361650044 24.889204477251312 0 24.889204477251312 11.709306671713561 0 0 0 0 144.57922719111957 43.992309522812775 0 43.992309522812775 -73.316363961467687 0 0 0 0 143.00155236427963 -17.477534506720986 0 -17.477534506720986 11.474181817937392 0 0 0 0 172.40145079817739 -18.598117406041865 0 -18.598117406041865 22.625067192691638 0 0 0 0 223.60902193330548 9.9427326736276882 0 9.9427326736276882 -18.07362468924839 0 0 0 0 75.311314075720475 64.026868647056602 0 64.026868647056602 17.931353042438442 0 0 0 0 165.63812272798168 27.692616206759396 0 27.692616206759396 -12.444048481254413 0 0 0 0 152.18523064297915 -1.6959896789840059 0 -1.6959896789840059 9.1958584436085857 0 0 0 0 147.26983160997952 3.8926957517740561 0 3.8926957517740561 11.69213039520946 0 0 0 0 167.33357476400124 18.230546005724818 0 18.230546005724818 26.608573194151177 0 0 0 0 156.58100655631279 -17.135404032406768 0 -17.135404032406768 36.863804309502484 0 0 0 0 85.513874395568564 96.546513009790033 0 96.546513009790033 19.176759453857812 0 0 0 0 72.771651612787537 46.243473165194928 0 46.243473165194928 55.30182196059468 0 0 0 0 85.042019755404908 39.552911795011823 0 39.552911795011823 10.726751699401575 0 0 0 0 50.733121742086951 84.283498060934107 0 84.283498060934107 17.926592782383523 0 0 0 0 67.184834690822754 22.325776263933221 0 22.325776263933221 18.015275103483873 0 0 0 0 155.70059731497895 -4.5747759064433922 0 -4.5747759064433922 14.175562633495247 0 0 0 0 74.577048730865442 50.780500926443125 0 50.780500926443125 2.1794101509608588 0 0 0 0 146.87044063232315 80.843215324553967 0 80.843215324553967 103.87052688474165 0 0 0 0 148.6143771642819 31.307460408785118 0 31.307460408785118 20.173993044653798 0 0 0 0 243.72279156245349 62.58725820273412 0 62.58725820273412 -20.005695815911167 0 0 0 0 235.92758511183638 207.18092757249906 0 207.18092757249906 89.116878621770979 0 0 0 0 2.0872344760572901 -0.22324777418280917 0 -0.22324777418280917 -1.4990129013230167 0 0 0 0 21.663802282193501 -79.856820917801087 0 -79.856820917801087 -41.54499702463545 0 0 0 0 161.20020946182194 39.212269828242825 0 39.212269828242825 -60.120881353445498 0 0 0 0 128.53027003449097 16.237141606353362 0 16.237141606353362 50.222934029543467 0 0 0 0 140.21898400175269 40.51022844940735 0 40.51022844940735 14.914175252619316 0 0 0 0 164.90529780901852 63.057329681980264 0 63.057329681980264 19.585622256498255 0 0 0 0 102.55843347588598 180.69122140753248 0 180.69122140753248 -100.35924403703484 0 0 0 0 85.723492121798401 76.733331968835316 0 76.733331968835316 29.05518229152063 0 0 0 0 157.28984072535877 100.33156008921071 0 100.33156008921071 57.427267978811869 0 0 0 0 63.912929549980618 -1.1696105751075834 0 -1.1696105751075834 2.8691934963714871 0 0 0 0 70.425370769212122 -3.5028765140718576 0 -3.5028765140718576 -26.912416272863236 0 0 0 0 -171.53113519618637 633.19489780993536 0 633.19489780993536 -116.02742624107236 0 0 0 0 55.123477260736848 34.171201671445374 0 34.171201671445374 4.0494238103730487 0 0 0 0 57.009288436936913 30.754785192530605 0 30.754785192530605 9.20560397138442 0 0 0 0 584.15585270115116 676.34057688226358 0 676.34057688226358 -256.88758296957121 0 0 0 0 748.61180672365663 -819.86216836108156 0 -819.86216836108156 389.42209450081282 0 0 0 0 1150.4744748923622 -220.81501248378606 0 -220.81501248378606 -124.4183018024587 0 0 0 0 -107.78625785338227 299.21175133573684 0 299.21175133573684 -69.264226883137553 0 0 0 0 513.89909801550675 -356.00746383087949 0 -356.00746383087949 -232.72738582799502 0 0 0 0 459.86825658738962 48.799321292958211 0 48.799321292958211 -414.89522027056455 0 0 0 0 -187.32534398857388 112.22339965702304 0 112.22339965702304 -122.52750017791899 0 0 0 0 -83.116341543165618 109.17864810894594 0 109.17864810894594 -865.26203580948368 0 0 0 0 38.817770105260308 15.165742331119247 0 15.165742331119247 -9.8168333318467162 0 0 0 0 298.8311576417982 -41.968713281052032 0 -41.968713281052032 105.47168568411689 0 0 0 0 233.235403093684 -264.74874063672155 0 -264.74874063672155 404.62127248813704 0 0 0 0 26.626559179399294 17.358353226173378 0 17.358353226173378 10.499997958650141 0 0 0 0 387.8805224031239 -141.76511567886473 0 -141.76511567886473 23.025855340461291 0 0 0 0 38.278848897854914 127.89408392375344 0 127.89408392375344 -141.06112879728425 0 0 0 0 53.303452727297554 23.760703310732879 0 23.760703310732879 37.804298444334108 0 0 0 0 67.660030744387768 -2.055064831171876 0 -2.055064831171876 -92.328616574860575 0 0 0 0 -79.062351281296287 107.08641616308432 0 107.08641616308432 147.6589954806168 0 0 0 0 10.743130102542096 4.9301222386299202 0 4.9301222386299202 2.4688191910584152 0 0 0 0 18.767110430155299 279.11669527242884 0 279.11669527242884 194.77522397728353 0 0 0 0 289.37414553658164 278.91719026325563 0 278.91719026325563 147.83397401563599 0 0 0 0 151.20912958917461 189.56107489187659 0 189.56107489187659 106.24208757787528 0 0 0 0 154.34134210579214 113.45109493942959 0 113.45109493942959 45.399908305705594 0 0 0 0 255.84947986744191 166.73396501110508 0 166.73396501110508 73.341681478333157 0 0 0 0 209.16089026955888 186.77200468240517 0 186.77200468240517 71.828456533418489 0 0 0 0 306.90233293983329 164.52804647212724 0 164.52804647212724 39.771494006836065 0 0 0 0 227.24334911249025 213.76397058919463 0 213.76397058919463 93.687103376468258 0 0 0 0 -0.54906298648933216 0.85824602547654649 0 0.85824602547654649 1.1283457233614236 0 0 0 0 243.71822178304683 -71.348352018503022 0 -71.348352018503022 16.142376558583237 0 0 0 0 -22.040901823565946 241.62177647129488 0 241.62177647129488 -46.560548363631369 0 0 0 0 -1.7907772822582047 -138.07775467345732 0 -138.07775467345732 148.82881493514242 0 0 0 0 223.59282002030523 -120.68085141249321 0 -120.68085141249321 -109.86836271907612 0 0 0 0 -302.25363581470447 109.99132253312735 0 109.99132253312735 104.10581425861528 0 0 0 0 27.332350004144246 -351.7044797614858 0 -351.7044797614858 698.36657203833306 0 0 0 0 824.16276195648243 409.50656396097884 0 409.50656396097884 52.430559907939596 0 0 0 0 289.59534115161398 183.41868832944849 0 183.41868832944849 -35.861529322647584 0 0 0 0 98.943213728707633 -3.5799452071621545 0 -3.5799452071621545 16.534017815357942 0 0 0 0 38.302087397757703 34.524487887890302 0 34.524487887890302 9.6852751168402023 0 0 0 0 -58.364340493186319 22.189170379467214 0 22.189170379467214 18.484842457353807 0 0 0 0 -49.499983533351042 -55.376832930668343 0 -55.376832930668343 29.467867103443496 0 0 0 0 43.948821397735571 29.448189575408719 0 29.448189575408719 4.1614587791838371 0 0 0 0 130.08372645335658 21.379788234940776 0 21.379788234940776 9.9315191287312246 0 0 0 0 20.481916215300416 -12.738794842937267 0 -12.738794842937267 1.4925633939858276 0 0 0 0 8.1167941679432261 81.302733999232913 0 81.302733999232913 -85.435670479515011 0 0 0 0 27.974725219748507 293.84349462181217 0 293.84349462181217 431.28163927699023 0 0 0 0 971.15904565269739 -969.46687477792534 0 -969.46687477792534 222.7975222409259 0 0 0 0 1966.813718877238 2518.1397005394801 0 2518.1397005394801 2315.7620944422124 0 0 0 0 30.253909759588566 -1.252988721889011 0 -1.252988721889011 0.72881623058400757 0 0 0 0 1618.273468889005 -106.82201482827736 0 -106.82201482827736 51.27595812329011 0 0 0 0 443.23848524285859 -462.5205048536086 0 -462.5205048536086 168.98434057575153 0 0 0 0 5.0921901158930183 -15.624905740302864 0 -15.624905740302864 7.3508278469571948 0 0 0 0 1318.9560431556893 229.48366399974259 0 229.48366399974259 23.251997398426738 0 0 0 0 1593.7144777231733 -71.025626789557919 0 -71.025626789557919 -264.95102338413778 0 0 0 0 590.24450318251911 -98.171348604181276 0 -98.171348604181276 -38.029324572677638 0 0 0 0 7.1756905701865819 -15.851668317236843 0 -15.851668317236843 7.4760600764823044 0 0 0 0 167.03943565214286 25.700791838895832 0 25.700791838895832 5.2235627954550203 0 0 0 0 97.916388640725927 20.113392554316732 0 20.113392554316732 27.933549887865183 0 0 0 0 160.01539964134645 29.862236775974679 0 29.862236775974679 5.3418025272669638 0 0 0 0 95.41612523594813 10.495727065894158 0 10.495727065894158 7.8149341413914044 0 0 0 0 69.261920516677492 38.244156176749868 0 38.244156176749868 18.162587856696064 0 0 0 0 98.960172638777294 23.440297718600618 0 23.440297718600618 -6.8609560708408139 0 0 0 0 104.05205922722962 10.295854226016099 0 10.295854226016099 26.660372525099774 0 0 0 0 110.674184991316 35.46597423772522 0 35.46597423772522 -24.300777938932129 0 0 0 0 64.500509169476572 -24.925819270077795 0 -24.925819270077795 0.75309113533418071 0 0 0 0 152.14914908020364 115.40803774330971 0 115.40803774330971 21.301683823561689 0 0 0 0 58.079753139902351 -18.326516667751562 0 -18.326516667751562 -27.873856034182836 0 0 0 0 146.16441000808845 19.064537124008893 0 19.064537124008893 23.195978518375668 0 0 0 0 101.58371290781361 -41.697646280687934 0 -41.697646280687934 -12.480944636043091 0 0 0 0 65.219583626152684 -21.45121689921865 0 -21.45121689921865 -24.004460011677757 0 0 0 0 153.81371769893849 48.307240000678007 0 48.307240000678007 -15.360741305794363 0 0 0 0 164.49359199217724 47.265955968060553 0 47.265955968060553 -15.36685457191814 0 0 0 0 132.54296564781544 18.362723802598794 0 18.362723802598794 -16.294138900333678 0 0 0 0 93.611876576502254 66.896574184765996 0 66.896574184765996 -19.285615887666609 0 0 0 0 952.90548169967951 374.89744448932504 0 374.89744448932504 58.797716804405354 0 0 0 0 164.59848216723185 -1.5955840813431905 0 -1.5955840813431905 7.3800521691240135 0 0 0 0 152.08298387180548 85.944047011868861 0 85.944047011868861 4.5781373947173698 0 0 0 0 82.007466159790056 13.018277741775819 0 13.018277741775819 21.370262570457498 0 0 0 0 241.24789895121648 52.802615955233648 0 52.802615955233648 -37.243913501269162 0 0 0 0 193.46413869276876 -17.377781959792514 0 -17.377781959792514 -11.158032892568826 0 0 0 0 323.27554037158006 257.78255794443658 0 257.78255794443658 236.21209214815798 0 0 0 0 16.235283424938537 -9.6722978620807964 0 -9.6722978620807964 -2.3501353219610612 0 0 0 0 1371.4873532143247 410.14926824755878 0 410.14926824755878 -48.19961219464011 0 0 0 0 1035.46227429383 468.7769865533898 0 468.7769865533898 18.670750386818327 0 0 0 0 5.74324332128473 -15.047729514268426 0 -15.047729514268426 3.4724572076260523 0 0 0 0 569.53859435920822 107.99777982397487 0 107.99777982397487 96.808513743329058 0 0 0 0 202.07425331074774 30.522597603426536 0 30.522597603426536 -5.807948669801732 0 0 0 0 121.73426170548191 8.3735779902425236 0 8.3735779902425236 39.497518988570732 0 0 0 0 1288.1879923001677 391.32423352175078 0 391.32423352175078 -17.790078715545405 0 0 0 0 1294.9159216372354 204.3621710398337 0 204.3621710398337 -168.23976674791652 0 0 0 0 1752.5755276153941 426.36461424839081 0 426.36461424839081 -186.1650622357796 0 0 0 0 1745.4010131617397 462.52486153959273 0 462.52486153959273 -197.09019146763205 0 0 0 0 2469.7560897061176 840.1181108350886 0 840.1181108350886 -126.48094710540067 0 0 0 0 2474.5889405943108 822.12304467681702 0 822.12304467681702 -284.81178462119271 0 0 0 0 1394.7981430004875 615.737831460807 0 615.737831460807 -14.786829379512696 0 0 0 0 2215.7074588145842 949.54699562935934 0 949.54699562935934 0.91469434978550268 0 0 0 0 2227.0184434721086 1060.0990919676128 0 1060.0990919676128 19.640562894298796 0 0 0 0 2239.9511030004287 1124.517967729314 0 1124.517967729314 371.98184897750292 0 0 0 0 1789.5732713962279 1450.6489277443279 0 1450.6489277443279 1042.2106432671592 0 0 0 0 390.30640097655123 -125.39092752314787 0 -125.39092752314787 113.29594354054689 0 0 0 0 1132.4554672284357 606.08389351692131 0 606.08389351692131 308.37560571874678 0 0 0 0 997.39021839166526 765.62391041143917 0 765.62391041143917 460.52241082318835 0 0 0 0 3846.4199260953465 1665.1187723591866 0 1665.1187723591866 191.43565232998594 0 0 0 0 3316.2254936878016 1542.0029031120075 0 1542.0029031120075 278.94271150938846 0 0 0 0 3229.3862852040766 1797.8796474213996 0 1797.8796474213996 819.069598743082 0 0 0 0 3051.8513696816517 1387.3610210114052 0 1387.3610210114052 108.03509025758679 0 0 0 0 3048.2972939799915 1303.4863170284743 0 1303.4863170284743 51.025544494185056 0 0 0 0 4499.1440839370989 1513.9657588556172 0 1513.9657588556172 -387.49495868190348 0 0 0 0 4019.4684028679549 1198.8138423971204 0 1198.8138423971204 -482.89911240375005 0 0 0 0 4500.7379718447482 805.94128515832278 0 805.94128515832278 -737.33860604630479 0 0 0 0 3392.153440244947 1050.9089289709543 0 1050.9089289709543 -506.08333886984116 0 0 0 0 3387.4244116947812 955.85804102833254 0 955.85804102833254 -323.18429704363746 0 0 0 0 3252.4205743024941 749.04294806485268 0 749.04294806485268 -434.15859085907721 0 0 0 0 3310.48139193522 611.39623959214862 0 611.39623959214862 -693.50527721222602 0 0 0 0 3293.9698371000559 555.88459579788264 0 555.88459579788264 -652.433039643239 0 0 0 0 4493.3348181991005 -219.6551323920109 0 -219.6551323920109 -668.52056448042856 0 0 0 0 4500.5002255378331 1165.1041835839087 0 1165.1041835839087 282.71984533579445 0 0 0 0 8.4489725982792834 -3.7339655419837356 0 -3.7339655419837356 -1.1251328613198206 0 0 0 0 1293.8887828472652 -121.61733182525239 0 -121.61733182525239 -51.894721835872872 0 0 0 0 2351.4511754261766 -208.78771460930835 0 -208.78771460930835 -612.07369451101613 0 0 0 0 2684.1808558149933 564.16317348368909 0 564.16317348368909 -362.7649873681957 0 0 0 0 2506.381539984548 401.81095661197423 0 401.81095661197423 -70.672201614628165 0 0 0 0 2408.4546158312005 213.00809749677086 0 213.00809749677086 -414.72250081141868 0 0 0 0 2753.6807286236872 503.81231436536211 0 503.81231436536211 -405.34687507852345 0 0 0 0 3040.1882597085532 433.26094031296702 0 433.26094031296702 -340.48547845507773 0 0 0 0 2544.7545434473432 660.10280041438659 0 660.10280041438659 -367.43097406052925 0 0 0 0 1928.7531969396732 211.55676883478765 0 211.55676883478765 -284.29630726078835 0 0 0 0 2550.748513792234 630.854497468928 0 630.854497468928 -301.65684152740403 0 0 0 0 1826.4874120804234 389.82744631761938 0 389.82744631761938 -198.46561557816858 0 0 0 0 2990.902397711121 189.52289262307812 0 189.52289262307812 -311.17713445449527 0 0 0 0 2705.0184933949931 646.03755003725712 0 646.03755003725712 -283.31522438557352 0 0 0 0 2646.1941056130599 652.54319053439667 0 652.54319053439667 19.406581240004982 0 0 0 0 2547.4920107920952 391.55520566394432 0 391.55520566394432 348.42560491530224 0 0 0 0 2347.7029429092654 468.07105017132943 0 468.07105017132943 415.27980798700798 0 0 0 0 4405.7438610883546 136.05113895695808 0 136.05113895695808 -243.68441655034519 0 0 0 0 1905.2917438668228 -443.7839422828331 0 -443.7839422828331 2133.22115968153 0 0 0 0 2532.7293728966688 1052.7144319748211 0 1052.7144319748211 2132.5719280636431 0 0 0 0 2395.0252057970793 51.767562726627148 0 51.767562726627148 1163.69799384874 0 0 0 0 1979.2813699598701 -519.76195904864096 0 -519.76195904864096 933.60938737069227 0 0 0 0 2415.6409971026296 140.66213395550324 0 140.66213395550324 451.68921134425636 0 0 0 0 2534.2186050040182 147.04972582709559 0 147.04972582709559 259.77229008749009 0 0 0 0 2473.2239805308454 226.2178375163937 0 226.2178375163937 138.16063038758125 0 0 0 0 4497.8882067128361 688.57351474193842 0 688.57351474193842 -570.25349861365487 0 0 0 0 12.170235185286401 -9.6680732209527775 0 -9.6680732209527775 -3.3951833787255126 0 0 0 0 2442.2142585944675 120.10958099303821 0 120.10958099303821 311.66289901848904 0 0 0 0 4036.2122857044596 894.76226770661867 0 894.76226770661867 171.08151968664515 0 0 0 0 2440.1593586001982 389.87618831040169 0 389.87618831040169 -145.67146690031541 0 0 0 0 1971.3827648320148 523.66767092315092 0 523.66767092315092 -74.882690389307868 0 0 0 0 2590.3182448039806 428.04512638506662 0 428.04512638506662 -62.51807211694495 0 0 0 0 2380.759272235955 185.74147210341278 0 185.74147210341278 306.94260987006305 0 0 0 0 2345.3951596282568 337.84824692869984 0 337.84824692869984 145.08412555664194 0 0 0 0 1432.9860523505085 81.818796886176784 0 81.818796886176784 -176.64724871181275 0 0 0 0 1443.0009337323863 178.29069887805761 0 178.29069887805761 -375.71586938151489 0 0 0 0 4489.1149890694978 -1037.1899596473224 0 -1037.1899596473224 -382.44983152642573 0 0 0 0 2688.7165310764321 280.85096919748753 0 280.85096919748753 -367.36960837351643 0 0 0 0 330.86325777513412 -150.64316158967222 0 -150.64316158967222 -23.696972710972943 0 0 0 0 -182.20745664920469 -174.96459253441014 0 -174.96459253441014 172.22941339459146 0 0 0 0 95.493245144345565 -220.21711824743568 0 -220.21711824743568 21.967619744861736 0 0 0 0 135.17944746975991 74.35146242131168 0 74.35146242131168 284.64205465732533 0 0 0 0 4.5692773049418811 10.403801532648679 0 10.403801532648679 -7.1689409795479122 0 0 0 0 -5.2402189747202002 10.671249854065536 0 10.671249854065536 -7.2010262197243868 0 0 0 0 -188.00519587284725 134.00971912931752 0 134.00971912931752 -83.7708714383283 0 0 0 0 -81.68373542111658 3.1297843697585108 0 3.1297843697585108 74.240416221682608 0 0 0 0 518.86555019256048 -380.19536532931147 0 -380.19536532931147 -1.2276344955498075 0 0 0 0 -219.59688128749258 169.4152235582028 0 169.4152235582028 179.59078406329368 0 0 0 0 317.50928442423537 340.91597325507246 0 340.91597325507246 85.593307129828304 0 0 0 0 -87.342540292753256 241.95782687839335 0 241.95782687839335 292.81043409660066 0 0 0 0 3.8207305761907548 3.0605348058465935 0 3.0605348058465935 -3.7837018900148935 0 0 0 0 -178.61803116893861 -58.001466719620254 0 -58.001466719620254 33.984255789801296 0 0 0 0 3.3368686639569205 65.17888111660028 0 65.17888111660028 -25.107803936758046 0 0 0 0 -6.9054192951750153 15.573089659447859 0 15.573089659447859 -12.715897683629287 0 0 0 0 34.194752392701048 109.82041006298141 0 109.82041006298141 37.939802081287766 0 0 0 0 24.113730784556537 143.36287492921713 0 143.36287492921713 -17.890031960943361 0 0 0 0 289.19375910649978 153.12229435456356 0 153.12229435456356 -71.635536323598217 0 0 0 0 184.67307667728892 -118.92862269920215 0 -118.92862269920215 -264.8696048710417 0 0 0 0 628.00545832239004 46.449101207115405 0 46.449101207115405 -204.51732493981081 0 0 0 0 -81.976439568748901 -622.58188328036908 0 -622.58188328036908 366.09443612159282 0 0 0 0 4495.9520844239669 846.04016760278637 0 846.04016760278637 -56.41401503146917 0 0 0 0 10.122123086710289 -6.5366658959220629 0 -6.5366658959220629 5.0605474376167239 0 0 0 0 2109.3540061487438 800.92025660847617 0 800.92025660847617 -38.848098549692189 0 0 0 0 4494.2640718953844 -1882.8768671057685 0 -1882.8768671057685 -657.55111782950416 0 0 0 0 532.44529283138399 -770.22131677691937 0 -770.22131677691937 431.22920476927493 0 0 0 0 9.4297662968478448 9.5897035573860805 0 9.5897035573860805 2.8538079643110166 0 0 0 0 662.07820701497258 -422.95998048532238 0 -422.95998048532238 379.95161046346107 0 0 0 0 -685.73800656344974 -450.68454456262089 0 -450.68454456262089 2264.8385343055666 0 0 0 0 -15.304166383190022 -190.96424926678128 0 -190.96424926678128 -210.70703701806747 0 0 0 0 24.659486709988727 -14.88502750408027 0 -14.88502750408027 12.353213554654847 0 0 0 0 571.38670064709004 -27.332927581750603 0 -27.332927581750603 24.218282654597928 0 0 0 0 49.70517606602516 1.1130288704704299 0 1.1130288704704299 -0.65823469953330438 0 0 0 0 121.39381917115679 73.143855981186789 0 73.143855981186789 114.60843199145347 0 0 0 0 41.090281913966635 0.061916526294922392 0 0.061916526294922392 -14.204535763616935 0 0 0 0 45.666103294090135 4.9132571173413453 0 4.9132571173413453 3.3288856623912579 0 0 0 0 27.963727350840045 -2.6218648019894886 0 -2.6218648019894886 -10.837445395889173 0 0 0 0 23.75894376502788 -0.29850043175473928 0 -0.29850043175473928 -3.4515289288765736 0 0 0 0 4334.9059877868649 3163.5239492984538 0 3163.5239492984538 2266.6663660197746 0 0 0 0 4496.0746616431279 4221.2985554388688 0 4221.2985554388688 3066.5768271859351 0 0 0 0 53.276801939966163 23.649265594796354 0 23.649265594796354 7.9620483478194055 0 0 0 0 1.367179547116308 19.526367963823791 0 19.526367963823791 39.371202037380996 0 0 0 0 25.484060098776538 20.406248451160721 0 20.406248451160721 20.698088445709288 0 0 0 0 4473.5214126858764 14.640741980814758 0 14.640741980814758 29.499769224736355 0 0 0 0 105.17794865721953 101.89291766425049 0 101.89291766425049 97.146075403049664 0 0 0 0 -6.0234149761539584 6.0127921719913928 0 6.0127921719913928 27.471452369389031 0 0 0 0 3071.125100834659 2206.905917298694 0 2206.905917298694 1596.5680893320741 0 0 0 0 205.66944491330651 186.37306603472371 0 186.37306603472371 73.726723920754011 0 0 0 0 3065.4719502433945 2190.9385727636395 0 2190.9385727636395 1650.7347580713742 0 0 0 0 -2.235692857764775 0.84274786220002795 0 0.84274786220002795 9.2556618200398386 0 0 0 0 2851.4294506046717 2236.7014495659741 0 2236.7014495659741 1657.40004317169 0 0 0 0 2066.702118828267 1539.7460585179851 0 1539.7460585179851 1050.6159360772444 0 0 0 0 4499.8870675333528 2513.4778494804182 0 2513.4778494804182 994.14903495491433 0 0 0 0 3697.0905416358437 1784.2206250047539 0 1784.2206250047539 398.97752197366498 0 0 0 0 121.86823786328023 565.85209496675589 0 565.85209496675589 908.5910061932077 0 0 0 0 164.38156916892922 105.39232724058718 0 105.39232724058718 16.097055260549041 0 0 0 0 60.502168024818161 -11.26301029253122 0 -11.26301029253122 -21.615387374866479 0 0 0 0 2.5571155671499923 0.9702910737436099 0 0.9702910737436099 1.0408393541748726 0 0 0 0 260.16981064432912 304.40129600479531 0 304.40129600479531 -12.648152749780365 0 0 0 0 84.978616905631498 60.648381562232316 0 60.648381562232316 121.16891996994127 0 0 0 0 2075.731469217033 1474.4541927168559 0 1474.4541927168559 1042.7791598833071 0 0 0 0 166.42225510872959 -6.8571638761914073 0 -6.8571638761914073 44.977072020432388 0 0 0 0 51.579728754237294 25.529798435720295 0 25.529798435720295 6.0833920137156383 0 0 0 0 29.879589299756276 -13.310445953167374 0 -13.310445953167374 -21.518085208835391 0 0 0 0 26.447565264434232 -2.8058889851639037 0 -2.8058889851639037 -7.0109373239142005 0 0 0 0 12.744386679580202 -9.3764461033591715 0 -9.3764461033591715 23.066090836142791 0 0 0 0 146.98066682231729 -65.383813246094689 0 -65.383813246094689 -30.949204757824987 0 0 0 0 26.035538562187867 24.962940328216177 0 24.962940328216177 93.994061017654303 0 0 0 0 176.84022406696749 -66.764361682039649 0 -66.764361682039649 -23.454343697822424 0 0 0 0 135.19201407926448 -11.452440702833655 0 -11.452440702833655 -81.478130307628362 0 0 0 0 51.94501738447434 -17.55962883922777 0 -17.55962883922777 -33.080501170332241 0 0 0 0 72.365889865201055 -2.198569940757551 0 -2.198569940757551 -11.204434743394476 0 0 0 0 138.60807548290177 77.57289798366503 0 77.57289798366503 14.170841612424624 0 0 0 0 54.296961780790326 -5.7611501122178232 0 -5.7611501122178232 0.98976418314749903 0 0 0 0 55.492940307347453 23.830365443246592 0 23.830365443246592 -39.598176881205291 0 0 0 0 38.500107092295366 11.843844344698709 0 11.843844344698709 -24.152908094745726 0 0 0 0 39.350311765796505 33.024709847810527 0 33.024709847810527 10.404701643635349 0 0 0 0 72.546704848660738 22.483888277708729 0 22.483888277708729 -30.694573821914901 0 0 0 0 34.693339984471095 8.7418990817027407 0 8.7418990817027407 -27.983469771807108 0 0 0 0 90.82807947011861 -10.305874623841873 0 -10.305874623841873 -131.58684129625954 0 0 0 0 89.126246163305041 10.223506868140475 0 10.223506868140475 -168.78591092454371 0 0 0 0 6.9422927838814168 16.439982522038264 0 16.439982522038264 -28.93145779592075 0 0 0 0 85.187735988918575 35.283392943872968 0 35.283392943872968 -89.622558938549446 0 0 0 0 88.591214993990434 62.862089636560995 0 62.862089636560995 -28.940033222689408 0 0 0 0 57.459141824561812 24.694130800901803 0 24.694130800901803 -32.942505019506825 0 0 0 0 6.2313218539202353 -130.53410104170871 0 -130.53410104170871 -121.56311587532764 0 0 0 0 -24.601313536928501 47.59987264225083 0 47.59987264225083 -19.758590752062446 0 0 0 0 -1.1060358866816387 37.892061082848159 0 37.892061082848159 42.242617834901466 0 0 0 0 87.404090682825171 -33.683238574047429 0 -33.683238574047429 7.9049563102043976 0 0 0 0 4.7934001938037056 -1.6973952747133438 0 -1.6973952747133438 -2.434912579577837 0 0 0 0 284.87840021435113 83.208993166807886 0 83.208993166807886 -12.916807242680079 0 0 0 0 86.360126634972403 130.66345003951665 0 130.66345003951665 112.87752942737461 0 0 0 0 360.10746353518334 -1.4241860205875128 0 -1.4241860205875128 -244.0257228578721 0 0 0 0 247.12573280661309 223.8076562978722 0 223.8076562978722 106.8392518556393 0 0 0 0 -305.96457112763892 73.516497634206644 0 73.516497634206644 173.67206246102432 0 0 0 0 220.53935288140201 158.44344040894975 0 158.44344040894975 -19.31168825412351 0 0 0 0 -9.6071199257276021 27.80832949752039 0 27.80832949752039 -32.439648617186322 0 0 0 0 -197.25009140206384 205.90344352960528 0 205.90344352960528 153.8469879095428 0 0 0 0 58.673777385134599 38.009579233280419 0 38.009579233280419 -30.950002360807048 0 0 0 0 -12.353549264629692 -62.752669838941983 0 -62.752669838941983 21.323626301880722 0 0 0 0 136.77711771983741 -47.784503486926269 0 -47.784503486926269 -17.352671367538278 0 0 0 0 2.4534748023413329 -0.50384141787282211 0 -0.50384141787282211 -6.9916677066339226 0 0 0 0 10.311520144183305 -17.511339084798692 0 -17.511339084798692 -10.384764580934643 0 0 0 0 20.4066484801222 -19.971005189394987 0 -19.971005189394987 -26.074194467855488 0 0 0 0 5.0545640297508783 -0.3584560259563716 0 -0.3584560259563716 -2.1554137895124024 0 0 0 0 5.4674315051233862 -9.9993802881790543 0 -9.9993802881790543 -11.035321981440404 0 0 0 0 23.04523644199071 -51.856633182851056 0 -51.856633182851056 -6.8365313218998836 0 0 0 0 25.115171230356353 -19.194946100906407 0 -19.194946100906407 -19.097967941883027 0 0 0 0 89.417610690259608 0.85311784442365024 0 0.85311784442365024 -30.891856756321431 0 0 0 0 89.557503636143792 5.5712100792829062 0 5.5712100792829062 3.0747396549086261 0 0 0 0 142.22025629597192 0.7386832708689326 0 0.7386832708689326 -22.249643283721525 0 0 0 0 61.659025400629616 -6.3004201748558444 0 -6.3004201748558444 18.902713645099539 0 0 0 0 210.02687931747641 -124.48682867031948 0 -124.48682867031948 29.204915531883671 0 0 0 0 241.92803117833682 -21.088962258865081 0 -21.088962258865081 -41.871572917753838 0 0 0 0 111.71660469929884 -57.959461588544627 0 -57.959461588544627 -30.201088159106803 0 0 0 0 67.893477884392865 -26.437197502982613 0 -26.437197502982613 -21.394237670690462 0 0 0 0 11.01563605864262 24.519592804691825 0 24.519592804691825 16.0168575539426 0 0 0 0 58.645656071040349 -11.878466810772537 0 -11.878466810772537 -21.142632909601517 0 0 0 0 106.3606207985431 26.73950049816176 0 26.73950049816176 18.185257070625084 0 0 0 0 3.4785211889301308 -0.65222876622516424 0 -0.65222876622516424 -2.1249903655626987 0 0 0 0 184.47462300846382 156.73820545757644 0 156.73820545757644 -43.952112781194046 0 0 0 0 179.96184398755395 95.78165721153141 0 95.78165721153141 41.067839124483726 0 0 0 0 139.8535799428937 39.194572378804423 0 39.194572378804423 23.14491385149995 0 0 0 0 466.98895071129664 123.93737983198571 0 123.93737983198571 -22.10272296254152 0 0 0 0 332.80490434310923 -255.25853206720876 0 -255.25853206720876 -264.84674480544709 0 0 0 0 2.3241226436105933 -0.45325341958711363 0 -0.45325341958711363 -1.4549984344958418 0 0 0 0 152.35914014295849 171.70536512366607 0 171.70536512366607 10.413543586684682 0 0 0 0 87.41669227485545 -12.352911115166648 0 -12.352911115166648 67.162386882599094 0 0 0 0 234.47736589932174 117.45294786450449 0 117.45294786450449 45.291857047898702 0 0 0 0 366.03669266108773 126.71552502854047 0 126.71552502854047 72.938851737088044 0 0 0 0 311.2486884018399 152.87755640319119 0 152.87755640319119 61.509536142026263 0 0 0 0 332.8448083504918 119.84435215054327 0 119.84435215054327 87.972084727029142 0 0 0 0 416.99033073961618 -59.766323610602285 0 -59.766323610602285 58.460577356589056 0 0 0 0 253.90681127295102 61.611938064209426 0 61.611938064209426 112.56219590470937 0 0 0 0 377.56174491546699 37.573566449691498 0 37.573566449691498 115.49403560450719 0 0 0 0 452.53697794978507 38.246669895852392 0 38.246669895852392 80.961995881871189 0 0 0 0 455.21485487295649 44.081142552505298 0 44.081142552505298 59.757830010636098 0 0 0 0 456.67039102621493 66.250325560036799 0 66.250325560036799 43.787889699600782 0 0 0 0 404.25371389600332 60.612448095545915 0 60.612448095545915 73.967139749789567 0 0 0 0 455.73879398524878 61.352066201528942 0 61.352066201528942 64.75785286386963 0 0 0 0 380.48871737099398 102.372983565509 0 102.372983565509 93.211183177241764 0 0 0 0 384.6083428504935 99.684822302242537 0 99.684822302242537 77.208653039388309 0 0 0 0 373.793874239258 133.73833165861186 0 133.73833165861186 86.302764134794415 0 0 0 0 410.33302223760984 74.751170789710159 0 74.751170789710159 89.63913552507438 0 0 0 0 322.90290513160289 86.488082311087055 0 86.488082311087055 101.53336588553793 0 0 0 0 366.56400641117943 111.96352308653513 0 111.96352308653513 87.087355817634489 0 0 0 0 357.80479122133693 73.003899721585185 0 73.003899721585185 106.31971078302558 0 0 0 0 -193.73800638613284 -245.1603635541735 0 -245.1603635541735 -30.334619246046714 0 0 0 0 590.48427695958526 260.3816993608034 0 260.3816993608034 69.821471790182841 0 0 0 0 3.5634596018658016 -1.167346577675076 0 -1.167346577675076 -1.1872970127218458 0 0 0 0 167.17087405151688 -171.18292492300543 0 -171.18292492300543 -151.00255772727905 0 0 0 0 717.44029661012974 149.25182697206355 0 149.25182697206355 0.82147155066559208 0 0 0 0 700.96156329716905 -3.912086313652253 0 -3.912086313652253 18.268311719619305 0 0 0 0 498.02362100723258 16.723826347637441 0 16.723826347637441 38.474233839115186 0 0 0 0 502.3558188691386 38.434548803939833 0 38.434548803939833 55.197113750611607 0 0 0 0 512.7791213823366 79.774809616905259 0 79.774809616905259 31.053615730113961 0 0 0 0 562.63336644949595 157.32244786882688 0 157.32244786882688 44.606677720101288 0 0 0 0 601.21845046573435 45.351939269856302 0 45.351939269856302 18.95003701805399 0 0 0 0 430.33403262650245 266.0822996569932 0 266.0822996569932 114.64811441429447 0 0 0 0 414.00898471954861 131.47954521733755 0 131.47954521733755 7.1203179660478781 0 0 0 0 507.09970017262094 128.32191403853176 0 128.32191403853176 31.911861785836663 0 0 0 0 481.18177386716707 136.11144743692603 0 136.11144743692603 31.576375361497412 0 0 0 0 408.71074793717708 113.95148309329306 0 113.95148309329306 25.67303132842153 0 0 0 0 461.5184645425179 102.53602147765378 0 102.53602147765378 13.996943546553894 0 0 0 0 503.53322905754612 87.641473003615602 0 87.641473003615602 16.176886522458517 0 0 0 0 489.17757202087887 63.610519455188523 0 63.610519455188523 43.039722344539769 0 0 0 0 483.79361713569961 81.757538678635683 0 81.757538678635683 32.29589347782985 0 0 0 0 474.39489452642738 85.157195830624005 0 85.157195830624005 30.779058438431093 0 0 0 0 457.53658800895209 105.10602166456829 0 105.10602166456829 -5.3306048573499538 0 0 0 0 479.5250844333641 90.0102069929967 0 90.0102069929967 9.407118506349434 0 0 0 0 469.26187953693443 116.92028727646539 0 116.92028727646539 1.962676620936918 0 0 0 0 469.43247860924021 114.49403498448191 0 114.49403498448191 0.055963602659176104 0 0 0 0 385.05190694914199 104.8533864692954 0 104.8533864692954 10.134660454723416 0 0 0 0 363.4961537768686 165.14670023407689 0 165.14670023407689 3.8697539562490419 0 0 0 0 505.27153913828442 148.10261764131405 0 148.10261764131405 30.279890601785155 0 0 0 0 462.86453184622223 114.4012831993241 0 114.4012831993241 55.307954855356002 0 0 0 0 442.65672280918807 113.0678544869661 0 113.0678544869661 66.716392797985463 0 0 0 0 445.35642078018282 96.595530584948847 0 96.595530584948847 57.596818768866797 0 0 0 0 443.7839810946607 150.64326017250096 0 150.64326017250096 75.824102529102674 0 0 0 0 460.82328220375348 133.39294574674932 0 133.39294574674932 63.656794355593775 0 0 0 0 398.98849368887022 120.30261758914276 0 120.30261758914276 76.522908498169272 0 0 0 0 413.91368636273546 144.09363201618635 0 144.09363201618635 75.547521548043733 0 0 0 0 426.83715822797967 129.11387674945581 0 129.11387674945581 72.589445129427986 0 0 0 0 413.00597176566953 99.57272071575062 0 99.57272071575062 77.192823844154191 0 0 0 0 428.01457527459024 105.0517105113089 0 105.0517105113089 62.649235709002824 0 0 0 0 431.33595952572068 99.77587517671418 0 99.77587517671418 67.637553093882161 0 0 0 0 424.26771071671101 88.710888601764054 0 88.710888601764054 59.648784949418769 0 0 0 0 442.57171094464138 71.982852301373896 0 71.982852301373896 58.618047226413182 0 0 0 0 468.86220341647277 77.539518400848465 0 77.539518400848465 48.840422412435146 0 0 0 0 468.45269655602169 80.578285783885804 0 80.578285783885804 29.149652200760102 0 0 0 0 465.60857323862729 99.087939952905799 0 99.087939952905799 49.8001664612475 0 0 0 0 464.3538583945774 88.326620251239547 0 88.326620251239547 33.645898948332615 0 0 0 0 471.50475417586858 108.57577151934129 0 108.57577151934129 27.352878592768995 0 0 0 0 470.50302062144328 89.326152585736963 0 89.326152585736963 27.120257384967772 0 0 0 0 462.79265548186959 107.14497719357951 0 107.14497719357951 31.637650655902689 0 0 0 0 5.5171514321593165 -0.90376028210140191 0 -0.90376028210140191 -17.263827427601235 0 0 0 0 509.31550650767349 110.59811679955095 0 110.59811679955095 -10.455121285433052 0 0 0 0 511.84104341116472 131.85437857158945 0 131.85437857158945 15.972356093407143 0 0 0 0 58.110485819624955 -6.0636872556216304 0 -6.0636872556216304 -166.26339040690709 0 0 0 0 4.269133544210618 -2.2161951928324584 0 -2.2161951928324584 -12.983331504465198 0 0 0 0 663.56552389833814 180.83764463173429 0 180.83764463173429 -15.885916297716904 0 0 0 0 421.99671810573636 168.06279136101011 0 168.06279136101011 56.773453528101982 0 0 0 0 468.78879956765741 92.968103742788117 0 92.968103742788117 10.344935622857975 0 0 0 0 365.39967885255237 117.18564384465512 0 117.18564384465512 11.591710111621069 0 0 0 0 221.06715270874702 54.908429614372153 0 54.908429614372153 16.283721909083852 0 0 0 0 216.05569356604428 75.888696436480586 0 75.888696436480586 -69.662619131508109 0 0 0 0 425.4303189668999 83.902395428645519 0 83.902395428645519 -46.570516080434572 0 0 0 0 364.04700524285727 132.27279926635947 0 132.27279926635947 -9.6963195376993667 0 0 0 0 48.496206361600343 -6.2266642136938799 0 -6.2266642136938799 -38.022379583270776 0 0 0 0 9.0596121905982727 -87.967823438375945 0 -87.967823438375945 -40.714118616112046 0 0 0 0 6.9620536172353127 2.1223796477974091 0 2.1223796477974091 -6.7964176684731257 0 0 0 0 13.680026129732141 50.995713306643665 0 50.995713306643665 40.200216916173758 0 0 0 0 70.980886616052885 39.01630847560773 0 39.01630847560773 -41.194833342197356 0 0 0 0 75.01592940674891 17.866643342253155 0 17.866643342253155 69.660856329936905 0 0 0 0 235.66007289974368 46.865137222710246 0 46.865137222710246 62.30932860844905 0 0 0 0 239.06298729220725 51.007965298184445 0 51.007965298184445 -34.550817588596146 0 0 0 0 269.28665930913485 -2.5885659560681233 0 -2.5885659560681233 15.281133494862388 0 0 0 0 377.71852408217092 136.78318566188295 0 136.78318566188295 17.918814776265435 0 0 0 0 98.181698584477999 23.259120693325826 0 23.259120693325826 -21.012184783737212 0 0 0 0 114.47081219139363 74.116825557610127 0 74.116825557610127 114.08120248898945 0 0 0 0 7.3545104399672709 68.522531203577387 0 68.522531203577387 31.623717894229912 0 0 0 0 389.27288248229161 -51.447927722056193 0 -51.447927722056193 0.1736689022372957 0 0 0 0 260.3387408028575 112.11324486557544 0 112.11324486557544 -21.831084543353342 0 0 0 0 1089.3854318303565 197.06108183475635 0 197.06108183475635 -174.72024048198523 0 0 0 0 -334.03166506020716 -462.96044926040111 0 -462.96044926040111 -60.701880801285597 0 0 0 0 2.2002678774530224 -1.249385858429207 0 -1.249385858429207 -4.9681708746801929 0 0 0 0 183.32269640534651 213.07435728774112 0 213.07435728774112 -20.406873373535291 0 0 0 0 260.35855263218764 64.855491820967245 0 64.855491820967245 -189.99643493452959 0 0 0 0 573.84862577985041 264.23054243933569 0 264.23054243933569 109.19859837151967 0 0 0 0 421.60684394726195 63.083617113302012 0 63.083617113302012 140.85094400762841 0 0 0 0 -122.45338653749059 175.59969742295334 0 175.59969742295334 -55.963321529588029 0 0 0 0 2.112926831791583 4.715287018278616 0 4.715287018278616 9.0397113080524747 0 0 0 0 -73.140739982918603 85.861453249605347 0 85.861453249605347 -67.407460909504607 0 0 0 0 89.876250548584721 122.98931540343625 0 122.98931540343625 -88.656661050542425 0 0 0 0 92.188147656917863 133.48279772426122 0 133.48279772426122 -46.173578905983959 0 0 0 0 -128.05988319181779 73.909947974030274 0 73.909947974030274 -72.200188077714301 0 0 0 0 -72.86333138198097 159.09067874691698 0 159.09067874691698 45.454315016344481 0 0 0 0 287.3074622542772 61.940831130985885 0 61.940831130985885 -19.966372546606635 0 0 0 0 0.071087954471622083 1.2829809210721095 0 1.2829809210721095 4.0649104014239068 0 0 0 0 -247.34637696695427 124.57159425392274 0 124.57159425392274 63.436549447950711 0 0 0 0 77.388922160556831 70.532439737533991 0 70.532439737533991 23.454438220773795 0 0 0 0 132.44323108196477 98.235379436143447 0 98.235379436143447 12.872368714092772 0 0 0 0 123.96597434469732 15.475655909066518 0 15.475655909066518 -32.708826841158043 0 0 0 0 12.892883210512082 66.335369632666016 0 66.335369632666016 3.8049759543309847 0 0 0 0 4.065506603288668 13.564088997882664 0 13.564088997882664 -1.5853542056247534 0 0 0 0 149.66779166629567 67.406806533737381 0 67.406806533737381 -14.804614119747612 0 0 0 0 75.477937977466354 56.673805773546746 0 56.673805773546746 32.625722455347386 0 0 0 0 33.403204741342051 11.201820680422315 0 11.201820680422315 17.014250392675649 0 0 0 0 73.712319887919875 63.692924629186621 0 63.692924629186621 4.9953379758467236 0 0 0 0 -51.182438829691819 64.072236955319909 0 64.072236955319909 6.5852868686752117 0 0 0 0 -25.877732713262958 21.98520253502511 0 21.98520253502511 7.3157417197046186 0 0 0 0 3.419450927840316 6.8522685206263105 0 6.8522685206263105 13.196140894098237 0 0 0 0 27.816319736473815 4.9305357427538183 0 4.9305357427538183 -7.1211824928086571 0 0 0 0 -8.8638574902943219 74.194754977768298 0 74.194754977768298 -70.558408669216078 0 0 0 0 30.858064494925202 43.749501517821045 0 43.749501517821045 -30.267933698886281 0 0 0 0 -66.067511895400912 28.898674094184116 0 28.898674094184116 -4.5670651787859242 0 0 0 0 4.6215029801399794 9.7058487916191893 0 9.7058487916191893 15.48872709276154 0 0 0 0 -93.169622485977015 9.2321703391189658 0 9.2321703391189658 -10.351950701102851 0 0 0 0 -68.263967907697861 52.852386933439021 0 52.852386933439021 9.2821562395320143 0 0 0 0 -102.62824498910049 35.959822879910462 0 35.959822879910462 14.255323144275962 0 0 0 0 -149.58088919126021 89.586966831079735 0 89.586966831079735 28.489707473779163 0 0 0 0 -5.3299679815645504 69.508012237573666 0 69.508012237573666 -3.1430281015291257 0 0 0 0 3.9305624546541367 35.882222780576967 0 35.882222780576967 -10.939708516300016 0 0 0 0 365.06403291113384 123.28637571345644 0 123.28637571345644 84.107552477449644 0 0 0 0 -183.40080040432076 4.3871379417259959 0 4.3871379417259959 39.191863213696706 0 0 0 0 364.12432264440474 200.54493584450677 0 200.54493584450677 49.197428177743859 0 0 0 0 2.2077350668165607 1.8375755008113117 0 1.8375755008113117 -0.15525202837834229 0 0 0 0 103.70246036224125 198.49046718632962 0 198.49046718632962 24.469300731236217 0 0 0 0 266.80090993072918 250.42618048687507 0 250.42618048687507 40.851889059209498 0 0 0 0 100.60285221245431 99.496772904254613 0 99.496772904254613 -29.683246088791748 0 0 0 0 109.71754376549507 60.31293197719242 0 60.31293197719242 -0.57148383714684314 0 0 0 0 162.88681164021273 100.77495173775941 0 100.77495173775941 22.138621176754896 0 0 0 0 95.053229512122925 52.052532611880451 0 52.052532611880451 24.673281176956152 0 0 0 0 62.519023833003303 84.098518668614361 0 84.098518668614361 23.475619833099699 0 0 0 0 163.82690217033087 109.92561100905687 0 109.92561100905687 -35.333987407513632 0 0 0 0 19.670677646342426 6.8682489719647464 0 6.8682489719647464 -2.3909831645914004 0 0 0 0 97.450596038295771 41.559746671061475 0 41.559746671061475 13.384617831987271 0 0 0 0 73.958768527765642 33.32166334070007 0 33.32166334070007 19.259951557284694 0 0 0 0 122.39379720311263 -9.5813837382438578 0 -9.5813837382438578 -21.875352478340574 0 0 0 0 10.682252738564088 1.2863089940151582 0 1.2863089940151582 0.79817057417804449 0 0 0 0 66.67922032660357 0.55813233192455414 0 0.55813233192455414 10.716833200287496 0 0 0 0 94.553342243772931 52.773281827110623 0 52.773281827110623 24.774752130329944 0 0 0 0 94.704745435810764 48.300583281888976 0 48.300583281888976 17.45211738191756 0 0 0 0 84.030212286023016 53.953909680354627 0 53.953909680354627 42.268680128690903 0 0 0 0 73.091846964802244 42.18343189341067 0 42.18343189341067 29.927101862620475 0 0 0 0 114.33463602733536 140.37761428689441 0 140.37761428689441 4.655254160225013 0 0 0 0 102.32245518266336 86.988129949222866 0 86.988129949222866 31.337987902046734 0 0 0 0 36.981908234585717 -68.088910709399443 0 -68.088910709399443 -5.9074885640384309 0 0 0 0 -1.121854343937045 -0.65228287093350446 0 -0.65228287093350446 -0.13835493793843767 0 0 0 0 47.152247150464973 6.3394199290407869 0 6.3394199290407869 -35.143856997123294 0 0 0 0 21.609463496337412 19.762331357100948 0 19.762331357100948 -16.415947560182758 0 0 0 0 20.577391556034854 -20.658250585147925 0 -20.658250585147925 -19.84307839921712 0 0 0 0 1.2712965729811714 -0.57526377085571312 0 -0.57526377085571312 -0.33968393143846498 0 0 0 0 49.738404189578432 -17.273416299056407 0 -17.273416299056407 1.61912432277677 0 0 0 0 68.356125564867398 -21.09225439837428 0 -21.09225439837428 -20.536540903932519 0 0 0 0 57.401002200582298 36.067308246041648 0 36.067308246041648 -41.243798775657751 0 0 0 0 94.194799564298592 -0.71740515526380477 0 -0.71740515526380477 -21.352262669026459 0 0 0 0 43.405786991701461 20.46428782933117 0 20.46428782933117 -20.770564598877641 0 0 0 0 -4.4201443066085631 46.28216077459183 0 46.28216077459183 -2.0728960973810899 0 0 0 0 40.154055198305286 20.632425727734244 0 20.632425727734244 -8.9926837723251083 0 0 0 0 66.731426769259997 31.749212714023088 0 31.749212714023088 3.6586752887587863 0 0 0 0 51.593152945155452 1.8103515141574462 0 1.8103515141574462 20.241085007808579 0 0 0 0 115.69700329600892 134.79819820908324 0 134.79819820908324 102.17731959845378 0 0 0 0 47.953938472797745 33.590777888574848 0 33.590777888574848 70.031943442777447 0 0 0 0 587.79979754619853 -174.63382488453794 0 -174.63382488453794 34.992514880766066 0 0 0 0 1.0213699348422551 1.8474062206917097 0 1.8474062206917097 2.5456882329049932 0 0 0 0 60.985823151266231 -9.6303436852354025 0 -9.6303436852354025 -28.113942953480546 0 0 0 0 -25.226796478782489 50.290957058299227 0 50.290957058299227 76.041111478177754 0 0 0 0 257.3339970581419 -57.723905206087011 0 -57.723905206087011 2.5790752418897682 0 0 0 0 324.63388242686051 -46.99181185886664 0 -46.99181185886664 -17.035421166269771 0 0 0 0 250.54682316309118 -13.56619045141133 0 -13.56619045141133 -31.87918429639285 0 0 0 0 244.67806147179363 -36.206342765175123 0 -36.206342765175123 9.3722379634637036 0 0 0 0 8.2511285157835488 3.977614767676215 0 3.977614767676215 6.3618144802267693 0 0 0 0 240.01779399357474 -29.354697717168619 0 -29.354697717168619 15.773682313315021 0 0 0 0 331.98804617187852 44.127625285699878 0 44.127625285699878 -36.202160614562672 0 0 0 0 291.35013164678821 -25.933666027305208 0 -25.933666027305208 578.54640025286517 0 0 0 0 98.419213086004675 61.61108412646422 0 61.61108412646422 12.420498487270379 0 0 0 0 0.22714213746246514 -0.50890830853992952 0 -0.50890830853992952 -1.7290842348533566 0 0 0 0 355.90364962168678 3.8583533392898062 0 3.8583533392898062 -56.22187460923584 0 0 0 0 267.76448480552062 100.77056297227455 0 100.77056297227455 -27.814813345803486 0 0 0 0 254.10221636557981 31.537083395310674 0 31.537083395310674 -54.649825157583109 0 0 0 0 297.89784829000178 115.12299919372342 0 115.12299919372342 -108.19037844802642 0 0 0 0 303.27024530721246 34.000290786848154 0 34.000290786848154 21.173274436146585 0 0 0 0 274.74825655605673 -29.597431423492594 0 -29.597431423492594 -1.5276583636787109 0 0 0 0 272.97121587806396 -27.419652625965455 0 -27.419652625965455 174.56511288756712 0 0 0 0 479.27695926914839 121.38107567766934 0 121.38107567766934 21.480287197235157 0 0 0 0 442.8831102230979 -14.14422954096824 0 -14.14422954096824 -10.064036501928967 0 0 0 0 226.41195596141188 15.332088547445892 0 15.332088547445892 -9.2749196467761976 0 0 0 0 286.00952954637614 -60.015115362296058 0 -60.015115362296058 -3.0226878229937029 0 0 0 0 273.90773914023885 -5.0553329618230691 0 -5.0553329618230691 -10.45771223333486 0 0 0 0 264.94960498841101 158.72323820717338 0 158.72323820717338 40.007808579573066 0 0 0 0 124.64146145121776 92.856785964291248 0 92.856785964291248 26.948071551612429 0 0 0 0 138.12292793425877 70.432115103616979 0 70.432115103616979 42.659133370016207 0 0 0 0 173.10136869808048 108.47352147067932 0 108.47352147067932 11.506079403927856 0 0 0 0 241.81587808960467 30.837211668523537 0 30.837211668523537 2.8774404723692442 0 0 0 0 158.29993059208937 50.409959787313142 0 50.409959787313142 -1.687947577832233 0 0 0 0 83.027064253212302 44.075130738695975 0 44.075130738695975 15.253405681103345 0 0 0 0 123.11363543831976 89.526588622341706 0 89.526588622341706 31.205066291166531 0 0 0 0 134.07659543026057 43.370113027910307 0 43.370113027910307 13.281717149132419 0 0 0 0 200.3029463941748 -6.1411724697201748 0 -6.1411724697201748 -9.6544603424622437 0 0 0 0 141.11166408377176 13.755228840539985 0 13.755228840539985 -3.5650395901265881 0 0 0 0 247.77263658353331 -32.12333875226318 0 -32.12333875226318 -5.9741982124310198 0 0 0 0 238.64369831208387 -44.697297978974831 0 -44.697297978974831 -19.457380108482766 0 0 0 0 202.26205331883466 -0.7608579871478014 0 -0.7608579871478014 4.4239579413469983 0 0 0 0 168.34361938899383 17.922487070625394 0 17.922487070625394 -85.728331259713457 0 0 0 0 147.66746196601162 -28.400700793686269 0 -28.400700793686269 -65.434887053903537 0 0 0 0 249.51324998671407 -35.103583409223432 0 -35.103583409223432 -84.064984777848849 0 0 0 0 198.42782085959334 8.558279737341735 0 8.558279737341735 -38.535089306652026 0 0 0 0 186.69003112841892 -39.115600170716561 0 -39.115600170716561 -5.7755577915422691 0 0 0 0 139.14682255435764 1.9477576266585857 0 1.9477576266585857 -35.313170774269565 0 0 0 0 88.029899749089964 4.9600767628891163 0 4.9600767628891163 -33.510976012990227 0 0 0 0 27.289900020048663 10.720171639964633 0 10.720171639964633 3.031519176345455 0 0 0 0 106.95634824118315 58.608867234246986 0 58.608867234246986 10.6807517129389 0 0 0 0 43.556613163798829 88.198730345304469 0 88.198730345304469 -213.37165610149299 0 0 0 0 107.53144317521219 8.1283864315254561 0 8.1283864315254561 -114.35136838573362 0 0 0 0 18.721699200214061 45.899223331513234 0 45.899223331513234 -102.98558829783505 0 0 0 0 157.58267876998434 6.9834790027779405 0 6.9834790027779405 -92.920209068609665 0 0 0 0 83.658835067821201 24.735512543370845 0 24.735512543370845 -85.315469252938911 0 0 0 0 97.247599194150098 26.108797172844042 0 26.108797172844042 -139.66081646307902 0 0 0 0 -28.789881563003291 86.548634696478359 0 86.548634696478359 -136.03331084884957 0 0 0 0 -23.151418579564506 135.58349090915192 0 135.58349090915192 -186.4737158550893 0 0 0 0 -6.0309243618248729 108.73815326632592 0 108.73815326632592 -162.75250988724878 0 0 0 0 75.335185861520586 35.196836140509916 0 35.196836140509916 -143.88446608729959 0 0 0 0 148.25155963644647 16.101350632207556 0 16.101350632207556 -136.02824091388544 0 0 0 0 68.905541695698048 8.4044442474699963 0 8.4044442474699963 -98.655107528487179 0 0 0 0 152.6011511722354 -5.4427784647161488 0 -5.4427784647161488 -119.96694980977597 0 0 0 0 65.320163165433769 36.113283419250195 0 36.113283419250195 -99.372658835398425 0 0 0 0 182.17460774084338 -34.638434477490321 0 -34.638434477490321 -66.101543818121229 0 0 0 0 253.89322904547589 5.4705023789396989 0 5.4705023789396989 -111.62611839917847 0 0 0 0 206.77447471804044 -33.526609828334472 0 -33.526609828334472 -120.27086441355993 0 0 0 0 147.58459535296737 -23.900574754040807 0 -23.900574754040807 -107.61595168679624 0 0 0 0 61.379808913567103 -27.776447111873722 0 -27.776447111873722 -52.615015070788786 0 0 0 0 102.38472077006008 -12.35964066299664 0 -12.35964066299664 -96.387490993779579 0 0 0 0 172.65696858441515 -46.870507000318128 0 -46.870507000318128 -81.131860342398738 0 0 0 0 -138.26198485973873 63.630767411447323 0 63.630767411447323 4.3648332392609746 0 0 0 0 31.288879524668516 7.4561069836047977 0 7.4561069836047977 -4.9252473665511722 0 0 0 0 58.809298776111291 49.328917911667183 0 49.328917911667183 -124.0290112400354 0 0 0 0 61.592296659764315 46.404058583188487 0 46.404058583188487 28.939372873299362 0 0 0 0 -113.11597033229191 -49.905748926363685 0 -49.905748926363685 -27.06975628577743 0 0 0 0 37.793695523305274 22.145716458449225 0 22.145716458449225 -7.4071934452004653 0 0 0 0 87.094940792099806 -43.750262826072174 0 -43.750262826072174 -52.222730973840044 0 0 0 0 5.7462858697041099 11.177465931613559 0 11.177465931613559 1.9659660930956802 0 0 0 0 30.173305721022189 107.84184237820972 0 107.84184237820972 38.849592447246323 0 0 0 0 55.430607518330362 34.021526380258621 0 34.021526380258621 13.125540678504226 0 0 0 0 64.310829980633571 26.612285565998718 0 26.612285565998718 24.479991460366364 0 0 0 0 63.69049097601237 34.12790453011803 0 34.12790453011803 -0.87491950161711429 0 0 0 0 48.110472495001886 37.757365872607124 0 37.757365872607124 19.792207865653836 0 0 0 0 54.446977111507294 37.494114540131932 0 37.494114540131932 24.686216000124659 0 0 0 0 51.068992816341051 28.244669388600414 0 28.244669388600414 9.000953897090568 0 0 0 0 62.283295206878392 32.548327142106473 0 32.548327142106473 -5.664500426360064 0 0 0 0 54.704572043166991 33.660011522620607 0 33.660011522620607 8.7429155007484951 0 0 0 0 56.984994642632955 25.522009174695086 0 25.522009174695086 -10.03391525658958 0 0 0 0 57.28485989991168 41.280788732152587 0 41.280788732152587 -25.415288761246302 0 0 0 0 60.845362337058759 31.552860600036183 0 31.552860600036183 -0.81169374021752105 0 0 0 0 46.889331586135086 30.774122540541612 0 30.774122540541612 -0.34902566533128265 0 0 0 0 52.898243813688168 28.815302955027619 0 28.815302955027619 -1.9617252606026341 0 0 0 0 48.658122941946203 33.250566686564071 0 33.250566686564071 2.8703165746992454 0 0 0 0 56.31385151467839 30.138579954247689 0 30.138579954247689 -3.0260416873475151 0 0 0 0 50.429731063100917 33.334198092185943 0 33.334198092185943 15.2880932234375 0 0 0 0 48.221000902493415 28.530256059596923 0 28.530256059596923 -10.156867127189798 0 0 0 0 46.384957468471839 25.055784787179618 0 25.055784787179618 8.1428075306853316 0 0 0 0 -202.17832242370878 125.29086129525203 0 125.29086129525203 149.19492724431711 0 0 0 0 -165.81385771857913 -102.96428209957291 0 -102.96428209957291 127.95918010818696 0 0 0 0 5.5045113412234628 2.0729380042549508 0 2.0729380042549508 -2.3875703075615933 0 0 0 0 452.42941887034976 6.7834635718377285 0 6.7834635718377285 -22.116018409607932 0 0 0 0 91.55714569218253 -107.58505346930525 0 -107.58505346930525 124.92019981435533 0 0 0 0 23.654873027717713 -2.2115025675338984 0 -2.2115025675338984 -15.399469038804083 0 0 0 0 -28.574520545760606 102.88158430802804 0 102.88158430802804 150.59867710195158 0 0 0 0 476.83501697488828 -174.80070098103488 0 -174.80070098103488 -143.12129847255665 0 0 0 0 40.039985572372899 11.050784088117496 0 11.050784088117496 -12.075539970982879 0 0 0 0 454.80173521937832 2.0179367275621019 0 2.0179367275621019 -79.569543873313705 0 0 0 0 9.1714176697278162 209.74702255583065 0 209.74702255583065 -76.905617741951318 0 0 0 0 269.8227687932158 182.56055323601913 0 182.56055323601913 -141.87554556329678 0 0 0 0 24.964897470808921 6.8346171160272391 0 6.8346171160272391 -2.0795242566921308 0 0 0 0 -24.341696819537901 -106.1672606308166 0 -106.1672606308166 9.2616794628911521 0 0 0 0 452.4491894045932 73.041224141783687 0 73.041224141783687 -81.63701012121733 0 0 0 0 -19.326857067085257 -12.757218619376019 0 -12.757218619376019 52.438362907109877 0 0 0 0 -28.385007684459197 -101.80067047839867 0 -101.80067047839867 30.83552078474213 0 0 0 0 -8.6088202323683305 -15.763093453587629 0 -15.763093453587629 -14.915469164953214 0 0 0 0 -1.0782865844957144 -2.8454081158510149 0 -2.8454081158510149 -2.366620466270918 0 0 0 0 451.46300279337447 78.941902889449466 0 78.941902889449466 10.728057188943581 0 0 0 0 51.425425569224899 -22.957519812202918 0 -22.957519812202918 -11.658044819562747 0 0 0 0 72.806789102571202 -24.001095648719001 0 -24.001095648719001 -36.481802546277777 0 0 0 0 60.708264472312294 -16.514436323648624 0 -16.514436323648624 -55.688960188135297 0 0 0 0 21.853607795970674 -12.715430072513357 0 -12.715430072513357 -15.820608971436741 0 0 0 0 8.3531745858632149 -5.5396871520765529 0 -5.5396871520765529 -14.242075154884109 0 0 0 0 153.83768972830148 -61.483745063319873 0 -61.483745063319873 -48.588628780678846 0 0 0 0 43.650793590917601 24.811049527132582 0 24.811049527132582 -68.430684568526203 0 0 0 0 50.559770303629193 4.2531916694856591 0 4.2531916694856591 -28.915164346433812 0 0 0 0 32.604445905599277 -10.685598262753047 0 -10.685598262753047 -30.289435877376491 0 0 0 0 31.696564645288333 2.7366090063331399 0 2.7366090063331399 -18.648994022829957 0 0 0 0 135.65836563639459 75.810446903099546 0 75.810446903099546 -121.306590590425 0 0 0 0 50.922089683070027 22.483629808817383 0 22.483629808817383 -8.3519757864131083 0 0 0 0 71.204017886499059 66.789569479501097 0 66.789569479501097 15.533807910207543 0 0 0 0 142.09012249757825 34.561168126425855 0 34.561168126425855 36.979044568759946 0 0 0 0 111.2928356411073 16.542502305299521 0 16.542502305299521 -36.734452499298222 0 0 0 0 106.34044575910229 -62.896449507228681 0 -62.896449507228681 -43.52279424041717 0 0 0 0 84.607412373950552 18.620571844234419 0 18.620571844234419 -20.344980520879503 0 0 0 0 60.415156487842978 17.212481739044961 0 17.212481739044961 -33.95825191561562 0 0 0 0 100.7124694710852 6.1583285011571238 0 6.1583285011571238 -31.53653948330988 0 0 0 0 133.30288392536897 19.503786241594753 0 19.503786241594753 16.082943220103061 0 0 0 0 38.209896078820748 36.53795914931834 0 36.53795914931834 -2.9183273580206333 0 0 0 0 144.3060490929995 13.292974578842177 0 13.292974578842177 2.1078546398262006 0 0 0 0 147.93704136782662 23.877069076225098 0 23.877069076225098 6.9528700407963697 0 0 0 0 57.228832832661752 34.587586109043308 0 34.587586109043308 2.286187115642015 0 0 0 0 58.09154485995532 46.985750405631734 0 46.985750405631734 85.593884452087877 0 0 0 0 144.92191152004733 60.46971027818995 0 60.46971027818995 1.2495142256070721 0 0 0 0 130.05526793948229 38.660442469814825 0 38.660442469814825 -60.609168335986851 0 0 0 0 94.914980786235503 0.76875593295398215 0 0.76875593295398215 -23.207258284092077 0 0 0 0 77.498720944439285 6.2021691633324707 0 6.2021691633324707 -17.019648287448589 0 0 0 0 146.57069511434383 -46.04788142907455 0 -46.04788142907455 -114.98836408649731 0 0 0 0 115.48736906290742 -17.457715427324274 0 -17.457715427324274 -50.757689168807701 0 0 0 0 98.248554057887304 22.128332938316362 0 22.128332938316362 -69.122600744849478 0 0 0 0 197.81248785541902 11.109777810476999 0 11.109777810476999 -70.116222426577224 0 0 0 0 144.49591594202502 -61.520027113879223 0 -61.520027113879223 16.455167865239673 0 0 0 0 149.53801630099042 -23.638673465587829 0 -23.638673465587829 -51.122646413134134 0 0 0 0 255.92366205608414 -91.478328094299286 0 -91.478328094299286 3.0969449761869328 0 0 0 0 -3.7542998595577188 -3.567208495863909 0 -3.567208495863909 -3.8827135187090214 0 0 0 0 195.23186746993088 -47.498308470338316 0 -47.498308470338316 10.126987865298361 0 0 0 0 336.56633502972181 -169.47250317459338 0 -169.47250317459338 7.2774995841018608 0 0 0 0 -1.5152942647825398 -1.4622329113371819 0 -1.4622329113371819 -0.52013866984306745 0 0 0 0 79.099257303925697 32.038006184339793 0 32.038006184339793 -237.86701221509259 0 0 0 0 35.622826669161441 -76.083060501633554 0 -76.083060501633554 117.76900148219102 0 0 0 0 191.09506827859877 73.128355664604214 0 73.128355664604214 -96.004999863921512 0 0 0 0 -195.77219919482013 253.14600838087472 0 253.14600838087472 -94.820691372458896 0 0 0 0 -0.7736625910802104 114.45848814830629 0 114.45848814830629 -123.60790819942213 0 0 0 0 -61.545453955668563 -20.268975989745172 0 -20.268975989745172 -35.377997678283464 0 0 0 0 93.571360683832609 -4.2064167370574523 0 -4.2064167370574523 -55.124306127454929 0 0 0 0 -8.714441568202318 -11.655792814481089 0 -11.655792814481089 -4.471677495871381 0 0 0 0 86.378512499650242 -11.955070456830981 0 -11.955070456830981 -70.128096117035284 0 0 0 0 134.84064946270519 -79.235680217235767 0 -79.235680217235767 -8.2955624838047015 0 0 0 0 21.191519684331325 2.6803545627999057 0 2.6803545627999057 -6.7037501973889499 0 0 0 0 -118.123283279725 134.3536735027408 0 134.3536735027408 -169.22375082080893 0 0 0 0 -155.75207698554732 228.70176098123684 0 228.70176098123684 -232.67154148641549 0 0 0 0 1.7266165984620727 0.46665123209248804 0 0.46665123209248804 -0.0020967527538049424 0 0 0 0 67.074416007541004 19.79061207036284 0 19.79061207036284 -19.793339216623963 0 0 0 0 213.66742228921794 -182.42693600669713 0 -182.42693600669713 80.920145878123321 0 0 0 0 1.7440296123789096 -4.2916325857196966 0 -4.2916325857196966 -6.0279390191523508 0 0 0 0 -472.62448369814774 615.83745306361925 0 615.83745306361925 -218.08255538328353 0 0 0 0 297.75084888687707 -125.55083035231155 0 -125.55083035231155 -5.8442449746531793 0 0 0 0 -1.5149503964767774 -1.0034384750242822 0 -1.0034384750242822 -1.0389866083104939 0 0 0 0 298.80669901940564 -103.36533602535576 0 -103.36533602535576 15.802662097551774 0 0 0 0 -364.66563818671784 117.88732237030925 0 117.88732237030925 -200.69402777801963 0 0 0 0 -22.267773970699636 72.089827941856583 0 72.089827941856583 -138.51083074257997 0 0 0 0 -143.52160330783227 113.80974876355998 0 113.80974876355998 -294.5194793808173 0 0 0 0 -18.841307248847443 186.76188359108204 0 186.76188359108204 -312.09816125806333 0 0 0 0 -216.17425413771707 213.62108137455385 0 213.62108137455385 -198.96916552217385 0 0 0 0 167.09964750889412 191.81500895103204 0 191.81500895103204 121.82616733673308 0 0 0 0 67.323495633827406 -2.2792868684166478 0 -2.2792868684166478 -169.83848962073483 0 0 0 0 5.8042337594743003 25.235838907145535 0 25.235838907145535 106.48219931234439 0 0 0 0 221.57723029903718 38.496337611966965 0 38.496337611966965 -255.32040284607291 0 0 0 0 -224.84005359947696 136.04162800612283 0 136.04162800612283 68.658998422494051 0 0 0 0 59.123153859924059 538.14661579938547 0 538.14661579938547 -388.6730099561579 0 0 0 0 -156.68997645452328 180.83773640192578 0 180.83773640192578 -24.239852788602775 0 0 0 0 14.607325138320448 57.789566718027231 0 57.789566718027231 21.321382468352709 0 0 0 0 73.617881211568601 -25.505516059191734 0 -25.505516059191734 337.27778387268199 0 0 0 0 39.969759682095173 79.259155994590969 0 79.259155994590969 32.108774745840201 0 0 0 0 9.5454057528550038 -31.212786272477842 0 -31.212786272477842 156.87314373041346 0 0 0 0 86.903625707023821 -162.20259738442616 0 -162.20259738442616 48.418897664559836 0 0 0 0 297.83011819916646 -111.07175633368837 0 -111.07175633368837 -19.722014302345769 0 0 0 0 297.77865750198509 -126.59538959174152 0 -126.59538959174152 -15.313197851662608 0 0 0 0 62.833467127275071 29.951760851882341 0 29.951760851882341 -67.992640891354256 0 0 0 0 512.49696490772476 122.98757003321134 0 122.98757003321134 -34.514124333532209 0 0 0 0 473.72102877976795 66.556341807762095 0 66.556341807762095 59.340985233860522 0 0 0 0 368.81679450676165 329.06769149756707 0 329.06769149756707 253.44818692893455 0 0 0 0 184.99311654826306 34.8036400994053 0 34.8036400994053 -86.494499442803772 0 0 0 0 418.05038257006527 -192.5569109180276 0 -192.5569109180276 113.59818254329915 0 0 0 0 719.61873880598432 -421.96311178828887 0 -421.96311178828887 510.66653988464395 0 0 0 0 293.78079003286257 40.48836633014821 0 40.48836633014821 85.606562115341603 0 0 0 0 101.27037543779807 161.25506786756074 0 161.25506786756074 526.00850094069438 0 0 0 0 9.8603071659340173 2.0734703033210486 0 2.0734703033210486 -0.18624312524763975 0 0 0 0 1575.5119835440564 -549.25851365635924 0 -549.25851365635924 -530.44478789810182 0 0 0 0 -363.07172206224641 -5.2410729510615965 0 -5.2410729510615965 -315.01148254837403 0 0 0 0 380.65308851820009 403.7878161940082 0 403.7878161940082 591.27779925302752 0 0 0 0 1094.2738936598325 254.77152292436949 0 254.77152292436949 112.83821619721175 0 0 0 0 489.64284763798059 -358.38462838289468 0 -358.38462838289468 -175.81743240404376 0 0 0 0 64.497923971954151 146.45158310772436 0 146.45158310772436 382.29870972322601 0 0 0 0 183.71691675420152 -18.18031022154014 0 -18.18031022154014 -221.55158688930669 0 0 0 0 37.496136202578782 32.516146004694122 0 32.516146004694122 169.32132688783949 0 0 0 0 26.628144212539183 2.0610917272436851 0 2.0610917272436851 -0.31310781118947029 0 0 0 0 41.868659399948228 30.460971421274294 0 30.460971421274294 80.742014887363894 0 0 0 0 37.792814725591597 14.145541111560249 0 14.145541111560249 129.56115041594228 0 0 0 0 24.529149241534469 85.593148770855805 0 85.593148770855805 129.47762358607335 0 0 0 0 23.161029104578347 107.95211762329404 0 107.95211762329404 47.173145120613071 0 0 0 0 141.16924972030392 121.04186330084076 0 121.04186330084076 75.012033817518159 0 0 0 0 244.88304066381534 175.76915402993396 0 175.76915402993396 102.28100167342575 0 0 0 0 16.94399262240222 27.603959339415979 0 27.603959339415979 269.10590196836063 0 0 0 0 285.03946218249621 159.94459901170103 0 159.94459901170103 -54.145619835154776 0 0 0 0 19.209144567220392 200.12282487427308 0 200.12282487427308 -149.13296955775513 0 0 0 0 10.952577203861438 126.08613668737826 0 126.08613668737826 3.4746127698851978 0 0 0 0 138.69183914352016 105.44657444834752 0 105.44657444834752 -23.143976357720021 0 0 0 0 160.88529716764242 72.365112266923234 0 72.365112266923234 -93.99208726951565 0 0 0 0 106.55595434231873 166.67806544343239 0 166.67806544343239 -123.87914519765309 0 0 0 0 188.08492456293607 49.57475611936934 0 49.57475611936934 -70.039084443297725 0 0 0 0 357.18844641788746 4.9489179902511751 0 4.9489179902511751 -96.26843514275879 0 0 0 0 320.15850589459569 14.355059353115962 0 14.355059353115962 -89.974168412984909 0 0 0 0 312.53619485296804 -120.66831523153814 0 -120.66831523153814 -81.364603779688338 0 0 0 0 211.33843443052319 53.971591729688043 0 53.971591729688043 -88.003717308305568 0 0 0 0 239.66291159222965 -46.314257493078003 0 -46.314257493078003 -31.392306099573034 0 0 0 0 198.62717851419802 42.254097987492514 0 42.254097987492514 -96.842996662774567 0 0 0 0 99.412274618844094 95.997518858634976 0 95.997518858634976 -83.430932587285497 0 0 0 0 144.60265373942093 6.7461529794491071 0 6.7461529794491071 -64.546652352604724 0 0 0 0 162.35669450581372 56.251419794152753 0 56.251419794152753 -72.445211721795204 0 0 0 0 112.09016747433634 41.922054717267201 0 41.922054717267201 -73.278728842188741 0 0 0 0 89.01503333679284 40.058688194991191 0 40.058688194991191 -13.54231183455704 0 0 0 0 136.04744051308808 22.139070801653361 0 22.139070801653361 -92.331875632324227 0 0 0 0 160.25240875579038 33.382741777896626 0 33.382741777896626 -85.119291061791273 0 0 0 0 97.760473689329729 12.969479339483966 0 12.969479339483966 -15.868145979676765 0 0 0 0 99.984874121655594 -5.3963067498466444 0 -5.3963067498466444 14.536886685973514 0 0 0 0 23.707672345279796 19.358184101639218 0 19.358184101639218 30.042840335322278 0 0 0 0 92.433888303916319 24.413183812017451 0 24.413183812017451 -2.9022055297627958 0 0 0 0 73.399484273591952 63.394610022101915 0 63.394610022101915 -22.4251267167474 0 0 0 0 75.397708173361025 55.893079443505485 0 55.893079443505485 0.45328314537528058 0 0 0 0 86.666958576848629 48.417382359347812 0 48.417382359347812 -38.939696348956204 0 0 0 0 60.252866511957109 55.057835148509184 0 55.057835148509184 -40.599032241136683 0 0 0 0 7.846841400919395 16.931312073852311 0 16.931312073852311 30.531329735606722 0 0 0 0 -11.260133696494449 133.73492535148353 0 133.73492535148353 -73.196403740263122 0 0 0 0 177.18411666864449 37.293432943396056 0 37.293432943396056 -80.172452331570639 0 0 0 0 -50.183930367922585 83.40882047251489 0 83.40882047251489 -47.27590939303991 0 0 0 0 8.2996938482043277 15.312816128708462 0 15.312816128708462 26.660203717823045 0 0 0 0 -141.46072658314552 235.87464755971791 0 235.87464755971791 -124.12733544249659 0 0 0 0 -27.769517840442859 -99.693528501923026 0 -99.693528501923026 137.9294390620357 0 0 0 0 182.63463617707748 -144.85093885231936 0 -144.85093885231936 74.626033501174334 0 0 0 0 101.01517752552172 -5.7548511562181375 0 -5.7548511562181375 35.657610341705549 0 0 0 0 135.01797608066499 -61.346997414280963 0 -61.346997414280963 -15.940554710078686 0 0 0 0 83.997460767353914 58.111196861833378 0 58.111196861833378 -16.538324358990849 0 0 0 0 128.4573514737931 2.3650269895072142 0 2.3650269895072142 -45.213272550877264 0 0 0 0 3117.3030091986793 -507.54844846441154 0 -507.54844846441154 -559.62545343451529 0 0 0 0 2979.8099572868705 -974.24074863437488 0 -974.24074863437488 139.33445017510553 0 0 0 0 -3.0780541187077688 189.3938931114767 0 189.3938931114767 -114.83645066057306 0 0 0 0 39.159499569712565 31.725238890601517 0 31.725238890601517 17.607675132488531 0 0 0 0 2633.1642985865228 -810.06427107009108 0 -810.06427107009108 272.08340082091422 0 0 0 0 4499.4852746794068 -1243.9385817449206 0 -1243.9385817449206 -214.68759198445761 0 0 0 0 2979.659065067005 -1733.6754243097751 0 -1733.6754243097751 875.14370090545549 0 0 0 0 -264.8082417159485 174.14335769411636 0 174.14335769411636 400.95897267199871 0 0 0 0 1117.1211370087294 903.33382549319299 0 903.33382549319299 692.39098582078236 0 0 0 0 4497.598124534019 -2250.6385333940284 0 -2250.6385333940284 961.09842660653965 0 0 0 0 422.38226220259094 51.180336439885423 0 51.180336439885423 -200.67536490157318 0 0 0 0 18.044281470379847 9.955801665179342 0 9.955801665179342 6.9480459142873059 0 0 0 0 2064.1777943190391 1224.4152175412528 0 1224.4152175412528 344.61649152445239 0 0 0 0 4491.6361368924181 421.5563116389618 0 421.5563116389618 -700.81382003488352 0 0 0 0 1981.4683855664007 77.270969490536288 0 77.270969490536288 -621.23795960716075 0 0 0 0 1932.9768197328085 -39.719506819598053 0 -39.719506819598053 -542.05586710610453 0 0 0 0 1119.5762345563344 -166.89830390829502 0 -166.89830390829502 -578.8255454391483 0 0 0 0 1240.2044967659167 180.15759798784961 0 180.15759798784961 -453.25762186583671 0 0 0 0 1600.7784168814687 176.17660813087139 0 176.17660813087139 -498.63384591587266 0 0 0 0 1995.9030174065592 187.91474257672041 0 187.91474257672041 -505.71509500910634 0 0 0 0 945.29089764918172 212.13774771886074 0 212.13774771886074 2.5434438351265953 0 0 0 0 1506.7687080671676 438.35827757158035 0 438.35827757158035 -286.05258979030805 0 0 0 0 180.27387407907918 268.43161811843652 0 268.43161811843652 714.97491785794944 0 0 0 0 1668.2773874388686 57.118229106851302 0 57.118229106851302 -69.727774310520772 0 0 0 0 -342.97830755774703 158.06673449794312 0 158.06673449794312 520.91395364927075 0 0 0 0 175.27771002242545 -44.436494126489606 0 -44.436494126489606 -75.225662024364851 0 0 0 0 5.587582866202915 12.017168032549833 0 12.017168032549833 21.353592826348951 0 0 0 0 -218.59100139867223 120.32015447110871 0 120.32015447110871 -51.287955454404255 0 0 0 0 -409.00554526517772 421.59133044610257 0 421.59133044610257 -96.597710373525388 0 0 0 0 -4.4561621108296094 66.184806915743934 0 66.184806915743934 -10.068942780699786 0 0 0 0 57.33237193608511 264.90687764757081 0 264.90687764757081 -234.00207320338609 0 0 0 0 -527.39106246631854 239.83655743411327 0 239.83655743411327 -10.427120064643532 0 0 0 0 430.77298535928276 -358.19076309762528 0 -358.19076309762528 -242.11806410058739 0 0 0 0 -679.61199025493988 511.60983403625232 0 511.60983403625232 -223.21385948328862 0 0 0 0 2.5556309389405101 5.1274374754642906 0 5.1274374754642906 8.4397271626758066 0 0 0 0 -766.46004081792489 299.5270237878957 0 299.5270237878957 -300.18507807969792 0 0 0 0 -717.25750571539538 330.21429947280637 0 330.21429947280637 -315.05356453371553 0 0 0 0 163.78989339025065 136.36520747794737 0 136.36520747794737 -89.805738307306683 0 0 0 0 -794.04471720103538 314.21286591098976 0 314.21286591098976 -295.56221239379329 0 0 0 0 -844.35800748118709 361.48614528298555 0 361.48614528298555 -253.98456389287901 0 0 0 0 9.5552595602863413 0.35595751330458114 0 0.35595751330458114 -3.6779068328342843 0 0 0 0 -682.3618053013779 394.06488002314109 0 394.06488002314109 -297.61027314989042 0 0 0 0 -48.467834373512233 165.33572415644602 0 165.33572415644602 -40.55236428921171 0 0 0 0 108.90856842289577 31.044088821550758 0 31.044088821550758 39.564039493410974 0 0 0 0 17.9742050040295 54.913186157785617 0 54.913186157785617 -43.671352995715097 0 0 0 0 32.504372008872451 27.214538799509342 0 27.214538799509342 130.48798639372444 0 0 0 0 40.846251454179423 3.8926896393277204 0 3.8926896393277204 -2.8919800335252699 0 0 0 0 1052.9751971518272 963.56495185417248 0 963.56495185417248 -651.9843146393431 0 0 0 0 38.75475649985728 4.3763876764251455 0 4.3763876764251455 -2.2073418722735942 0 0 0 0 123.35902773335874 53.325819855849602 0 53.325819855849602 -223.01616579304095 0 0 0 0 126.59943888056932 608.68962837658944 0 608.68962837658944 956.93629783769302 0 0 0 0 2266.3800285857978 1856.7905627564076 0 1856.7905627564076 1055.0835958095811 0 0 0 0 21.289525802988123 0.59867554962309733 0 0.59867554962309733 0.86495835182918579 0 0 0 0 4496.4283408612428 1277.095822114539 0 1277.095822114539 -479.51048269012273 0 0 0 0 4493.3926146943659 -1254.5195383662501 0 -1254.5195383662501 -583.65182753427644 0 0 0 0 830.78121682821075 -1293.9498631615106 0 -1293.9498631615106 58.438129675632595 0 0 0 0 1956.3519148759806 -176.87283242872269 0 -176.87283242872269 -148.6673535441937 0 0 0 0 919.93683672364568 257.99530497039132 0 257.99530497039132 155.64010538982029 0 0 0 0 1400.3686010718229 -337.25256290898938 0 -337.25256290898938 666.02662769513677 0 0 0 0 1328.9150989309892 -33.600408273777703 0 -33.600408273777703 11.659584077912768 0 0 0 0 1267.3416343326244 33.967656169175143 0 33.967656169175143 -6.3402555550032389 0 0 0 0 863.12937337632684 133.26773296019502 0 133.26773296019502 679.41027594380785 0 0 0 0 926.81751523542334 -10.402989914975336 0 -10.402989914975336 820.00248048946412 0 0 0 0 -1562.2299609074398 1122.6780405550599 0 1122.6780405550599 911.32256610507739 0 0 0 0 710.48007701555616 -2.2244089485257064 0 -2.2244089485257064 -113.34934629273744 0 0 0 0 620.64802171084739 -9.3153679730535259 0 -9.3153679730535259 -113.83820886335639 0 0 0 0 378.31711435891521 58.449797644281716 0 58.449797644281716 -6.8252322287580682 0 0 0 0 383.88201201595075 48.963792428137822 0 48.963792428137822 -65.769447430282526 0 0 0 0 15.214332710209419 96.177901966082572 0 96.177901966082572 5.5027708710335901 0 0 0 0 0.12732271182034083 -0.40923450204795131 0 -0.40923450204795131 -1.571517357848137 0 0 0 0 89.095974160067271 -142.04823820270138 0 -142.04823820270138 39.705004205494333 0 0 0 0 332.77748626098037 -177.58608528076479 0 -177.58608528076479 14.96771304023423 0 0 0 0 199.72126037362614 -61.277445678265167 0 -61.277445678265167 -78.853067915436895 0 0 0 0 169.01006025008974 106.87178057410802 0 106.87178057410802 -98.289995992954942 0 0 0 0 52.13083982776152 108.88331661565007 0 108.88331661565007 -26.810221878305128 0 0 0 0 11.505445535374747 29.272332842485639 0 29.272332842485639 -48.388716755784117 0 0 0 0 -28.163709261520125 56.794573991363677 0 56.794573991363677 -15.104236876962659 0 0 0 0 24.002049477188848 92.39631184830273 0 92.39631184830273 -14.643304760985668 0 0 0 0 156.18742821646447 60.204971544090427 0 60.204971544090427 -43.938640502925182 0 0 0 0 156.24214601408312 68.394704331770981 0 68.394704331770981 14.713806264868708 0 0 0 0 310.4909389785953 32.533725276506672 0 32.533725276506672 -24.688663119161447 0 0 0 0 359.47890424599245 -37.388904844346257 0 -37.388904844346257 -50.234876107835134 0 0 0 0 628.32924218793414 -190.11981260162588 0 -190.11981260162588 10.737572537265123 0 0 0 0 389.00039080267015 -7.887570209432397 0 -7.887570209432397 -68.783384964627203 0 0 0 0 300.56513405096484 -61.325580036442943 0 -61.325580036442943 173.38080068870977 0 0 0 0 936.46960256356033 -510.08471244474703 0 -510.08471244474703 224.18450845051689 0 0 0 0 659.71597866068259 -164.0986047113563 0 -164.0986047113563 -121.43464772988409 0 0 0 0 715.63766270591441 370.36102489365931 0 370.36102489365931 -302.85997382485652 0 0 0 0 12.146972843786017 -2.0294744528602173 0 -2.0294744528602173 0.26889282174937135 0 0 0 0 1255.1405268982344 -202.04740195252316 0 -202.04740195252316 -303.29451828884322 0 0 0 0 61.880658013558786 -57.94886428451008 0 -57.94886428451008 -7.24329624712027 0 0 0 0 347.46746007457841 50.509212182732881 0 50.509212182732881 -53.715869949917078 0 0 0 0 605.74096449281933 -207.04459824214166 0 -207.04459824214166 7.6418595551249382 0 0 0 0 700.44117613205162 -76.502057989939203 0 -76.502057989939203 -242.69227238755025 0 0 0 0 324.81184680885053 -135.03485941682311 0 -135.03485941682311 34.488589682357656 0 0 0 0 979.03278147518722 -114.37415453388894 0 -114.37415453388894 -272.88720171189107 0 0 0 0 712.43552820755247 -169.13795802346741 0 -169.13795802346741 -121.06880842752935 0 0 0 0 964.39657427522616 -304.32903405357206 0 -304.32903405357206 -101.49785883365439 0 0 0 0 1374.5262083565322 -220.00471857477532 0 -220.00471857477532 -245.02565578249755 0 0 0 0 719.00621881999541 -248.47566757656432 0 -248.47566757656432 -51.473511810735317 0 0 0 0 1005.5921470109861 -577.17472989404655 0 -577.17472989404655 183.09596836999572 0 0 0 0 904.05126290422049 -488.39069526914409 0 -488.39069526914409 168.65859822634241 0 0 0 0 2131.5241981163717 -3.7883936326544472 0 -3.7883936326544472 -167.05849592983668 0 0 0 0 1770.0129352292734 -1385.2042609372807 0 -1385.2042609372807 1007.7008859579801 0 0 0 0 21.516116556042107 -66.758368608863748 0 -66.758368608863748 258.61918350630231 0 0 0 0 253.66114195338741 -214.01294057826271 0 -214.01294057826271 214.99129608586009 0 0 0 0 616.48683766374961 -433.73247633590381 0 -433.73247633590381 227.72837031022209 0 0 0 0 645.36589335790632 -797.54284994494083 0 -797.54284994494083 729.93765979766613 0 0 0 0 112.18574795930181 -300.65067892957632 0 -300.65067892957632 364.18065694146298 0 0 0 0 167.06563400361119 -228.4685242694909 0 -228.4685242694909 379.23158270672138 0 0 0 0 -136.16954625757353 41.491854834592232 0 41.491854834592232 521.22720913571084 0 0 0 0 -8.6245527451537782 66.82477848533199 0 66.82477848533199 63.434096442537339 0 0 0 0 -187.74419977099024 279.65778591206436 0 279.65778591206436 30.174671849683364 0 0 0 0 -419.57432795034038 -140.2486545049735 0 -140.2486545049735 1019.8354296197358 0 0 0 0 -24.061542257146357 679.32857760337197 0 679.32857760337197 432.82438181318503 0 0 0 0 -385.67882318402553 32.889741329079698 0 32.889741329079698 213.73485358417201 0 0 0 0 -209.66999777698948 -142.29939945484375 0 -142.29939945484375 -31.481066125448706 0 0 0 0 -6.6622526730422749 2.639922853001579 0 2.639922853001579 -1.0535722226914501 0 0 0 0 -9.2829622730205301 70.714289130480211 0 70.714289130480211 61.084837910876558 0 0 0 0 4.1301366131083341 18.11991942889199 0 18.11991942889199 -204.83696972570306 0 0 0 0 -79.280686722937389 2.7783375150620486 0 2.7783375150620486 74.631931967162018 0 0 0 0 -19.51781164165854 8.9442450081009355 0 8.9442450081009355 -0.27853371306026986 0 0 0 0 695.66333188299177 309.68405604300369 0 309.68405604300369 1812.8383705124327 0 0 0 0 643.38811475667171 -149.44951797417934 0 -149.44951797417934 -286.8073248518167 0 0 0 0 822.79920699636568 282.08696269563643 0 282.08696269563643 7.0565557753729991 0 0 0 0 768.24727968360094 175.52290454754461 0 175.52290454754461 236.44988587324224 0 0 0 0 2534.2261225037792 -1169.3661030528065 0 -1169.3661030528065 490.97194821182711 0 0 0 0 2273.405601109218 437.02075388784942 0 437.02075388784942 44.613907844455753 0 0 0 0 129.78670631315617 -479.8070596035468 0 -479.8070596035468 967.17235527546836 0 0 0 0 1048.8162075810396 -436.22348120722745 0 -436.22348120722745 129.23984220057173 0 0 0 0 847.21199427421016 -1085.1112565997696 0 -1085.1112565997696 661.26212832516285 0 0 0 0 375.5625657766941 -240.06498417738021 0 -240.06498417738021 201.2535226106902 0 0 0 0 77.113115084029261 -9.4227058902585981 0 -9.4227058902585981 -3.2024697486766054 0 0 0 0 28.253338315259043 -4.422081643320297 0 -4.422081643320297 2.2983381811532184 0 0 0 0 805.98482706742652 -1363.8358064683925 0 -1363.8358064683925 2082.9116756721005 0 0 0 0 437.05513021755905 610.31148582115702 0 610.31148582115702 372.5010477460653 0 0 0 0 33.049115111491119 -138.75087979810542 0 -138.75087979810542 26.570178078255594 0 0 0 0 358.5792687130338 -92.996596726394131 0 -92.996596726394131 -139.31461906221557 0 0 0 0 431.68467076517845 218.72908413709661 0 218.72908413709661 -112.17714827303735 0 0 0 0 894.73549804395589 217.97520712000801 0 217.97520712000801 -184.94403014125146 0 0 0 0 216.56550679592328 -7.6951212993631088 0 -7.6951212993631088 -141.83755800671906 0 0 0 0 23.586597656576746 -3.3790135351813291 0 -3.3790135351813291 -3.4833523049921453 0 0 0 0 80.06788441563549 58.318745292322092 0 58.318745292322092 -55.594026861027942 0 0 0 0 146.70621530678909 24.612143025778551 0 24.612143025778551 -63.444651114124099 0 0 0 0 121.18197193212669 -1.6704559692687333 0 -1.6704559692687333 -4.017747745454554 0 0 0 0 150.55335532475146 -32.045927855180253 0 -32.045927855180253 -52.020997011137297 0 0 0 0 346.54636364801991 -289.82888869201088 0 -289.82888869201088 354.40593608313566 0 0 0 0 120.68897496829413 -51.178140800809331 0 -51.178140800809331 -61.327613126859433 0 0 0 0 21.260522520369861 -6.5418076967703769 0 -6.5418076967703769 -18.933470283099183 0 0 0 0 214.07226877062931 1.6749825780278798 0 1.6749825780278798 -69.42375679441102 0 0 0 0 176.73522484811838 -72.888321421267847 0 -72.888321421267847 -107.85502161965428 0 0 0 0 272.94588792249579 88.296823524992462 0 88.296823524992462 -60.211162046094614 0 0 0 0 137.89199553120125 -15.484722021468315 0 -15.484722021468315 -73.150517057629713 0 0 0 0 135.16469472705151 9.0347983262658289 0 9.0347983262658289 -4.2142198702666764 0 0 0 0 180.79833672148379 43.48757276541221 0 43.48757276541221 -59.062878353161977 0 0 0 0 173.39288983195729 52.394689569397315 0 52.394689569397315 -69.606263906599906 0 0 0 0 167.62503414589082 83.248988660408088 0 83.248988660408088 -38.500568727803511 0 0 0 0 138.2523922488399 63.112048835417625 0 63.112048835417625 -53.243807801452022 0 0 0 0 162.05414031322289 150.35376867402738 0 150.35376867402738 -43.082574752111668 0 0 0 0 65.034930607216666 203.6932706853222 0 203.6932706853222 345.55203900998185 0 0 0 0 1.4466967959379531 -1.521377176582579 0 -1.521377176582579 0.090933240354184708 0 0 0 0 -5.4779933566023828 110.1388572696701 0 110.1388572696701 50.788693416028764 0 0 0 0 17.320765614043921 69.301648864422077 0 69.301648864422077 96.822473873970921 0 0 0 0 82.586902806599937 59.341606092387423 0 59.341606092387423 0.39732608294754712 0 0 0 0 5.1323744780951017 14.197118099591529 0 14.197118099591529 0.44935362578206373 0 0 0 0 13.455745566694532 82.618140403889811 0 82.618140403889811 -105.69961240003545 0 0 0 0 11.085092028177314 79.395662203011852 0 79.395662203011852 -109.09761896413784 0 0 0 0 143.68219153456448 15.748677579656032 0 15.748677579656032 -247.302492205612 0 0 0 0 105.13837447672995 65.162212769128473 0 65.162212769128473 -108.45250572755222 0 0 0 0 105.68605993591336 71.449582743839528 0 71.449582743839528 -69.917012552384904 0 0 0 0 27.971238999994966 113.4552954193457 0 113.4552954193457 -109.86139920560527 0 0 0 0 -38.167597744242812 79.656550157439597 0 79.656550157439597 -85.157598955456706 0 0 0 0 -129.92696075340427 147.20255038616119 0 147.20255038616119 -102.68753752155817 0 0 0 0 -1.457114374191363 -0.9479292054985109 0 -0.9479292054985109 -3.8592435215749177 0 0 0 0 289.51431984290684 -133.82194080072213 0 -133.82194080072213 -1.2363031624306586 0 0 0 0 130.73751789464222 9.1130106866232836 0 9.1130106866232836 -46.253281069935838 0 0 0 0 186.89077756190818 -31.819413117655586 0 -31.819413117655586 -67.477734824219766 0 0 0 0 18.796972323454511 -3.637818698029875 0 -3.637818698029875 -9.4430912472135695 0 0 0 0 10.236194498098484 79.420271813250565 0 79.420271813250565 -85.459798939494249 0 0 0 0 412.53039752639597 136.55339960668107 0 136.55339960668107 -135.49038644809843 0 0 0 0 246.30364712863957 -96.045540999762807 0 -96.045540999762807 -127.49848772807763 0 0 0 0 594.20283941348316 498.28436438027347 0 498.28436438027347 715.86677120268359 0 0 0 0 604.56354205607397 73.678945321282299 0 73.678945321282299 -123.86296891258917 0 0 0 0 218.21900111823925 -188.70287936694194 0 -188.70287936694194 -293.84447199694728 0 0 0 0 -6.5035626169155876 -57.149431322217424 0 -57.149431322217424 -38.29416596624651 0 0 0 0 175.34523839216126 -5.0490720412178689 0 -5.0490720412178689 -47.91304181013038 0 0 0 0 146.60152633453981 15.116840070456419 0 15.116840070456419 -61.163867846133144 0 0 0 0 144.61020463594468 77.345414864619215 0 77.345414864619215 24.257308178667699 0 0 0 0 55.667851496595176 85.860450353017086 0 85.860450353017086 -71.605194327013123 0 0 0 0 93.51650797163893 93.47974258543627 0 93.47974258543627 -72.460703918577565 0 0 0 0 131.25656839969452 17.26221695144568 0 17.26221695144568 -21.278738517803504 0 0 0 0 262.48275473670219 191.35382170256617 0 191.35382170256617 27.774064806016668 0 0 0 0 252.02303394375485 7.2550317809077569 0 7.2550317809077569 -21.761244734116872 0 0 0 0 177.86690384007306 77.111929454124038 0 77.111929454124038 -35.594276879460267 0 0 0 0 210.89603061263551 109.27181207807894 0 109.27181207807894 -6.5694092631110834 0 0 0 0 222.63113936021546 127.22541123065378 0 127.22541123065378 -130.19913524089861 0 0 0 0 211.88148464488768 59.393238089375473 0 59.393238089375473 -36.87862459116036 0 0 0 0 0.26355902011425769 -0.54055908130372643 0 -0.54055908130372643 -0.78466787338233601 0 0 0 0 220.19180464158126 -1.4783333883076466 0 -1.4783333883076466 54.948164887813391 0 0 0 0 277.10402615215571 -61.798174751390206 0 -61.798174751390206 12.15340668342742 0 0 0 0 231.73305489949416 -37.778285470415312 0 -37.778285470415312 30.522649798493148 0 0 0 0 0.41569214323787307 -0.9933941489932181 0 -0.9933941489932181 -2.4043972399074267 0 0 0 0 341.16475909495875 22.363977549291093 0 22.363977549291093 -47.919934364152141 0 0 0 0 246.79835609814472 18.794811645006121 0 18.794811645006121 -3.9567702525366713 0 0 0 0 195.52951096139441 64.284232503438034 0 64.284232503438034 -41.056411031923744 0 0 0 0 196.43652275144996 53.914036092154674 0 53.914036092154674 -98.458928699369608 0 0 0 0 230.3146426116291 -7.5619151744372175 0 -7.5619151744372175 -45.031833850657321 0 0 0 0 196.58707254823639 49.312136298403971 0 49.312136298403971 -80.279034910810424 0 0 0 0 295.6678615250421 -51.020921862212163 0 -51.020921862212163 -27.498436846235734 0 0 0 0 203.78298639104833 -11.621253997868962 0 -11.621253997868962 -63.028169327535124 0 0 0 0 243.57601160216655 19.542786582630242 0 19.542786582630242 -56.928045192091759 0 0 0 0 249.33640599242062 -53.391290818988637 0 -53.391290818988637 -20.383919171696107 0 0 0 0 0.43045332229696953 -1.4377922381390817 0 -1.4377922381390817 -3.4581224814068712 0 0 0 0 369.54761413006054 -4.1493953897247593 0 -4.1493953897247593 -26.888214556653566 0 0 0 0 343.80620252252265 -84.070700433600109 0 -84.070700433600109 -28.569778102588124 0 0 0 0 261.29435064096469 -61.828907651555255 0 -61.828907651555255 12.592068736716101 0 0 0 0 291.808371505168 -61.898966902524478 0 -61.898966902524478 -5.0928399407894176 0 0 0 0 46.337140662843012 68.047237623291039 0 68.047237623291039 -172.26055854340598 0 0 0 0 24.129397008298838 75.185394168876883 0 75.185394168876883 -288.46743808661313 0 0 0 0 -271.74953715644369 280.59909562834309 0 280.59909562834309 -204.57677162054665 0 0 0 0 -79.291099519650743 89.749778918167522 0 89.749778918167522 -141.82215166234892 0 0 0 0 -39.336902968632785 131.64302479430899 0 131.64302479430899 -124.25499743225191 0 0 0 0 116.26023007312324 75.444626082905415 0 75.444626082905415 -121.63418379914174 0 0 0 0 24.385577046821709 62.188508396577618 0 62.188508396577618 -96.105958636170726 0 0 0 0 118.88756548998208 33.917201747738773 0 33.917201747738773 -56.970118560985384 0 0 0 0 38.111174931524147 52.663825284581435 0 52.663825284581435 -77.119235567787655 0 0 0 0 27.681340443530644 33.851608633527576 0 33.851608633527576 -58.785775206577455 0 0 0 0 126.98105591022613 31.514577705314196 0 31.514577705314196 -98.099905056344141 0 0 0 0 143.55037189940413 51.686045080994518 0 51.686045080994518 -79.073272535797514 0 0 0 0 216.98498080186255 29.300518924899166 0 29.300518924899166 -89.747250006665581 0 0 0 0 146.41376593364112 0.059494439981563119 0 0.059494439981563119 -50.38851058681314 0 0 0 0 140.66312988735444 54.61400324611941 0 54.61400324611941 -77.950590235233904 0 0 0 0 -23.690754787327023 56.1062857881318 0 56.1062857881318 -29.251813986943944 0 0 0 0 4.5665560816996731 55.328660341495151 0 55.328660341495151 -30.2107473405826 0 0 0 0 -32.551550310918174 24.432289000134006 0 24.432289000134006 -95.702864832343039 0 0 0 0 34.634354629182781 52.756674303846694 0 52.756674303846694 -86.270882341278593 0 0 0 0 -61.872488488414092 90.180049839163757 0 90.180049839163757 -81.645004328770483 0 0 0 0 -4.8772558493656106 55.788176044095962 0 55.788176044095962 -79.712098050362414 0 0 0 0 -3.1841636685276171 85.708083134329172 0 85.708083134329172 -32.337397971199835 0 0 0 0 -9.7729870725524961 67.11223631178882 0 67.11223631178882 -26.638896473612476 0 0 0 0 -11.551793410908431 60.679729540844164 0 60.679729540844164 -64.375391255871136 0 0 0 0 -3.8753056687564822 102.27529913314413 0 102.27529913314413 -105.56538941071369 0 0 0 0 -3.3687290142406709 104.31669674937916 0 104.31669674937916 -84.855335464706059 0 0 0 0 -69.497751639879425 79.203580900505131 0 79.203580900505131 -92.750318890965843 0 0 0 0 34.32541100792514 66.309174116776717 0 66.309174116776717 -46.651621233602782 0 0 0 0 32.48552223936349 86.795880416252487 0 86.795880416252487 -40.575773722977601 0 0 0 0 308.07388089381857 -25.632179432693647 0 -25.632179432693647 -100.97228829373847 0 0 0 0 295.26546126691392 -45.030140404191002 0 -45.030140404191002 15.979755139957774 0 0 0 0 330.10740959775285 -74.831583886372442 0 -74.831583886372442 -38.635302839066071 0 0 0 0 31.141670304146828 235.94902294853784 0 235.94902294853784 -234.78429024943864 0 0 0 0 270.87180598931445 136.69844631924497 0 136.69844631924497 -194.1182886846949 0 0 0 0 715.3234846411292 -483.7089137236643 0 -483.7089137236643 248.74150779203228 0 0 0 0 -261.15775324008428 280.13012332725185 0 280.13012332725185 -199.13323225153192 0 0 0 0 1.7516811119501483 0.87759990277638167 0 0.87759990277638167 0.11951291754636895 0 0 0 0 480.87228638910892 1.6067090156445829 0 1.6067090156445829 -16.920479234992399 0 0 0 0 739.61458969469095 -207.36269507098751 0 -207.36269507098751 83.152784532350836 0 0 0 0 400.27150342735695 -36.762742875530371 0 -36.762742875530371 59.632413020538863 0 0 0 0 571.75294289291924 -230.9034306273015 0 -230.9034306273015 148.77453853545927 0 0 0 0 355.38525606878102 -32.982568934833743 0 -32.982568934833743 117.63298521203137 0 0 0 0 375.71509111963678 -296.30458924584696 0 -296.30458924584696 234.68237493642795 0 0 0 0 410.71260610038007 -313.05732360957973 0 -313.05732360957973 228.34345995266608 0 0 0 0 382.14679949627316 -245.71172405375077 0 -245.71172405375077 254.73951956633005 0 0 0 0 341.28064825189358 -110.4537886347714 0 -110.4537886347714 100.08334711812566 0 0 0 0 488.16935763424772 -130.53821954176445 0 -130.53821954176445 40.12048769802152 0 0 0 0 6.4119156570578184 1.8039010082391798 0 1.8039010082391798 -0.31091579949519232 0 0 0 0 -110.10204158787383 193.33707045316382 0 193.33707045316382 -215.60691363215531 0 0 0 0 -0.48355038459527577 1.2185781375842808 0 1.2185781375842808 0.96369361790223707 0 0 0 0 -94.186190209242341 120.60188086383091 0 120.60188086383091 -176.47409247097957 0 0 0 0 -57.169101848412538 107.78093034894037 0 107.78093034894037 -195.38542554324346 0 0 0 0 -11.83879073796561 112.7465450905994 0 112.7465450905994 -200.32638744807207 0 0 0 0 -11.953394739502983 118.80174037398547 0 118.80174037398547 -177.50859802721834 0 0 0 0 -62.853775250652689 133.28838051659591 0 133.28838051659591 -185.25039882676151 0 0 0 0 15.040146213463231 63.581573781619198 0 63.581573781619198 -127.13923865802462 0 0 0 0 -11.217686052274075 112.78486516501846 0 112.78486516501846 -190.66531834141736 0 0 0 0 -8.9022366340645931 81.226269569021042 0 81.226269569021042 -159.57428434306098 0 0 0 0 -1.1820184875032282 79.725963319984089 0 79.725963319984089 -174.685618923638 0 0 0 0 -56.481604119879194 121.16727245961624 0 121.16727245961624 -169.07064909265227 0 0 0 0 -18.450406281946925 138.22699764792742 0 138.22699764792742 -219.83375150630104 0 0 0 0 245.88373302270338 -22.386512815391598 0 -22.386512815391598 30.943806949358759 0 0 0 0 348.8994721019626 -48.7223713687398 0 -48.7223713687398 -32.090604695554646 0 0 0 0 0.45442509364293215 -1.5590399707281364 0 -1.5590399707281364 -3.3088764812332538 0 0 0 0 0.31363461136484005 -1.0250243775767842 0 -1.0250243775767842 -1.3875691156306251 0 0 0 0 203.78857717621577 -97.008816459561586 0 -97.008816459561586 -4.4557376772453949 0 0 0 0 294.14108090893205 -53.763115770584079 0 -53.763115770584079 3.8788641098451535 0 0 0 0 290.42101463948347 -78.339647554537692 0 -78.339647554537692 -26.268266242696427 0 0 0 0 293.57058957907248 -60.126071399609231 0 -60.126071399609231 -66.962955553819029 0 0 0 0 334.92753696790896 -69.121274925053569 0 -69.121274925053569 -24.597725507936659 0 0 0 0 307.61400648887866 -41.744031599282287 0 -41.744031599282287 78.065547602453677 0 0 0 0 296.00537959110807 83.490345166663786 0 83.490345166663786 -19.182843781667415 0 0 0 0 299.24520448855765 19.436423293135604 0 19.436423293135604 -144.3348590787387 0 0 0 0 259.71286110152141 40.297164615029388 0 40.297164615029388 -79.594055442620814 0 0 0 0 281.02524351286957 -139.57413043011684 0 -139.57413043011684 -52.512330046110492 0 0 0 0 368.88207424605298 2.9801158642091785 0 2.9801158642091785 -127.01151259638732 0 0 0 0 251.00890310226441 -66.496971261331169 0 -66.496971261331169 -119.86429441488428 0 0 0 0 214.61581879371806 -66.701569195088695 0 -66.701569195088695 -107.03482108209676 0 0 0 0 265.57348044685205 -65.998605249437546 0 -65.998605249437546 -150.42784237547306 0 0 0 0 278.35872781919898 -52.224163659034133 0 -52.224163659034133 -160.26915283903182 0 0 0 0 200.89398810960483 12.47286040240062 0 12.47286040240062 -73.437397230850394 0 0 0 0 -865.86933620514174 -154.59519087694321 0 -154.59519087694321 320.98563705308584 0 0 0 0 15.56015227486985 3.4534809502600297 0 3.4534809502600297 -2.0090732111280278 0 0 0 0 -812.48212047612469 -918.69953918937699 0 -918.69953918937699 260.73143713398417 0 0 0 0 222.037882787321 -258.50362917788198 0 -258.50362917788198 -57.924244645337467 0 0 0 0 -104.59835870082679 74.632956037000355 0 74.632956037000355 -19.145257178623524 0 0 0 0 -251.79688352002267 -365.21332346981734 0 -365.21332346981734 -67.713367637722513 0 0 0 0 -29.081741607151343 -71.980441833340933 0 -71.980441833340933 -29.557098064366983 0 0 0 0 222.35653524307418 109.27100904440476 0 109.27100904440476 -17.911762870793268 0 0 0 0 529.27830078094848 -123.27915418776945 0 -123.27915418776945 -132.60972025060778 0 0 0 0 39.648623728367966 55.732445202446002 0 55.732445202446002 321.88234811734037 0 0 0 0 234.69158704919391 -48.420249360548098 0 -48.420249360548098 -103.28331637023325 0 0 0 0 177.36483650404261 -93.78748489541988 0 -93.78748489541988 -107.87238564226845 0 0 0 0 248.73202478850726 -67.55907195806185 0 -67.55907195806185 -114.92003920207367 0 0 0 0 264.32995655335981 -87.587610163717017 0 -87.587610163717017 -109.11407893455521 0 0 0 0 212.48170189216762 -110.23375214669241 0 -110.23375214669241 -114.89719199280205 0 0 0 0 231.86775298733846 -70.607695997851465 0 -70.607695997851465 -35.845961935794776 0 0 0 0 344.874301772943 -26.568837269460232 0 -26.568837269460232 -116.87164450975772 0 0 0 0 357.71960004648281 -17.085696727613794 0 -17.085696727613794 -181.63208031096053 0 0 0 0 616.56133204880462 38.661001737161627 0 38.661001737161627 -169.64143649533446 0 0 0 0 556.94927291871863 123.45490066515501 0 123.45490066515501 -290.16090552455398 0 0 0 0 423.81038261983485 -177.98556102693476 0 -177.98556102693476 -295.19155474758782 0 0 0 0 412.37044527639227 -156.5776829021728 0 -156.5776829021728 -136.23455889124273 0 0 0 0 523.74538651479816 -543.86346833641642 0 -543.86346833641642 -53.36914896903545 0 0 0 0 1036.9589702729863 -231.98157321009614 0 -231.98157321009614 -314.03560156234482 0 0 0 0 522.50670526299291 -522.80822980132461 0 -522.80822980132461 -381.37980528862363 0 0 0 0 872.650993452291 228.26688741412562 0 228.26688741412562 -361.43925373643037 0 0 0 0 617.62599474621675 302.12544285382148 0 302.12544285382148 -85.47315934951456 0 0 0 0 158.72406306352059 416.06963884235677 0 416.06963884235677 81.585021425365994 0 0 0 0 428.70948242433951 84.601388999356573 0 84.601388999356573 -120.54945299265179 0 0 0 0 302.9282864231136 191.60399056753994 0 191.60399056753994 -117.2305235581386 0 0 0 0 258.35456655909366 116.1439638067759 0 116.1439638067759 53.154744156888569 0 0 0 0 246.6297510877921 134.30877314799605 0 134.30877314799605 25.130724761895095 0 0 0 0 18.144545583490981 182.42639337025207 0 182.42639337025207 35.637726882254753 0 0 0 0 123.48808950680814 153.42059879667596 0 153.42059879667596 -94.048638318038911 0 0 0 0 -115.22842433179267 -19.632131079474625 0 -19.632131079474625 -100.86080755342152 0 0 0 0 980.58495542051969 703.07341925197761 0 703.07341925197761 326.44376382454311 0 0 0 0 219.1987649367602 302.83521224102765 0 302.83521224102765 192.80240790545713 0 0 0 0 14.646421264513492 4.3280480245574466 0 4.3280480245574466 1.0753401571726249 0 0 0 0 369.32452459611886 -1400.4380483440746 0 -1400.4380483440746 765.11276298751079 0 0 0 0 20.126248433882637 0.0092089394096905863 0 0.0092089394096905863 -0.034895714556598012 0 0 0 0 -71.795026219566353 241.88099940568895 0 241.88099940568895 67.791248070389869 0 0 0 0 662.41601350248675 645.57099580365207 0 645.57099580365207 209.64263404016572 0 0 0 0 230.11310753536236 -802.69955164829003 0 -802.69955164829003 202.16183687746934 0 0 0 0 2201.0679913082859 619.1387292614636 0 619.1387292614636 595.49790000521284 0 0 0 0 34.472318259501307 15.635484439362116 0 15.635484439362116 8.2035428955861338 0 0 0 0 1803.5727488340926 395.10494342375864 0 395.10494342375864 -369.10155635565854 0 0 0 0 2058.1189833550452 -584.29584785534075 0 -584.29584785534075 -551.39129100975936 0 0 0 0 794.96088572559529 -1437.9826066097489 0 -1437.9826066097489 -93.193697499696555 0 0 0 0 11.291331311708291 4.7963597207485051 0 4.7963597207485051 10.643165123914461 0 0 0 0 20.880386770426412 -68.073990064317968 0 -68.073990064317968 34.6361357430103 0 0 0 0 60.48216322389635 -37.049221866225025 0 -37.049221866225025 -73.189372389419077 0 0 0 0 51.145433271405636 33.900597392426789 0 33.900597392426789 -54.296456558512546 0 0 0 0 15.183302857387389 60.339151073535504 0 60.339151073535504 -19.261750221996408 0 0 0 0 31.580145984440605 33.349109066247365 0 33.349109066247365 12.223756649856114 0 0 0 0 46.629024943778731 30.225602751194486 0 30.225602751194486 20.839181698092457 0 0 0 0 53.075296071276171 25.255438642137506 0 25.255438642137506 15.261329442968417 0 0 0 0 526.9497335855624 -350.59430255843495 0 -350.59430255843495 54.188176031603348 0 0 0 0 240.10556286156498 -435.96387472434981 0 -435.96387472434981 356.28773521227981 0 0 0 0 525.48894810710044 -190.97826148592623 0 -190.97826148592623 -17.331791512675181 0 0 0 0 58.779723591549555 156.46343746650598 0 156.46343746650598 -37.739418897503583 0 0 0 0 166.68648059027328 11.710918763696839 0 11.710918763696839 -57.447987551580695 0 0 0 0 0.48039934799950856 0.49056628346610864 0 0.49056628346610864 0.69672763804300408 0 0 0 0 51.817178754878114 -17.350215360381185 0 -17.350215360381185 4.904134302256125 0 0 0 0 -27.798724950618634 130.18463095657788 0 130.18463095657788 -207.5412131281538 0 0 0 0 12.183923414439903 1.8429898117497885 0 1.8429898117497885 -2.2085282143165075 0 0 0 0 17.033118411331088 -3.6604255036285167 0 -3.6604255036285167 3.6766743793541536 0 0 0 0 2.9134143872036589 0.26531818236415461 0 0.26531818236415461 2.1147769034790045 0 0 0 0 332.70989162410842 -102.97723931347628 0 -102.97723931347628 5.6399655007485308 0 0 0 0 333.65331718301331 -272.1675626281625 0 -272.1675626281625 96.836517224434715 0 0 0 0 469.20691639092547 -420.95236595067018 0 -420.95236595067018 250.27599812368072 0 0 0 0 441.51340523091494 -194.38234690101638 0 -194.38234690101638 151.80651792544296 0 0 0 0 256.46823324249999 -211.21065045884993 0 -211.21065045884993 188.58497134407827 0 0 0 0 185.37141110445373 73.448666410883362 0 73.448666410883362 62.471874700586199 0 0 0 0 305.98538057466794 -104.28954269306212 0 -104.28954269306212 139.31393411164476 0 0 0 0 199.12316529566306 1.8689556409777879 0 1.8689556409777879 61.357202195684977 0 0 0 0 184.45555508942925 -19.824750118855036 0 -19.824750118855036 -70.510913727682265 0 0 0 0 85.265768427694638 -56.071960370074549 0 -56.071960370074549 31.88040339762199 0 0 0 0 60.497966157330666 -55.690441722766707 0 -55.690441722766707 78.725384206479021 0 0 0 0 346.41083632460504 29.890717180852334 0 29.890717180852334 -839.39113704363956 0 0 0 0 51.27705838059336 3.6242329941441245 0 3.6242329941441245 -1.1867326227199371 0 0 0 0 -196.68369052709022 185.83927726676797 0 185.83927726676797 -47.943316916959645 0 0 0 0 153.1698612734981 120.4134042849002 0 120.4134042849002 -633.40155167546209 0 0 0 0 46.120320061393784 3.2515582797142528 0 3.2515582797142528 -0.98552185668287462 0 0 0 0 361.22691262376611 -152.22437648663151 0 -152.22437648663151 -736.07553465483522 0 0 0 0 -55.309380386821431 352.63144743446895 0 352.63144743446895 290.22447005468757 0 0 0 0 80.275554522617313 156.80833140617801 0 156.80833140617801 -520.80111568391158 0 0 0 0 -67.78146242116236 54.524370314779759 0 54.524370314779759 5.058661619416398 0 0 0 0 159.6604087548767 -889.81039865504238 0 -889.81039865504238 225.15144106989405 0 0 0 0 315.7399376844769 450.70947089093551 0 450.70947089093551 4.4716621598330448 0 0 0 0 563.18011277796177 -284.52207769067218 0 -284.52207769067218 -634.26448390807002 0 0 0 0 10.062034114494793 0.38168733955809131 0 0.38168733955809131 -0.17223090707717925 0 0 0 0 -76.934263485236443 -663.19801124512981 0 -663.19801124512981 881.62097261116696 0 0 0 0 -20.06117553247168 154.14156430025446 0 154.14156430025446 -176.16548903373246 0 0 0 0 39.676388597304168 0.65153338636597891 0 0.65153338636597891 -1.0930444411370497 0 0 0 0 92.202036063892592 70.503374437607818 0 70.503374437607818 -390.49475321630416 0 0 0 0 -40.468143647522083 -37.11503836859174 0 -37.11503836859174 -139.61020504503085 0 0 0 0 -42.198243705672212 107.84644645077628 0 107.84644645077628 -4.3422685636733149 0 0 0 0 -817.51809949032031 -692.47126145346056 0 -692.47126145346056 593.74016472458891 0 0 0 0 216.40432089189198 281.49058660608216 0 281.49058660608216 87.534755408871661 0 0 0 0 14.669120097130303 -1.1474501693829793 0 -1.1474501693829793 0.046783467021842773 0 0 0 0 649.69840785782435 290.32519870298154 0 290.32519870298154 -115.3750870102574 0 0 0 0 31.051999503347872 3.327345986927817 0 3.327345986927817 -0.66062548250415531 0 0 0 0 29.345621042688435 18.971479142515591 0 18.971479142515591 -16.138686749524936 0 0 0 0 100.7379738787422 -252.30464333683074 0 -252.30464333683074 291.0419546490358 0 0 0 0 34.600434014457278 -26.377445203798288 0 -26.377445203798288 -115.6921976245045 0 0 0 0 -12.863192277494818 -125.70599855468674 0 -125.70599855468674 -14.907102877135458 0 0 0 0 341.24937285970373 208.85109195537029 0 208.85109195537029 141.12113751113964 0 0 0 0 22.169907372702909 16.392595791723291 0 16.392595791723291 3.184334735304104 0 0 0 0 60.234078754700022 23.029893758894445 0 23.029893758894445 6.7415179319519893 0 0 0 0 116.04757652587432 53.964172876853354 0 53.964172876853354 -90.882021458368627 0 0 0 0 51.594413102429826 22.07003704791731 0 22.07003704791731 9.8121047258601948 0 0 0 0 40.738013672159241 13.666751722979072 0 13.666751722979072 0.63305559576469095 0 0 0 0 744.4142278552099 -202.64651081317072 0 -202.64651081317072 -224.87805004966458 0 0 0 0 1560.0079523811291 764.93043983614734 0 764.93043983614734 44.78460697586911 0 0 0 0 107.02542784904654 -537.28172255217441 0 -537.28172255217441 -0.83389558310098977 0 0 0 0 25.793174154823646 14.424768978541238 0 14.424768978541238 -14.884423577934285 0 0 0 0 23.914193665455969 -1.4411627544238357 0 -1.4411627544238357 -108.2935307910069 0 0 0 0 30.727887464818195 8.3911104515558463 0 8.3911104515558463 -13.020335172620548 0 0 0 0 21.514567641963367 5.7343244115038274 0 5.7343244115038274 -1.716643066008869 0 0 0 0 14.849958938197652 16.366494043142055 0 16.366494043142055 -0.26138011719861232 0 0 0 0 36.160786652195384 27.640579766504047 0 27.640579766504047 -5.8806140869718888 0 0 0 0 6.0577462610620572 0.40148218924005619 0 0.40148218924005619 -0.30190238470080277 0 0 0 0 43.958513092016801 39.980320782959353 0 39.980320782959353 -0.64852783271319936 0 0 0 0 55.516455341603432 19.50768633520612 0 19.50768633520612 9.3423342607879363 0 0 0 0 31.735868807038059 18.15517926145435 0 18.15517926145435 11.071645354857765 0 0 0 0 33.613865740870096 -20.89423947960293 0 -20.89423947960293 -110.49388282894131 0 0 0 0 49.291429439603235 42.471810270844848 0 42.471810270844848 -90.556918238622302 0 0 0 0 26.158532423753059 2.6692484880587379 0 2.6692484880587379 -120.66685102026301 0 0 0 0 22.896698519209167 -4.6452421450766499 0 -4.6452421450766499 -115.36461441842357 0 0 0 0 43.829329851592775 -6.1697617048134248 0 -6.1697617048134248 -128.21452892820105 0 0 0 0 37.326220934868616 21.77663208732934 0 21.77663208732934 -120.12735570401253 0 0 0 0 26.516250818709523 4.9109280309890959 0 4.9109280309890959 -107.3401127953466 0 0 0 0 72.193382103185286 13.674354553605781 0 13.674354553605781 -185.20472422345665 0 0 0 0 43.259770184115041 7.8859448863353805 0 7.8859448863353805 -163.943729412057 0 0 0 0 99.075574717324344 -10.299058423894053 0 -10.299058423894053 -166.35541331155898 0 0 0 0 71.889836886432022 -47.076020424236788 0 -47.076020424236788 -197.22322015863176 0 0 0 0 51.437456169718644 -66.660623754165442 0 -66.660623754165442 -125.41227134500309 0 0 0 0 12.930369096604409 6.984882718649942 0 6.984882718649942 36.755095733168446 0 0 0 0 29.454076568858 52.804322731815205 0 52.804322731815205 119.02472687006039 0 0 0 0 -54.175622541617486 -120.39016747895931 0 -120.39016747895931 84.154873611360927 0 0 0 0 28.354818835814513 85.040720734562399 0 85.040720734562399 -205.61441364320615 0 0 0 0 18.08707986238764 2.8871899370797536 0 2.8871899370797536 -1.6780801866815391 0 0 0 0 -3.4716812283513718 -16.937525873150094 0 -16.937525873150094 1.9110333574242304 0 0 0 0 86.959446921056951 29.086694353140729 0 29.086694353140729 -184.94034050832801 0 0 0 0 8.7234951601567445 61.406109783885356 0 61.406109783885356 -165.97161073970824 0 0 0 0 -9.9143502169463318 61.562029368373082 0 61.562029368373082 -186.30153503639494 0 0 0 0 -53.206728301374824 107.37702109429983 0 107.37702109429983 -172.65638519570223 0 0 0 0 46.364357155878679 60.316290329654862 0 60.316290329654862 -197.04185717841261 0 0 0 0 12.299880440565175 84.33175600554739 0 84.33175600554739 -165.17019528137496 0 0 0 0 7.726839979091892 107.42294807967062 0 107.42294807967062 -183.1266661842181 0 0 0 0 55.952887995677884 83.65686113251013 0 83.65686113251013 -173.80919266080923 0 0 0 0 12.640619091100234 103.7703865238658 0 103.7703865238658 -136.19214216752243 0 0 0 0 91.090202349645551 61.48837638971645 0 61.48837638971645 -138.87148897711472 0 0 0 0 46.64040895607468 75.595292236367612 0 75.595292236367612 -132.78220659652357 0 0 0 0 112.65348529748007 67.679704127050911 0 67.679704127050911 -181.33799861648845 0 0 0 0 47.187639410272823 66.576983425485025 0 66.576983425485025 -175.54744267439605 0 0 0 0 153.58594257275399 16.449674664659824 0 16.449674664659824 -189.74619910737215 0 0 0 0 104.22063467593034 31.621839717257672 0 31.621839717257672 -184.71214659751877 0 0 0 0 157.30095866631746 -48.633791278962008 0 -48.633791278962008 -198.25022757306564 0 0 0 0 125.98624992738769 -18.352807628287849 0 -18.352807628287849 -216.15572139227038 0 0 0 0 211.53651340202487 -0.7607945807451415 0 -0.7607945807451415 -236.72191185074212 0 0 0 0 279.64635981030005 70.370509113689309 0 70.370509113689309 -180.46129995470483 0 0 0 0 153.57914483596687 64.843026601809242 0 64.843026601809242 -162.58822226811435 0 0 0 0 201.56476435737568 49.988617587928275 0 49.988617587928275 -158.64605498989397 0 0 0 0 309.83286958931421 18.627453892432413 0 18.627453892432413 -80.694189620157502 0 0 0 0 186.91612355688994 54.75231995583755 0 54.75231995583755 -78.04084778443621 0 0 0 0 329.34231358262696 70.994819904604753 0 70.994819904604753 29.394925573127239 0 0 0 0 172.16649333303212 100.78005592930344 0 100.78005592930344 2.4221223771210134 0 0 0 0 148.69367034858442 58.178914095024822 0 58.178914095024822 -74.826692943560147 0 0 0 0 74.13606451182568 103.88065343425365 0 103.88065343425365 -26.194974262976473 0 0 0 0 52.198125887443894 58.768113142219136 0 58.768113142219136 -7.3608298338758686 0 0 0 0 34.622019479058508 99.10551771013445 0 99.10551771013445 -69.329653536465912 0 0 0 0 41.018977035295393 64.8433663880312 0 64.8433663880312 -72.111589829486775 0 0 0 0 109.00004135819836 96.219283766457011 0 96.219283766457011 -73.0033183924902 0 0 0 0 981.55879140603793 -427.75081173942897 0 -427.75081173942897 -179.19508904174768 0 0 0 0 756.79481208651123 -351.06438552552845 0 -351.06438552552845 -99.815956954835428 0 0 0 0 656.52174972663488 -321.59902537157808 0 -321.59902537157808 154.35835118405521 0 0 0 0 989.62789606180013 -259.4447106427333 0 -259.4447106427333 21.448511296041488 0 0 0 0 -191.15900197803421 -5.0487710151184046 0 -5.0487710151184046 39.632412667206381 0 0 0 0 1742.178812425278 -486.1745170889991 0 -486.1745170889991 -93.764660174776736 0 0 0 0 602.65789879337171 -726.22276674819159 0 -726.22276674819159 445.65160134751682 0 0 0 0 525.34182580049674 22.509332641423043 0 22.509332641423043 427.42058764108629 0 0 0 0 458.30084748290028 -147.87853831794411 0 -147.87853831794411 87.898856572572186 0 0 0 0 348.01919889487181 98.249328741993168 0 98.249328741993168 -72.9924957554 0 0 0 0 759.45123424009216 -527.41268678262361 0 -527.41268678262361 -484.4572868546436 0 0 0 0 92.556368194578681 -134.49665503552185 0 -134.49665503552185 -223.08697574128382 0 0 0 0 -609.24142914878757 -599.39722857356071 0 -599.39722857356071 -248.55982833211112 0 0 0 0 2.5169511612715212 -2.518076489475888 0 -2.518076489475888 -2.7337634595527511 0 0 0 0 89.247634239960462 -124.38084676426547 0 -124.38084676426547 -238.73850744005097 0 0 0 0 298.65013907254979 -77.526214762932796 0 -77.526214762932796 -321.63912149957287 0 0 0 0 139.10198696520092 -112.00108396048688 0 -112.00108396048688 -245.70729254663001 0 0 0 0 -61.777107737558254 -208.76435629069528 0 -208.76435629069528 -207.22154258313429 0 0 0 0 1011.1064957594499 21.750317504965324 0 21.750317504965324 111.75831327877495 0 0 0 0 1969.7040542988689 118.33176352516864 0 118.33176352516864 -88.556693306748457 0 0 0 0 610.92011560465744 -119.31655690825187 0 -119.31655690825187 182.15524620090218 0 0 0 0 788.35791779479041 -215.18025875026706 0 -215.18025875026706 106.31591051732994 0 0 0 0 1006.5510545886718 46.227388962087389 0 46.227388962087389 24.086956864533477 0 0 0 0 717.13030879484722 -74.333779125443925 0 -74.333779125443925 19.349724192468784 0 0 0 0 836.64729210327641 -60.188369580930157 0 -60.188369580930157 39.980261768153923 0 0 0 0 962.17776010829402 85.439082332895396 0 85.439082332895396 -54.897845455248444 0 0 0 0 796.65366594138322 48.545388560047058 0 48.545388560047058 -41.965473279519927 0 0 0 0 739.47528261991829 23.249133286408323 0 23.249133286408323 -6.5735983120030141 0 0 0 0 687.28207962388115 -13.084433774064564 0 -13.084433774064564 1.3832777232554463 0 0 0 0 685.3783293815286 -5.3239989915321075 0 -5.3239989915321075 -30.00993675837708 0 0 0 0 7.8914882876415504 -109.09118776337374 0 -109.09118776337374 -126.19992289468047 0 0 0 0 59.433115788484429 -46.279844259083404 0 -46.279844259083404 -73.495622979042537 0 0 0 0 5.5622995372665471 -6.5096582656167357 0 -6.5096582656167357 -7.2050321101634767 0 0 0 0 878.8119556876336 150.03826233904329 0 150.03826233904329 62.614953034035125 0 0 0 0 1266.1896892369077 175.11652274968139 0 175.11652274968139 -10.74898832717372 0 0 0 0 855.78238181163397 97.913601895981628 0 97.913601895981628 -37.129504067709604 0 0 0 0 6.7107285710409315 -8.8005158127192828 0 -8.8005158127192828 -9.4757385109393741 0 0 0 0 89.763808394491207 -18.676104965751303 0 -18.676104965751303 -78.867309363434998 0 0 0 0 77.99686994793592 -8.7651680004716468 0 -8.7651680004716468 -86.910795971478834 0 0 0 0 75.876549583452288 -39.675587261798398 0 -39.675587261798398 -113.17899439685232 0 0 0 0 54.844794345772243 40.172218013689417 0 40.172218013689417 11.996209699194907 0 0 0 0 59.275840061774943 29.958199377765482 0 29.958199377765482 4.1685916875475186 0 0 0 0 47.826392294457037 7.8520190793986444 0 7.8520190793986444 27.849988444909727 0 0 0 0 49.463603595911991 8.6021623092774604 0 8.6021623092774604 -12.833521276918049 0 0 0 0 861.58731454422377 107.93263975248988 0 107.93263975248988 -53.699439097945969 0 0 0 0 721.49261084387763 97.198908197497076 0 97.198908197497076 -53.593714128788633 0 0 0 0 851.90947314679215 -83.576316815861219 0 -83.576316815861219 -35.890955633719614 0 0 0 0 800.67352196862339 52.336056360186603 0 52.336056360186603 -33.63951554566529 0 0 0 0 726.22860607118491 109.81977219958856 0 109.81977219958856 169.62481848770403 0 0 0 0 735.05477143852477 67.380985872301835 0 67.380985872301835 -22.430100504413531 0 0 0 0 73.066607335815206 34.852533432408137 0 34.852533432408137 3.2331618036823784 0 0 0 0 8.0736156278250633 -8.8249544773105981 0 -8.8249544773105981 -9.683889061350758 0 0 0 0 497.66100245746202 -54.061553750779808 0 -54.061553750779808 31.703428736994738 0 0 0 0 5.0179068869017556 -3.5434716830592734 0 -3.5434716830592734 -2.2524686956326825 0 0 0 0 734.50497753039235 17.6913780319598 0 17.6913780319598 -67.153092727891362 0 0 0 0 712.73822932284384 50.098004737732481 0 50.098004737732481 -74.873163888517411 0 0 0 0 626.56640208173485 -6.2652011119635063 0 -6.2652011119635063 -42.807301638897115 0 0 0 0 827.43653629630717 22.449396081787427 0 22.449396081787427 -74.525404969856481 0 0 0 0 792.11507322521356 16.29105053675994 0 16.29105053675994 -79.756386386799932 0 0 0 0 805.28540028013958 37.030823766659751 0 37.030823766659751 -47.97249643145733 0 0 0 0 755.98483614626457 19.323032598176837 0 19.323032598176837 83.784700530617101 0 0 0 0 773.34764697462379 3.9489365271911083 0 3.9489365271911083 -48.999467705048119 0 0 0 0 775.77545199055749 -5.5459509927031831 0 -5.5459509927031831 -28.392412508903021 0 0 0 0 750.01784737403796 0.24263748359044257 0 0.24263748359044257 -40.219552280633252 0 0 0 0 748.81522507116961 36.350514102429052 0 36.350514102429052 -91.820568531589743 0 0 0 0 612.48491776553419 53.685956096906182 0 53.685956096906182 -62.337245689755036 0 0 0 0 690.35733962274389 9.8921320997606017 0 9.8921320997606017 -79.710434604949626 0 0 0 0 768.74286191427382 -2.7386508104018503 0 -2.7386508104018503 -68.342798393324529 0 0 0 0 704.28055858597509 39.390276450551028 0 39.390276450551028 -82.484965242396356 0 0 0 0 695.5432606182876 28.647783693008932 0 28.647783693008932 -53.558196883327128 0 0 0 0 755.06217631724576 -22.02531100215333 0 -22.02531100215333 -13.356305634636556 0 0 0 0 692.96543458822998 50.296225178695977 0 50.296225178695977 -54.041902744271283 0 0 0 0 824.00837151818268 27.368848694374265 0 27.368848694374265 -71.338899642209071 0 0 0 0 909.38423138265352 -48.761480817274787 0 -48.761480817274787 -39.66569293923385 0 0 0 0 941.28402231073414 -10.328740515455138 0 -10.328740515455138 10.324000063647873 0 0 0 0 801.40673251498083 66.441967847052638 0 66.441967847052638 -22.042822125991734 0 0 0 0 835.06579767880157 -129.3914410864125 0 -129.3914410864125 78.66373222092534 0 0 0 0 833.07496665199869 -61.290325054516643 0 -61.290325054516643 41.899081087243644 0 0 0 0 790.62887042441253 -53.787549110096052 0 -53.787549110096052 6.6635638352718161 0 0 0 0 774.62191068047832 10.282047325285703 0 10.282047325285703 -45.231421314822001 0 0 0 0 748.18321083324554 -100.5191702678826 0 -100.5191702678826 102.82158281120564 0 0 0 0 780.64231442645541 -62.276823677719221 0 -62.276823677719221 0.70246961444445333 0 0 0 0 705.29690232306893 -55.969016072227532 0 -55.969016072227532 78.700657614303694 0 0 0 0 761.21841245572432 -115.46403099094005 0 -115.46403099094005 106.79641816657499 0 0 0 0 760.73975742903713 -118.65538820839197 0 -118.65538820839197 137.84258021802907 0 0 0 0 694.51685089157763 -124.01284921022958 0 -124.01284921022958 348.30998546922729 0 0 0 0 691.68028083554236 -98.398676001770355 0 -98.398676001770355 196.19787572786026 0 0 0 0 857.34200716667692 -180.87525507421515 0 -180.87525507421515 173.67906357133347 0 0 0 0 648.85175056739536 -103.39523322067907 0 -103.39523322067907 213.41447216923848 0 0 0 0 638.98711038886904 -50.781757270845645 0 -50.781757270845645 129.53852623160856 0 0 0 0 544.9959117086255 -2.7158431708833177 0 -2.7158431708833177 319.7487350277122 0 0 0 0 741.69507051641995 -78.934529359515182 0 -78.934529359515182 295.86754683943036 0 0 0 0 633.65410258190241 -84.632242468968343 0 -84.632242468968343 391.47215233602014 0 0 0 0 743.5345512968197 -122.44218245463253 0 -122.44218245463253 557.3526164491534 0 0 0 0 965.01906458070152 -454.46086106458017 0 -454.46086106458017 978.05851684994695 0 0 0 0 1325.8052146800555 -76.862390720567873 0 -76.862390720567873 191.13597796900194 0 0 0 0 1337.6817127655668 -330.14056861725396 0 -330.14056861725396 393.5771586455237 0 0 0 0 1044.4299699214171 -86.900965146214048 0 -86.900965146214048 214.19344461030141 0 0 0 0 1146.3188911369725 -97.979314618968374 0 -97.979314618968374 94.632757739385852 0 0 0 0 934.52892736357171 9.4655730526696971 0 9.4655730526696971 44.747746579492286 0 0 0 0 996.25245687266579 -149.88679397196165 0 -149.88679397196165 67.780092661287199 0 0 0 0 845.36193938655197 -141.72184092526231 0 -141.72184092526231 185.89451671631059 0 0 0 0 1077.4515783701008 -272.57831894837454 0 -272.57831894837454 256.51670755693294 0 0 0 0 514.58494223740126 194.22943965924696 0 194.22943965924696 78.02827819772051 0 0 0 0 -36.947912452567834 143.28052250895712 0 143.28052250895712 199.81025381610698 0 0 0 0 649.56014505430358 56.282481485497101 0 56.282481485497101 53.743279419135661 0 0 0 0 712.28801273580757 -4.5295236415672662 0 -4.5295236415672662 91.169669748395108 0 0 0 0 651.31020717481442 -44.124162443517207 0 -44.124162443517207 191.52170925588507 0 0 0 0 690.55931607926323 -55.880320552657054 0 -55.880320552657054 138.84299293163258 0 0 0 0 595.8047415035835 -47.170504473060419 0 -47.170504473060419 145.86459983028453 0 0 0 0 522.49237588423421 8.4446347998509736 0 8.4446347998509736 207.21839996064909 0 0 0 0 558.75309191241104 43.12869087357717 0 43.12869087357717 147.83488272655813 0 0 0 0 517.44151686016812 69.482811758282111 0 69.482811758282111 100.24174186261962 0 0 0 0 364.05994181906863 135.01329807968909 0 135.01329807968909 118.2137578192569 0 0 0 0 390.53047261135362 92.70443005880793 0 92.70443005880793 128.21488172590045 0 0 0 0 138.21821216013632 195.92717106629198 0 195.92717106629198 160.2275220303103 0 0 0 0 391.79730377136957 110.99454254121733 0 110.99454254121733 66.207991767530075 0 0 0 0 248.51543327713443 202.45127187215849 0 202.45127187215849 68.415856068671019 0 0 0 0 230.54505722253816 174.80255982287787 0 174.80255982287787 41.561401547886817 0 0 0 0 246.87090867994993 141.52730376784632 0 141.52730376784632 24.244384492557856 0 0 0 0 174.86990099938703 134.23815687654178 0 134.23815687654178 86.739453279515146 0 0 0 0 360.75000395432289 120.60268860534984 0 120.60268860534984 68.663377875455353 0 0 0 0 320.19921634490311 193.41061973681121 0 193.41061973681121 48.049510540266851 0 0 0 0 361.37439734603322 113.99375884545424 0 113.99375884545424 30.813257240038638 0 0 0 0 432.389686143375 177.47506532554667 0 177.47506532554667 79.13034504109055 0 0 0 0 470.13501992833335 118.96031330973165 0 118.96031330973165 71.880836704690864 0 0 0 0 531.64756177921663 178.87873660350351 0 178.87873660350351 125.2480229522796 0 0 0 0 480.60760205723454 73.198861633312845 0 73.198861633312845 197.82378508329293 0 0 0 0 456.62143580422708 106.99906535543903 0 106.99906535543903 59.465273460121352 0 0 0 0 538.03404531705019 183.67609595068916 0 183.67609595068916 -1.2494753245082393 0 0 0 0 387.44588368003315 136.2044254595628 0 136.2044254595628 -65.29256177330285 0 0 0 0 304.01882057292096 169.59440848500822 0 169.59440848500822 31.238282690735133 0 0 0 0 443.22331697551999 105.97536276503399 0 105.97536276503399 -55.709894150734044 0 0 0 0 310.86612128841261 190.33005870789637 0 190.33005870789637 -36.018343308215663 0 0 0 0 223.71584471612005 175.67943687080378 0 175.67943687080378 -23.039593503372316 0 0 0 0 1618.2279664699599 -685.00512767884027 0 -685.00512767884027 -1102.8140143932785 0 0 0 0 781.13526459262357 430.00233556241869 0 430.00233556241869 122.10604279305221 0 0 0 0 3619.5727428671089 498.53570573107231 0 498.53570573107231 -1019.6879232960516 0 0 0 0 700.1826385742097 117.79387288484679 0 117.79387288484679 326.89972408298127 0 0 0 0 722.82538836399908 524.8427871164007 0 524.8427871164007 1269.0717157331628 0 0 0 0 561.6905657153402 226.73738670721309 0 226.73738670721309 366.0194677676775 0 0 0 0 585.74687108546641 134.18165390457716 0 134.18165390457716 55.32330499111049 0 0 0 0 543.78718136069256 159.55312383722469 0 159.55312383722469 58.87410902290776 0 0 0 0 662.58049888647292 99.82295385598789 0 99.82295385598789 -224.21820491135895 0 0 0 0 641.13052826454805 240.53586113253073 0 240.53586113253073 -135.75286833537484 0 0 0 0 724.74361430722638 149.35938718536954 0 149.35938718536954 -173.65067351934249 0 0 0 0 172.92693073908958 -889.24878354368218 0 -889.24878354368218 -452.70238665419333 0 0 0 0 -203.89331537786347 -881.4193645839664 0 -881.4193645839664 -98.212714044732365 0 0 0 0 13.919859408572563 -19.682546156811128 0 -19.682546156811128 22.352634253739385 0 0 0 0 245.15525907004485 156.83804303124862 0 156.83804303124862 -74.18160318943319 0 0 0 0 -235.49706370949571 513.54176913903893 0 513.54176913903893 731.02814126887552 0 0 0 0 -668.73527381604072 236.77150444518031 0 236.77150444518031 750.83426430215286 0 0 0 0 -804.5283281001266 -339.70014590456731 0 -339.70014590456731 339.32660329306509 0 0 0 0 290.09236122713628 92.612143016841856 0 92.612143016841856 -17.401153058976888 0 0 0 0 77.06434503167111 0.55499603690418553 0 0.55499603690418553 -4.6554225518311796 0 0 0 0 -53.304641777140205 -60.884668844591943 0 -60.884668844591943 215.32913456070492 0 0 0 0 -47.961622981159053 -131.40669777703312 0 -131.40669777703312 -116.92334120807936 0 0 0 0 443.23433978526737 -100.03313756338503 0 -100.03313756338503 -355.99900073480694 0 0 0 0 -791.66443122017881 -367.83498648634429 0 -367.83498648634429 344.37554948011984 0 0 0 0 -426.28552356996806 -583.20734893949066 0 -583.20734893949066 -491.54162265582363 0 0 0 0 -811.58899369572464 -710.6949683652565 0 -710.6949683652565 525.13058361647109 0 0 0 0 1144.1938553103373 -175.39953513805972 0 -175.39953513805972 -506.27023537741934 0 0 0 0 577.70906990528601 256.67967857094561 0 256.67967857094561 -106.56700653048665 0 0 0 0 5.2474434027172947 -7.7234469493316311 0 -7.7234469493316311 11.736657019462008 0 0 0 0 1277.7583564612214 447.75934394600131 0 447.75934394600131 -238.31200401796377 0 0 0 0 124.47957577967827 -326.56690117757307 0 -326.56690117757307 -173.41522790497129 0 0 0 0 588.71125251197009 -33.060335270675864 0 -33.060335270675864 -145.32515970257373 0 0 0 0 -153.25389453512616 190.55309277005858 0 190.55309277005858 -47.396163438092742 0 0 0 0 638.26635480002733 84.087191593632269 0 84.087191593632269 -156.86236924531141 0 0 0 0 75.634936417500285 361.26035926676127 0 361.26035926676127 -221.0965775914558 0 0 0 0 212.75982536531228 242.70913404666908 0 242.70913404666908 -154.80891221421894 0 0 0 0 150.36675207482767 265.287360144378 0 265.287360144378 -91.117336925663039 0 0 0 0 281.58280390769505 66.14725695656432 0 66.14725695656432 -29.704895224054326 0 0 0 0 916.85579866083572 511.08811930580123 0 511.08811930580123 86.746249320804054 0 0 0 0 218.54786183096692 34.80416121544441 0 34.80416121544441 -4.2264541023521289 0 0 0 0 69.585690558404622 312.86935194370153 0 312.86935194370153 -495.38785371644644 0 0 0 0 888.94594070466701 -63.986664280011155 0 -63.986664280011155 -360.31836276265449 0 0 0 0 189.74662069898574 86.432393843843897 0 86.432393843843897 10.958526432209755 0 0 0 0 725.60827074805275 -339.19213943283648 0 -339.19213943283648 -394.78359817614967 0 0 0 0 954.32120464910986 1357.1688339013272 0 1357.1688339013272 115.02614548507836 0 0 0 0 186.35823233049086 132.29489682669009 0 132.29489682669009 -326.09816742238036 0 0 0 0 208.19419170704515 44.854708954835829 0 44.854708954835829 0.8032911907632112 0 0 0 0 123.32316180047155 201.6158401724 0 201.6158401724 -271.56587661735603 0 0 0 0 196.07727345266781 59.808252210958827 0 59.808252210958827 1.8262924948021944 0 0 0 0 220.53600212833953 297.43413418728437 0 297.43413418728437 -253.08634313031598 0 0 0 0 130.20330933466903 90.2191483770996 0 90.2191483770996 -73.941311962656073 0 0 0 0 92.834829944940793 -54.728395471234421 0 -54.728395471234421 -61.858845562119313 0 0 0 0 641.43360993801616 34.002506823485874 0 34.002506823485874 -126.14516782648616 0 0 0 0 328.21434882401081 -30.654582556779133 0 -30.654582556779133 6.4120694345410811 0 0 0 0 722.18255951901665 -143.07907716159366 0 -143.07907716159366 4.2209064004115362 0 0 0 0 666.76660164867644 37.092546118372866 0 37.092546118372866 -146.12827089504344 0 0 0 0 295.30749533982362 204.23484142102549 0 204.23484142102549 0.21092428197880508 0 0 0 0 93.406575768691255 248.75141546724763 0 248.75141546724763 -45.150310268963949 0 0 0 0 142.59656694516525 399.75068978874066 0 399.75068978874066 127.39900801783733 0 0 0 0 147.98687323302147 168.22180737346133 0 168.22180737346133 4.6243943702478632 0 0 0 0 26.08777620430763 41.20096213613661 0 41.20096213613661 -8.661383870007187 0 0 0 0 161.31292700961058 -23.299912674743837 0 -23.299912674743837 -638.07706850991508 0 0 0 0 187.33009416181136 69.49133268527882 0 69.49133268527882 3.013980782539436 0 0 0 0 141.41465597093065 81.136812349006391 0 81.136812349006391 -95.542231361721406 0 0 0 0 169.9267378538824 43.359423892022328 0 43.359423892022328 -10.658267869943078 0 0 0 0 166.83022281171966 106.13642060657634 0 106.13642060657634 -37.75740924582535 0 0 0 0 127.79223496375198 83.942549938915818 0 83.942549938915818 -235.20961016299225 0 0 0 0 110.00245347406963 168.05652259225826 0 168.05652259225826 -52.515898179754004 0 0 0 0 184.31505585903261 -50.063250108420561 0 -50.063250108420561 11.747251838027889 0 0 0 0 4401.0297952155815 -1721.8215870671484 0 -1721.8215870671484 -71.756000890744872 0 0 0 0 283.45602478455112 -580.84437286302273 0 -580.84437286302273 -226.3832760749433 0 0 0 0 88.619650348511641 -515.64754651849762 0 -515.64754651849762 -67.918906869055718 0 0 0 0 176.78281634691666 -79.045525081257438 0 -79.045525081257438 -24.277432291253717 0 0 0 0 505.55864633934107 -492.2339186403151 0 -492.2339186403151 -201.41502829201772 0 0 0 0 256.65914206681191 -404.99518005444497 0 -404.99518005444497 4.632393758989565 0 0 0 0 124.0589718567181 -51.478267353648228 0 -51.478267353648228 8.5668889942640973 0 0 0 0 -0.39745526035306966 -7.2880564658876494 0 -7.2880564658876494 13.21123509769583 0 0 0 0 138.4569188200303 -61.23157934748906 0 -61.23157934748906 -21.197081774655544 0 0 0 0 126.65612288431294 -39.033181117270942 0 -39.033181117270942 41.383243240477896 0 0 0 0 -4203.4955115937337 1721.7389512990846 0 1721.7389512990846 -487.43058579881637 0 0 0 0 731.98699450698768 -237.09306319723828 0 -237.09306319723828 -52.138647887193656 0 0 0 0 217.48978765537322 -246.85837475126846 0 -246.85837475126846 48.710586495833923 0 0 0 0 235.64593890169635 -423.49978015548822 0 -423.49978015548822 -478.73152738379849 0 0 0 0 332.6590327356389 -251.71528746809054 0 -251.71528746809054 -43.997155174452928 0 0 0 0 465.29980851454457 45.337273716370873 0 45.337273716370873 38.293171070465178 0 0 0 0 456.64945577303297 -105.67890677157084 0 -105.67890677157084 15.072134415388064 0 0 0 0 35.823660654656123 90.616252440274366 0 90.616252440274366 60.170899417575129 0 0 0 0 194.02628955652472 68.185730753503776 0 68.185730753503776 45.802750165581529 0 0 0 0 151.08468647661721 -78.033354670975314 0 -78.033354670975314 28.011689803544868 0 0 0 0 180.53124694566941 58.387869694670371 0 58.387869694670371 28.168350708601793 0 0 0 0 60.116891247860622 24.945055285057606 0 24.945055285057606 50.368164800125669 0 0 0 0 248.52566626833868 -181.69524810221674 0 -181.69524810221674 136.09463275683811 0 0 0 0 257.18568523772046 -421.69145295506416 0 -421.69145295506416 263.28477527783616 0 0 0 0 310.03997354450985 -493.19437511394426 0 -493.19437511394426 30.315725716189263 0 0 0 0 886.57542639922758 -27.160724746140204 0 -27.160724746140204 -189.5250533286171 0 0 0 0 344.10677070886595 -576.90969470066739 0 -576.90969470066739 234.29094621726745 0 0 0 0 959.20784806375013 -145.55098142503596 0 -145.55098142503596 -432.20777109551153 0 0 0 0 -3.3330033351948654 4.0103936027691702 0 4.0103936027691702 -22.233094469999386 0 0 0 0 -388.43505537782039 273.31698478677379 0 273.31698478677379 421.18854783736856 0 0 0 0 203.29208177917462 52.031781769566805 0 52.031781769566805 -340.62911228966368 0 0 0 0 32.011219559192966 0.41299333304505126 0 0.41299333304505126 -65.085436516263712 0 0 0 0 949.48795130515646 69.346441150868031 0 69.346441150868031 -267.00467963131814 0 0 0 0 677.95533711653843 127.65631686722804 0 127.65631686722804 106.46024389941522 0 0 0 0 29.981967533443822 154.82664243416184 0 154.82664243416184 -290.18580321751506 0 0 0 0 99.773042347296723 62.605406163721909 0 62.605406163721909 -182.33886981663818 0 0 0 0 247.88168593751834 -91.581977157310575 0 -91.581977157310575 -53.497652970614581 0 0 0 0 193.65326637229782 -76.756571745277114 0 -76.756571745277114 8.7833853506908781 0 0 0 0 198.92278622045654 -78.315361501486166 0 -78.315361501486166 -1.8862400569791689 0 0 0 0 190.74362986866618 80.082451457876232 0 80.082451457876232 -397.31270435397073 0 0 0 0 970.4687887091568 248.15001808601573 0 248.15001808601573 152.291570796413 0 0 0 0 -340.90218387256027 -219.29635962099474 0 -219.29635962099474 509.16785457140759 0 0 0 0 -23.399174019243304 -30.594600266161066 0 -30.594600266161066 -1.4870916363246245 0 0 0 0 117.75703038413485 239.71900803827009 0 239.71900803827009 -91.403122033836098 0 0 0 0 551.97153560715378 -13.22425298889209 0 -13.22425298889209 -4.3682790845217596 0 0 0 0 468.16488107273472 -851.81992506211282 0 -851.81992506211282 -633.50310618738149 0 0 0 0 1268.0128262862563 192.92288950154034 0 192.92288950154034 -124.47567002526193 0 0 0 0 473.81869973983163 74.22252309229566 0 74.22252309229566 -48.420959289946055 0 0 0 0 -59.72385013187295 57.149577333158788 0 57.149577333158788 41.556271692187536 0 0 0 0 192.29149206909364 -113.50669728604881 0 -113.50669728604881 -47.936665502169902 0 0 0 0 252.78530236940156 -54.859999963302727 0 -54.859999963302727 -15.534811453728253 0 0 0 0 172.81976736802608 -175.02463097918508 0 -175.02463097918508 -116.90619249306474 0 0 0 0 253.18058249651949 -69.954692750539834 0 -69.954692750539834 0.66700599637260893 0 0 0 0 260.33278387472092 -50.777801950827779 0 -50.777801950827779 2.2221531505826988 0 0 0 0 238.57240640391447 9.532333326741707 0 9.532333326741707 -11.283476622850145 0 0 0 0 274.22644801983552 157.22035338159162 0 157.22035338159162 -77.007419816912261 0 0 0 0 254.47282631296548 -25.931039342060103 0 -25.931039342060103 38.74186558231122 0 0 0 0 252.98981719631411 -25.66047611914837 0 -25.66047611914837 38.704889845741491 0 0 0 0 230.18081995642933 -54.320548426320784 0 -54.320548426320784 26.59561501907956 0 0 0 0 253.84576085763547 -12.57668204842048 0 -12.57668204842048 88.063847327292024 0 0 0 0 285.16231774200423 -19.042020706332551 0 -19.042020706332551 31.550658129734074 0 0 0 0 154.52022364582047 40.730478360901486 0 40.730478360901486 -17.729499554743555 0 0 0 0 235.42366311613659 -32.776480698696105 0 -32.776480698696105 99.618213680769259 0 0 0 0 240.16846583260485 -38.704409598264647 0 -38.704409598264647 76.521228882527794 0 0 0 0 -472.54280199541415 -124.06870579983706 0 -124.06870579983706 82.890331035007875 0 0 0 0 239.59202347639075 -7.9274372917352594 0 -7.9274372917352594 49.904226824866782 0 0 0 0 128.9845460283336 -76.690064064453622 0 -76.690064064453622 22.941841492487903 0 0 0 0 194.01033464856857 -22.225275717000812 0 -22.225275717000812 59.907142965399544 0 0 0 0 206.7405068807675 -50.356721254494005 0 -50.356721254494005 -16.744551593470533 0 0 0 0 109.80032969418477 -75.702162239137962 0 -75.702162239137962 15.075722686455604 0 0 0 0 194.43979643500643 -10.310054336390749 0 -10.310054336390749 17.58912818531644 0 0 0 0 -140.54528964420388 410.14678007055363 0 410.14678007055363 98.812298412869495 0 0 0 0 1870.5301614261698 -1608.7938092376037 0 -1608.7938092376037 517.89266557734845 0 0 0 0 1189.547914122264 -611.41102450609071 0 -611.41102450609071 -12.487177093992614 0 0 0 0 2112.3782487148128 1083.0295001767508 0 1083.0295001767508 -1464.8038080258098 0 0 0 0 -492.46146558770329 418.56858820823641 0 418.56858820823641 -118.95273463112881 0 0 0 0 543.03011230485572 -180.65466625379645 0 -180.65466625379645 -259.35028712595044 0 0 0 0 474.80972334101534 214.47139072911273 0 214.47139072911273 -105.36691416421104 0 0 0 0 497.25803841004699 -25.648824556376887 0 -25.648824556376887 -69.867557420260027 0 0 0 0 30.656119538398343 -156.55654011245781 0 -156.55654011245781 67.748259802233179 0 0 0 0 18.501452938595506 -14.776902759320414 0 -14.776902759320414 4.1378511622604499 0 0 0 0 121.46409346093424 12.744641633685433 0 12.744641633685433 74.783200770774926 0 0 0 0 165.08423540813965 36.838292458900582 0 36.838292458900582 -7.8429468567132972 0 0 0 0 229.63735376696786 94.678189979874048 0 94.678189979874048 41.973031231507321 0 0 0 0 307.31625795539003 22.048031343953141 0 22.048031343953141 -30.080740384204091 0 0 0 0 98.692820469348874 -6.3922651264637267 0 -6.3922651264637267 -0.65392692768436955 0 0 0 0 373.34095527806494 154.02703353504864 0 154.02703353504864 -112.24403063454474 0 0 0 0 239.72185991384322 143.73650236851722 0 143.73650236851722 -62.880077633873043 0 0 0 0 193.81204020408222 270.42638315174247 0 270.42638315174247 -112.322727362568 0 0 0 0 120.12101878631802 -1.1149814890177367 0 -1.1149814890177367 13.444385226809572 0 0 0 0 94.661742776952451 -49.636584067661261 0 -49.636584067661261 2.9250665061208565 0 0 0 0 25.265938292341144 21.022113529233934 0 21.022113529233934 -2.3715743436552161 0 0 0 0 117.54179538244352 -8.4847634685813773 0 -8.4847634685813773 -7.591175244025635 0 0 0 0 141.2439545901143 8.0657864369059098 0 8.0657864369059098 3.5745164910331368 0 0 0 0 24.658866115149351 1.0120093332765023 0 1.0120093332765023 -15.666321185119662 0 0 0 0 118.19850650834996 -14.049202402476112 0 -14.049202402476112 24.065875671959475 0 0 0 0 166.80549107645493 26.232600337194071 0 26.232600337194071 -45.926272650727014 0 0 0 0 100.56229528778204 7.9335839180371295 0 7.9335839180371295 45.690756913804421 0 0 0 0 97.142459495198636 27.351797429607274 0 27.351797429607274 -14.10132566137554 0 0 0 0 262.97583992261934 95.024472128480397 0 95.024472128480397 37.440572673307997 0 0 0 0 186.95004922245425 111.20228355201289 0 111.20228355201289 38.747430895254951 0 0 0 0 155.61586977393017 57.805401461287033 0 57.805401461287033 -64.557450560621646 0 0 0 0 -9.6714440814567304 21.945343877233469 0 21.945343877233469 -0.36471428991835353 0 0 0 0 74.672791790710107 126.13302396253911 0 126.13302396253911 110.8634089283496 0 0 0 0 86.745706204423186 -41.3867000209965 0 -41.3867000209965 -96.627439964094265 0 0 0 0 13.900613901700126 -6.1846801558657489 0 -6.1846801558657489 -15.779050908266981 0 0 0 0 251.62910135959828 13.70038683370376 0 13.70038683370376 -182.5704147388218 0 0 0 0 -43.704827800556814 -18.033360309859745 0 -18.033360309859745 -139.10555917106467 0 0 0 0 2.0702377410514359 23.743039010681201 0 23.743039010681201 -1.3288062328541921 0 0 0 0 -440.46746866582725 -346.91068540893815 0 -346.91068540893815 155.6639706937558 0 0 0 0 -31.862029902349605 -13.06075233265085 0 -13.06075233265085 91.585027402554715 0 0 0 0 212.24300173174561 54.153946991600492 0 54.153946991600492 -3.0902428779273805 0 0 0 0 135.12813951529824 101.60623738561719 0 101.60623738561719 -28.549313850556928 0 0 0 0 221.18458944354643 104.73248426365342 0 104.73248426365342 -87.546308918407362 0 0 0 0 224.94416020507197 90.774686058716412 0 90.774686058716412 -110.64772292260341 0 0 0 0 289.10856820617482 144.35864776054063 0 144.35864776054063 -165.13655989455037 0 0 0 0 57.385699710604968 95.76762288598718 0 95.76762288598718 -26.921710553279581 0 0 0 0 218.1033075065061 237.62179305234611 0 237.62179305234611 -8.5213673939520049 0 0 0 0 48.603916576692427 121.33159047168419 0 121.33159047168419 -66.993439414248087 0 0 0 0 17.742883129663824 56.084391790890322 0 56.084391790890322 13.219796250980608 0 0 0 0 16.159547875662611 5.0414819331829221 0 5.0414819331829221 -43.295311591919472 0 0 0 0 71.854396239776179 -22.475327414865006 0 -22.475327414865006 80.125459651213077 0 0 0 0 128.2651341692108 -33.876138020779081 0 -33.876138020779081 64.228263591294535 0 0 0 0 45.969659513935767 -107.93458006002868 0 -107.93458006002868 198.45951335840505 0 0 0 0 74.585801333809286 -48.945480119123999 0 -48.945480119123999 -2.8832654718885351 0 0 0 0 109.61044130967639 -180.59347736511518 0 -180.59347736511518 172.93884093036681 0 0 0 0 -60.180797138051275 -83.416709856974649 0 -83.416709856974649 161.95058769439265 0 0 0 0 -76.630707240681659 -416.82492155749895 0 -416.82492155749895 656.62596905616533 0 0 0 0 274.18753713413753 -298.67668606440225 0 -298.67668606440225 31.784822851331 0 0 0 0 208.75739413250267 -175.34243525732848 0 -175.34243525732848 151.62959842932594 0 0 0 0 197.53299201342816 -227.21172480536944 0 -227.21172480536944 18.945783152550348 0 0 0 0 518.91893194604927 -71.652332522085771 0 -71.652332522085771 74.071876082360404 0 0 0 0 376.15629855552834 -388.96300222500662 0 -388.96300222500662 -438.87083252941693 0 0 0 0 623.52682587183517 13.978394081849444 0 13.978394081849444 -57.75907007275373 0 0 0 0 4.5324452307069976 0.81201638542001575 0 0.81201638542001575 -0.47389247364581188 0 0 0 0 205.42176372436734 328.10802605590618 0 328.10802605590618 471.72190469211091 0 0 0 0 157.29304515911554 -165.69706487265242 0 -165.69706487265242 119.95303770462056 0 0 0 0 147.89694781234721 -146.20575302603277 0 -146.20575302603277 353.69535252414039 0 0 0 0 270.07056399998328 -52.316202545879037 0 -52.316202545879037 110.60589940335535 0 0 0 0 174.99810003430321 -187.50921921735278 0 -187.50921921735278 109.67291069053874 0 0 0 0 187.23689651003588 -80.646643182396531 0 -80.646643182396531 101.25160925260639 0 0 0 0 109.51642195655222 -169.08236422519963 0 -169.08236422519963 183.07540171653773 0 0 0 0 -1.3915107944667398 180.31912985897395 0 180.31912985897395 66.903090930172766 0 0 0 0 139.77807125436084 70.272247595921726 0 70.272247595921726 5.8275743601170689 0 0 0 0 77.696956871797738 49.437807541029542 0 49.437807541029542 24.075897862810052 0 0 0 0 34.68686908874497 9.6123415836875665 0 9.6123415836875665 -34.699750157824383 0 0 0 0 52.675853632075814 40.598878473933496 0 40.598878473933496 -25.658244710517465 0 0 0 0 35.708041642669741 15.690599012378527 0 15.690599012378527 -0.056257052892760839 0 0 0 0 397.1276746554322 189.93083368057773 0 189.93083368057773 178.75492907269245 0 0 0 0 -1.6225582566098069 0.46157995504061944 0 0.46157995504061944 5.6444924220668877 0 0 0 0 -90.581161803558643 49.714132387411155 0 49.714132387411155 149.57219634632543 0 0 0 0 -17.851887551318214 205.05813762595471 0 205.05813762595471 266.24862949693647 0 0 0 0 -46.248086750070797 15.726897084871325 0 15.726897084871325 184.2462265622728 0 0 0 0 413.99258037792242 173.96774088162761 0 173.96774088162761 155.50825145632029 0 0 0 0 795.29901135829641 346.70650149309347 0 346.70650149309347 99.402538600612615 0 0 0 0 722.84086203985498 -553.489351452047 0 -553.489351452047 152.36241859050892 0 0 0 0 171.08977433861946 -438.80014442725781 0 -438.80014442725781 -57.95789126059816 0 0 0 0 149.35534707503916 127.89119823256937 0 127.89119823256937 -244.91341333273522 0 0 0 0 105.77510695217643 62.510730618824482 0 62.510730618824482 56.372030101945711 0 0 0 0 10.855869645132003 2.8219726153909903 0 2.8219726153909903 -1.5452459135273604 0 0 0 0 42.865460924207582 150.03805927382621 0 150.03805927382621 160.02974695559851 0 0 0 0 41.231444095174083 61.532586759880587 0 61.532586759880587 56.790392577189323 0 0 0 0 53.055346796540107 63.333866665993355 0 63.333866665993355 -29.73159893665229 0 0 0 0 524.66127732855966 0.83924772202738041 0 0.83924772202738041 -278.30790449739891 0 0 0 0 -109.47142269929464 82.376136336680304 0 82.376136336680304 -284.18377549439776 0 0 0 0 289.15894310610747 -122.7859133969165 0 -122.7859133969165 -810.91152384523093 0 0 0 0 50.029416826146189 290.31239650881844 0 290.31239650881844 -63.672443326638813 0 0 0 0 45.136497248604428 365.31733729351743 0 365.31733729351743 154.02409521666914 0 0 0 0 63.443518961619702 44.000868607814709 0 44.000868607814709 6.2415091759039001 0 0 0 0 12.19015851818402 3.4832528455170184 0 3.4832528455170184 -5.6699171089551283 0 0 0 0 190.01919735546835 56.195980980951731 0 56.195980980951731 -539.84910419099151 0 0 0 0 -16.555245374285732 15.152906410178389 0 15.152906410178389 148.18142361838574 0 0 0 0 10.967598202847782 2.1875811816442798 0 2.1875811816442798 -3.9519054006186503 0 0 0 0 -135.33082471375383 265.47116518253239 0 265.47116518253239 -375.48888514177702 0 0 0 0 76.262667335911829 -191.91793162233057 0 -191.91793162233057 352.2727230925957 0 0 0 0 247.07839927310852 331.25143503398522 0 331.25143503398522 361.12133064152499 0 0 0 0 0.22548636389212362 -2.8383791060154522 0 -2.8383791060154522 -2.3953366548638622 0 0 0 0 331.12715880412725 -102.49790175517353 0 -102.49790175517353 -444.53403839889472 0 0 0 0 701.65455437645142 287.77427792817525 0 287.77427792817525 -35.54202928840914 0 0 0 0 996.82589773389918 216.76578749304792 0 216.76578749304792 -769.56056316916579 0 0 0 0 -96.687393899148447 3.1788596733374561 0 3.1788596733374561 -257.71940240656818 0 0 0 0 -423.88328305742471 479.41611782183031 0 479.41611782183031 487.72601924503306 0 0 0 0 -125.44670140263042 366.03773506316497 0 366.03773506316497 88.768893554906754 0 0 0 0 252.84210333102965 279.69790690807758 0 279.69790690807758 97.352624185169361 0 0 0 0 139.17725645600149 129.70671274444078 0 129.70671274444078 -61.639952093216834 0 0 0 0 720.76569137541446 180.38593483616864 0 180.38593483616864 -91.304735552623242 0 0 0 0 508.94052155861573 535.94979446117804 0 535.94979446117804 104.44568666936721 0 0 0 0 14.255024852261613 6.7232502114179624 0 6.7232502114179624 109.28350127026533 0 0 0 0 -61.032910649600126 -215.43000549182352 0 -215.43000549182352 384.65539335387257 0 0 0 0 333.75320735551395 -133.03876389873858 0 -133.03876389873858 -599.10170684531658 0 0 0 0 109.60828119029357 -180.95887168870803 0 -180.95887168870803 -126.29781498507919 0 0 0 0 68.118416962286574 -61.596838867436873 0 -61.596838867436873 40.819344580228062 0 0 0 0 108.43288286012768 29.645322781080644 0 29.645322781080644 -123.40134598340865 0 0 0 0 27.703029092108899 -9.2927648597980408 0 -9.2927648597980408 -13.403847650174985 0 0 0 0 88.918507564245374 22.242976165179527 0 22.242976165179527 -24.818154501818309 0 0 0 0 143.71755171043105 1.4844305168073584 0 1.4844305168073584 -2.2033967295954024 0 0 0 0 85.785302175623656 33.098625922330797 0 33.098625922330797 -53.472216212593821 0 0 0 0 52.196059921346595 11.287294928649633 0 11.287294928649633 3.1070282935085984 0 0 0 0 139.28580342423652 1376.1596902196422 0 1376.1596902196422 251.24189732335981 0 0 0 0 376.74758548540922 -485.8804296493804 0 -485.8804296493804 -153.58464348505004 0 0 0 0 116.43402764501286 -22.428579182607308 0 -22.428579182607308 11.440958476589913 0 0 0 0 129.96312903713442 -23.739313132460211 0 -23.739313132460211 3.4238624331584049 0 0 0 0 150.04877434571972 -10.308739815714944 0 -10.308739815714944 -136.08336982331903 0 0 0 0 118.2894669829613 -12.526923562741304 0 -12.526923562741304 -4.9358122548879919 0 0 0 0 106.32463430473581 82.621036955120331 0 82.621036955120331 -146.45699926722403 0 0 0 0 80.559043315966846 159.00117609039899 0 159.00117609039899 -41.557294055109423 0 0 0 0 46.901573822979117 100.57781164071685 0 100.57781164071685 -65.469953458087275 0 0 0 0 33.444389382986628 16.703347142054596 0 16.703347142054596 -157.58292472813105 0 0 0 0 69.973822717089206 146.2357728910747 0 146.2357728910747 50.064613864431237 0 0 0 0 -184.69778287471854 209.14577335467175 0 209.14577335467175 -319.32862697656958 0 0 0 0 23.703065975092471 -3.1600688275246185 0 -3.1600688275246185 -11.260985335074469 0 0 0 0 98.319756062721353 87.800942499382387 0 87.800942499382387 -128.46618068502062 0 0 0 0 114.36675778363595 -9.2477301501743625 0 -9.2477301501743625 10.993147780854997 0 0 0 0 38.932490844996039 -3.5307411222637413 0 -3.5307411222637413 -8.624684633442957 0 0 0 0 89.333440004448448 -22.51081716771705 0 -22.51081716771705 16.189050138892526 0 0 0 0 120.46644754869931 -1.7708686988939917 0 -1.7708686988939917 16.303640010751906 0 0 0 0 102.25018479329323 -0.77902443829388801 0 -0.77902443829388801 -8.4565037066733471 0 0 0 0 300.42633063454377 27.220330137165774 0 27.220330137165774 1.090333307893161 0 0 0 0 15.569919128145557 8.5163174841 0 8.5163174841 -153.3578999559345 0 0 0 0 99.001939661531651 13.178416763472342 0 13.178416763472342 14.137425279312311 0 0 0 0 602.01481994653295 -42.060415832340368 0 -42.060415832340368 -160.33157094894841 0 0 0 0 49.921389461382937 29.549687690395693 0 29.549687690395693 -3.0925726337803532 0 0 0 0 2.9848459701978243 2.2281439464126445 0 2.2281439464126445 2.1452323697589257 0 0 0 0 -326.04780920944177 -611.62448768663126 0 -611.62448768663126 281.59386025994809 0 0 0 0 28.721934347087881 17.908852812091254 0 17.908852812091254 -82.309584940178866 0 0 0 0 71.724954071838908 14.187233034035614 0 14.187233034035614 -6.4360669527857599 0 0 0 0 91.930123921003542 61.800246579312443 0 61.800246579312443 -53.906847786932303 0 0 0 0 78.001563325713505 60.264964658082135 0 60.264964658082135 -45.849432920650543 0 0 0 0 210.90326135966026 -17.340153873808404 0 -17.340153873808404 -41.393811653608424 0 0 0 0 46.163080087287931 2.4610190580324649 0 2.4610190580324649 -12.989159132610865 0 0 0 0 161.96640808428447 -30.331739990998358 0 -30.331739990998358 6.8208810097285095 0 0 0 0 1094.3939040028272 -623.77169688627146 0 -623.77169688627146 -228.87056374405756 0 0 0 0 31.824846840660484 -161.48848715020449 0 -161.48848715020449 -236.32334341303795 0 0 0 0 250.54717466249713 0.029500591226678807 0 0.029500591226678807 -81.117470415952994 0 0 0 0 93.142409418259064 11.338802520103897 0 11.338802520103897 -0.75338676592224152 0 0 0 0 85.749887739380938 49.733480986696122 0 49.733480986696122 -51.592945065560343 0 0 0 0 52.96855533659982 51.740647737150539 0 51.740647737150539 -45.479269262410526 0 0 0 0 46.82478555659236 0.67779575488424371 0 0.67779575488424371 -114.15518617628368 0 0 0 0 66.78293117089197 73.152798900810012 0 73.152798900810012 -70.802905257995917 0 0 0 0 559.27200670025195 -65.028247176710465 0 -65.028247176710465 60.833698546097821 0 0 0 0 108.15539846284753 15.045016675198642 0 15.045016675198642 0.48402221788315908 0 0 0 0 -321.88643435298582 56.577269427595638 0 56.577269427595638 57.695639119876432 0 0 0 0 42.013556018217685 2.2567066786103851 0 2.2567066786103851 0.0089659807863207153 0 0 0 0 94.9523944120956 38.596751568783475 0 38.596751568783475 -205.68165542203769 0 0 0 0 55.887809511797968 14.97548924961302 0 14.97548924961302 -63.870874327622005 0 0 0 0 13.975968138038297 81.002872754754208 0 81.002872754754208 -118.59066997154605 0 0 0 0 17.239377683018493 0.8441943697173766 0 0.8441943697173766 -0.417943012888782 0 0 0 0 789.23596248698595 113.20687806042406 0 113.20687806042406 -157.68211280843661 0 0 0 0 -319.84391051741477 583.81906265792259 0 583.81906265792259 86.13635125577639 0 0 0 0 228.4085700640826 236.19904486595306 0 236.19904486595306 292.74656323513091 0 0 0 0 6.050699925634877 -2.838461050258843 0 -2.838461050258843 3.4335498654871337 0 0 0 0 12.744518232539122 93.573670219652513 0 93.573670219652513 -16.543035281819357 0 0 0 0 65.11852167769942 3.7850632633608625 0 3.7850632633608625 0.011465320090837408 0 0 0 0 247.01247683358361 11.550186981223021 0 11.550186981223021 -221.10828005230496 0 0 0 0 -5.8079107110897894 199.68636209065426 0 199.68636209065426 273.22529566260886 0 0 0 0 22.804301226636568 3.3640750410090114 0 3.3640750410090114 0.45453224939452974 0 0 0 0 260.92806542541075 -393.36545886457884 0 -393.36545886457884 249.92980439080338 0 0 0 0 10.180093679548008 -148.62990898255441 0 -148.62990898255441 182.1929352968549 0 0 0 0 473.11356455337955 -566.86427670634191 0 -566.86427670634191 367.15433332326194 0 0 0 0 71.668499332041392 -32.409507922343153 0 -32.409507922343153 -3.2038889049181876 0 0 0 0 198.05703292134785 -174.87980974959248 0 -174.87980974959248 -318.75643436957591 0 0 0 0 354.95506556812688 172.5915383900749 0 172.5915383900749 -379.55893185201342 0 0 0 0 280.1613994512918 20.135446135603246 0 20.135446135603246 -479.19939148370349 0 0 0 0 22.688619359236327 63.835216277401912 0 63.835216277401912 -59.136153875900888 0 0 0 0 151.32626903949495 -62.088716181795007 0 -62.088716181795007 -108.39026707809091 0 0 0 0 12.323186778720356 -66.51611857991827 0 -66.51611857991827 66.926256056144666 0 0 0 0 99.420956738124502 8.2119674311228259 0 8.2119674311228259 -2.7735316354299262 0 0 0 0 97.026990967813617 72.942420978456539 0 72.942420978456539 -40.252971885006446 0 0 0 0 123.00879668635025 16.719947533412778 0 16.719947533412778 86.792901665319732 0 0 0 0 233.47190413260614 -34.937148588271612 0 -34.937148588271612 -0.78152885537110706 0 0 0 0 133.20320678925054 8.9091380391400889 0 8.9091380391400889 129.79304205928929 0 0 0 0 97.05228768417328 0.78720238521054853 0 0.78720238521054853 156.87603818573007 0 0 0 0 169.62915750757747 -61.965593468314182 0 -61.965593468314182 212.9321181460873 0 0 0 0 151.94106811285019 -59.380808416578475 0 -59.380808416578475 67.282953025413235 0 0 0 0 49.04400264533664 22.002482218248893 0 22.002482218248893 14.581549561738139 0 0 0 0 71.287895811899716 4.0639120952802443 0 4.0639120952802443 30.088740889618521 0 0 0 0 -44.999654851260857 62.751680214318014 0 62.751680214318014 5.4738558865456071 0 0 0 0 121.82788206788246 18.227396508870697 0 18.227396508870697 13.477798245147824 0 0 0 0 87.711032593429962 5.4408527470159065 0 5.4408527470159065 6.6271104866421311 0 0 0 0 98.114406248748551 16.002826408790696 0 16.002826408790696 6.1671506975602117 0 0 0 0 86.85313178924298 15.354825807156431 0 15.354825807156431 -0.89939959610455844 0 0 0 0 127.57757052211673 13.398727392520414 0 13.398727392520414 -1.4478789595350463 0 0 0 0 71.239234041981604 15.53111839179771 0 15.53111839179771 3.717137561634452 0 0 0 0 77.847247034692074 1.9189641145937344 0 1.9189641145937344 2.4062852761814604 0 0 0 0 260.00270495608129 -141.30310068416111 0 -141.30310068416111 171.63733434654569 0 0 0 0 -22.589927019012976 -92.265794832097527 0 -92.265794832097527 -65.435007180600223 0 0 0 0 468.17812640139891 -114.89553253299164 0 -114.89553253299164 -153.72281534170406 0 0 0 0 66.807430131346337 13.61294927405288 0 13.61294927405288 2.7384190533514357 0 0 0 0 183.481407367879 -134.66923803466671 0 -134.66923803466671 103.00547634828035 0 0 0 0 10.348788506021563 9.9004847192793815 0 9.9004847192793815 -4.686994380450356 0 0 0 0 51.526773452826092 12.553791569009036 0 12.553791569009036 2.8890711624258074 0 0 0 0 77.439558763393237 -14.355364500933135 0 -14.355364500933135 -6.8898920997090176 0 0 0 0 60.489984349414541 0.45933978272132947 0 0.45933978272132947 -4.7421789317289047 0 0 0 0 266.19253392101382 -79.100520156658604 0 -79.100520156658604 158.90325144320377 0 0 0 0 240.29845577385277 -28.413258073294855 0 -28.413258073294855 129.23127844736337 0 0 0 0 129.66010160392489 -8.9946428125337921 0 -8.9946428125337921 -6.001449300649341 0 0 0 0 30.120575478837516 -2.1349133371645728 0 -2.1349133371645728 -1.694075393931791 0 0 0 0 44.788243443470492 -16.012947500556493 0 -16.012947500556493 -34.20547252351389 0 0 0 0 147.18014713677985 159.46143781082719 0 159.46143781082719 46.107447804148251 0 0 0 0 125.9874334514825 89.330241660614774 0 89.330241660614774 -75.41748115135124 0 0 0 0 123.48925731760912 8.5938080213290391 0 8.5938080213290391 -15.427148687879068 0 0 0 0 86.781816363967664 59.861118684155372 0 59.861118684155372 74.258111036528135 0 0 0 0 24.481996369495704 4.8422455546590584 0 4.8422455546590584 -9.0533987912193794 0 0 0 0 408.31899745448027 72.380882280885999 0 72.380882280885999 -7.2052461447747191 0 0 0 0 156.38316418604558 7.0367756633396823 0 7.0367756633396823 -4.6269480670079526 0 0 0 0 38.25584549631342 0.73925995008681866 0 0.73925995008681866 -5.7746293120460841 0 0 0 0 371.61602816818049 98.150611952656618 0 98.150611952656618 -13.049118126669782 0 0 0 0 157.85059618428932 82.841035598883536 0 82.841035598883536 247.22820029291688 0 0 0 0 304.00781411876233 63.245656423589026 0 63.245656423589026 -14.958300955851428 0 0 0 0 432.39992005780005 -83.364050732217947 0 -83.364050732217947 121.9982297842289 0 0 0 0 222.98718034751073 -55.01168042682275 0 -55.01168042682275 250.06138248501793 0 0 0 0 212.69236893300695 -8.0306464506174962 0 -8.0306464506174962 173.17172270965261 0 0 0 0 249.3072490510325 115.54841488801848 0 115.54841488801848 103.17741222971927 0 0 0 0 255.95448747905175 -79.428774399420035 0 -79.428774399420035 73.365292619118918 0 0 0 0 84.238554531475529 -348.70790394139476 0 -348.70790394139476 -515.09612132409893 0 0 0 0 134.71927731821313 -44.637504638190428 0 -44.637504638190428 -4.1205933833857706 0 0 0 0 169.9636155829503 197.23587569024767 0 197.23587569024767 -104.18697389439194 0 0 0 0 299.90295475242601 48.104303253494436 0 48.104303253494436 -12.798178926269429 0 0 0 0 212.57069569287705 -5.7827587101191966 0 -5.7827587101191966 156.33530545078975 0 0 0 0 -7.8168474276099005 -122.16962343073828 0 -122.16962343073828 -4.9990639412144446 0 0 0 0 -35.683626712649129 -42.316957092919552 0 -42.316957092919552 20.803001736847136 0 0 0 0 9.2061421535635191 -24.514445606923594 0 -24.514445606923594 22.144618021878362 0 0 0 0 -153.1439062168356 -310.46352899411067 0 -310.46352899411067 -131.67713645717595 0 0 0 0 2.5877994709668144 -64.803569679422267 0 -64.803569679422267 -2.6216246372599126 0 0 0 0 -80.141890558115847 12.833935083113715 0 12.833935083113715 80.59815090781467 0 0 0 0 -40.54456113075139 78.373790992153772 0 78.373790992153772 93.595640253295642 0 0 0 0 62.849057166615239 -20.553929641230354 0 -20.553929641230354 -0.35304857771484421 0 0 0 0 28.949823633054621 30.54036993591825 0 30.54036993591825 19.29775443750313 0 0 0 0 22.363932639823815 13.21513725012972 0 13.21513725012972 -1.5735553204083317 0 0 0 0 20.325358353354773 -4.6564812253449048 0 -4.6564812253449048 -9.471506112952305 0 0 0 0 23.675520941178092 -22.601185838533493 0 -22.601185838533493 11.162353259814836 0 0 0 0 46.602362760633696 6.0827284322995183 0 6.0827284322995183 0.11528409357651981 0 0 0 0 24.038817982233013 -63.868729727812934 0 -63.868729727812934 -37.570894249774938 0 0 0 0 142.7400115186465 -77.043978880449686 0 -77.043978880449686 35.229041249266629 0 0 0 0 14.321803639381713 -8.3716668728922912 0 -8.3716668728922912 -8.4246965058110135 0 0 0 0 43.445536199214985 -0.49324474831587395 0 -0.49324474831587395 -11.367110486316051 0 0 0 0 22.774232224086433 -4.9293135052838863 0 -4.9293135052838863 -22.426501111838945 0 0 0 0 101.79450256869313 -29.011772641550039 0 -29.011772641550039 0.68180729350183356 0 0 0 0 63.822108092979761 -16.395120597373648 0 -16.395120597373648 -3.433727291334435 0 0 0 0 80.625369397894247 -35.154299525489392 0 -35.154299525489392 8.6941816511381376 0 0 0 0 39.7441544457524 3.7703612236225297 0 3.7703612236225297 -8.6440780330705813 0 0 0 0 87.038793522282504 -37.180992334443545 0 -37.180992334443545 2.9716509877448516 0 0 0 0 70.140413659647251 -30.361963927437632 0 -30.361963927437632 1.1920447590644931 0 0 0 0 70.753620714882487 -34.845215725007733 0 -34.845215725007733 -37.682591444544549 0 0 0 0 -27.782208155680564 -35.152047454278033 0 -35.152047454278033 -43.957711211027799 0 0 0 0 306.85111657957168 13.975367419989425 0 13.975367419989425 -174.14136648535901 0 0 0 0 91.584904568109778 117.91778505048273 0 117.91778505048273 82.829806497370555 0 0 0 0 237.70392853504745 256.87049543156036 0 256.87049543156036 13.470778070101915 0 0 0 0 82.505985586572095 14.817931875031263 0 14.817931875031263 -6.0768244661990014 0 0 0 0 56.508731171954423 -224.18109287917468 0 -224.18109287917468 39.816196192972484 0 0 0 0 301.14666661853698 -0.88882052810265577 0 -0.88882052810265577 2.0564329953074605 0 0 0 0 -10.590308988717311 -1.3977576972450834 0 -1.3977576972450834 6.3789281017890866 0 0 0 0 343.09583248538547 41.468739648948031 0 41.468739648948031 -76.131093850552361 0 0 0 0 -1.5286588276721886 -44.805669622642199 0 -44.805669622642199 27.851973311474012 0 0 0 0 50.0619930549218 -12.344603635841068 0 -12.344603635841068 -12.446206003455309 0 0 0 0 120.52320306207548 6.6185869871028444 0 6.6185869871028444 0.3985699745145439 0 0 0 0 4.6103978659562017 1.6948879835046284 0 1.6948879835046284 0.45473697564503013 0 0 0 0 119.11355341058334 6.538038192119302 0 6.538038192119302 6.3710394303097928 0 0 0 0 105.58865556775709 8.1660284811237034 0 8.1660284811237034 7.4010268938759509 0 0 0 0 125.33684844535856 4.8641245909213922 0 4.8641245909213922 4.5522190980477717 0 0 0 0 181.67238575284136 74.122591206207545 0 74.122591206207545 168.3012365607417 0 0 0 0 85.600737508761711 -27.394979366778173 0 -27.394979366778173 -24.339929026219895 0 0 0 0 97.996031944814604 16.964260042121168 0 16.964260042121168 19.922608868368116 0 0 0 0 58.904482299402318 -11.633448173141588 0 -11.633448173141588 -8.855375314852985 0 0 0 0 73.230094575352268 16.537152527092189 0 16.537152527092189 24.234348143767193 0 0 0 0 22.271417264782727 26.934697891541447 0 26.934697891541447 18.434535526171835 0 0 0 0 34.842221148457611 -19.914844299342576 0 -19.914844299342576 17.31542452600371 0 0 0 0 52.626113162921683 -28.195599374286644 0 -28.195599374286644 -28.748758016082775 0 0 0 0 45.713372666912619 -1.0486755945087225 0 -1.0486755945087225 -16.584599870952843 0 0 0 0 62.628965242947743 -15.740542953806766 0 -15.740542953806766 -68.766096933715517 0 0 0 0 34.111149271717295 -33.815462217960203 0 -33.815462217960203 -60.982492171795911 0 0 0 0 7.8367532107897802 1.244610362166128 0 1.244610362166128 1.7170065343960457 0 0 0 0 310.0476662380388 -36.032145384608384 0 -36.032145384608384 25.425789138912023 0 0 0 0 49.376144049058894 -0.80010309716267614 0 -0.80010309716267614 -53.63773109307067 0 0 0 0 78.882627885148395 324.41238060189266 0 324.41238060189266 -25.216700265655504 0 0 0 0 8.3326916984026127 3.6157089212142779 0 3.6157089212142779 2.872445081797339 0 0 0 0 444.14978858828545 -14.252061914252408 0 -14.252061914252408 -161.09652029149538 0 0 0 0 84.789235965530651 10.179299663322041 0 10.179299663322041 -0.073513998092728031 0 0 0 0 103.707632454345 19.853983808903592 0 19.853983808903592 -62.477551461727529 0 0 0 0 332.77144042694999 -6.6201580279218888 0 -6.6201580279218888 -156.90447917798701 0 0 0 0 20.716391514783027 19.312884377672617 0 19.312884377672617 -65.407220505981059 0 0 0 0 -0.94366190436994657 33.492876615199293 0 33.492876615199293 -72.062942914351197 0 0 0 0 85.925952963560121 -16.87149742549876 0 -16.87149742549876 -34.316766100982306 0 0 0 0 13.710112943716808 16.157472809077198 0 16.157472809077198 -8.8171828505252083 0 0 0 0 96.6630904309568 32.633303041023652 0 32.633303041023652 -54.575078267092067 0 0 0 0 107.21656450297451 26.603061354415274 0 26.603061354415274 -51.517266892078851 0 0 0 0 43.761715414886766 -0.44900696703732734 0 -0.44900696703732734 -5.8498241473991754 0 0 0 0 32.779614800645504 5.1423126766743579 0 5.1423126766743579 -16.648092979207107 0 0 0 0 70.183002564619528 5.7332767358525558 0 5.7332767358525558 -25.939705716711366 0 0 0 0 54.142460791947087 -50.427060548555801 0 -50.427060548555801 -48.361584415155448 0 0 0 0 15.507167216486749 1.5896923720807763 0 1.5896923720807763 -1.4673661519451517 0 0 0 0 12.68184563369141 -32.32441998968352 0 -32.32441998968352 -36.128268195612463 0 0 0 0 -17.204061333402933 -3.1456173477618563 0 -3.1456173477618563 -51.882834886578166 0 0 0 0 35.896243792361929 -25.265692581853386 0 -25.265692581853386 -43.780578806622543 0 0 0 0 48.378248602837573 2.5671283013806701 0 2.5671283013806701 -3.0566143666450056 0 0 0 0 41.557829386517923 -7.3694773964891453 0 -7.3694773964891453 -10.757449394770557 0 0 0 0 -5.5072026363486657 -8.0049856676976106 0 -8.0049856676976106 24.674158925647134 0 0 0 0 72.693115219008178 -17.854962594750759 0 -17.854962594750759 -22.658157714521622 0 0 0 0 49.029779993696138 -4.0825521484980527 0 -4.0825521484980527 -24.91153639535878 0 0 0 0 11.960098019044381 -17.765797205325725 0 -17.765797205325725 -13.008395724026286 0 0 0 0 55.546415041014427 -8.6840238622404513 0 -8.6840238622404513 -6.9762883797614972 0 0 0 0 -0.36128471352827773 1.0186862870368394 0 1.0186862870368394 -0.004351002268324633 0 0 0 0 -1.0967744417139329 18.677795474135564 0 18.677795474135564 -40.830066547674733 0 0 0 0 177.55955466628075 38.050252922269465 0 38.050252922269465 -31.803590088032252 0 0 0 0 35.819643119102693 -41.346718926693484 0 -41.346718926693484 40.638684169212866 0 0 0 0 165.3411300922744 -71.592028763144299 0 -71.592028763144299 4.6268624850454216 0 0 0 0 123.14706456864951 -9.0995445904045482 0 -9.0995445904045482 -30.751498714468198 0 0 0 0 57.604650812048931 39.643976656871928 0 39.643976656871928 29.178505810782099 0 0 0 0 12.581267319648674 5.3294586988092334 0 5.3294586988092334 -4.9718025720488574 0 0 0 0 93.403658769879257 16.751987262936382 0 16.751987262936382 -50.877488839822036 0 0 0 0 93.829421903166804 24.708091597448629 0 24.708091597448629 8.1285576212030719 0 0 0 0 120.1969923863071 47.994574488915532 0 47.994574488915532 -73.773332747983659 0 0 0 0 197.25735416205134 -4.8431497222118196 0 -4.8431497222118196 -48.614094588534499 0 0 0 0 4.4345556207117625 45.613673326556182 0 45.613673326556182 -5.2381750556928637 0 0 0 0 -53.420715126849245 38.620806541718594 0 38.620806541718594 -4.9019353258347564 0 0 0 0 10.716448980892892 129.41004404789464 0 129.41004404789464 -105.62463140734872 0 0 0 0 30.47072865840164 97.345115673830151 0 97.345115673830151 0.70673902652379184 0 0 0 0 -14.098040505035897 -4.4017925226054331 0 -4.4017925226054331 113.76553022662847 0 0 0 0 78.044486485639936 -56.851090296467987 0 -56.851090296467987 66.79478078017155 0 0 0 0 -7.7103100118692964 26.96291564240255 0 26.96291564240255 43.138532022487198 0 0 0 0 35.770013366185594 5.8846485809549449 0 5.8846485809549449 46.255868861100112 0 0 0 0 40.673557432484813 73.659060749167111 0 73.659060749167111 -34.790425422429507 0 0 0 0 29.889835282599876 -8.3145934484872015 0 -8.3145934484872015 -5.1186161601642146 0 0 0 0 36.605003075615969 -2.7724795522321983 0 -2.7724795522321983 38.118756069034134 0 0 0 0 62.670399348484352 -32.675791319941254 0 -32.675791319941254 -35.744955367935205 0 0 0 0 35.934709065568427 -2.8489701926289541 0 -2.8489701926289541 -13.179932884446657 0 0 0 0 22.01181576622912 -8.6965409990722264 0 -8.6965409990722264 -12.644581027256891 0 0 0 0 50.46091314923251 -19.077256790759748 0 -19.077256790759748 1.6096795550784009 0 0 0 0 31.90139789712714 -13.427070104230928 0 -13.427070104230928 -2.5048756582784293 0 0 0 0 41.97166339395784 -20.184202439977497 0 -20.184202439977497 -0.46128996741117412 0 0 0 0 52.467089154849958 -17.020977101936907 0 -17.020977101936907 -1.7877327000613992 0 0 0 0 73.409390113942209 -31.775667648700619 0 -31.775667648700619 -35.669566790706313 0 0 0 0 68.908455005894211 2.3018698388919177 0 2.3018698388919177 -70.590998968817075 0 0 0 0 68.853372716221202 -7.8472340226940105 0 -7.8472340226940105 -34.008928129530887 0 0 0 0 78.532847289763595 -18.586351670901109 0 -18.586351670901109 -34.948126759663637 0 0 0 0 64.195788729964988 -34.040834701020287 0 -34.040834701020287 -37.473183524979277 0 0 0 0 53.363114819410839 -18.089098408145219 0 -18.089098408145219 -34.821231628949505 0 0 0 0 84.313290198442701 101.73927344704953 0 101.73927344704953 113.30411612863099 0 0 0 0 184.97374260605284 126.03358004276015 0 126.03358004276015 28.148780339686709 0 0 0 0 110.07951909544136 -32.69582097995567 0 -32.69582097995567 -75.414427668547432 0 0 0 0 143.04490467382493 30.938832880494601 0 30.938832880494601 -60.953735256913205 0 0 0 0 69.798788064719702 53.888443537533931 0 53.888443537533931 -23.735797656225259 0 0 0 0 124.72094696875865 66.333380930494968 0 66.333380930494968 -25.641479830384924 0 0 0 0 67.236300110744196 84.961762270291274 0 84.961762270291274 41.816531321717775 0 0 0 0 83.482230107765645 46.603370756251024 0 46.603370756251024 -53.861307445832608 0 0 0 0 65.775019479613547 76.649856813114866 0 76.649856813114866 -14.772080896187617 0 0 0 0 69.519809073884971 67.923117205808921 0 67.923117205808921 -9.7950082764782564 0 0 0 0 50.816516067105113 52.247533619886781 0 52.247533619886781 46.698806262867379 0 0 0 0 54.516599403483269 49.762379361661715 0 49.762379361661715 44.549452462310001 0 0 0 0 56.989116350378026 44.874356830495344 0 44.874356830495344 14.504601848215316 0 0 0 0 57.812109566853906 44.427248678428896 0 44.427248678428896 13.134772940877156 0 0 0 0 66.270711638826469 50.315206195231667 0 50.315206195231667 -12.214494578670383 0 0 0 0 70.911255763610825 60.867539360190676 0 60.867539360190676 11.729664276285575 0 0 0 0 110.29726081949048 34.935862198157338 0 34.935862198157338 -23.14314191736139 0 0 0 0 40.512769883692428 35.042661749264816 0 35.042661749264816 -2.8071561479290459 0 0 0 0 52.741468266183801 38.455774111324899 0 38.455774111324899 4.9096832931663812 0 0 0 0 49.757092440388078 43.47855552279816 0 43.47855552279816 2.5001946764787135 0 0 0 0 51.346620606374927 25.370642456736277 0 25.370642456736277 -6.0321225199813853 0 0 0 0 43.834333408288217 12.080595437034063 0 12.080595437034063 -13.082233357702769 0 0 0 0 484.48875262137153 -337.06039250479574 0 -337.06039250479574 178.33634557651749 0 0 0 0 53.305313767483312 31.772382468149317 0 31.772382468149317 13.884099130245886 0 0 0 0 160.64579325090745 172.27008843494673 0 172.27008843494673 -73.19303240050499 0 0 0 0 83.500830590062435 0.42359480710941533 0 0.42359480710941533 -7.3718949821331723 0 0 0 0 30.664593973211595 -151.01851543498969 0 -151.01851543498969 -114.89622378081367 0 0 0 0 -14.486233426709077 142.37085280107135 0 142.37085280107135 -23.218342696970467 0 0 0 0 104.69022144039627 -2.3784379547732613 0 -2.3784379547732613 -56.472585731017425 0 0 0 0 -55.165211678471678 84.036691861122733 0 84.036691861122733 -84.780416645971854 0 0 0 0 76.367500363325235 21.809699182387376 0 21.809699182387376 -47.911054959952367 0 0 0 0 38.940406608139142 4.2667513352996735 0 4.2667513352996735 -15.676629089476556 0 0 0 0 67.396382882089711 8.4240001204734085 0 8.4240001204734085 24.920778636085743 0 0 0 0 68.763987525002449 19.07545128190759 0 19.07545128190759 6.0003942238436139 0 0 0 0 59.629678645331296 25.87939402498796 0 25.87939402498796 17.738284855185839 0 0 0 0 53.529270698745677 23.636298537534458 0 23.636298537534458 22.184668044896171 0 0 0 0 45.952055332294549 9.0434737478444731 0 9.0434737478444731 36.342200064967074 0 0 0 0 53.372660457811435 19.410420414325927 0 19.410420414325927 48.930111190073831 0 0 0 0 57.234459920939116 7.4402754175466725 0 7.4402754175466725 34.723006181031451 0 0 0 0 19.923437876071347 -4.8767445972595187 0 -4.8767445972595187 -3.6708337649992746 0 0 0 0 79.784208914325973 -17.404374820345311 0 -17.404374820345311 -12.450887437397833 0 0 0 0 5.8153529832343338 -86.209254382949439 0 -86.209254382949439 8.4243662508483794 0 0 0 0 48.178780587793881 -8.9029643178990909 0 -8.9029643178990909 -5.0043724465685955 0 0 0 0 163.17733012810277 197.75594038221288 0 197.75594038221288 269.53707780249806 0 0 0 0 5.5698291251603393 2.5310546373649854 0 2.5310546373649854 1.2148195329364437 0 0 0 0 28.444579388436978 35.248476423311331 0 35.248476423311331 90.442732934924834 0 0 0 0 126.35257451029565 -216.37886656980328 0 -216.37886656980328 -156.81582251719999 0 0 0 0 73.406186563513188 -26.488200022159702 0 -26.488200022159702 -10.538414233514427 0 0 0 0 117.52036668657092 -159.3562637815262 0 -159.3562637815262 -57.675355768625309 0 0 0 0 108.19426329801763 -7.6275308029352678 0 -7.6275308029352678 -85.184355503344847 0 0 0 0 152.24722622122863 73.853680878328348 0 73.853680878328348 -38.2556517725234 0 0 0 0 135.39250972159061 7.978671441384698 0 7.978671441384698 -66.918115595927986 0 0 0 0 178.13381772832508 16.62755534959517 0 16.62755534959517 -114.76016137334688 0 0 0 0 125.62003283432568 -33.76226126468395 0 -33.76226126468395 -123.94999146639984 0 0 0 0 116.23393958182714 42.691878259076738 0 42.691878259076738 -64.065658492400274 0 0 0 0 105.16076075776073 18.227996691050961 0 18.227996691050961 -67.049604193497402 0 0 0 0 101.16795462444134 24.690609593638641 0 24.690609593638641 -50.437176485568102 0 0 0 0 98.537036738212919 49.853578081490056 0 49.853578081490056 -26.245453345350725 0 0 0 0 100.94420013240597 60.714316449790559 0 60.714316449790559 -19.908145943316622 0 0 0 0 100.51314655791793 60.171924235152503 0 60.171924235152503 -11.035465522250693 0 0 0 0 56.260087895498145 82.678285034705965 0 82.678285034705965 74.223896673432847 0 0 0 0 176.87485282380658 96.10191503874475 0 96.10191503874475 -4.2347671534409344 0 0 0 0 -37.924730954051483 -1.4537467035799523 0 -1.4537467035799523 56.29094123958857 0 0 0 0 278.80007706666947 -355.97703325481893 0 -355.97703325481893 217.17171391887695 0 0 0 0 99.049933021327888 130.33704415078182 0 130.33704415078182 161.41702844483441 0 0 0 0 7.6441691353250576 0.56253317915761158 0 0.56253317915761158 0.3861693901618678 0 0 0 0 235.21951031865319 209.54558905710704 0 209.54558905710704 73.821311643963497 0 0 0 0 -53.953136553813238 -100.65143271442548 0 -100.65143271442548 293.32541509387204 0 0 0 0 -14.839090918787406 264.95387660999484 0 264.95387660999484 121.27592851513094 0 0 0 0 501.16722561241477 0.72788684254858538 0 0.72788684254858538 -92.946811029238134 0 0 0 0 248.43709639615554 -255.68073062636049 0 -255.68073062636049 111.68186701762068 0 0 0 0 -10.709393380573601 -56.659560252907568 0 -56.659560252907568 -40.047278528672734 0 0 0 0 50.775434091847274 -6.0040342989937017 0 -6.0040342989937017 -9.3363478944734197 0 0 0 0 14.664610909738713 13.48162738341378 0 13.48162738341378 -19.394547792542777 0 0 0 0 94.444332984392531 -16.090293319453849 0 -16.090293319453849 -22.725933877247826 0 0 0 0 30.892921988113812 -38.077687927609873 0 -38.077687927609873 0.35101745890460734 0 0 0 0 34.25846019452635 -9.791411644160334 0 -9.791411644160334 -9.9252562482894255 0 0 0 0 37.278280310365517 -15.643930061618335 0 -15.643930061618335 -8.2216525436633674 0 0 0 0 41.684158866388316 -26.543394682392091 0 -26.543394682392091 15.475865035135939 0 0 0 0 52.33379441848956 39.810207324298062 0 39.810207324298062 -142.8636636158958 0 0 0 0 8.160706067238749 -4.3514837204120198 0 -4.3514837204120198 -3.9444492929340313 0 0 0 0 19.088662053836742 3.0790351960508815 0 3.0790351960508815 -119.02823686958618 0 0 0 0 226.19709855390829 -77.919599451166505 0 -77.919599451166505 23.683523296450403 0 0 0 0 110.2872584839497 1.6017460849794816 0 1.6017460849794816 -4.2776381059811683 0 0 0 0 10.443614157272691 11.721524408928474 0 11.721524408928474 -12.99683668427703 0 0 0 0 0.85584488321120489 0.15333865320621953 0 0.15333865320621953 -0.017942424098795762 0 0 0 0 106.08518362385803 -55.663567267154576 0 -55.663567267154576 28.194218492661093 0 0 0 0 127.91505016828887 -21.641662263336457 0 -21.641662263336457 -9.3987618025739721 0 0 0 0 177.02614523476223 39.779107664366165 0 39.779107664366165 -8.95394228861187 0 0 0 0 54.461317837805836 11.129210239044665 0 11.129210239044665 -17.830000723210873 0 0 0 0 59.698178337217541 5.9625361957817447 0 5.9625361957817447 -22.655818085507804 0 0 0 0 75.910210094647482 11.686795682362892 0 11.686795682362892 -29.136311709861758 0 0 0 0 79.906941689434461 9.4501688159628685 0 9.4501688159628685 -29.712742944361054 0 0 0 0 67.251508251618361 14.869997387610745 0 14.869997387610745 -20.293978016246996 0 0 0 0 94.512071520133759 34.816748705622949 0 34.816748705622949 -40.056028731111837 0 0 0 0 96.558700928086182 32.693415179160183 0 32.693415179160183 -47.898663234438345 0 0 0 0 83.942335902247578 23.180004351061839 0 23.180004351061839 -35.996450513339994 0 0 0 0 98.627936080978543 21.42048824748338 0 21.42048824748338 -43.294549728562856 0 0 0 0 116.61345394409727 15.08397882755186 0 15.08397882755186 -46.786715172492393 0 0 0 0 86.449211237806594 30.676406479140724 0 30.676406479140724 -28.782848065104275 0 0 0 0 85.08352349625784 36.227729857126796 0 36.227729857126796 -39.850411882465366 0 0 0 0 73.797043928614585 44.773210440798714 0 44.773210440798714 -19.610368612423702 0 0 0 0 63.177587913203752 29.680700559819652 0 29.680700559819652 -19.46547160640888 0 0 0 0 75.484489406746434 39.603836008315731 0 39.603836008315731 -11.909316644443468 0 0 0 0 39.849662246648222 25.751956124244089 0 25.751956124244089 -4.8821854738744701 0 0 0 0 37.443572345830034 11.153016072788562 0 11.153016072788562 -12.567117733721973 0 0 0 0 58.414337780937785 13.911659530518232 0 13.911659530518232 -15.887728195064573 0 0 0 0 57.936323717716732 15.509241541334557 0 15.509241541334557 -20.213482846840357 0 0 0 0 38.85692851562635 10.939591739280935 0 10.939591739280935 -16.469748388020875 0 0 0 0 45.112690879832371 10.934701235292978 0 10.934701235292978 -19.06555710202781 0 0 0 0 47.010101066995048 22.470368789260775 0 22.470368789260775 -7.7718504905675729 0 0 0 0 38.74609987178701 9.7415846505474661 0 9.7415846505474661 -14.701960059160456 0 0 0 0 36.623187814548146 2.0758954316382017 0 2.0758954316382017 -22.849925432981102 0 0 0 0 59.738211409887299 54.512869950838635 0 54.512869950838635 22.113236514773952 0 0 0 0 36.020806516113225 9.8391783567157276 0 9.8391783567157276 -12.559277917247453 0 0 0 0 43.141166761342902 16.364129445035257 0 16.364129445035257 -13.964133218016926 0 0 0 0 12.895907302736305 22.795705041612845 0 22.795705041612845 13.340521494337688 0 0 0 0 20.301419080746598 3.0018107819574666 0 3.0018107819574666 -1.4657297519894492 0 0 0 0 31.551711625652388 9.4032716295091916 0 9.4032716295091916 -53.811802586322017 0 0 0 0 47.603045626754465 -8.814482069557247 0 -8.814482069557247 -52.387329209617675 0 0 0 0 32.225402211595792 13.279916014221484 0 13.279916014221484 -13.410748631552375 0 0 0 0 33.01645493509659 1.41322103707143 0 1.41322103707143 -20.56798786864583 0 0 0 0 33.983549875440076 0.11798412291722116 0 0.11798412291722116 -22.439678902604697 0 0 0 0 28.477207491341687 2.6547989153674099 0 2.6547989153674099 -18.142911472070807 0 0 0 0 49.73189081432065 17.843328801162173 0 17.843328801162173 -32.207360733718183 0 0 0 0 46.977676346083172 9.112031943020213 0 9.112031943020213 -13.418645534557299 0 0 0 0 9.8929939082143363 3.0834248510763871 0 3.0834248510763871 -3.4734998570073596 0 0 0 0 22.010248489280627 -0.88350640934419289 0 -0.88350640934419289 -19.506446253145409 0 0 0 0 53.149935375186033 -62.236853656715539 0 -62.236853656715539 -82.677405522077606 0 0 0 0 -3.1138859157617844 -22.711212453697954 0 -22.711212453697954 -13.233454468339914 0 0 0 0 13.815302741241808 2.8939292391127651 0 2.8939292391127651 -2.5163998861295696 0 0 0 0 23.237711239650622 -1.0530187582338613 0 -1.0530187582338613 -22.479367204511902 0 0 0 0 46.411918367724866 33.385443696758557 0 33.385443696758557 -24.222365415940658 0 0 0 0 32.487643141154877 -4.8617058201641878 0 -4.8617058201641878 -28.686450457336448 0 0 0 0 37.977910349924059 4.6322989865275019 0 4.6322989865275019 -31.274084461737331 0 0 0 0 37.804284241559799 12.634224388702281 0 12.634224388702281 -19.962460941383725 0 0 0 0 36.562104718246076 -17.485007037181362 0 -17.485007037181362 -10.92429180954424 0 0 0 0 29.519054298696574 -40.933651192578225 0 -40.933651192578225 -5.9125336278812028 0 0 0 0 63.669420626334613 -22.870342592300403 0 -22.870342592300403 -32.705097557089175 0 0 0 0 27.901495197744225 -28.072347537581209 0 -28.072347537581209 -22.145405448607562 0 0 0 0 40.976014753658092 -26.159661616526591 0 -26.159661616526591 -74.384415488280865 0 0 0 0 57.131613118712266 3.6399137322769093 0 3.6399137322769093 -23.39561106747351 0 0 0 0 59.223587711312575 -14.886171696508427 0 -14.886171696508427 72.255867032560786 0 0 0 0 100.29022116057968 -15.630040811606477 0 -15.630040811606477 -8.3776432663362357 0 0 0 0 230.28887991925876 35.344994966576451 0 35.344994966576451 79.003263642186539 0 0 0 0 77.240298647311647 47.6815889357689 0 47.6815889357689 103.86868043971481 0 0 0 0 195.5106572368968 -19.602210192167149 0 -19.602210192167149 -55.459533666808511 0 0 0 0 36.839667851327249 87.980245938726284 0 87.980245938726284 -104.83977704224253 0 0 0 0 63.143952852347866 -27.45154341941452 0 -27.45154341941452 0.43281516113893304 0 0 0 0 55.869617200980429 -12.010365356446528 0 -12.010365356446528 -30.642199978232725 0 0 0 0 70.698369508929318 19.950549314232376 0 19.950549314232376 -89.864919337617266 0 0 0 0 40.457747022933233 15.886923151755795 0 15.886923151755795 3.1789320465980389 0 0 0 0 110.20991121108818 -23.72685296640384 0 -23.72685296640384 -62.465663041887638 0 0 0 0 6.9293504638462764 -44.927926160713469 0 -44.927926160713469 3.3421511259166437 0 0 0 0 46.626768133737642 112.90740679608001 0 112.90740679608001 -46.817185650450483 0 0 0 0 432.41464110001107 8.3534957064362061 0 8.3534957064362061 -57.216373208206733 0 0 0 0 134.48664745231508 -9.205854894506956 0 -9.205854894506956 -1.367993367319059 0 0 0 0 133.1832664184476 51.422409939776117 0 51.422409939776117 -122.5521718226305 0 0 0 0 -87.895833998554735 71.059802936162669 0 71.059802936162669 -36.872465682404709 0 0 0 0 20.436137758399127 -41.936051535078605 0 -41.936051535078605 -179.05932708881528 0 0 0 0 8.1466765873685745 4.1162320410054605 0 4.1162320410054605 -0.501089694566204 0 0 0 0 842.73357560117438 -120.4212011469715 0 -120.4212011469715 -254.85357313152235 0 0 0 0 1173.3210449705948 -299.58117684025865 0 -299.58117684025865 -230.63734149858283 0 0 0 0 848.51165478362236 -84.520558167426088 0 -84.520558167426088 -125.57407326358452 0 0 0 0 409.76390617310244 -105.48555555300527 0 -105.48555555300527 -15.291068352609727 0 0 0 0 478.59935142309405 -50.356195320075585 0 -50.356195320075585 -63.964521007120311 0 0 0 0 27.51829706021914 11.181954277690579 0 11.181954277690579 4.3489601760020324 0 0 0 0 423.64376850654662 -103.88869309720576 0 -103.88869309720576 -14.081693655610252 0 0 0 0 641.58692548905674 -330.54506072475988 0 -330.54506072475988 30.213343466227343 0 0 0 0 375.33909241008223 616.5584908405699 0 616.5584908405699 364.85984890627151 0 0 0 0 1502.8324949841281 -810.65198435242576 0 -810.65198435242576 297.77507595020961 0 0 0 0 11.353757641433958 3.5106735260111321 0 3.5106735260111321 1.3158396772269167 0 0 0 0 240.17650908352516 259.12207395925725 0 259.12207395925725 315.89191557627828 0 0 0 0 75.088580602459842 28.078225615601013 0 28.078225615601013 153.05243394102581 0 0 0 0 1665.4767856470571 -4.6990695515303287 0 -4.6990695515303287 -35.983684629050003 0 0 0 0 500.18435235477227 -200.86793893726463 0 -200.86793893726463 782.63166667895985 0 0 0 0 503.61110508471211 -235.82250015605135 0 -235.82250015605135 199.59187932271925 0 0 0 0 201.04298450898204 3.9775330824932098 0 3.9775330824932098 434.72664584550057 0 0 0 0 1576.8994182356141 433.97024270117521 0 433.97024270117521 302.21572865651979 0 0 0 0 48.436592504258442 -51.321704756412601 0 -51.321704756412601 95.922669453625986 0 0 0 0 275.87434670815128 -153.87363041999379 0 -153.87363041999379 83.399082882116204 0 0 0 0 310.83994698563038 -105.09806789742333 0 -105.09806789742333 118.66266934888699 0 0 0 0 194.70236991041747 57.313771140381505 0 57.313771140381505 59.613009027300905 0 0 0 0 57.671239097879152 76.924458119294741 0 76.924458119294741 105.69029328625274 0 0 0 0 -0.010032266509313104 -0.68022643318180798 0 -0.68022643318180798 0.33191729636344824 0 0 0 0 0.57411075827241831 0.50087047851826583 0 0.50087047851826583 0.35919262373196759 0 0 0 0 37.497399105748627 107.35342289367554 0 107.35342289367554 -48.070420864034531 0 0 0 0 -48.624996747705154 143.43445549135322 0 143.43445549135322 85.5489828040063 0 0 0 0 280.90346330789907 164.08833242552055 0 164.08833242552055 -54.141500149991771 0 0 0 0 192.21301405841132 188.36562244443633 0 188.36562244443633 -271.29416879168366 0 0 0 0 55.484996064915322 228.05627118888742 0 228.05627118888742 -212.69251885341146 0 0 0 0 -70.956399679213064 73.057887368263437 0 73.057887368263437 -67.89197898174325 0 0 0 0 46.865766876806447 253.67299280440807 0 253.67299280440807 -257.95072472500397 0 0 0 0 -3.4058527693109681 0.47970676479430097 0 0.47970676479430097 2.097986965802848 0 0 0 0 44.176387941974099 -32.611570114862843 0 -32.611570114862843 -390.31280876763253 0 0 0 0 873.08974424174812 46.366809343848217 0 46.366809343848217 -40.970354258110433 0 0 0 0 738.66072817287932 -93.436445154108242 0 -93.436445154108242 -1.0620357316629452 0 0 0 0 202.65898726580417 9.5950962851574104 0 9.5950962851574104 19.681612983138621 0 0 0 0 699.5231964278646 143.42797700876281 0 143.42797700876281 54.36242214180902 0 0 0 0 593.08741272114639 -137.58510131259357 0 -137.58510131259357 -133.83179258915334 0 0 0 0 494.97341530925769 101.92624037438281 0 101.92624037438281 -113.92972715255746 0 0 0 0 185.97862685338987 -1.6510271612015686 0 -1.6510271612015686 -102.28770709761648 0 0 0 0 1218.4110405653337 -73.285078235380922 0 -73.285078235380922 -291.91622041727805 0 0 0 0 887.7172313825431 -175.72798339246219 0 -175.72798339246219 -296.66494925502502 0 0 0 0 812.48459005747281 -44.357021966480715 0 -44.357021966480715 -234.9416141671536 0 0 0 0 690.84896870756347 -277.467811930972 0 -277.467811930972 -19.13242471622857 0 0 0 0 1175.1990925278078 -190.50274582888937 0 -190.50274582888937 -326.36255813718435 0 0 0 0 363.74903266911861 -149.44539803931229 0 -149.44539803931229 -109.96519810453538 0 0 0 0 377.38796594061023 -79.596769490496172 0 -79.596769490496172 -385.46170933512167 0 0 0 0 -10.257241698593134 118.99491559122816 0 118.99491559122816 -131.20031055770471 0 0 0 0 17.427960215514759 87.019950430992139 0 87.019950430992139 -23.349608466583959 0 0 0 0 179.59530519018881 205.76784655476331 0 205.76784655476331 -403.55226806976594 0 0 0 0 -108.10379057827231 173.99158415785428 0 173.99158415785428 -83.476678708302188 0 0 0 0 361.06923820727388 36.963283378545384 0 36.963283378545384 -248.42106958221848 0 0 0 0 363.74740453631966 46.722127571471901 0 46.722127571471901 -239.44937777971495 0 0 0 0 35.995973521808139 18.926812770367079 0 18.926812770367079 5.6833387825067927 0 0 0 0 93.350558968348196 21.756441133593967 0 21.756441133593967 16.976070784039621 0 0 0 0 267.57858838602624 51.910225249646373 0 51.910225249646373 -19.159376782518393 0 0 0 0 1353.8673585264187 -625.6015375357814 0 -625.6015375357814 183.94528718630579 0 0 0 0 201.77154995796445 -68.908551899538111 0 -68.908551899538111 -10.042189355680421 0 0 0 0 57.109074462762294 18.746006318095215 0 18.746006318095215 1.3282734095201443 0 0 0 0 160.78276807202928 122.47400114245477 0 122.47400114245477 -48.88070094529121 0 0 0 0 63.755715353239793 279.49861962499608 0 279.49861962499608 96.802289206663772 0 0 0 0 29.019885176472599 -17.691221320489603 0 -17.691221320489603 -14.751502619692928 0 0 0 0 75.997823761135805 23.797357117394768 0 23.797357117394768 -128.90390603064225 0 0 0 0 97.809612171979097 221.0488406390723 0 221.0488406390723 -245.8178791174596 0 0 0 0 44.097014238563133 -59.702258467556476 0 -59.702258467556476 -295.42175861659564 0 0 0 0 11.663465731545628 7.9947994381247725 0 7.9947994381247725 2.5025141715553829 0 0 0 0 60.809408250179615 31.601670031621101 0 31.601670031621101 12.141226693444853 0 0 0 0 48.215567367049516 28.275839736781336 0 28.275839736781336 -47.939601714725086 0 0 0 0 49.74958280899574 9.6581899374386655 0 9.6581899374386655 -1.8762028096035934 0 0 0 0 22.621720137148202 31.271960189482883 0 31.271960189482883 11.440774161678796 0 0 0 0 102.9573361361654 -2.6408989731024803 0 -2.6408989731024803 -177.42758351790962 0 0 0 0 -0.8309603109373711 62.933604546003153 0 62.933604546003153 0.0005381718983699102 0 0 0 0 23.76385394645331 78.601269286371917 0 78.601269286371917 -16.839664666047838 0 0 0 0 22.110295359248994 213.41509064301772 0 213.41509064301772 -89.208509216101447 0 0 0 0 460.84893728225143 207.11100117269598 0 207.11100117269598 22.272526503491008 0 0 0 0 -17.652450790730654 42.986434782636934 0 42.986434782636934 -33.44232710140659 0 0 0 0 363.71928263532754 -51.46373801793834 0 -51.46373801793834 -241.61043672510823 0 0 0 0 549.29921147774439 -37.235908613864012 0 -37.235908613864012 -84.246313133098738 0 0 0 0 27.783668789495096 116.29162346973408 0 116.29162346973408 275.65333254284087 0 0 0 0 550.25855985794624 -92.294625128021835 0 -92.294625128021835 -55.320842786581125 0 0 0 0 176.18834788871027 335.62712176892342 0 335.62712176892342 -403.99575944898925 0 0 0 0 43.738341222957388 37.438080459776479 0 37.438080459776479 116.41852495189556 0 0 0 0 -17.144523637017258 27.810549589226667 0 27.810549589226667 6.8260484133259753 0 0 0 0 -110.82183756279846 86.534547099618862 0 86.534547099618862 84.200704262905901 0 0 0 0 145.90746127808961 190.20112684088178 0 190.20112684088178 70.183129639521979 0 0 0 0 405.49465239749406 -354.74509667512825 0 -354.74509667512825 489.80844825447093 0 0 0 0 1155.623626866829 -113.84854192057958 0 -113.84854192057958 -552.8792772830825 0 0 0 0 525.99838480963081 -435.13434755585422 0 -435.13434755585422 204.48340291393151 0 0 0 0 15.875470984797516 2.3136780116923035 0 2.3136780116923035 1.102466415817114 0 0 0 0 458.8978845661768 813.31303671361889 0 813.31303671361889 1273.1700839310424 0 0 0 0 187.88743969147617 476.71208736575147 0 476.71208736575147 870.60123674006968 0 0 0 0 852.81250068811642 671.49586050955963 0 671.49586050955963 361.98463393223454 0 0 0 0 942.7722024864197 716.22391213053879 0 716.22391213053879 -130.05459079199807 0 0 0 0 55.157304997876054 92.36182574274838 0 92.36182574274838 204.70243206025907 0 0 0 0 98.58909372852213 104.55948090498376 0 104.55948090498376 65.140413063779206 0 0 0 0 417.62410808427376 376.20957426207133 0 376.20957426207133 226.01410705212004 0 0 0 0 187.67677390437166 128.3254824514066 0 128.3254824514066 37.065608850676199 0 0 0 0 596.68885569105623 170.15083106422259 0 170.15083106422259 -206.3442728544851 0 0 0 0 935.53289738875173 415.34459169776801 0 415.34459169776801 -225.27246845589212 0 0 0 0 1485.8544439301477 -1346.467785056185 0 -1346.467785056185 -983.33725884439559 0 0 0 0 1138.8236290120112 980.34669596971412 0 980.34669596971412 -682.00570504380732 0 0 0 0 1037.0178438403454 182.0521970301848 0 182.0521970301848 -999.87770805561331 0 0 0 0 1671.5430444257508 911.13531697737335 0 911.13531697737335 430.52298949486794 0 0 0 0 -298.94423451171315 252.74365441221991 0 252.74365441221991 828.42648607197918 0 0 0 0 1765.7297128484643 -777.51796007229041 0 -777.51796007229041 1144.8881596666711 0 0 0 0 1130.4532088969836 -345.08170411215451 0 -345.08170411215451 347.02767475599376 0 0 0 0 1120.6212756710593 -476.71328155446844 0 -476.71328155446844 2125.971946258931 0 0 0 0 1009.2912527341687 -1167.6316462006116 0 -1167.6316462006116 316.90771218379678 0 0 0 0 10.02801333968057 -6.0620268039272531 0 -6.0620268039272531 3.5353214214297424 0 0 0 0 815.50650779510033 14.931463868124183 0 14.931463868124183 -42.732386192961258 0 0 0 0 499.81528107084159 -513.07071162842226 0 -513.07071162842226 683.76187353492992 0 0 0 0 1366.949165105063 -310.63485093641418 0 -310.63485093641418 -1156.1706536000834 0 0 0 0 1054.3137036663247 -446.47478205996219 0 -446.47478205996219 -341.01053482283146 0 0 0 0 874.85102032602299 -157.9222326649024 0 -157.9222326649024 152.10417182446918 0 0 0 0 60.240198405801493 -298.20674532417615 0 -298.20674532417615 460.44180259522386 0 0 0 0 -12.405651825807581 -161.69450454006528 0 -161.69450454006528 210.26816236592759 0 0 0 0 1.6938633981615965 -6.4945765437345244 0 -6.4945765437345244 11.014820323802134 0 0 0 0 -10.838671823192271 21.369473816404025 0 21.369473816404025 27.331484301274031 0 0 0 0 42.511306000887998 61.67180325678342 0 61.67180325678342 47.00964884077726 0 0 0 0 87.436228212696733 14.761450103888933 0 14.761450103888933 12.014935435420128 0 0 0 0 19.685032018242055 -37.103834361031574 0 -37.103834361031574 131.66851035849126 0 0 0 0 41.596866113410215 27.750025070746915 0 27.750025070746915 -93.978707487258362 0 0 0 0 45.312472915582475 -7.2958873649017733 0 -7.2958873649017733 -76.074805416705203 0 0 0 0 33.503877801267663 28.227502380794249 0 28.227502380794249 10.550391641877013 0 0 0 0 45.708818360857549 -69.901440807776453 0 -69.901440807776453 -86.827176929553389 0 0 0 0 15.552201538265876 -18.222504061624576 0 -18.222504061624576 13.464101902678857 0 0 0 0 -57.162379093817435 53.71834607153653 0 53.71834607153653 -40.199574993933368 0 0 0 0 63.725677849266503 -6.2279577140866422 0 -6.2279577140866422 -132.19903888314821 0 0 0 0 -108.33473484779825 135.21166614006461 0 135.21166614006461 104.20532678820126 0 0 0 0 -89.545357408722339 93.597465028229408 0 93.597465028229408 -73.882328768603656 0 0 0 0 -291.6075699493922 41.582875377185786 0 41.582875377185786 204.86779267826751 0 0 0 0 -233.59060187752038 -149.21266265138732 0 -149.21266265138732 58.974191696907837 0 0 0 0 -17.437789251620416 -28.307787342458141 0 -28.307787342458141 84.670959189365249 0 0 0 0 -67.372497951888363 -49.481510633253606 0 -49.481510633253606 125.86336654236493 0 0 0 0 -101.37329912313726 154.3422354931389 0 154.3422354931389 224.62776279020318 0 0 0 0 -53.486045615252806 -154.62067965843153 0 -154.62067965843153 -82.18826438659039 0 0 0 0 11.566036212490872 -30.959383501349748 0 -30.959383501349748 -92.439859267568465 0 0 0 0 25.506588709637697 -14.626684466394501 0 -14.626684466394501 6.7807033463171358 0 0 0 0 -50.827843848892371 44.28953077151391 0 44.28953077151391 -70.109459587547462 0 0 0 0 81.181626230747497 -71.252028846785379 0 -71.252028846785379 30.743810459930955 0 0 0 0 -37.931336878536968 -72.817260880668073 0 -72.817260880668073 -34.014049539218377 0 0 0 0 -39.85439289623173 -51.717608927605397 0 -51.717608927605397 20.890094352279903 0 0 0 0 57.30357831515721 -45.91955066136461 0 -45.91955066136461 8.6601853550109809 0 0 0 0 13.203846011310816 19.227434856406035 0 19.227434856406035 -51.462894738301202 0 0 0 0 68.784706031467067 -31.42284856102151 0 -31.42284856102151 24.338998365791667 0 0 0 0 12.386463462252095 -4.6771721614920949 0 -4.6771721614920949 -0.80386061836432621 0 0 0 0 59.097599578549307 31.602082758836669 0 31.602082758836669 76.545132582319638 0 0 0 0 13.497658011998439 -2.9088217022639355 0 -2.9088217022639355 1.1557238006154309 0 0 0 0 -72.150407793436898 12.295438890710102 0 12.295438890710102 142.03989115333707 0 0 0 0 -72.080540901060203 0.98517369742284711 0 0.98517369742284711 126.00691585944196 0 0 0 0 -99.586278751463396 99.583792803742199 0 99.583792803742199 -76.408167525295767 0 0 0 0 -49.954334195874253 -87.142029628203488 0 -87.142029628203488 28.530799711150394 0 0 0 0 94.364791057167167 -71.219711773581594 0 -71.219711773581594 57.643158021818635 0 0 0 0 338.05022864021885 95.696586197701322 0 95.696586197701322 78.815698589052886 0 0 0 0 66.779700840226724 -18.06807827773082 0 -18.06807827773082 65.45539441615847 0 0 0 0 471.69113683300384 32.773054033896642 0 32.773054033896642 -32.148441109731721 0 0 0 0 70.192227853736313 62.913009289988139 0 62.913009289988139 91.213658616870816 0 0 0 0 472.45949210569597 34.381444316514887 0 34.381444316514887 -107.18102628477618 0 0 0 0 991.90261945522798 125.83947943217481 0 125.83947943217481 -105.006079726395 0 0 0 0 946.10656387501513 2.3507292569735228 0 2.3507292569735228 -200.27882276493983 0 0 0 0 1118.8881598821135 -41.759708652254517 0 -41.759708652254517 -242.58012710744333 0 0 0 0 1507.7369254718651 78.679278693571177 0 78.679278693571177 -197.18982806203417 0 0 0 0 1735.0436394345634 380.54741523412372 0 380.54741523412372 164.34457011229745 0 0 0 0 841.81801310912124 406.081496081664 0 406.081496081664 420.00537906817175 0 0 0 0 133.74076356756268 354.86973968141615 0 354.86973968141615 190.96038538577193 0 0 0 0 372.30804866700419 248.5782388436935 0 248.5782388436935 70.512972354507838 0 0 0 0 752.92969977145549 210.39061255878289 0 210.39061255878289 8.9484878343266701 0 0 0 0 5370.8253423550232 -3106.3248313742015 0 -3106.3248313742015 886.96086128278648 0 0 0 0 6528.6625106670508 -579.88691196482864 0 -579.88691196482864 -199.52340459723905 0 0 0 0 9.4197049197431113 -14.161098757194743 0 -14.161098757194743 10.570428808863687 0 0 0 0 -1648.0626371659855 -2585.799506941672 0 -2585.799506941672 720.70568364657311 0 0 0 0 4502.2865986159886 -712.7087315436778 0 -712.7087315436778 -1573.2276032147506 0 0 0 0 15.886562821487352 -26.29847279563333 0 -26.29847279563333 19.614447132787689 0 0 0 0 3329.6313689448107 -618.52499129244859 0 -618.52499129244859 -1267.3216692677918 0 0 0 0 808.9666022287056 -289.30427880156458 0 -289.30427880156458 179.87166014070135 0 0 0 0 2701.563164546511 156.79543009076451 0 156.79543009076451 -228.86454288950017 0 0 0 0 2417.8002722755555 -1470.4831725743566 0 -1470.4831725743566 106.56679017840941 0 0 0 0 1822.5903875207441 -1070.6510679922185 0 -1070.6510679922185 46.174798886789972 0 0 0 0 2705.3090797460404 -1747.0917427354052 0 -1747.0917427354052 367.59824394204588 0 0 0 0 1726.026888759181 -1563.1405864550788 0 -1563.1405864550788 673.86420410059122 0 0 0 0 1448.5245706955029 -1578.5665058824397 0 -1578.5665058824397 678.68941424713637 0 0 0 0 462.16730058876419 -982.15171738650906 0 -982.15171738650906 882.89692100496359 0 0 0 0 1568.44710111108 -1459.1598188103621 0 -1459.1598188103621 541.67488294879968 0 0 0 0 1774.5112486348517 -2481.3449389367261 0 -2481.3449389367261 2106.0795307337421 0 0 0 0 1990.1243221545883 -2135.8480397560006 0 -2135.8480397560006 1082.8631624006675 0 0 0 0 1654.6753780383879 -1487.9756851040725 0 -1487.9756851040725 778.31085228920733 0 0 0 0 3914.6719662521064 -1539.2614012165627 0 -1539.2614012165627 365.20213948279326 0 0 0 0 436.08837378147837 -1221.4524312531937 0 -1221.4524312531937 3382.4998124166118 0 0 0 0 3608.9257523539527 -3541.4850375655865 0 -3541.4850375655865 2352.7826433413443 0 0 0 0 1205.5208092563262 -1691.5706216549715 0 -1691.5706216549715 1005.0954880673571 0 0 0 0 108.0549236296938 -496.67200331992444 0 -496.67200331992444 1515.9146940127848 0 0 0 0 431.78609251693706 -691.61950162695666 0 -691.61950162695666 139.05779866031298 0 0 0 0 148.86694963372338 508.20665592356352 0 508.20665592356352 165.16440338159737 0 0 0 0 117.00687575625241 40.38246589416454 0 40.38246589416454 -27.139119157833651 0 0 0 0 -113.7104414258647 -578.98378737523672 0 -578.98378737523672 761.67151515763817 0 0 0 0 1330.6230731225696 -392.58648313681397 0 -392.58648313681397 555.97182079744744 0 0 0 0 838.89525311995021 -226.32555520754613 0 -226.32555520754613 756.19388640173929 0 0 0 0 4484.0712348423585 -5560.8941488401879 0 -5560.8941488401879 2086.9490602538135 0 0 0 0 26.588227213990436 -18.254948603515704 0 -18.254948603515704 22.737471899463738 0 0 0 0 -287.53668949875282 -2046.7242608432161 0 -2046.7242608432161 6316.878773610295 0 0 0 0 2282.9268236914595 1082.0920978713991 0 1082.0920978713991 271.23517505715648 0 0 0 0 4494.4835085600671 2615.1159722850743 0 2615.1159722850743 1325.9479469934834 0 0 0 0 348.99861596245682 -723.90435246270226 0 -723.90435246270226 374.86973730924819 0 0 0 0 2150.2153053483189 763.45833358994082 0 763.45833358994082 167.49923632633624 0 0 0 0 1565.0868582404464 978.56777430419311 0 978.56777430419311 734.0485064820283 0 0 0 0 80.257059980784334 -51.349216107520789 0 -51.349216107520789 29.835756366884834 0 0 0 0 2159.1282578777063 742.10978829510202 0 742.10978829510202 195.42737855337106 0 0 0 0 2356.6735406407706 408.0465928368485 0 408.0465928368485 -192.01225150252958 0 0 0 0 2904.5928134780943 910.07060634153436 0 910.07060634153436 -134.53809865449006 0 0 0 0 1869.4090010862747 827.54469674108236 0 827.54469674108236 -47.43171828614868 0 0 0 0 1309.9566350700807 648.62447802597023 0 648.62447802597023 188.46947614647098 0 0 0 0 1477.4472119752108 319.5880254797961 0 319.5880254797961 -24.146849814073676 0 0 0 0 1285.5343894233788 439.22631583397509 0 439.22631583397509 -112.72866511641223 0 0 0 0 2766.3941709126302 1324.6198776333608 0 1324.6198776333608 161.75824592743984 0 0 0 0 4500.2633361326007 824.0531075711823 0 824.0531075711823 -712.84821416929231 0 0 0 0 2922.6478391899336 391.46274387302054 0 391.46274387302054 -661.05762474514916 0 0 0 0 2245.6357036950021 663.06173143408478 0 663.06173143408478 -143.17776386849425 0 0 0 0 2049.8523915307028 157.34889118568222 0 157.34889118568222 -139.39971863651658 0 0 0 0 1151.694787655583 -357.37202227074232 0 -357.37202227074232 142.45556648924202 0 0 0 0 2382.1870890137752 -343.61399734636473 0 -343.61399734636473 0.20618133396578742 0 0 0 0 3205.1073998645907 247.88348364621254 0 247.88348364621254 -640.23425044607734 0 0 0 0 4498.3181020443881 -356.93805119267347 0 -356.93805119267347 -832.64870630579605 0 0 0 0 87.420307743653211 33.741834725651472 0 33.741834725651472 27.115687135408734 0 0 0 0 11.098753129875098 18.629297453991683 0 18.629297453991683 -1.65077621963829 0 0 0 0 57.476595579232537 11.116905380754922 0 11.116905380754922 3.5030877856079563 0 0 0 0 262.34747989369316 -229.47714821664579 0 -229.47714821664579 153.1074794377397 0 0 0 0 52.835988241508289 45.243942875068001 0 45.243942875068001 27.777168598083737 0 0 0 0 1183.6088810844287 -43.500437201304464 0 -43.500437201304464 174.22380148010768 0 0 0 0 1251.7906427641383 80.439594381677125 0 80.439594381677125 17.505452842875911 0 0 0 0 1165.1328962988664 -186.12626881613437 0 -186.12626881613437 -38.960180048313873 0 0 0 0 158.09243286285891 -142.50256797363068 0 -142.50256797363068 267.52334139027948 0 0 0 0 535.0721250310944 -267.33381030167607 0 -267.33381030167607 25.425074696190677 0 0 0 0 1199.6015967100457 45.12604944728605 0 45.12604944728605 67.402131495521871 0 0 0 0 1267.0870900626214 -38.650041037265964 0 -38.650041037265964 9.7882169051494685 0 0 0 0 980.48605429123745 337.4299513061211 0 337.4299513061211 83.059397718188393 0 0 0 0 509.11072079259975 -40.720247654710761 0 -40.720247654710761 190.09486948139636 0 0 0 0 1016.8931996204246 82.741042978662335 0 82.741042978662335 94.916500056468863 0 0 0 0 270.63914601946271 -149.15233115532953 0 -149.15233115532953 195.28564695476297 0 0 0 0 524.84474094376014 -68.273742591393159 0 -68.273742591393159 165.84496572687954 0 0 0 0 167.21807935546667 -48.386080225857874 0 -48.386080225857874 147.59052659141258 0 0 0 0 39.329343777672875 6.0337712290270247 0 6.0337712290270247 15.12546014183863 0 0 0 0 31.451006743363607 24.381688243672443 0 24.381688243672443 20.601655861469848 0 0 0 0 176.27474361147779 -74.822305728852712 0 -74.822305728852712 86.059468192141679 0 0 0 0 206.51245332150847 -118.37996772399656 0 -118.37996772399656 82.932402059371952 0 0 0 0 239.98092824172181 -63.596033085354335 0 -63.596033085354335 14.08320236042357 0 0 0 0 700.17496008894523 520.52415053051016 0 520.52415053051016 99.304452499377476 0 0 0 0 351.84725353624708 164.44945038048257 0 164.44945038048257 188.84420484959821 0 0 0 0 170.12027055438739 330.30503347290238 0 330.30503347290238 0.099542894557004047 0 0 0 0 641.18227319295966 135.0744285210659 0 135.0744285210659 38.114680534191166 0 0 0 0 64.613312584146115 -119.13927445999357 0 -119.13927445999357 67.058049255716284 0 0 0 0 483.81031707834245 -7.6824981683265037 0 -7.6824981683265037 68.235774300446337 0 0 0 0 318.12140289113267 -126.29832302856164 0 -126.29832302856164 -154.92750241971123 0 0 0 0 236.14034468511454 -155.24231769878895 0 -155.24231769878895 -479.82222633455109 0 0 0 0 31.73010199098578 11.369134874712637 0 11.369134874712637 -23.906706595329258 0 0 0 0 189.95212041975174 393.00697712732244 0 393.00697712732244 103.85789011968075 0 0 0 0 23.746533631050873 -11.321701129505433 0 -11.321701129505433 -2.6001839517750689 0 0 0 0 515.71768493532954 385.83412489098765 0 385.83412489098765 -231.30964472506457 0 0 0 0 105.21899938345352 21.769088920187755 0 21.769088920187755 -35.039605238659519 0 0 0 0 132.43003419786282 27.440846261779669 0 27.440846261779669 -35.312270025589754 0 0 0 0 156.49685708842298 34.911392049372125 0 34.911392049372125 -76.502696513661519 0 0 0 0 178.40058281146889 -39.583396297937654 0 -39.583396297937654 18.8318269225135 0 0 0 0 -314.40883070111795 -88.881471251742141 0 -88.881471251742141 24.420989643017492 0 0 0 0 51.833007050579546 -33.509513995471792 0 -33.509513995471792 -4.4089669592634344 0 0 0 0 112.9169804999101 49.326296369267084 0 49.326296369267084 19.763587072670816 0 0 0 0 162.46678262574028 135.29596570200272 0 135.29596570200272 61.749653130388651 0 0 0 0 21.050221829400016 -152.92585456272741 0 -152.92585456272741 44.378001180688443 0 0 0 0 57.130706378357488 -33.808346000138755 0 -33.808346000138755 -13.269444900936472 0 0 0 0 38.557663777664075 23.855791628580704 0 23.855791628580704 21.139868721236741 0 0 0 0 173.79702091639047 -55.716044035596923 0 -55.716044035596923 5.9658134152587081 0 0 0 0 74.228094957954454 -52.315139386020746 0 -52.315139386020746 89.040153334871775 0 0 0 0 39.836924939851087 -23.7734088248435 0 -23.7734088248435 65.802368539271811 0 0 0 0 101.77216330088959 -3.8319768631986335 0 -3.8319768631986335 -40.121929330380226 0 0 0 0 342.49290126442429 33.978268093058432 0 33.978268093058432 77.430980279643336 0 0 0 0 -11.474893844750255 -8.5913292457075823 0 -8.5913292457075823 1.8106274406733451 0 0 0 0 174.32691629131477 305.83817630836666 0 305.83817630836666 223.6738305668041 0 0 0 0 196.67104094876504 165.56667496489649 0 165.56667496489649 -161.94411255338309 0 0 0 0 188.38189180811969 80.215058784771827 0 80.215058784771827 206.70338551808163 0 0 0 0 49.807999121858302 -91.36381469861135 0 -91.36381469861135 73.835521907888534 0 0 0 0 99.277917479692405 7.2148521558938228 0 7.2148521558938228 -78.347999880411408 0 0 0 0 71.033351808924635 39.628796129131388 0 39.628796129131388 -50.424644941598672 0 0 0 0 26.611934654634979 1.7398098603306238 0 1.7398098603306238 -9.0084409924050526 0 0 0 0 91.418921142122471 12.919953549212021 0 12.919953549212021 -14.196828043559844 0 0 0 0 -16.000854505840834 -23.627882183232032 0 -23.627882183232032 4.2072430759726558 0 0 0 0 144.40298355504638 -18.223776877396631 0 -18.223776877396631 -86.515681139061599 0 0 0 0 57.371242804971644 4.4443021428053511 0 4.4443021428053511 2.9964420688174531 0 0 0 0 77.038320571384247 24.082380252983057 0 24.082380252983057 -10.411673222472018 0 0 0 0 98.975338379990717 -66.015621552289304 0 -66.015621552289304 -47.981285156449303 0 0 0 0 38.540612420154503 25.741357155780861 0 25.741357155780861 105.0526280379454 0 0 0 0 142.37938856497203 -61.665461926002536 0 -61.665461926002536 -100.87277373149618 0 0 0 0 152.91355839138487 143.37392590881154 0 143.37392590881154 101.0087729660336 0 0 0 0 127.55057778674382 -2.742348706514349 0 -2.742348706514349 14.03820251162233 0 0 0 0 132.44090651393344 87.010608151114866 0 87.010608151114866 172.29075005207415 0 0 0 0 72.152996373849817 -20.440012079534345 0 -20.440012079534345 -19.007565491343531 0 0 0 0 232.74400081815838 176.62297133952779 0 176.62297133952779 279.00453997258955 0 0 0 0 246.92139610882441 39.275019187421094 0 39.275019187421094 -52.026879430872214 0 0 0 0 15.413002682738782 0.87712823799136252 0 0.87712823799136252 -3.489363235521207 0 0 0 0 85.789287090784455 -174.96284183000898 0 -174.96284183000898 -295.52720936682067 0 0 0 0 21.486313538189279 148.14032270378493 0 148.14032270378493 266.05935738326662 0 0 0 0 -455.47947175009904 -542.8070747378207 0 -542.8070747378207 209.05283165257333 0 0 0 0 815.11052942793322 108.22580529850165 0 108.22580529850165 -231.77342089001036 0 0 0 0 225.32053107025058 369.95085588008669 0 369.95085588008669 254.14487340110676 0 0 0 0 4.2784593987777697 4.3860988377203496 0 4.3860988377203496 5.3338527099429065 0 0 0 0 773.76838580051526 -260.07538002492811 0 -260.07538002492811 78.170700148561991 0 0 0 0 240.9894422530906 -49.216288638834158 0 -49.216288638834158 54.70295440310565 0 0 0 0 248.25081952799519 -23.172228606792942 0 -23.172228606792942 -10.962396483424072 0 0 0 0 332.50747903887486 12.343890495579672 0 12.343890495579672 2.9466702868267021 0 0 0 0 154.75269348953952 56.07037746871174 0 56.07037746871174 1.3113545231462922 0 0 0 0 -1.602655278258716 3.5117360428797877 0 3.5117360428797877 7.1182655112999882 0 0 0 0 306.20231104485083 -78.086883170044871 0 -78.086883170044871 -74.721419456390322 0 0 0 0 476.38819972056444 -47.553021218243885 0 -47.553021218243885 -76.802253910967465 0 0 0 0 -19.604386171533406 8.4698400207353188 0 8.4698400207353188 111.18027975432051 0 0 0 0 179.45399972029918 -115.6691910542454 0 -115.6691910542454 -15.845550055133572 0 0 0 0 19.55526062264007 4.0347919221127881 0 4.0347919221127881 15.037444597665155 0 0 0 0 82.278011176582368 29.732405933087875 0 29.732405933087875 -20.144194660174435 0 0 0 0 44.927632917648225 210.33955114043965 0 210.33955114043965 105.89722689462974 0 0 0 0 172.2618402106873 -17.938418898464477 0 -17.938418898464477 10.714321911700807 0 0 0 0 59.6389261415177 -22.39045901522806 0 -22.39045901522806 3.6389148023726809 0 0 0 0 81.659994056977666 27.859503112131279 0 27.859503112131279 5.5660416387909208 0 0 0 0 80.523564247976424 27.225177349768924 0 27.225177349768924 -0.91480812574260995 0 0 0 0 142.62952444329494 -22.187622637973618 0 -22.187622637973618 222.56325549145276 0 0 0 0 41.470170397573511 4.9209974484257799 0 4.9209974484257799 -9.0189814713091216 0 0 0 0 -13.033793696624343 21.527729151961012 0 21.527729151961012 40.267151379911411 0 0 0 0 86.174612565489952 -3.9804991263881675 0 -3.9804991263881675 0.22040858425782517 0 0 0 0 87.032043585069914 -2.570665342047505 0 -2.570665342047505 -24.167409754856408 0 0 0 0 630.53577564032548 568.85514814371072 0 568.85514814371072 -87.482564792731864 0 0 0 0 496.72157532852725 -572.49014851680249 0 -572.49014851680249 434.37612776324249 0 0 0 0 296.91839701136632 187.92017699884354 0 187.92017699884354 -228.50519487725614 0 0 0 0 83.010320730844413 39.567161263010384 0 39.567161263010384 9.2550381544535085 0 0 0 0 1059.7197483480413 -638.17591990664368 0 -638.17591990664368 53.260663359449836 0 0 0 0 1772.4879347171754 -521.79222784725766 0 -521.79222784725766 -46.937989191525958 0 0 0 0 1753.6535811567373 -1323.1998869779823 0 -1323.1998869779823 770.0399863080961 0 0 0 0 1386.4448198149548 -1443.7457816283375 0 -1443.7457816283375 731.14333204376726 0 0 0 0 1371.5962544214854 38.792611462975401 0 38.792611462975401 185.63714710819545 0 0 0 0 2642.2039355461602 -1141.3564066440913 0 -1141.3564066440913 235.26089782023655 0 0 0 0 -367.77963833596732 287.23906905383137 0 287.23906905383137 278.33118883589032 0 0 0 0 -716.48897541068436 252.90345582660302 0 252.90345582660302 380.32564770857971 0 0 0 0 63.766613733991264 -1.1838011664601993 0 -1.1838011664601993 20.319053436439688 0 0 0 0 73.520449668256333 -5.2719526779565058 0 -5.2719526779565058 -6.8481890434577508 0 0 0 0 88.293198966598197 23.193254753504899 0 23.193254753504899 0.26652886938603615 0 0 0 0 19.565165949563379 323.70281378909385 0 323.70281378909385 -193.09007585605286 0 0 0 0 224.03635570421466 -53.350728127294133 0 -53.350728127294133 47.824052960309928 0 0 0 0 106.53137202849798 -22.865067453784746 0 -22.865067453784746 14.755240458478131 0 0 0 0 109.77407306013089 -11.601467392671697 0 -11.601467392671697 -8.6168462174082059 0 0 0 0 4.3159645839768928 57.299774863935909 0 57.299774863935909 -17.500012731970401 0 0 0 0 -185.09844238689402 -64.599386154850436 0 -64.599386154850436 -31.995220948041606 0 0 0 0 452.13516975718198 160.80450061807267 0 160.80450061807267 -17.796710864959095 0 0 0 0 534.68307557731441 -317.27063819722684 0 -317.27063819722684 -182.7527893634815 0 0 0 0 57.295205890757643 199.82575231836381 0 199.82575231836381 123.38900610703786 0 0 0 0 91.47376689943485 66.293198409672186 0 66.293198409672186 -21.473223620851059 0 0 0 0 -23.040367012174102 68.160835888733345 0 68.160835888733345 61.162355640964051 0 0 0 0 16.034618973187552 1.2663256056518541 0 1.2663256056518541 -1.2197032061115323 0 0 0 0 -350.59637369177472 229.60032007430709 0 229.60032007430709 0.10270786171167856 0 0 0 0 -19.72815476027472 93.382660798962775 0 93.382660798962775 6.2833746307733236 0 0 0 0 -94.05916200811771 89.562167663467335 0 89.562167663467335 215.28110471273249 0 0 0 0 24.768795342764861 369.23852824971027 0 369.23852824971027 21.222311471992725 0 0 0 0 420.02688603513525 -125.37544417953814 0 -125.37544417953814 -425.9748066803113 0 0 0 0 -210.46014574513538 749.43894690283378 0 749.43894690283378 0.92437149725628842 0 0 0 0 563.81477986488062 -1000.8977143148097 0 -1000.8977143148097 8.2502465453126206 0 0 0 0 -31.8228270969812 -144.68721673192431 0 -144.68721673192431 -41.726251578664005 0 0 0 0 103.31986998962958 -29.789688488686679 0 -29.789688488686679 1.3887338838805832 0 0 0 0 18.955182634745142 268.74041752319226 0 268.74041752319226 46.71729946078375 0 0 0 0 531.28278876518016 131.41983447486382 0 131.41983447486382 -71.703659725466423 0 0 0 0 1.9632022876248811 70.612603625984775 0 70.612603625984775 -48.616818516225294 0 0 0 0 482.57138128869974 -154.54406601740186 0 -154.54406601740186 -50.44277060812783 0 0 0 0 189.71179809123714 -214.3424565646751 0 -214.3424565646751 94.171694832955836 0 0 0 0 110.791982243245 -20.619181918270442 0 -20.619181918270442 33.599893439473817 0 0 0 0 75.2667872357124 -132.98338043555759 0 -132.98338043555759 59.137634260260768 0 0 0 0 -63.516870061852387 1.2129373490679427 0 1.2129373490679427 40.198582839388564 0 0 0 0 -20.877969988097902 -103.76649976182489 0 -103.76649976182489 57.026334982686762 0 0 0 0 1.1807949191240752 2.3392629208143205 0 2.3392629208143205 2.9879676533447217 0 0 0 0 346.5751302769786 -28.162769337363443 0 -28.162769337363443 -73.606001135342012 0 0 0 0 108.54389127485047 149.19520260850186 0 149.19520260850186 -157.5405539779531 0 0 0 0 -424.77857896006026 -96.334791476430837 0 -96.334791476430837 165.4471662254864 0 0 0 0 30.816787016269359 3.1924125593510677 0 3.1924125593510677 -2.0614552343757113 0 0 0 0 54.574966092251998 -6.6465271469151048 0 -6.6465271469151048 -36.33008017375505 0 0 0 0 79.339693656274903 10.957466445643604 0 10.957466445643604 -35.769747491057842 0 0 0 0 581.67292606561386 -126.8933566296846 0 -126.8933566296846 -297.35029713713629 0 0 0 0 31.694958987922547 -6.088999198856655 0 -6.088999198856655 -2.5246825304509173 0 0 0 0 110.414625528545 256.24226061518675 0 256.24226061518675 389.71170388646772 0 0 0 0 3.6763239596272115 11.897909223092931 0 11.897909223092931 -0.60886208293643707 0 0 0 0 12.442124406682979 0.36448052809219433 0 0.36448052809219433 0.27028845476830865 0 0 0 0 20.280840392486425 168.92079583793293 0 168.92079583793293 85.267754983226951 0 0 0 0 25.806505972217565 -27.424761197200041 0 -27.424761197200041 82.462606091758062 0 0 0 0 85.241791574904838 15.949561107939568 0 15.949561107939568 1.4847824697827647 0 0 0 0 116.77980460001959 22.172677127619863 0 22.172677127619863 2.2658136719710456 0 0 0 0 77.720801579353974 19.928269319507535 0 19.928269319507535 -7.2771782075442388 0 0 0 0 115.89491515349073 34.904936919105239 0 34.904936919105239 35.920569512119982 0 0 0 0 80.191625227109483 4.1502798064925273 0 4.1502798064925273 -13.767739137756267 0 0 0 0 92.658594405669646 40.803171497431322 0 40.803171497431322 36.436341514952801 0 0 0 0 87.571892319723702 10.627566541387978 0 10.627566541387978 -12.475594434027244 0 0 0 0 88.153711078058222 16.947022739803288 0 16.947022739803288 32.328257972814754 0 0 0 0 89.938682307775707 17.799039973127037 0 17.799039973127037 16.521807481888573 0 0 0 0 164.03182946902052 59.958488581489291 0 59.958488581489291 31.173301200879223 0 0 0 0 0.3018738636234346 -9.4800739264880391 0 -9.4800739264880391 -2.4012947886122493 0 0 0 0 89.917802262711803 4.107404635855346 0 4.107404635855346 -1.0206375291477343 0 0 0 0 99.32751443428424 29.421362244451302 0 29.421362244451302 12.141307928980495 0 0 0 0 117.43205091194179 -15.636470068022877 0 -15.636470068022877 0.08983418446798197 0 0 0 0 39.059296424234944 14.54718556203628 0 14.54718556203628 14.719372994676561 0 0 0 0 82.767474873426181 -67.44722214075864 0 -67.44722214075864 13.716531373058388 0 0 0 0 168.97010958995088 -6.7544850838539787 0 -6.7544850838539787 -6.841418419762249 0 0 0 0 83.957211770688332 -19.724398349328332 0 -19.724398349328332 46.84668934729234 0 0 0 0 244.07139325106255 -95.816923998101174 0 -95.816923998101174 82.655702405202192 0 0 0 0 12.026893520094767 13.946053331721348 0 13.946053331721348 13.763454617245571 0 0 0 0 52.545862848363868 30.982520531503496 0 30.982520531503496 7.0986716326303849 0 0 0 0 40.177178974876369 38.775657633739684 0 38.775657633739684 3.7135955943022054 0 0 0 0 51.240148054608909 10.867835250823305 0 10.867835250823305 2.6904899469518568 0 0 0 0 68.128957184131423 45.187236110562537 0 45.187236110562537 11.93971709534685 0 0 0 0 -0.58089383505546266 63.617001210702881 0 63.617001210702881 41.729545616403357 0 0 0 0 83.454418008803259 105.16278026599656 0 105.16278026599656 59.555386757754007 0 0 0 0 240.25085967727296 138.94775817954414 0 138.94775817954414 -53.113665289561709 0 0 0 0 79.581257414986894 57.978271424617624 0 57.978271424617624 0.56560809047596194 0 0 0 0 106.57114338478209 59.375478768718267 0 59.375478768718267 -6.5596176613581747 0 0 0 0 131.88232451022463 51.410702897407063 0 51.410702897407063 -4.4908753107201846 0 0 0 0 127.70034727474831 21.496047874519405 0 21.496047874519405 -115.49951493587957 0 0 0 0 69.807920248757497 -11.682832909854625 0 -11.682832909854625 -21.878422050053288 0 0 0 0 96.719592376876335 21.989067969005902 0 21.989067969005902 -8.5935131977261108 0 0 0 0 93.093215150303877 26.027509775326365 0 26.027509775326365 1.2183963981390633 0 0 0 0 119.38091242845712 28.628738466708224 0 28.628738466708224 -13.616667944931464 0 0 0 0 93.184850828273738 27.544684442214475 0 27.544684442214475 -10.405927915646998 0 0 0 0 88.460622885896555 18.160079848449641 0 18.160079848449641 -16.172167327413263 0 0 0 0 94.946395435117211 26.419754888274383 0 26.419754888274383 -20.863365494491518 0 0 0 0 86.557815115388848 24.198719658194591 0 24.198719658194591 -10.633027015325752 0 0 0 0 93.043768292216328 16.529291107186509 0 16.529291107186509 -5.7920348413181273 0 0 0 0 103.26297165239521 13.981901533961718 0 13.981901533961718 -10.033002347619004 0 0 0 0 91.117683210558653 21.216519137090472 0 21.216519137090472 -12.728277590978905 0 0 0 0 48.520065531172804 20.538667178202559 0 20.538667178202559 -0.39334031390535529 0 0 0 0 78.803053917190482 35.332478361441645 0 35.332478361441645 -14.870410074650408 0 0 0 0 18.923673020592105 40.646287356710445 0 40.646287356710445 -11.307773008928052 0 0 0 0 52.072001564907623 27.514007698777277 0 27.514007698777277 -22.089403649076758 0 0 0 0 37.609966973011112 20.248891780607259 0 20.248891780607259 -16.656594432239796 0 0 0 0 37.537792060391219 12.402711279037961 0 12.402711279037961 -14.759447080308769 0 0 0 0 53.385195023834967 17.54174450165192 0 17.54174450165192 -19.074626764140703 0 0 0 0 55.988202416141576 38.004114675785843 0 38.004114675785843 -18.820648673721571 0 0 0 0 68.042487337433158 18.832568327129707 0 18.832568327129707 -5.3602705627665728 0 0 0 0 45.139476564367214 26.742333748526448 0 26.742333748526448 -6.1484830908998447 0 0 0 0 36.950932007096114 26.596446760333407 0 26.596446760333407 -9.093034645265357 0 0 0 0 50.522461720793217 26.853170816021475 0 26.853170816021475 -6.6093947178055714 0 0 0 0 47.478055215200584 25.374343379521065 0 25.374343379521065 -4.820565893116509 0 0 0 0 39.803872905296885 33.130307534914891 0 33.130307534914891 -0.4213062554443141 0 0 0 0 38.017592866569117 30.966001536652456 0 30.966001536652456 -0.10686824520855787 0 0 0 0 65.944474681477004 24.314610338961756 0 24.314610338961756 -15.586511123047558 0 0 0 0 62.210047677344846 22.728129608318795 0 22.728129608318795 -11.750281331648694 0 0 0 0 50.237543316652591 22.388772951158671 0 22.388772951158671 -6.0424375377247088 0 0 0 0 62.195601197177893 22.256694563784094 0 22.256694563784094 -7.9884731196812027 0 0 0 0 60.301532318582758 15.038619950879138 0 15.038619950879138 -1.4612879654441713 0 0 0 0 44.609134198602987 27.981725164453337 0 27.981725164453337 -2.0655953048976556 0 0 0 0 89.554455489102111 32.902212319300133 0 32.902212319300133 -2.3427563908637694 0 0 0 0 64.231641192025563 20.97271156801844 0 20.97271156801844 -11.317040640513142 0 0 0 0 64.434128400971531 15.322085653817567 0 15.322085653817567 4.1477944122243571 0 0 0 0 94.272366556135239 31.765516868746317 0 31.765516868746317 -17.395255331360204 0 0 0 0 11.636841827901662 30.334672251860141 0 30.334672251860141 -9.6146185323306987 0 0 0 0 32.876615681525436 -31.929415319863903 0 -31.929415319863903 -31.341902172255288 0 0 0 0 248.09518123263842 18.514665594498524 0 18.514665594498524 -27.100714132524899 0 0 0 0 61.72759418564965 11.104915549793645 0 11.104915549793645 -2.3176876657287266 0 0 0 0 5.1107238006437683 -2.0527654594857232 0 -2.0527654594857232 0.61871098403408842 0 0 0 0 236.07201453625385 -100.80141903981421 0 -100.80141903981421 -185.77751362210256 0 0 0 0 818.56722812989392 298.06190965491231 0 298.06190965491231 -407.0748941867032 0 0 0 0 50.399830256599671 28.333711067949025 0 28.333711067949025 -19.009094678061729 0 0 0 0 63.620655707920378 13.250262362612261 0 13.250262362612261 -20.122180492426438 0 0 0 0 57.564449578503627 30.844500310074373 0 30.844500310074373 -65.267182700147501 0 0 0 0 23.182947467705588 5.3612028098897611 0 5.3612028098897611 -7.0026139880340565 0 0 0 0 -71.371484953866457 -258.81483018790732 0 -258.81483018790732 -239.77189390342937 0 0 0 0 943.0547449093865 454.01794781647777 0 454.01794781647777 -323.78460295893456 0 0 0 0 773.49347326029965 483.91783243134432 0 483.91783243134432 -40.564576879890396 0 0 0 0 877.53673420594714 275.05143994307116 0 275.05143994307116 -402.08285141364286 0 0 0 0 -127.79192699725536 -74.451748407314881 0 -74.451748407314881 1132.1402666943914 0 0 0 0 873.93663856170861 464.34978180902885 0 464.34978180902885 91.378446182603511 0 0 0 0 462.82707546874371 -8.7832690390096104 0 -8.7832690390096104 -511.05573685026093 0 0 0 0 134.7578372669357 2.4448841569622299 0 2.4448841569622299 -4.1130116047447558 0 0 0 0 604.16596900498553 -303.33934490304546 0 -303.33934490304546 23.168186888803575 0 0 0 0 -9.632815111290256 1.326592113402512 0 1.326592113402512 -125.30650971105342 0 0 0 0 27.615964654697699 -9.0555401819012911 0 -9.0555401819012911 -5.8561462185501156 0 0 0 0 85.386805342793195 2.7477832718377613 0 2.7477832718377613 -29.137735182588585 0 0 0 0 144.59889559739531 -81.443560438267014 0 -81.443560438267014 -74.003895734628486 0 0 0 0 46.073762742688814 16.099995503683203 0 16.099995503683203 17.73821338089931 0 0 0 0 73.56889702016565 12.082143935930162 0 12.082143935930162 -19.708001021011114 0 0 0 0 57.173075093726283 22.475001357555595 0 22.475001357555595 -5.8234486970783195 0 0 0 0 -78.868183859769488 340.05096002501068 0 340.05096002501068 200.89020603619247 0 0 0 0 58.428949139930424 18.566288659869571 0 18.566288659869571 0.84138324662527741 0 0 0 0 51.069848966320023 23.259458627295317 0 23.259458627295317 0.56578991736478201 0 0 0 0 42.79419789682197 9.8977050342064103 0 9.8977050342064103 -20.998015625179505 0 0 0 0 91.491086055406527 40.388936741442251 0 40.388936741442251 8.5842814699208247 0 0 0 0 35.478415244969327 6.1313513730161429 0 6.1313513730161429 -7.1633056288006749 0 0 0 0 50.395796722889976 5.9606412143706784 0 5.9606412143706784 -2.9748614269600049 0 0 0 0 62.789793774332793 12.286940767802662 0 12.286940767802662 6.7369559840988984 0 0 0 0 62.911704908497995 18.748773354709556 0 18.748773354709556 -16.645470167972235 0 0 0 0 98.278382168224198 22.631128214952696 0 22.631128214952696 -27.518691727910209 0 0 0 0 58.166430182007943 9.4868839570048387 0 9.4868839570048387 -1.3464943646055452 0 0 0 0 104.81948754582118 28.829995772074653 0 28.829995772074653 -21.693669148013754 0 0 0 0 91.912305831193081 7.4838673669732181 0 7.4838673669732181 -0.31081622108037621 0 0 0 0 75.356612484150801 10.530534926588736 0 10.530534926588736 0.55047483255098717 0 0 0 0 69.393908601204345 15.034298785245703 0 15.034298785245703 -1.4332919538085014 0 0 0 0 42.781386615490192 6.3290460515854647 0 6.3290460515854647 -6.6118301842538187 0 0 0 0 6.4650870154805489 -6.0613086672987251 0 -6.0613086672987251 -4.0664844888209721 0 0 0 0 -28.303728953353129 5.3699430497999856 0 5.3699430497999856 -115.17395645411307 0 0 0 0 -186.76149501920008 161.05086421279293 0 161.05086421279293 -102.25258976563782 0 0 0 0 -109.98884046744206 -168.9827531789515 0 -168.9827531789515 -109.53255446246965 0 0 0 0 61.097888129806961 -148.72306256977299 0 -148.72306256977299 -118.16119163560506 0 0 0 0 -29.13068230173667 370.19458863717409 0 370.19458863717409 -371.69510139902195 0 0 0 0 -533.62222866073716 188.185410552127 0 188.185410552127 8.7422002636740217 0 0 0 0 -1346.9943121278193 159.62032554215693 0 159.62032554215693 -393.0110050953067 0 0 0 0 -175.59208931128887 124.837121500997 0 124.837121500997 87.787268240013873 0 0 0 0 -113.26511997616035 85.781956647782863 0 85.781956647782863 28.739355051164694 0 0 0 0 69.534208446129924 317.59598720343729 0 317.59598720343729 -115.67400730697045 0 0 0 0 484.22565969955758 146.55527207038085 0 146.55527207038085 -24.921669513831148 0 0 0 0 1139.5370459477708 -157.5944903862337 0 -157.5944903862337 -798.14183400758975 0 0 0 0 128.346845992608 208.40750072443734 0 208.40750072443734 36.616414684543997 0 0 0 0 253.9874255740142 145.99250201112591 0 145.99250201112591 -212.31876843324699 0 0 0 0 306.55855045860517 45.236178480619856 0 45.236178480619856 -77.297540723925522 0 0 0 0 404.41596543764172 148.60448858666223 0 148.60448858666223 -10.894322385593114 0 0 0 0 2084.8853568706254 -905.86428402410274 0 -905.86428402410274 -577.46631106522636 0 0 0 0 3118.9458135215973 -1602.0699796011468 0 -1602.0699796011468 -127.73528162398543 0 0 0 0 1047.6561479555094 -538.94337794969215 0 -538.94337794969215 704.35663556356303 0 0 0 0 449.05169402110914 175.72292556027969 0 175.72292556027969 130.14185796374204 0 0 0 0 533.2056390964608 -67.100852085999804 0 -67.100852085999804 -131.64683180483553 0 0 0 0 250.55320799315814 -155.50569191910745 0 -155.50569191910745 -85.586353681189166 0 0 0 0 -1195.5659844483889 603.88675340562622 0 603.88675340562622 648.36232671024106 0 0 0 0 14.047825569879279 3.7305795244668118 0 3.7305795244668118 0.016354319433451669 0 0 0 0 -19.17840950469872 -68.709398804351281 0 -68.709398804351281 -46.611392479331698 0 0 0 0 -2640.7393056883884 1927.5765437622977 0 1927.5765437622977 -471.48293274074967 0 0 0 0 47.646584619100246 10.143942261853915 0 10.143942261853915 -3.3591228211839046 0 0 0 0 117.976270093528 -84.136808250314061 0 -84.136808250314061 -119.44352607940516 0 0 0 0 -97.103864150047229 44.39107279597556 0 44.39107279597556 65.364621913024166 0 0 0 0 113.21711588644843 13.822305834417133 0 13.822305834417133 -0.14202313832970237 0 0 0 0 103.20732892402623 10.953715500524282 0 10.953715500524282 -0.39407618092534724 0 0 0 0 88.350698547437787 41.229745140736668 0 41.229745140736668 -57.099097902676547 0 0 0 0 123.48283354394516 35.532408614233191 0 35.532408614233191 -108.6302141419478 0 0 0 0 126.87272112835126 -108.71497760649663 0 -108.71497760649663 -64.673673628387405 0 0 0 0 302.63936898532847 40.864875728176685 0 40.864875728176685 -220.34132139947542 0 0 0 0 268.02388353971037 18.508937033357142 0 18.508937033357142 -59.451890966028998 0 0 0 0 255.99031036085944 4.0740249749201212 0 4.0740249749201212 -72.173437476907566 0 0 0 0 257.53790881343593 -90.711363408688158 0 -90.711363408688158 -73.283922893252111 0 0 0 0 257.40429987595417 -87.744758150369307 0 -87.744758150369307 -109.59894369857784 0 0 0 0 339.15724480584322 -80.362317310341041 0 -80.362317310341041 -160.62374633118452 0 0 0 0 141.45467755595746 72.027630756203507 0 72.027630756203507 -41.115708457309438 0 0 0 0 -59.247876986351912 95.677504267928725 0 95.677504267928725 -173.75635448910089 0 0 0 0 111.8595137481243 28.668570331172759 0 28.668570331172759 107.75937996482378 0 0 0 0 -2.1579678281091503 -0.24651322858348834 0 -0.24651322858348834 -0.18613953636204528 0 0 0 0 -49.480266507729539 111.49052897115689 0 111.49052897115689 -145.08502884697964 0 0 0 0 -86.648258296401764 17.39612005841218 0 17.39612005841218 21.029262036165164 0 0 0 0 -74.509038609568961 -24.002725381566052 0 -24.002725381566052 -19.353768937256518 0 0 0 0 2.5005286366721222 5.4143375318667069 0 5.4143375318667069 11.242470429940047 0 0 0 0 18.747638497443404 -1.0390457059611435 0 -1.0390457059611435 52.561804468943592 0 0 0 0 -157.35298994727054 86.401609378230205 0 86.401609378230205 142.66540317188264 0 0 0 0 -29.067658946441952 -72.708776373272485 0 -72.708776373272485 29.366571437516541 0 0 0 0 229.73230573657202 -44.004902548305097 0 -44.004902548305097 6.9003736979769883 0 0 0 0 0.51315617914834633 8.8330381800603988 0 8.8330381800603988 20.563334030578705 0 0 0 0 165.21668562624836 -37.532915889075525 0 -37.532915889075525 49.425574464553165 0 0 0 0 37.8133574952044 14.577549505118668 0 14.577549505118668 -3.3562607450585347 0 0 0 0 118.79733764626872 188.15053519964067 0 188.15053519964067 321.8418308376506 0 0 0 0 213.27058164838672 -182.12912077461078 0 -182.12912077461078 221.12485283830301 0 0 0 0 577.74262849165098 62.830019507352517 0 62.830019507352517 -62.691854874472995 0 0 0 0 239.08063176386349 -190.5776974633427 0 -190.5776974633427 167.88463455675128 0 0 0 0 487.9034147723105 98.31292791079386 0 98.31292791079386 -42.178555629887342 0 0 0 0 166.16611361940159 50.809553029134804 0 50.809553029134804 -48.536478973378621 0 0 0 0 181.16694536195428 73.492671231165446 0 73.492671231165446 -39.131726287023412 0 0 0 0 145.45093634147634 48.05505819772651 0 48.05505819772651 -34.538250054901255 0 0 0 0 182.3327339718162 48.383006714493376 0 48.383006714493376 -59.738693057277032 0 0 0 0 148.26000969032611 14.131445556825383 0 14.131445556825383 -74.416734461379292 0 0 0 0 84.104498700857249 -21.808366732930622 0 -21.808366732930622 -9.5591404521841028 0 0 0 0 -67.251313849330472 -146.62269365226672 0 -146.62269365226672 21.151154750730711 0 0 0 0 106.27787156088016 9.13912485374345 0 9.13912485374345 16.641400580945401 0 0 0 0 57.819767239625889 -0.065287224561956236 0 -0.065287224561956236 7.7929513011029279 0 0 0 0 104.49608929618353 -10.033255746018614 0 -10.033255746018614 9.1274422973406502 0 0 0 0 48.142304328420977 5.8099277359828392 0 5.8099277359828392 -6.9470016345715369 0 0 0 0 -105.9875311973592 19.962452054949722 0 19.962452054949722 15.451599343501002 0 0 0 0 296.6576508483995 -188.63889652786156 0 -188.63889652786156 303.09184756139825 0 0 0 0 3.9402852125202799 7.3191076819559697 0 7.3191076819559697 3.3950336669753547 0 0 0 0 298.21391622489318 -172.35387183359217 0 -172.35387183359217 -33.7509037531986 0 0 0 0 86.180930463204277 11.203641586640373 0 11.203641586640373 5.8881802686681226 0 0 0 0 80.474678286860581 18.31129145889463 0 18.31129145889463 9.9263029374469625 0 0 0 0 75.180213361746524 36.024865210481423 0 36.024865210481423 9.6623084951933293 0 0 0 0 24.726110273935149 34.310944134059525 0 34.310944134059525 10.018489134698573 0 0 0 0 -351.12896775687113 61.269724300106191 0 61.269724300106191 111.46236153109533 0 0 0 0 351.54530700139003 -217.87596212596418 0 -217.87596212596418 16.146294911651466 0 0 0 0 621.75752769469909 186.59983095323582 0 186.59983095323582 148.57549305206112 0 0 0 0 144.49499429283605 402.90101027076048 0 402.90101027076048 -219.74164454621814 0 0 0 0 -442.75037803541636 225.17810069259244 0 225.17810069259244 327.77326862713346 0 0 0 0 59.964920699263502 33.101238977481273 0 33.101238977481273 4.8379983234764978 0 0 0 0 27.154446337407094 8.7212588094719479 0 8.7212588094719479 28.511577748022756 0 0 0 0 17.359509967784106 151.20259093844766 0 151.20259093844766 46.521285324310156 0 0 0 0 184.33422951999637 -20.069553310896225 0 -20.069553310896225 30.082535856679442 0 0 0 0 103.81119913819202 47.485195481494884 0 47.485195481494884 -14.324769667524267 0 0 0 0 727.12580828221689 -336.53467302162926 0 -336.53467302162926 -68.153328872045606 0 0 0 0 373.52306561003206 -354.51936378798291 0 -354.51936378798291 350.3314423124736 0 0 0 0 54.613014822149125 192.95547539481262 0 192.95547539481262 461.25282608904456 0 0 0 0 1.4597235735050047 0.98901893876993086 0 0.98901893876993086 6.0252279738383852 0 0 0 0 1820.2050533798756 -510.01314402303046 0 -510.01314402303046 10.53367378665348 0 0 0 0 45.768587989949197 -46.742166500396408 0 -46.742166500396408 214.89107018029063 0 0 0 0 891.05714942187478 -414.48576552349181 0 -414.48576552349181 302.81596062086766 0 0 0 0 1505.2132283773244 -103.34495741191677 0 -103.34495741191677 -297.71288698927674 0 0 0 0 2313.9979444458149 -1457.9320193080393 0 -1457.9320193080393 85.290869481031109 0 0 0 0 1591.1588428252144 -1289.3770739344909 0 -1289.3770739344909 131.83914549298953 0 0 0 0 1565.7062253184631 -1244.7533385113011 0 -1244.7533385113011 62.58174906856766 0 0 0 0 2041.8434868252734 -979.56402365865574 0 -979.56402365865574 -26.617908327368241 0 0 0 0 1302.4763572414013 -462.55317347969913 0 -462.55317347969913 -50.95156166732886 0 0 0 0 812.63001524852007 -742.48033074137402 0 -742.48033074137402 279.4884659402037 0 0 0 0 1211.031687212715 -755.63984807981092 0 -755.63984807981092 -60.608033621566221 0 0 0 0 1529.0027704723434 -1247.9207319361492 0 -1247.9207319361492 300.98671746396576 0 0 0 0 939.50629189682695 -1002.640335340743 0 -1002.640335340743 356.76617796049709 0 0 0 0 1022.778307780769 -781.16670537342088 0 -781.16670537342088 271.36828266239741 0 0 0 0 646.47769569469892 -847.03602849328161 0 -847.03602849328161 432.88686644240806 0 0 0 0 263.31587848982599 -56.566965315480047 0 -56.566965315480047 300.94453013666089 0 0 0 0 -109.12491703518754 -570.65035114723059 0 -570.65035114723059 1547.1236706081863 0 0 0 0 410.67910918605048 -403.15022214836654 0 -403.15022214836654 103.60709546775979 0 0 0 0 318.29908508389417 -181.11718706899023 0 -181.11718706899023 83.102290543609342 0 0 0 0 4.6262203576371235 -2.5071806005974082 0 -2.5071806005974082 -12.118238529996052 0 0 0 0 154.32171270290564 -68.23796487576692 0 -68.23796487576692 232.83868497024196 0 0 0 0 230.77597366331611 -35.387958967255145 0 -35.387958967255145 -3.262685650696767 0 0 0 0 5.2827370167806578 -0.83863607552318342 0 -0.83863607552318342 -6.3889547508915996 0 0 0 0 501.42972982139327 -306.31276314247998 0 -306.31276314247998 82.104868788949716 0 0 0 0 187.60457116560428 92.998564076778166 0 92.998564076778166 -183.2788187329204 0 0 0 0 160.12510369003712 15.631287391108909 0 15.631287391108909 8.219356321169812 0 0 0 0 110.49423697108892 38.088599707604132 0 38.088599707604132 -25.813789768511111 0 0 0 0 163.58040608966985 -35.79983660574635 0 -35.79983660574635 29.357633818781323 0 0 0 0 201.76782883032865 -9.7136906316861484 0 -9.7136906316861484 -1.4458073138061991 0 0 0 0 100.20191835510684 29.756603003518912 0 29.756603003518912 -32.742707110355703 0 0 0 0 150.34932157464027 16.65694030095375 0 16.65694030095375 -35.933226817561263 0 0 0 0 175.45490834480006 -48.870399306932541 0 -48.870399306932541 -4.9105279161447015 0 0 0 0 245.98530542438857 -38.698223100077541 0 -38.698223100077541 4.1757670204378883 0 0 0 0 159.27540253178449 -44.699360327002069 0 -44.699360327002069 55.474202666589917 0 0 0 0 181.33677355494729 -73.265710213642706 0 -73.265710213642706 34.496340249234891 0 0 0 0 177.78692256331396 -114.36012550043878 0 -114.36012550043878 32.239149797507707 0 0 0 0 155.60330207199877 -64.168107310858431 0 -64.168107310858431 -16.665872154999306 0 0 0 0 271.60037895361529 -17.495078503472769 0 -17.495078503472769 -78.448739572644172 0 0 0 0 181.26156990952586 -65.257674863820284 0 -65.257674863820284 -76.258370000844934 0 0 0 0 205.99079414839798 -121.79736650367522 0 -121.79736650367522 63.643758312513455 0 0 0 0 87.295125801710782 21.702150695333721 0 21.702150695333721 -41.860499580138736 0 0 0 0 97.770117640422541 49.810157937763506 0 49.810157937763506 -73.594567432554655 0 0 0 0 1209.4325109590864 -974.56451110078206 0 -974.56451110078206 664.74690594470803 0 0 0 0 1539.519607082635 -1187.6487749599164 0 -1187.6487749599164 649.57058026325558 0 0 0 0 4.8258648879628367 -11.354405561303849 0 -11.354405561303849 -6.2462779029248026 0 0 0 0 196.77070035653742 -101.19777193516893 0 -101.19777193516893 82.850119627101776 0 0 0 0 -1.8765932689132114 -0.57258196468141875 0 -0.57258196468141875 44.607848495016121 0 0 0 0 -95.498549597541569 -138.66263544083722 0 -138.66263544083722 80.208799908006768 0 0 0 0 197.4363727405289 -117.51847039314816 0 -117.51847039314816 77.37702753936901 0 0 0 0 169.09466452179186 -108.55310169821132 0 -108.55310169821132 88.034110368880647 0 0 0 0 92.668686385097303 -0.73433545919539966 0 -0.73433545919539966 -43.518720108024766 0 0 0 0 133.23121429278035 150.38349019472207 0 150.38349019472207 337.0853702735003 0 0 0 0 13.773497212941322 -8.4507515203229673 0 -8.4507515203229673 51.879113218720335 0 0 0 0 146.57989394033211 -77.435695392132402 0 -77.435695392132402 85.741510728897993 0 0 0 0 52.499990005409927 -117.55501762113545 0 -117.55501762113545 559.49416135343472 0 0 0 0 6.1460090263860252 -11.127081285884699 0 -11.127081285884699 6.6986939880936021 0 0 0 0 18.519502050984471 -8.9616132429456243 0 -8.9616132429456243 14.679250613740813 0 0 0 0 2842.3767732900869 -1614.8378656050136 0 -1614.8378656050136 687.39234633050728 0 0 0 0 951.74555641369079 -1477.9461890612447 0 -1477.9461890612447 1748.1289897163529 0 0 0 0 -136.54742763529066 -26.750363027614185 0 -26.750363027614185 1020.1508605328054 0 0 0 0 2387.144559698143 -368.726066440453 0 -368.726066440453 1535.1523113141889 0 0 0 0 1862.7637439365062 -1720.774688059963 0 -1720.774688059963 1791.2371730147606 0 0 0 0 1670.5438248449573 -850.4212393719838 0 -850.4212393719838 791.94011483192116 0 0 0 0 2000.3891328721656 -938.59341601588926 0 -938.59341601588926 703.09997261815806 0 0 0 0 1475.4154695413745 -1265.3987938591472 0 -1265.3987938591472 698.80177367053375 0 0 0 0 1663.231247847827 -1311.8162387393681 0 -1311.8162387393681 614.84154717369347 0 0 0 0 1786.6601260616299 -1361.0675751143394 0 -1361.0675751143394 607.22823075634119 0 0 0 0 2035.0240729897487 -1381.9578201850445 0 -1381.9578201850445 601.17970568740566 0 0 0 0 1569.6774330959015 -831.35513739585963 0 -831.35513739585963 737.85353735916715 0 0 0 0 2074.9839643266532 -1062.9948361137165 0 -1062.9948361137165 664.1357811467351 0 0 0 0 1323.0738553877381 -1118.3797171158028 0 -1118.3797171158028 705.37460684993232 0 0 0 0 1016.4057130095371 -715.40574674708159 0 -715.40574674708159 725.56642758997486 0 0 0 0 1494.2968237295136 -971.86871660954876 0 -971.86871660954876 970.95741504761111 0 0 0 0 1715.3806354954722 -1473.6446955341212 0 -1473.6446955341212 881.03948608931341 0 0 0 0 3345.1151202723777 -1904.5235272695907 0 -1904.5235272695907 873.42744766337 0 0 0 0 1990.8306959995753 -1052.9251050427674 0 -1052.9251050427674 519.6954092866772 0 0 0 0 1736.9971857681658 -961.18890280277151 0 -961.18890280277151 501.26466683427407 0 0 0 0 161.5915866930518 -39.187367472343794 0 -39.187367472343794 -122.94682538696361 0 0 0 0 -437.7985064516688 69.789433625814127 0 69.789433625814127 304.5259650232133 0 0 0 0 2.8052567845885505 1.3304466256193308 0 1.3304466256193308 15.182217784749067 0 0 0 0 1807.8084644374394 -1598.7529204317395 0 -1598.7529204317395 617.21407249459548 0 0 0 0 1724.2666828307629 -1498.6151003692046 0 -1498.6151003692046 1470.8946930925786 0 0 0 0 1563.2883879403162 -812.31231124950318 0 -812.31231124950318 1116.5350234887305 0 0 0 0 1466.7121299744031 -1137.00614396643 0 -1137.00614396643 348.832094021378 0 0 0 0 2012.5831395630012 -824.55536232985366 0 -824.55536232985366 398.20530207433285 0 0 0 0 1643.3104264836729 -1245.5381009259468 0 -1245.5381009259468 130.60857941042832 0 0 0 0 1613.5439320099886 -1124.9263926400502 0 -1124.9263926400502 231.17996541149569 0 0 0 0 1320.7995268385275 -1210.7019592218194 0 -1210.7019592218194 217.06417753811456 0 0 0 0 1669.6105387874341 -957.44669416479519 0 -957.44669416479519 212.0318704610163 0 0 0 0 1112.4377954725205 -889.63126176324613 0 -889.63126176324613 231.77792111721647 0 0 0 0 1396.8733639995044 -1033.1729469416166 0 -1033.1729469416166 239.11311858567751 0 0 0 0 780.4543224570225 -879.35154912775215 0 -879.35154912775215 316.59113617598223 0 0 0 0 883.59980003802775 -754.45722418963533 0 -754.45722418963533 167.77401999523499 0 0 0 0 1134.1489598911721 -1240.7026932613444 0 -1240.7026932613444 442.69911034440702 0 0 0 0 1574.2383207441162 -1306.1893827627682 0 -1306.1893827627682 230.66763128243656 0 0 0 0 1.6341072258072913 0.025517604070230959 0 0.025517604070230959 -2.3725709771259567 0 0 0 0 1087.5783473083648 -8.787823398852197 0 -8.787823398852197 -235.52490523851338 0 0 0 0 428.68730140539992 -305.86460863686216 0 -305.86460863686216 264.25408375740062 0 0 0 0 610.24095354734163 -486.42212219328803 0 -486.42212219328803 150.91916807809503 0 0 0 0 630.75244457415829 -468.80261252451965 0 -468.80261252451965 127.5933442382011 0 0 0 0 894.63905087136663 -207.81658604583049 0 -207.81658604583049 -12.693489724428218 0 0 0 0 1633.9428854597063 -560.1191877460476 0 -560.1191877460476 65.504101759490254 0 0 0 0 1261.424424514873 -722.64661644745775 0 -722.64661644745775 197.99303539854759 0 0 0 0 612.06138547035516 237.11045198549618 0 237.11045198549618 91.074862762652629 0 0 0 0 317.51781269758067 -199.69921309184929 0 -199.69921309184929 468.66297497017445 0 0 0 0 78.657390270862379 -646.4539703883944 0 -646.4539703883944 -317.08326423392236 0 0 0 0 334.68391533220711 -895.61573518648743 0 -895.61573518648743 -947.67698458120185 0 0 0 0 1.7943067377880695 0.1782952068650161 0 0.1782952068650161 -1.5486486604780749 0 0 0 0 1767.4539750496588 -747.41126483037135 0 -747.41126483037135 328.18542147381402 0 0 0 0 73.295265642457252 -551.42377300543899 0 -551.42377300543899 -131.33546491630295 0 0 0 0 1708.9232527773711 -836.71946918103822 0 -836.71946918103822 448.74273248745089 0 0 0 0 1330.5253904818237 -814.09376241707685 0 -814.09376241707685 453.98421765634748 0 0 0 0 1189.3318231024678 -1304.5021460030953 0 -1304.5021460030953 611.14812546898634 0 0 0 0 1586.6317045298783 -721.72856040784905 0 -721.72856040784905 565.24799650928719 0 0 0 0 97.227898570126854 -838.91198407664524 0 -838.91198407664524 523.12049239897715 0 0 0 0 638.42336433810851 -982.73818587659503 0 -982.73818587659503 548.10034977874204 0 0 0 0 804.29831252829172 -435.67294879872134 0 -435.67294879872134 479.85137284739096 0 0 0 0 701.10551796157233 -411.26564549742147 0 -411.26564549742147 724.77023065900221 0 0 0 0 652.22119639185257 -224.09220369119441 0 -224.09220369119441 152.45661556838763 0 0 0 0 326.91699226589117 -612.54428068720472 0 -612.54428068720472 417.42060393472889 0 0 0 0 1146.4323148791518 -227.12023989092552 0 -227.12023989092552 615.60980957789957 0 0 0 0 929.7394673540548 -207.99819483901547 0 -207.99819483901547 488.25607469257051 0 0 0 0 705.77756688640511 -373.13386696652049 0 -373.13386696652049 448.42433168530823 0 0 0 0 1689.3627111054375 -417.98474581778595 0 -417.98474581778595 340.81070273784229 0 0 0 0 1141.5826701016704 -34.119145972276897 0 -34.119145972276897 115.52473187128794 0 0 0 0 1006.2336911195089 -239.3745277529614 0 -239.3745277529614 73.383338616511764 0 0 0 0 710.70253425355622 71.294889579324831 0 71.294889579324831 -244.69058484840161 0 0 0 0 493.56406026268087 -153.84603974330139 0 -153.84603974330139 -329.18381674105558 0 0 0 0 173.8174955821014 -809.59821204007403 0 -809.59821204007403 -188.8650719106106 0 0 0 0 358.64243246647675 -503.1741658631035 0 -503.1741658631035 -62.481920444816751 0 0 0 0 233.57047400058946 -498.22853245259193 0 -498.22853245259193 30.755218960591947 0 0 0 0 283.99206747207791 -417.35278057032747 0 -417.35278057032747 -241.00070984167087 0 0 0 0 -319.65745020148461 -588.79710770380007 0 -588.79710770380007 -161.18269902039503 0 0 0 0 147.20129336828541 -719.72545458732066 0 -719.72545458732066 -295.25455672593716 0 0 0 0 34.146787290272187 -992.47409036011345 0 -992.47409036011345 -828.64076782805387 0 0 0 0 5.9152804508589156 4.8733121212574844 0 4.8733121212574844 -5.6988915576043908 0 0 0 0 -23.867024037113879 -942.78793530846224 0 -942.78793530846224 -927.60566620918723 0 0 0 0 395.55455658043502 -110.37240195061122 0 -110.37240195061122 -65.698626315072943 0 0 0 0 155.81001512694638 253.52120482876489 0 253.52120482876489 -117.85167141315651 0 0 0 0 -389.50019927049289 -459.21743809568972 0 -459.21743809568972 -2626.8568239812066 0 0 0 0 13.328679445994588 -1.8668002449243772 0 -1.8668002449243772 -2.1964815972331468 0 0 0 0 -1328.0520289051638 -627.91788065390347 0 -627.91788065390347 -408.98216668864006 0 0 0 0 -430.15139231397188 -637.50856345962802 0 -637.50856345962802 -1027.3837170498555 0 0 0 0 -114.11516623440548 -539.1422169751545 0 -539.1422169751545 -409.86174746128381 0 0 0 0 261.72978214444447 123.33997757045984 0 123.33997757045984 -574.94430219935384 0 0 0 0 -141.81584873707334 306.52162707952505 0 306.52162707952505 -461.50443892137355 0 0 0 0 -949.30448001076002 304.69368515676035 0 304.69368515676035 -419.3545819009596 0 0 0 0 1403.4266152882919 -55.046460260341064 0 -55.046460260341064 -1032.1755374978461 0 0 0 0 1192.6942870131388 407.84509631971071 0 407.84509631971071 -874.49812563535397 0 0 0 0 -816.73767655562915 -1114.0741650880345 0 -1114.0741650880345 -1992.9476071656291 0 0 0 0 171.71546418272919 -36.36535259555626 0 -36.36535259555626 -287.44874100320385 0 0 0 0 71.84811507602609 -34.192478640565994 0 -34.192478640565994 10.523034255815933 0 0 0 0 1045.517612928481 -190.61255649685859 0 -190.61255649685859 -597.44248681851695 0 0 0 0 -126.34923848634935 32.446198822150109 0 32.446198822150109 92.529984082795636 0 0 0 0 19.491788232063374 44.492415757310766 0 44.492415757310766 -54.165974057941241 0 0 0 0 -264.12539401321555 223.32952115664193 0 223.32952115664193 147.42020346237769 0 0 0 0 550.25535675025094 -28.526413151466613 0 -28.526413151466613 -49.304793306622742 0 0 0 0 2025.3028184972936 925.16664831430489 0 925.16664831430489 -110.05853751406221 0 0 0 0 892.27413437995347 -64.435705117166577 0 -64.435705117166577 -281.24059498134545 0 0 0 0 2447.2319774107891 664.5946275040053 0 664.5946275040053 -389.56111445809819 0 0 0 0 1399.2100794052258 -76.993794360221969 0 -76.993794360221969 -626.71241094003244 0 0 0 0 4501.0837532945152 1216.397779800523 0 1216.397779800523 -902.02435455723344 0 0 0 0 2853.2554762210275 250.87632559446689 0 250.87632559446689 -949.70980834544434 0 0 0 0 2952.592098769208 343.27648502438257 0 343.27648502438257 -922.49173306768296 0 0 0 0 1928.4437396915309 255.6701741718872 0 255.6701741718872 -552.61859538362899 0 0 0 0 2528.6064212322526 -325.51198683918784 0 -325.51198683918784 -260.8366028205852 0 0 0 0 1248.1481641170176 215.86982489223544 0 215.86982489223544 -445.98150690783336 0 0 0 0 2791.1787020622651 -692.45459838507668 0 -692.45459838507668 160.39174050287639 0 0 0 0 1952.3830549372942 -77.445622875581904 0 -77.445622875581904 -150.03122167826587 0 0 0 0 4500.5495340474663 -442.074056452646 0 -442.074056452646 -801.84921412788435 0 0 0 0 2797.4094202118285 -676.84653561808398 0 -676.84653561808398 -427.52978264907324 0 0 0 0 4489.2967034339345 -1538.628831858786 0 -1538.628831858786 -33.024346315133464 0 0 0 0 2067.8927389036253 -2064.8060685528631 0 -2064.8060685528631 1554.8977898366184 0 0 0 0 31.60503898193565 -1307.1634588488591 0 -1307.1634588488591 1467.7767518090805 0 0 0 0 999.45643325612764 -315.34615482171785 0 -315.34615482171785 862.94752031575251 0 0 0 0 953.15717638132628 -127.02995913605491 0 -127.02995913605491 324.93205691100775 0 0 0 0 1329.321295722897 -540.67387387114547 0 -540.67387387114547 927.05879950866552 0 0 0 0 1376.0163153475805 -567.36938097154894 0 -567.36938097154894 760.72409870736624 0 0 0 0 1516.0926642729974 -661.92232526826592 0 -661.92232526826592 820.87836416726941 0 0 0 0 1521.7780347315206 -420.3655651997928 0 -420.3655651997928 692.27771544462587 0 0 0 0 1169.6828083738728 -344.08679929934965 0 -344.08679929934965 548.54696690760693 0 0 0 0 1141.0925243638922 -297.37337578595123 0 -297.37337578595123 752.79712159635017 0 0 0 0 1015.2876168184375 -891.25939186005826 0 -891.25939186005826 819.65833985434722 0 0 0 0 924.88624380355031 -485.80764011680162 0 -485.80764011680162 748.24246090853558 0 0 0 0 1132.153697816655 -425.72994526717139 0 -425.72994526717139 764.70474320040671 0 0 0 0 1377.040076766687 -494.87645151021115 0 -494.87645151021115 679.99011898616482 0 0 0 0 1298.1023829895203 -723.64513354384917 0 -723.64513354384917 748.31745886240924 0 0 0 0 1152.5856866648319 -310.7588124281483 0 -310.7588124281483 673.55534919362344 0 0 0 0 1235.5636657395953 -473.64405432582817 0 -473.64405432582817 784.90734504767897 0 0 0 0 1387.7684608866548 -404.94964409481872 0 -404.94964409481872 687.01922771954332 0 0 0 0 1617.1852775400112 -858.74557753563158 0 -858.74557753563158 638.21248901026433 0 0 0 0 1239.0959587914767 -148.32863830371207 0 -148.32863830371207 248.11409389939035 0 0 0 0 1378.0476026245451 -481.60141199149166 0 -481.60141199149166 405.66494852132064 0 0 0 0 1358.6298128959897 -483.51437212471239 0 -483.51437212471239 675.59847131137485 0 0 0 0 1557.1756552465813 -530.88922857283251 0 -530.88922857283251 496.27304800348793 0 0 0 0 1774.4618217884417 -782.65777469414024 0 -782.65777469414024 622.30040282939171 0 0 0 0 1619.5504569343466 -1535.8275299637673 0 -1535.8275299637673 864.24321085666452 0 0 0 0 1684.193260782391 -975.37669840523085 0 -975.37669840523085 1396.8601138277008 0 0 0 0 1728.1690962483008 -1011.8649715496299 0 -1011.8649715496299 412.72118271863565 0 0 0 0 1705.8996196541702 -727.79252474786381 0 -727.79252474786381 45.649328310388228 0 0 0 0 1533.7536335995392 -555.95584981231696 0 -555.95584981231696 -103.81326796476469 0 0 0 0 2047.2612957155652 -1448.2015557996028 0 -1448.2015557996028 608.40381285434614 0 0 0 0 1867.8830976837708 -1016.7837623643513 0 -1016.7837623643513 109.86466819757516 0 0 0 0 1771.9973258981281 -531.41609725209275 0 -531.41609725209275 -435.25248559344618 0 0 0 0 1410.5841858601125 -636.25632384453456 0 -636.25632384453456 -105.73907696598872 0 0 0 0 1023.4404229307329 -482.36278146335826 0 -482.36278146335826 40.704420271822528 0 0 0 0 642.26229174023501 -722.39368245790195 0 -722.39368245790195 -33.398282109721549 0 0 0 0 4497.0562842249965 1141.7451440248985 0 1141.7451440248985 66.446374990115189 0 0 0 0 997.84907450995524 -207.36168972280893 0 -207.36168972280893 -1084.9612078010632 0 0 0 0 4500.8687564570573 1140.6726344940707 0 1140.6726344940707 66.367324562988657 0 0 0 0 -15.447680278331973 499.31505621046745 0 499.31505621046745 -151.31484016386457 0 0 0 0 8.0982699740304653 -9.7365053026642698 0 -9.7365053026642698 10.225452185433044 0 0 0 0 -1196.7269266681287 -541.88808447714939 0 -541.88808447714939 1165.1035654865873 0 0 0 0 482.94990004121792 -152.84366500191936 0 -152.84366500191936 345.41054612503285 0 0 0 0 1227.4471838085301 -158.8185000566109 0 -158.8185000566109 -276.57925195385178 0 0 0 0 2363.8357052544598 626.38032410000187 0 626.38032410000187 -1055.6879488454156 0 0 0 0 2775.9234981164773 512.46267384231805 0 512.46267384231805 -1109.5400074854147 0 0 0 0 2186.8809340652952 1001.9622562247304 0 1001.9622562247304 -1133.1462505523375 0 0 0 0 2486.0246519235952 858.00160061501151 0 858.00160061501151 -1148.746320100973 0 0 0 0 4492.4977601329228 1620.2348181422483 0 1620.2348181422483 -1683.0440032145109 0 0 0 0 410.81381583411712 -179.75343440316055 0 -179.75343440316055 -1312.3169001156343 0 0 0 0 1387.6508775159891 694.06583850245988 0 694.06583850245988 -879.56727840453505 0 0 0 0 525.13726974173915 -495.78003149135088 0 -495.78003149135088 -744.59440789765904 0 0 0 0 663.88146691377915 -419.57499300378322 0 -419.57499300378322 -1295.6826050802385 0 0 0 0 267.097968825321 -1055.5810442593854 0 -1055.5810442593854 -935.70950002141262 0 0 0 0 445.38213068948244 -703.88990019527864 0 -703.88990019527864 -798.38444174717097 0 0 0 0 932.09661925418186 -815.03180223717641 0 -815.03180223717641 -469.45038015100181 0 0 0 0 1002.671993606491 -931.06353074822641 0 -931.06353074822641 -816.05283535461194 0 0 0 0 325.27000026901078 -985.50933072110956 0 -985.50933072110956 -373.44146852277754 0 0 0 0 129.04950503061991 -705.86820862397622 0 -705.86820862397622 -529.37462816482548 0 0 0 0 1678.5680186862373 -183.15920203300493 0 -183.15920203300493 -238.69614302568516 0 0 0 0 1808.6095307575306 -72.445735475823312 0 -72.445735475823312 -787.26986626884207 0 0 0 0 2530.7743387232185 -274.30771530886545 0 -274.30771530886545 636.74865014971351 0 0 0 0 2472.1009730853298 361.69108789063716 0 361.69108789063716 -109.37546043593284 0 0 0 0 -487.51243066467578 -764.81909240636219 0 -764.81909240636219 165.39774904855403 0 0 0 0 561.92021344986279 -590.45447920664594 0 -590.45447920664594 621.11609411368295 0 0 0 0 7.3467265851373966 -2.584035188340124 0 -2.584035188340124 -3.2017720020398373 0 0 0 0 1174.3098408231162 -1080.2152785090466 0 -1080.2152785090466 -426.64595834857914 0 0 0 0 1306.1801926029439 -400.37323789236677 0 -400.37323789236677 -271.77260631870672 0 0 0 0 2480.4776900796569 -1032.7936050919425 0 -1032.7936050919425 -19.326877748421452 0 0 0 0 876.1624812603186 -1062.8736757546392 0 -1062.8736757546392 1259.1129908389946 0 0 0 0 10.279122122170634 -5.6943296201978626 0 -5.6943296201978626 -2.3942259372287622 0 0 0 0 1658.1250012845412 642.57520922716685 0 642.57520922716685 59.572521143163641 0 0 0 0 2293.2652511594279 -950.39309282843351 0 -950.39309282843351 296.71993069270081 0 0 0 0 2692.7606030118404 -576.68496772363687 0 -576.68496772363687 -168.74497775889176 0 0 0 0 2719.1386659863783 -880.3776823523383 0 -880.3776823523383 -107.90290991161874 0 0 0 0 2859.8391434389778 -658.92741742580267 0 -658.92741742580267 -449.9662247763676 0 0 0 0 2512.3555646782297 -130.70330548475684 0 -130.70330548475684 -458.34716779254205 0 0 0 0 4499.0143204558553 152.5977309719735 0 152.5977309719735 -962.36754109304263 0 0 0 0 2223.7898306857533 -1164.3644768173549 0 -1164.3644768173549 -264.38276781249704 0 0 0 0 2619.0849289065882 -1272.8129503318798 0 -1272.8129503318798 -238.44387714107341 0 0 0 0 4501.3536005903006 -1086.5429970417629 0 -1086.5429970417629 -653.19367161870412 0 0 0 0 1961.1655971893342 -568.61321795333811 0 -568.61321795333811 -247.26285306310206 0 0 0 0 4489.4947735131791 -2871.2622406020751 0 -2871.2622406020751 697.29914285567725 0 0 0 0 1606.7813850043894 -1425.9767665749112 0 -1425.9767665749112 648.11137457694622 0 0 0 0 -79.828510827835998 28.860978923710633 0 28.860978923710633 1009.423023453982 0 0 0 0 28.336342633934379 -12.543206777886645 0 -12.543206777886645 9.883526232144213 0 0 0 0 4491.0966838308232 2207.4830006803941 0 2207.4830006803941 481.29410138864489 0 0 0 0 320.63943125723017 -1229.3151104365234 0 -1229.3151104365234 1814.1123450090877 0 0 0 0 431.92399071574619 92.738796991733921 0 92.738796991733921 -237.35642357091467 0 0 0 0 787.78851764480351 -484.07165870540734 0 -484.07165870540734 -261.74488634982987 0 0 0 0 10.202211678374198 49.118262517685579 0 49.118262517685579 -62.481248388720005 0 0 0 0 -124.23130826481065 142.61028112574556 0 142.61028112574556 459.32928823547132 0 0 0 0 7.0843782912652387 55.329745838113922 0 55.329745838113922 19.084857057707268 0 0 0 0 190.19991682033287 -148.23261971503683 0 -148.23261971503683 181.26141695169531 0 0 0 0 78.984999495225566 23.838644493861239 0 23.838644493861239 -151.27355090835772 0 0 0 0 19.756781693189044 40.387418255940858 0 40.387418255940858 -76.662791962553939 0 0 0 0 832.68279432519194 -372.82206900025392 0 -372.82206900025392 8.0560864382605644 0 0 0 0 1744.1827396330773 -745.42427608298271 0 -745.42427608298271 -124.45241507819142 0 0 0 0 832.15831277766847 -221.07351581874184 0 -221.07351581874184 -176.23691640586162 0 0 0 0 1191.6710706671292 -257.27250452672388 0 -257.27250452672388 -143.95578430130456 0 0 0 0 1996.8094150671436 -437.25148636746059 0 -437.25148636746059 -373.43839040549051 0 0 0 0 1972.7164349473605 -881.3140769002066 0 -881.3140769002066 14.289257083882205 0 0 0 0 21.59782124831969 -5.9573320314905231 0 -5.9573320314905231 -28.151050761169635 0 0 0 0 267.66896244237432 176.16482471218694 0 176.16482471218694 308.66577921162957 0 0 0 0 982.52467170159798 82.31161275581826 0 82.31161275581826 -382.06462835918683 0 0 0 0 8.2023670026931086 15.772363395177059 0 15.772363395177059 -19.06983375135604 0 0 0 0 1196.1234519942955 -308.15604139511731 0 -308.15604139511731 -515.58213742203952 0 0 0 0 54.236854052465787 -35.696926152124888 0 -35.696926152124888 -49.968296947471572 0 0 0 0 73.937445582930025 -37.194352819039317 0 -37.194352819039317 1.3829894554816136 0 0 0 0 48.528083084223908 -8.5972592437638014 0 -8.5972592437638014 -23.573297864330925 0 0 0 0 34.422371124950587 -81.809552133803663 0 -81.809552133803663 -42.391283897462017 0 0 0 0 27.580346051669949 -28.214448589473413 0 -28.214448589473413 14.42830134030994 0 0 0 0 50.241451930956202 -37.190908294294232 0 -37.190908294294232 15.103629653054439 0 0 0 0 121.50435021126759 -72.926745996566751 0 -72.926745996566751 -499.64513706802609 0 0 0 0 27.471048321034687 -132.59127380682298 0 -132.59127380682298 -301.66427020323317 0 0 0 0 213.14755515087745 -27.439094134537299 0 -27.439094134537299 -262.87498210538615 0 0 0 0 345.56312021015037 -149.91589776585897 0 -149.91589776585897 -106.19699239762031 0 0 0 0 -9.3635204445909039 2.950590502601699 0 2.950590502601699 -161.3029240132455 0 0 0 0 280.90970910336182 132.64519923543594 0 132.64519923543594 -109.23722237277798 0 0 0 0 772.07817770545807 -20.232755996106334 0 -20.232755996106334 -237.96406975944774 0 0 0 0 -365.39568110191249 -8.2866285160348525 0 -8.2866285160348525 153.12806892801927 0 0 0 0 -117.89331726717501 -340.05302018204202 0 -340.05302018204202 183.1761275279423 0 0 0 0 1.2231041927563062 3.3474923590782453 0 3.3474923590782453 -1.6372002819415954 0 0 0 0 -26.614588597905822 -103.53917888816068 0 -103.53917888816068 -309.62919926366158 0 0 0 0 353.51106985761726 -131.80653001853278 0 -131.80653001853278 -184.3987855092164 0 0 0 0 446.06645936877612 -208.21149908108555 0 -208.21149908108555 -2.4494898022794587 0 0 0 0 369.60714852857927 231.08236085245926 0 231.08236085245926 7.2625174916993274 0 0 0 0 1200.2050909065947 -1654.3300334314649 0 -1654.3300334314649 967.88365435958985 0 0 0 0 809.55906762899394 -1029.0757165562561 0 -1029.0757165562561 346.04493534353787 0 0 0 0 240.48108301016327 -284.19583086778221 0 -284.19583086778221 -2.9249656704851077 0 0 0 0 431.58544262246869 -886.34439015055523 0 -886.34439015055523 735.88046103933448 0 0 0 0 386.41716755632478 -563.65542692325948 0 -563.65542692325948 370.12322103206679 0 0 0 0 123.63369675923605 -424.68328820173883 0 -424.68328820173883 213.68085748896556 0 0 0 0 54.233132895125891 -328.21296077903753 0 -328.21296077903753 338.65364379564198 0 0 0 0 409.24811078825587 -1092.7050552270143 0 -1092.7050552270143 1458.357285527396 0 0 0 0 -54.233597341240966 346.681815623906 0 346.681815623906 433.47728057887616 0 0 0 0 -1144.0762486491003 -812.22047388981537 0 -812.22047388981537 -419.75531047785262 0 0 0 0 23.679004121765729 -37.09694374682455 0 -37.09694374682455 16.507875236247187 0 0 0 0 53.404656691478237 -25.719710889904064 0 -25.719710889904064 -3.0002247234529591 0 0 0 0 23.79047761450056 -68.771539330875271 0 -68.771539330875271 -51.47743684647503 0 0 0 0 366.08892530393496 -312.62657450901315 0 -312.62657450901315 -454.19992634690425 0 0 0 0 -182.68179045856232 31.31817542830504 0 31.31817542830504 -59.365313849710219 0 0 0 0 26.422632698595407 -50.309056081110612 0 -50.309056081110612 -18.158007045725299 0 0 0 0 -13.420312722978906 -9.2685685680037793 0 -9.2685685680037793 0.78094821233518363 0 0 0 0 -794.84539860486984 -1898.5311523073242 0 -1898.5311523073242 -2387.1719953947195 0 0 0 0 -1175.0171222338686 -515.26800928014563 0 -515.26800928014563 -618.08870130324613 0 0 0 0 -676.11597962884844 -520.4807118858613 0 -520.4807118858613 -347.72746149607838 0 0 0 0 -419.11541503608532 -1106.7174710389204 0 -1106.7174710389204 -984.02045047965839 0 0 0 0 -300.62679738768747 -682.02604259885118 0 -682.02604259885118 -27.903473852144089 0 0 0 0 -308.92852031828261 -603.66192376489857 0 -603.66192376489857 -759.27326440747856 0 0 0 0 -362.26686761926976 -303.56759014747104 0 -303.56759014747104 -400.45614099343265 0 0 0 0 -952.64798058078122 -1426.224946947063 0 -1426.224946947063 -1199.1578954156907 0 0 0 0 15.05622452412257 -6.2848366405554117 0 -6.2848366405554117 -7.0268360277462891 0 0 0 0 -681.41726311102684 -882.11266962144111 0 -882.11266962144111 -1348.0492779074195 0 0 0 0 -950.45696191833122 -938.54162096602636 0 -938.54162096602636 -547.0280318362901 0 0 0 0 -1075.7754507137724 -910.34857302931619 0 -910.34857302931619 -1013.0427348767637 0 0 0 0 28.291327942424687 -9.4639174926572309 0 -9.4639174926572309 -92.432401202770137 0 0 0 0 -44.465295359455922 -74.299305029814846 0 -74.299305029814846 51.511579651936017 0 0 0 0 119.15998730799765 -84.813187741230422 0 -84.813187741230422 -177.24181511456402 0 0 0 0 32.913617622377842 -22.790356131608434 0 -22.790356131608434 6.893013277055184 0 0 0 0 -1006.9582303368661 -1274.1850878986806 0 -1274.1850878986806 -969.99240793260969 0 0 0 0 2.3725469563503623 -3.2817252357626927 0 -3.2817252357626927 1.0814590926623144 0 0 0 0 111.18486266068066 94.070820935275833 0 94.070820935275833 -0.080591664443261379 0 0 0 0 186.83292880264344 39.158173540116422 0 39.158173540116422 -130.66711019994818 0 0 0 0 -28.272895769856405 -973.60137513912559 0 -973.60137513912559 -1042.3999756977876 0 0 0 0 -535.87478009425104 -1161.7454550073196 0 -1161.7454550073196 -1076.8229688155316 0 0 0 0 373.5673783316015 -589.99742236880093 0 -589.99742236880093 -766.4267186377765 0 0 0 0 170.80972756783012 -431.89321920835027 0 -431.89321920835027 -17.625646455016522 0 0 0 0 -669.24239945247245 -919.96900644917059 0 -919.96900644917059 -885.52780246321254 0 0 0 0 -1269.8373001669388 -885.30616945382599 0 -885.30616945382599 -765.0207401638645 0 0 0 0 -915.95446299784817 -870.56036034945464 0 -870.56036034945464 -789.64499689272111 0 0 0 0 -724.99574811410275 -986.95282136251581 0 -986.95282136251581 -770.03290402237792 0 0 0 0 -1105.8272033469111 -1035.3947790079383 0 -1035.3947790079383 -772.77336313607339 0 0 0 0 -975.78402635917882 -1303.2677799537034 0 -1303.2677799537034 -927.34787533543476 0 0 0 0 -862.20890522375521 -1064.6677283862448 0 -1064.6677283862448 -991.54820113685309 0 0 0 0 -850.70372608032267 -997.76396970078122 0 -997.76396970078122 -688.03945834086335 0 0 0 0 -752.24799499005894 -1156.9305140943507 0 -1156.9305140943507 -839.11229590893345 0 0 0 0 -135.01145226866356 -891.09148515130391 0 -891.09148515130391 -777.80282753124175 0 0 0 0 -111.76874127011979 -1074.3492568888082 0 -1074.3492568888082 -747.97199428989802 0 0 0 0 -89.43817534900154 -924.68671871031938 0 -924.68671871031938 -581.75849014108553 0 0 0 0 161.34806466201553 -706.08247847518487 0 -706.08247847518487 -542.0274071159439 0 0 0 0 43.54267635778524 -995.42584426768667 0 -995.42584426768667 -785.78498616574143 0 0 0 0 -707.26818718045251 -1058.0590701694555 0 -1058.0590701694555 -732.26967481780684 0 0 0 0 -568.48426359203586 -827.02668926278932 0 -827.02668926278932 -738.57122056877688 0 0 0 0 -87.626164859626442 -725.8118294129963 0 -725.8118294129963 -1144.1490191093012 0 0 0 0 -977.31586914768559 -953.70991665426936 0 -953.70991665426936 -730.05243406365889 0 0 0 0 202.56372792368347 245.37475895159196 0 245.37475895159196 27.351491349702883 0 0 0 0 1.0341535514633051 -2.9065316254108637 0 -2.9065316254108637 0.56649643846770736 0 0 0 0 -1068.0855580369825 -1193.7865125980393 0 -1193.7865125980393 -719.03008285336273 0 0 0 0 175.1229677566007 -396.69195120223139 0 -396.69195120223139 -362.36345996265527 0 0 0 0 25.232199783158535 -17.256246448187653 0 -17.256246448187653 8.3902461268866659 0 0 0 0 1183.7470671341516 917.18329776749999 0 917.18329776749999 168.01928845025577 0 0 0 0 1226.0004959095331 483.55591520781417 0 483.55591520781417 512.74774514739283 0 0 0 0 -406.1194204654239 -382.76696380472004 0 -382.76696380472004 -262.9645407680473 0 0 0 0 -425.84934671003793 -395.16033132948866 0 -395.16033132948866 -124.88127999646758 0 0 0 0 2179.525095318706 -132.34669644318456 0 -132.34669644318456 473.30297140968639 0 0 0 0 2081.1199689041096 -105.97473962493154 0 -105.97473962493154 649.4015309982874 0 0 0 0 9.6731782889220312 -5.3407858195756432 0 -5.3407858195756432 2.9687044671286653 0 0 0 0 2557.1976271977474 1072.9498158424619 0 1072.9498158424619 619.01207401529132 0 0 0 0 973.16742413914471 766.80283060934175 0 766.80283060934175 259.6998743019426 0 0 0 0 1722.8430453231122 -86.143176838082923 0 -86.143176838082923 -28.542276521593067 0 0 0 0 1019.6399992994993 81.375505587732505 0 81.375505587732505 439.01445824763687 0 0 0 0 1926.4465739108564 -1302.7306042160985 0 -1302.7306042160985 38.505858656599003 0 0 0 0 3013.3837682390586 -1300.1551518315255 0 -1300.1551518315255 -267.95337653565593 0 0 0 0 3327.5506154382019 -876.67399818543799 0 -876.67399818543799 -226.45501595834133 0 0 0 0 3213.5320931416572 -1038.1513258824943 0 -1038.1513258824943 -207.51772036156626 0 0 0 0 2991.2768741316322 -831.04873773987174 0 -831.04873773987174 136.26764955859744 0 0 0 0 2762.6219790125324 -903.25970197476363 0 -903.25970197476363 206.55010526497972 0 0 0 0 2350.3383253609609 9.6083873439811782 0 9.6083873439811782 576.5700979727103 0 0 0 0 2492.4391677973908 -337.86100947225441 0 -337.86100947225441 707.99506317282021 0 0 0 0 2963.9311458220182 -665.13804496725606 0 -665.13804496725606 1336.6321959794927 0 0 0 0 2854.1809699308033 -271.64417845102111 0 -271.64417845102111 302.40533574872461 0 0 0 0 4030.1608657429315 -248.97130992988616 0 -248.97130992988616 406.21435824747027 0 0 0 0 3800.8793407572057 -1941.1900268455893 0 -1941.1900268455893 479.03437997585183 0 0 0 0 1542.0249242993596 72.039244324772199 0 72.039244324772199 -593.91748263606269 0 0 0 0 1279.9493273351982 -509.04458915105442 0 -509.04458915105442 108.37255368371416 0 0 0 0 3591.6469574726889 -821.63385588209951 0 -821.63385588209951 -223.91504660021928 0 0 0 0 3510.2015253021564 -1190.0005199448422 0 -1190.0005199448422 644.82799512854035 0 0 0 0 3273.5661226506636 -1054.2496890349862 0 -1054.2496890349862 567.02424738488025 0 0 0 0 3320.4704757809523 -1011.911013180953 0 -1011.911013180953 418.40846898300214 0 0 0 0 2906.5313679638639 -362.27361905194516 0 -362.27361905194516 -500.68902572439765 0 0 0 0 2366.6206890578324 -472.62830262172429 0 -472.62830262172429 230.19025997642086 0 0 0 0 1972.7827309947606 -63.737718219030512 0 -63.737718219030512 657.77500306519551 0 0 0 0 2255.4077704180963 66.383423513338812 0 66.383423513338812 93.127038517874325 0 0 0 0 1338.8754736264818 -724.25309642248726 0 -724.25309642248726 -608.33268095603785 0 0 0 0 2349.7111399967835 -325.66622831685504 0 -325.66622831685504 -859.86267210663618 0 0 0 0 1727.0630916458176 345.07203769436865 0 345.07203769436865 29.977773235876612 0 0 0 0 1071.7808266906304 -184.15128798033771 0 -184.15128798033771 -632.23035947246899 0 0 0 0 1163.7497554303554 -739.1664342028821 0 -739.1664342028821 -1058.1155478860137 0 0 0 0 2609.7324963807187 -857.3404224317942 0 -857.3404224317942 -1334.5211581183944 0 0 0 0 2774.6241784554149 -582.22556678103706 0 -582.22556678103706 -1048.0221929235095 0 0 0 0 3553.0427473362361 -1317.047794235034 0 -1317.047794235034 -486.35656026651759 0 0 0 0 4969.2822993395384 -1776.5911740513593 0 -1776.5911740513593 -1230.7128925730813 0 0 0 0 3153.4527314222214 -1659.9769613774552 0 -1659.9769613774552 155.52426446601203 0 0 0 0 4612.1209575031535 -1905.0527264872435 0 -1905.0527264872435 -910.6277434269341 0 0 0 0 4450.2789399140402 -3248.8449368900228 0 -3248.8449368900228 1948.5546282141549 0 0 0 0 23.401030838371526 -14.332941415574435 0 -14.332941415574435 3.1073484246336633 0 0 0 0 -192.07849113731936 -1370.2994339861498 0 -1370.2994339861498 -1444.0149426317444 0 0 0 0 2858.648328258234 55.256749197329555 0 55.256749197329555 -1800.7121735551727 0 0 0 0 323.91885490452114 -41.372434317756415 0 -41.372434317756415 -520.94209601071543 0 0 0 0 3236.1392111038731 -2935.5317912000537 0 -2935.5317912000537 2638.198459680958 0 0 0 0 -105.6309069953204 -863.80221889806683 0 -863.80221889806683 2818.8048177759774 0 0 0 0 2201.7976988329319 -2926.0188617672829 0 -2926.0188617672829 2358.2779994590278 0 0 0 0 9.1772549312653666 -7.6125676115030245 0 -7.6125676115030245 1.9216317217527461 0 0 0 0 5085.3133862545073 -2292.4214338144184 0 -2292.4214338144184 1862.5254448263549 0 0 0 0 3773.3989402415609 -171.7409414769154 0 -171.7409414769154 2061.1098640954988 0 0 0 0 3873.9666940376701 -500.2415720368831 0 -500.2415720368831 238.57043401996998 0 0 0 0 3250.7794217110786 -993.37549699185911 0 -993.37549699185911 1577.4826086759708 0 0 0 0 2683.9967678251014 -510.49633357616153 0 -510.49633357616153 -253.16059084448716 0 0 0 0 2438.3091952216364 -1628.8018055738812 0 -1628.8018055738812 317.59146567268908 0 0 0 0 1802.9515389597946 -609.40675058981924 0 -609.40675058981924 404.27690322947456 0 0 0 0 854.8954255132121 -1284.0344748717507 0 -1284.0344748717507 815.85818381462559 0 0 0 0 4096.3235620091145 -1571.0660205458416 0 -1571.0660205458416 264.25376965096984 0 0 0 0 1.4350892341127111 -4.7404232925441079 0 -4.7404232925441079 17.297490827876892 0 0 0 0 1543.0698872499918 -82.604444095983254 0 -82.604444095983254 -232.38285320783052 0 0 0 0 1654.625186479323 642.80601849330787 0 642.80601849330787 51.862263623090257 0 0 0 0 -86.457805409845605 -175.99270580374377 0 -175.99270580374377 348.47987641447071 0 0 0 0 896.66803953301132 -1022.9751062773571 0 -1022.9751062773571 1233.7552195529488 0 0 0 0 2290.3092340409594 -676.4927752577064 0 -676.4927752577064 -215.6856260310069 0 0 0 0 2307.9967717190739 -1104.0727189263544 0 -1104.0727189263544 1705.9775157761669 0 0 0 0 1061.2372836590948 -150.09716963803029 0 -150.09716963803029 -57.466876756755937 0 0 0 0 2.1328319769826818 -9.896969581981665 0 -9.896969581981665 18.256458960034422 0 0 0 0 3010.8455684733344 -1222.8260111435134 0 -1222.8260111435134 -209.13992324799619 0 0 0 0 3752.2143000274227 -1062.0134414137356 0 -1062.0134414137356 -290.28275854839194 0 0 0 0 790.2106645614208 -207.78047240204688 0 -207.78047240204688 -75.716553394949187 0 0 0 0 4315.562824164761 -1438.1654219081472 0 -1438.1654219081472 -300.14948981015823 0 0 0 0 3.5449856722569084 -6.4327395988843818 0 -6.4327395988843818 7.0400430994324132 0 0 0 0 59.953700563521124 8.647924221015046 0 8.647924221015046 86.413489087783887 0 0 0 0 184.79939482300688 -115.86489067702473 0 -115.86489067702473 17.326109567557069 0 0 0 0 477.28630357034854 122.51028919864166 0 122.51028919864166 -1.1246430531123224 0 0 0 0 643.20029957867519 -175.61471948762164 0 -175.61471948762164 51.189838812554171 0 0 0 0 324.61357105102798 -149.91243128913356 0 -149.91243128913356 158.37733945254422 0 0 0 0 384.72157726177466 -47.083781485407826 0 -47.083781485407826 -43.0418259055009 0 0 0 0 -27.990349573439744 65.192836180627637 0 65.192836180627637 103.58723377045726 0 0 0 0 8.9140270235516539 12.615608197065797 0 12.615608197065797 16.166949345044976 0 0 0 0 25.43794816845184 24.937353607410159 0 24.937353607410159 25.214850525556358 0 0 0 0 62.412817233038368 -1.0951542211466858 0 -1.0951542211466858 15.340013769637608 0 0 0 0 77.860634984870558 -14.406728874877899 0 -14.406728874877899 11.09378708019409 0 0 0 0 92.823516314041626 0.78219237971046596 0 0.78219237971046596 11.527160678345354 0 0 0 0 94.459097225873847 -0.15596050182136878 0 -0.15596050182136878 9.976299406579983 0 0 0 0 101.37426832402707 -20.031802009578314 0 -20.031802009578314 11.581519548735329 0 0 0 0 3.0546878098708419 10.257654068705762 0 10.257654068705762 10.047459904533838 0 0 0 0 89.444377186249767 -4.5509617886441447 0 -4.5509617886441447 1.0999393023603261 0 0 0 0 69.851361458218889 -13.576432485078499 0 -13.576432485078499 13.011485742367313 0 0 0 0 65.996720516719506 -8.7371221703756419 0 -8.7371221703756419 11.628550384461505 0 0 0 0 14.942425178968534 4.3832697553616526 0 4.3832697553616526 2.5658996182598077 0 0 0 0 91.186535346772871 -88.318602030134116 0 -88.318602030134116 -36.580532265679722 0 0 0 0 -75.618965261703124 13.905607205107344 0 13.905607205107344 81.529480495256848 0 0 0 0 59.486222149427931 -22.655901972714602 0 -22.655901972714602 0.42189783410066539 0 0 0 0 84.301412562948826 -25.239784771454936 0 -25.239784771454936 -1.7944678528428994 0 0 0 0 72.973457436353783 -34.024273419703604 0 -34.024273419703604 -14.192838780724742 0 0 0 0 80.211888159028604 -32.058633386248687 0 -32.058633386248687 -14.237329496172151 0 0 0 0 6.3736446733301761 -16.783815416630432 0 -16.783815416630432 -15.525919165813207 0 0 0 0 269.88184143661056 -155.04899517083527 0 -155.04899517083527 -5.2452833356850022 0 0 0 0 21.933561861577573 -16.164053031047686 0 -16.164053031047686 8.1875839170172 0 0 0 0 113.55100821363885 -114.37435509271316 0 -114.37435509271316 49.830577433588473 0 0 0 0 57.961575825360342 -34.26784183790933 0 -34.26784183790933 -11.171679265387866 0 0 0 0 1542.910439219937 14.37320967859273 0 14.37320967859273 -0.46076592213322343 0 0 0 0 789.20463582839875 310.61034238659749 0 310.61034238659749 -3.174377302881112 0 0 0 0 -206.26745784084778 129.28596618087033 0 129.28596618087033 1005.2316372100067 0 0 0 0 8.6202160622544852 -5.1651447080883202 0 -5.1651447080883202 4.5713715787909113 0 0 0 0 1819.6035560710588 1225.5640505306669 0 1225.5640505306669 488.922926053433 0 0 0 0 -989.93054623599164 -615.07333165191199 0 -615.07333165191199 836.50240199129098 0 0 0 0 15.286822507756824 3.8576253887003418 0 3.8576253887003418 -0.24118314617494097 0 0 0 0 -14.715637319852249 -165.46349421466107 0 -165.46349421466107 96.693249098864044 0 0 0 0 271.11796040393529 -343.16415886508366 0 -343.16415886508366 154.29279987579787 0 0 0 0 2212.0386027017375 855.39146811073169 0 855.39146811073169 -1041.6576586056563 0 0 0 0 22.43306919013844 7.8416712012438268 0 7.8416712012438268 -2.34608601427251 0 0 0 0 79.861399081579293 -581.30899080621771 0 -581.30899080621771 -141.1984034654356 0 0 0 0 360.23337421558972 -314.19589608930437 0 -314.19589608930437 -89.381469112124364 0 0 0 0 53.536207685043337 255.62489494868885 0 255.62489494868885 133.92186834844551 0 0 0 0 1912.8277281438932 -1541.1249594460846 0 -1541.1249594460846 427.72688676681639 0 0 0 0 1816.6906363084272 -587.05167220858107 0 -587.05167220858107 490.73917384876211 0 0 0 0 2095.665467833911 -320.92799415941022 0 -320.92799415941022 674.61128802848361 0 0 0 0 -1328.1140092931746 -142.70348878071536 0 -142.70348878071536 -735.86489072994027 0 0 0 0 4.7925864601191961 2.4190309332331594 0 2.4190309332331594 -2.6744045746622529 0 0 0 0 1821.6857101742353 -574.41398248461905 0 -574.41398248461905 359.22768274439977 0 0 0 0 8.5506120286206055 2.9610012928735614 0 2.9610012928735614 -1.6374501954245488 0 0 0 0 774.86055901570944 -805.93843547914139 0 -805.93843547914139 427.44868981955096 0 0 0 0 -509.72627166981692 1301.1390627997366 0 1301.1390627997366 -274.45767347708261 0 0 0 0 320.00257814745419 -360.76231657129847 0 -360.76231657129847 657.97252724117106 0 0 0 0 564.64817524170212 -336.24577374178261 0 -336.24577374178261 122.38219619156826 0 0 0 0 4.095191796472534 0.69975624184539242 0 0.69975624184539242 -3.1785060485254739 0 0 0 0 2.1523407806775197 -12.913571676542688 0 -12.913571676542688 2.286127173756249 0 0 0 0 45.011668738370645 -12.320463940600177 0 -12.320463940600177 0.30781517539890046 0 0 0 0 1126.1078678973718 -517.97048860652558 0 -517.97048860652558 -60.202228378923337 0 0 0 0 510.40459075587569 -320.79594164314585 0 -320.79594164314585 238.03095753968955 0 0 0 0 552.2032132052118 -315.89441076393496 0 -315.89441076393496 50.953251025066493 0 0 0 0 586.30907799690613 -248.25496811772837 0 -248.25496811772837 -71.017603343972041 0 0 0 0 507.22122807677079 -236.78745091308701 0 -236.78745091308701 128.49538495644811 0 0 0 0 520.93763248127652 -367.31840656544591 0 -367.31840656544591 263.32071793831255 0 0 0 0 76.731046460583457 -8.9551880632881762 0 -8.9551880632881762 59.765052450870371 0 0 0 0 65.809241804054182 -41.269101982270172 0 -41.269101982270172 -5.0402934519925111 0 0 0 0 -3.610768902859661 -11.877272528687001 0 -11.877272528687001 -7.0495068477228218 0 0 0 0 463.39821311290143 1.3413818353769784 0 1.3413818353769784 -110.59967266445256 0 0 0 0 435.84353994028061 -227.27040834757281 0 -227.27040834757281 6.2080759429068166 0 0 0 0 197.87381813411776 -218.01617384735391 0 -218.01617384735391 7.9210760941300578 0 0 0 0 388.49917222255681 -121.83197564247263 0 -121.83197564247263 259.86986076353514 0 0 0 0 301.00836422237626 -122.14708283118875 0 -122.14708283118875 262.37467825435124 0 0 0 0 1383.9022814135242 -368.44368935328771 0 -368.44368935328771 32.365618637053444 0 0 0 0 50.046550435698009 -16.010623115024373 0 -16.010623115024373 -12.026516243940478 0 0 0 0 11.353979474220807 -15.07978966837976 0 -15.07978966837976 1.300904764859327 0 0 0 0 25.311245230826898 -11.409566611578327 0 -11.409566611578327 6.5329082089265285 0 0 0 0 21.373569209274137 39.77965271758103 0 39.77965271758103 642.46794616105035 0 0 0 0 1094.3775728563196 501.09563733582627 0 501.09563733582627 -1412.1474045364193 0 0 0 0 904.57865764068265 -186.57413811719766 0 -186.57413811719766 108.48565429432023 0 0 0 0 15.803085869371557 3.9251930249432405 0 3.9251930249432405 -1.6910056570875085 0 0 0 0 -0.72215076534121181 282.33208530455198 0 282.33208530455198 -817.84989578453406 0 0 0 0 974.99289032294837 -578.8549310860235 0 -578.8549310860235 240.42881298997463 0 0 0 0 1574.6841834913794 -895.41462617899651 0 -895.41462617899651 335.96338926454155 0 0 0 0 1934.7523599149645 -646.25312179112643 0 -646.25312179112643 20.023178388602901 0 0 0 0 2079.7573615926522 -979.65948342448678 0 -979.65948342448678 722.57321241933869 0 0 0 0 1820.5535363579402 -758.61546079563414 0 -758.61546079563414 68.84370233433674 0 0 0 0 2916.7934143368329 -526.13712213407416 0 -526.13712213407416 -406.31259100206933 0 0 0 0 1354.0080107128015 -459.23252303064874 0 -459.23252303064874 -37.6977290634577 0 0 0 0 1794.1184301334724 -663.50145418615807 0 -663.50145418615807 18.290861820260375 0 0 0 0 2030.1491223029043 -409.02599553918168 0 -409.02599553918168 -78.050960191706736 0 0 0 0 1786.6070778812282 -543.71247546853238 0 -543.71247546853238 -65.871982261617632 0 0 0 0 1876.14728735674 -137.23692554330728 0 -137.23692554330728 -501.00724760495484 0 0 0 0 2039.9129057699611 -367.77099321946412 0 -367.77099321946412 -180.65242517451753 0 0 0 0 1601.257431000573 -115.93315078594222 0 -115.93315078594222 -51.143294735570734 0 0 0 0 2199.7285679514898 -499.71203234115706 0 -499.71203234115706 -52.893109354201897 0 0 0 0 2557.0946951323276 -38.63915066295764 0 -38.63915066295764 -110.10171070262753 0 0 0 0 2.2216585698398887 -3.6684145525976533 0 -3.6684145525976533 6.6181766359279148 0 0 0 0 1471.7638658501965 -44.806178203549507 0 -44.806178203549507 -104.45530753107914 0 0 0 0 1039.6763099891068 -280.2491786507702 0 -280.2491786507702 94.734445542215781 0 0 0 0 26.556628141814144 -4.4726948054380955 0 -4.4726948054380955 6.9267337989749649 0 0 0 0 22.396373350224167 -74.273224835619203 0 -74.273224835619203 -9.8295739119716927 0 0 0 0 19.228763900865857 -0.35274879784830659 0 -0.35274879784830659 -17.817112751892097 0 0 0 0 9.0831517358781042 -12.228662075782154 0 -12.228662075782154 16.973318563562167 0 0 0 0 -178.16261236564605 -76.493620397186561 0 -76.493620397186561 120.83587258447264 0 0 0 0 120.76869137218455 -34.852396691576132 0 -34.852396691576132 -66.911076547362882 0 0 0 0 109.90121001045918 -316.72354726976408 0 -316.72354726976408 320.57852863458567 0 0 0 0 1477.42491375189 18.353709030030522 0 18.353709030030522 61.076823198598049 0 0 0 0 1402.4091463760997 -647.47348843920929 0 -647.47348843920929 116.72618649714722 0 0 0 0 562.61256785602018 -192.4099345521314 0 -192.4099345521314 87.266329950118205 0 0 0 0 866.35434727396932 -367.43051086442279 0 -367.43051086442279 68.562991359771729 0 0 0 0 1267.9896980651283 -194.5013742058068 0 -194.5013742058068 14.482989247341095 0 0 0 0 1282.8593333941681 -204.31854811396073 0 -204.31854811396073 -100.43804128030408 0 0 0 0 924.12457269820152 -152.42734749075578 0 -152.42734749075578 0.015435181597459324 0 0 0 0 1473.9143532567323 -118.91383329892243 0 -118.91383329892243 -0.4394870840677072 0 0 0 0 1446.8779732277035 -102.74315902055957 0 -102.74315902055957 -0.14294409535570521 0 0 0 0 1466.9742669437983 -180.94303576163384 0 -180.94303576163384 -41.004131611074953 0 0 0 0 1537.8428378361896 -40.37335143210673 0 -40.37335143210673 19.175795595405589 0 0 0 0 1458.8410695095226 -38.879662411628459 0 -38.879662411628459 49.03329418621442 0 0 0 0 1914.2550605611614 -427.62543177564612 0 -427.62543177564612 244.36456372000515 0 0 0 0 1612.214664545776 -11.659254618680656 0 -11.659254618680656 51.463656556951776 0 0 0 0 1474.7060605707229 -146.94399355572114 0 -146.94399355572114 276.13678117628507 0 0 0 0 1448.4062525814225 49.817802686366406 0 49.817802686366406 51.9120551674186 0 0 0 0 1446.1738062422373 36.25338256272849 0 36.25338256272849 83.97352846902092 0 0 0 0 1654.1807732159141 -40.941755396296145 0 -40.941755396296145 -20.79361226530591 0 0 0 0 1359.7660399806045 117.06883615192427 0 117.06883615192427 44.364029220412959 0 0 0 0 1297.391669349312 16.039880671795256 0 16.039880671795256 133.15572372943018 0 0 0 0 1457.9998475790198 -51.41815610266103 0 -51.41815610266103 161.20439797650636 0 0 0 0 1430.8684450390574 -117.09032204399968 0 -117.09032204399968 85.751973511455461 0 0 0 0 1522.9033859070041 -157.23951519644299 0 -157.23951519644299 96.18670260818746 0 0 0 0 1495.4960111886467 -102.33270727946129 0 -102.33270727946129 0.053159092609555259 0 0 0 0 1476.6731060625752 -182.08432312767857 0 -182.08432312767857 79.260958132019596 0 0 0 0 1552.8661824012233 -180.98799200181867 0 -180.98799200181867 0.22088492073120886 0 0 0 0 1512.7952250594171 -237.01799696614628 0 -237.01799696614628 225.5590013110259 0 0 0 0 1726.5948407527758 -157.36963224388552 0 -157.36963224388552 79.733471423342564 0 0 0 0 1709.3152561801107 -61.823611457619592 0 -61.823611457619592 -228.81888460911136 0 0 0 0 2304.0954007119144 -509.40082900328855 0 -509.40082900328855 -280.72379821750303 0 0 0 0 1518.0875328658876 -567.16518316326824 0 -567.16518316326824 646.74730239562894 0 0 0 0 1290.9345021001936 -185.27533818513928 0 -185.27533818513928 216.03619620828695 0 0 0 0 1324.0718015713319 -95.454172075608682 0 -95.454172075608682 368.46955499438775 0 0 0 0 1052.1322434914764 206.94079001182811 0 206.94079001182811 215.04523810681633 0 0 0 0 1202.7916457609972 -424.80918319330743 0 -424.80918319330743 63.649963767673626 0 0 0 0 1873.88734065264 -13.939838183089165 0 -13.939838183089165 310.53972035706619 0 0 0 0 -27.700663497565984 -229.65235044095331 0 -229.65235044095331 35.606013987633872 0 0 0 0 858.78019761608448 241.93483681544279 0 241.93483681544279 -736.86105145338126 0 0 0 0 871.3418336605755 96.147298723333734 0 96.147298723333734 -104.00087986773269 0 0 0 0 1345.8032516136591 168.60721267479076 0 168.60721267479076 -141.71026796394685 0 0 0 0 1539.6260081229266 121.86608970557774 0 121.86608970557774 -251.77749577704662 0 0 0 0 1870.83562860034 -55.950060776867872 0 -55.950060776867872 -234.44624927285588 0 0 0 0 1527.5117535466707 351.51077138291936 0 351.51077138291936 -458.475429820729 0 0 0 0 4146.1782419840529 141.16528170928746 0 141.16528170928746 -409.27585469607425 0 0 0 0 1709.0632994689222 327.75561704176937 0 327.75561704176937 -399.77121472953263 0 0 0 0 833.8588700095861 -28.9586111848364 0 -28.9586111848364 -351.77440997679025 0 0 0 0 344.01386762066977 -2043.0853299270602 0 -2043.0853299270602 -474.40775558094435 0 0 0 0 17.176609737055401 -7.0470438316606021 0 -7.0470438316606021 0.39484628655816945 0 0 0 0 210.76564379662159 578.74145883546737 0 578.74145883546737 -320.33185151367138 0 0 0 0 978.48806059153139 699.69074536027006 0 699.69074536027006 -195.74913727732269 0 0 0 0 583.79056828598004 -399.26497191120336 0 -399.26497191120336 -1035.4912442002542 0 0 0 0 829.52557360263017 -463.56502686951575 0 -463.56502686951575 -1100.0465539776114 0 0 0 0 33.595938230113688 -13.172132179195046 0 -13.172132179195046 0.14629959850051488 0 0 0 0 1438.6204901108722 33.932044510370588 0 33.932044510370588 -601.19185348906728 0 0 0 0 1323.4363858820288 274.91621445344072 0 274.91621445344072 -429.55104638764976 0 0 0 0 388.61762473131239 -185.21654660033477 0 -185.21654660033477 -59.810104617307772 0 0 0 0 1450.7430315408565 381.981905647914 0 381.981905647914 -395.21780546445052 0 0 0 0 1280.5926422578341 495.43725993757914 0 495.43725993757914 -450.1815805562112 0 0 0 0 651.2517166214966 -26.036757217998456 0 -26.036757217998456 -235.31995822915587 0 0 0 0 1036.1521729811648 506.57927507613817 0 506.57927507613817 381.71352051625217 0 0 0 0 90.401721706090029 -97.569709406549009 0 -97.569709406549009 -146.78309535327753 0 0 0 0 64.974128910020227 -140.41618374567497 0 -140.41618374567497 -107.13663689104942 0 0 0 0 543.64599148541311 104.81995043688431 0 104.81995043688431 58.340976382743065 0 0 0 0 40.542168273842606 -27.567113212001132 0 -27.567113212001132 13.569701767116188 0 0 0 0 40.058052604817021 -8.7339898830971379 0 -8.7339898830971379 -32.437836432541189 0 0 0 0 199.51255238643716 33.253029567922567 0 33.253029567922567 -77.180889633491461 0 0 0 0 19.085311432806492 -2.5768857664039473 0 -2.5768857664039473 -9.0125928104120376 0 0 0 0 -175.24320471365354 -850.06558473246878 0 -850.06558473246878 -1132.1674663002939 0 0 0 0 66.809858491411433 19.151896011001213 0 19.151896011001213 -97.86007398737928 0 0 0 0 62.816759245818844 -15.636048892485206 0 -15.636048892485206 -5.2663739726070729 0 0 0 0 82.745892017803271 -75.013047762096136 0 -75.013047762096136 -190.18405606303591 0 0 0 0 1.7841371138376303 -10.781044756132999 0 -10.781044756132999 4.1002813703152103 0 0 0 0 277.72690333490027 -45.187597634740087 0 -45.187597634740087 -724.99299703007318 0 0 0 0 15.020133055302267 0.042002887258092869 0 0.042002887258092869 -11.896037006759864 0 0 0 0 9.4304515011317562 -70.269448549081659 0 -70.269448549081659 -276.06445499664477 0 0 0 0 -95.415149472857593 -383.27980311938035 0 -383.27980311938035 -444.58704443087834 0 0 0 0 402.59725817275466 -175.55898860293453 0 -175.55898860293453 -593.8106111101788 0 0 0 0 52.874225340667181 -322.19636154482674 0 -322.19636154482674 310.71730822729876 0 0 0 0 299.61708275150158 -74.978345558000342 0 -74.978345558000342 167.29348104126692 0 0 0 0 -4.9434288337797625 -79.68941502946322 0 -79.68941502946322 148.92422785963305 0 0 0 0 37.60993542975848 -249.91441106238693 0 -249.91441106238693 -29.279896012035579 0 0 0 0 -7.5957522613316542 108.81506868201734 0 108.81506868201734 -86.780201024610733 0 0 0 0 -42.255932087922702 -42.609347760807623 0 -42.609347760807623 150.00060530876527 0 0 0 0 -2.7205517195980065 32.944387053713626 0 32.944387053713626 -34.814806315654323 0 0 0 0 -55.046297147113364 -56.622511860212512 0 -56.622511860212512 139.93272387060176 0 0 0 0 -49.379436338844243 -48.241949662357342 0 -48.241949662357342 3.5928089881293772 0 0 0 0 -134.05382085696328 87.10671172364971 0 87.10671172364971 69.246824843878471 0 0 0 0 -28.588965185805137 -145.51344626548024 0 -145.51344626548024 370.76120355259917 0 0 0 0 78.982269329193514 126.5734269521717 0 126.5734269521717 177.94822215076323 0 0 0 0 267.82165277889726 -183.52711356467645 0 -183.52711356467645 205.1903453918726 0 0 0 0 547.34609354076383 160.31591171879114 0 160.31591171879114 607.59104514492401 0 0 0 0 418.39046340097048 -475.46776257070644 0 -475.46776257070644 737.63036804494777 0 0 0 0 1849.21508185516 -552.48687014944994 0 -552.48687014944994 -9.1215467818062166 0 0 0 0 2489.0310813266115 231.17751520296031 0 231.17751520296031 -526.33563464163274 0 0 0 0 2007.8596019324759 1008.4991492758609 0 1008.4991492758609 -104.22061459694822 0 0 0 0 16.268363727400867 -6.0712832387138747 0 -6.0712832387138747 0.24389915437762166 0 0 0 0 1776.1028284742788 -676.39360718262355 0 -676.39360718262355 -16.204650953361142 0 0 0 0 722.53263771740603 -1560.9541856065157 0 -1560.9541856065157 -752.75971208856527 0 0 0 0 1351.7443634718038 -1460.1223970335216 0 -1460.1223970335216 960.15632479028409 0 0 0 0 526.77487239299808 -563.50279041224849 0 -563.50279041224849 -13.88021989543746 0 0 0 0 24.429163552276464 -0.28927088986466032 0 -0.28927088986466032 -3.4691973818421213 0 0 0 0 836.72659072061651 -332.48634461403196 0 -332.48634461403196 -216.28265715780776 0 0 0 0 4.8269469330698485 -113.5711485761373 0 -113.5711485761373 -531.38591747873363 0 0 0 0 -46.078072855889332 -5.4147367542910132 0 -5.4147367542910132 -136.5887688800224 0 0 0 0 -71.049011878014426 -228.77956310887771 0 -228.77956310887771 23.462731701959342 0 0 0 0 1087.1967928054801 464.3767504988532 0 464.3767504988532 -765.89858313133197 0 0 0 0 10.512696055887091 -1.3916911624524602 0 -1.3916911624524602 -0.6299663329392382 0 0 0 0 5.3007600211769841 -0.072840810968038738 0 -0.072840810968038738 -0.056196035942271405 0 0 0 0 986.9160634028085 -391.93395399962549 0 -391.93395399962549 234.69026514716381 0 0 0 0 -110.47343471887871 38.797884267483994 0 38.797884267483994 141.26290092691113 0 0 0 0 -98.589257150724734 -44.124351981167628 0 -44.124351981167628 -139.85475356888634 0 0 0 0 18.896599771054753 -130.88661969654672 0 -130.88661969654672 0.9885905425093473 0 0 0 0 1455.4855284298101 -230.50194527648421 0 -230.50194527648421 -0.67865370701110295 0 0 0 0 218.77282089779328 256.71262632730941 0 256.71262632730941 -113.02903473357091 0 0 0 0 -101.33585823998146 -324.82381843860458 0 -324.82381843860458 806.27615464773737 0 0 0 0 64.893329943966819 -64.248447061453049 0 -64.248447061453049 -150.96374744745756 0 0 0 0 -97.631593122670893 8.7090563059702504 0 8.7090563059702504 -33.253778549238589 0 0 0 0 11.417471519624769 -0.12603244203836539 0 -0.12603244203836539 -0.43121749083321192 0 0 0 0 -20.206430379814265 -81.154516573628754 0 -81.154516573628754 -89.063921520140696 0 0 0 0 17.492100816230959 36.018984087480369 0 36.018984087480369 -144.51166170423653 0 0 0 0 -54.571004219469614 69.710279130810562 0 69.710279130810562 -232.26717302998401 0 0 0 0 -47.669877969252411 -14.802296469311159 0 -14.802296469311159 -192.04969673164271 0 0 0 0 -85.879118644588743 17.851169321503921 0 17.851169321503921 -38.862293390937239 0 0 0 0 -78.711121608212125 15.349212311696178 0 15.349212311696178 -148.81081314233901 0 0 0 0 -26.980541011784226 -3.2352853217399229 0 -3.2352853217399229 -277.38992567147284 0 0 0 0 22.39555033242732 -2.8432795092731169 0 -2.8432795092731169 -3.9157700959940573 0 0 0 0 6.9822192417137217 4.7041745264395161 0 4.7041745264395161 -0.59200986299503144 0 0 0 0 -27.052318885369459 83.188256271706791 0 83.188256271706791 -336.87982150017262 0 0 0 0 130.29195768287173 222.69143452237662 0 222.69143452237662 -250.97414393674842 0 0 0 0 -91.097775979113067 103.72546709740482 0 103.72546709740482 222.83540200929136 0 0 0 0 -61.510658861370757 42.665563828428731 0 42.665563828428731 -33.260714072148403 0 0 0 0 117.01181083641131 7.3221227914798419 0 7.3221227914798419 -107.47833233493679 0 0 0 0 -8.4640151146741118 -26.387558827376949 0 -26.387558827376949 -362.56955858804588 0 0 0 0 -164.23166374739958 18.087401572548686 0 18.087401572548686 -180.29517195250187 0 0 0 0 -128.92519947316032 99.598213139530969 0 99.598213139530969 -219.73090481166091 0 0 0 0 157.04408216994489 210.54738645682653 0 210.54738645682653 -489.82592019930058 0 0 0 0 -133.28260300081456 53.85546621940739 0 53.85546621940739 34.82407122172549 0 0 0 0 8.1466797098632355 0.74725128290251774 0 0.74725128290251774 -0.28289740600157609 0 0 0 0 20.2028404613514 -0.32505846731693566 0 -0.32505846731693566 -3.4271538340636969 0 0 0 0 -34.338369054137729 -37.352447703109242 0 -37.352447703109242 63.191614935120292 0 0 0 0 -88.966398582386319 330.96115425139396 0 330.96115425139396 -192.20276632532955 0 0 0 0 210.93019704945618 11.962396508754452 0 11.962396508754452 -195.81069960580558 0 0 0 0 150.15646997804288 159.59886168345085 0 159.59886168345085 -222.61974471114473 0 0 0 0 622.9258368415758 -318.17505499231811 0 -318.17505499231811 74.80453818967203 0 0 0 0 4.3628453681242831 -1.0690382687111466 0 -1.0690382687111466 -0.42472029516541498 0 0 0 0 -425.16830366836803 -124.29510346493302 0 -124.29510346493302 121.40523604939153 0 0 0 0 250.74299922439968 -520.63500458384237 0 -520.63500458384237 174.51198475623852 0 0 0 0 566.74098686518846 -330.78139203352526 0 -330.78139203352526 58.194000157318996 0 0 0 0 717.74320766306482 -572.95151751582966 0 -572.95151751582966 31.940008444217405 0 0 0 0 373.50676218139415 -461.10944777196602 0 -461.10944777196602 144.13036178334136 0 0 0 0 899.76796967418341 -931.56575220032744 0 -931.56575220032744 300.96132169966364 0 0 0 0 749.86843843426323 -865.08091370674424 0 -865.08091370674424 729.61921934943825 0 0 0 0 235.1073472265125 46.110616076349245 0 46.110616076349245 -102.40633352256569 0 0 0 0 866.29432876034116 -294.25937390980482 0 -294.25937390980482 -159.01874705403227 0 0 0 0 6.5189658797820016 -1.2499268691331551 0 -1.2499268691331551 -0.29962991537878075 0 0 0 0 1408.7766897852416 -686.68131846814288 0 -686.68131846814288 293.71706141175855 0 0 0 0 1590.5751358526468 -905.78827135431243 0 -905.78827135431243 407.5553341341236 0 0 0 0 271.78638940569363 -372.78891789686406 0 -372.78891789686406 542.57409764770489 0 0 0 0 518.76196649494523 -877.16017295954089 0 -877.16017295954089 1072.0222651153722 0 0 0 0 -137.44788316832273 -186.48834481561079 0 -186.48834481561079 -0.37826836082768689 0 0 0 0 1061.6993138332327 -1335.1783433290939 0 -1335.1783433290939 1400.9645686431868 0 0 0 0 869.12780891271541 -29.593752946614824 0 -29.593752946614824 -742.58722806209346 0 0 0 0 1541.0524015293049 -788.97117905215964 0 -788.97117905215964 -0.25217295895784803 0 0 0 0 8.8301155517982579 -2.4357368703120983 0 -2.4357368703120983 0.021542042652713589 0 0 0 0 15.341241644154877 0.51013675780632184 0 0.51013675780632184 -0.64151782437812521 0 0 0 0 2114.6338552734233 -162.28817723807029 0 -162.28817723807029 0.49452554100844953 0 0 0 0 1987.6446720550302 -1163.8580072644368 0 -1163.8580072644368 921.12164213157973 0 0 0 0 4483.8696178247392 -859.67289693887426 0 -859.67289693887426 -234.15870600946167 0 0 0 0 -46.410139194573276 -111.53395330508587 0 -111.53395330508587 -153.29466600825293 0 0 0 0 21.433606675932083 -4.023404742245134 0 -4.023404742245134 -2.3416231381958896 0 0 0 0 -697.41988827119349 -333.03043854361363 0 -333.03043854361363 1050.82350869522 0 0 0 0 9.5997100716891026 -0.756177900290254 0 -0.756177900290254 -1.6348982314151943 0 0 0 0 459.31301561254077 -292.2677409903622 0 -292.2677409903622 140.36118239498569 0 0 0 0 662.96796708037436 847.3693770533821 0 847.3693770533821 1118.8693867672901 0 0 0 0 362.31034933644696 -349.75018023091576 0 -349.75018023091576 466.61519894023195 0 0 0 0 7.390410840064618 -2.7883922257803988 0 -2.7883922257803988 -5.5711423225463497 0 0 0 0 1842.5311837570625 1373.2816818077645 0 1373.2816818077645 625.91625368935684 0 0 0 0 4494.1951742398087 910.95573075119603 0 910.95573075119603 -518.74008091395194 0 0 0 0 2609.169868220677 -660.72094622486225 0 -660.72094622486225 -626.91433736764395 0 0 0 0 1702.6148767489067 -379.21266245496076 0 -379.21266245496076 -390.38951653802258 0 0 0 0 1581.8270511867886 -685.41092593720634 0 -685.41092593720634 211.00138211119739 0 0 0 0 650.41954764730326 -429.96576775451592 0 -429.96576775451592 201.49886823193697 0 0 0 0 2165.4462489973812 -1401.9540873228448 0 -1401.9540873228448 317.6854511882085 0 0 0 0 2.15013112937946 -0.14033905604858887 0 -0.14033905604858887 -0.28235032884210876 0 0 0 0 719.83689430462505 -793.40880415094682 0 -793.40880415094682 743.47626600276874 0 0 0 0 446.54894774884451 -1227.0034839020018 0 -1227.0034839020018 1732.4856322978815 0 0 0 0 536.83161791457678 -224.65461529422987 0 -224.65461529422987 284.15076403577859 0 0 0 0 4493.1870601919509 -2550.8079196071044 0 -2550.8079196071044 564.32999373056168 0 0 0 0 463.59140603998094 -565.24832714188085 0 -565.24832714188085 649.9042930781518 0 0 0 0 13.295201074353827 -6.7893088854986274 0 -6.7893088854986274 2.9243311921201038 0 0 0 0 475.54443649094901 -1583.6925315181302 0 -1583.6925315181302 2865.1855701006834 0 0 0 0 4469.561099736241 407.05391109889052 0 407.05391109889052 -518.38763551304771 0 0 0 0 14.694601946766284 2.2998062718431598 0 2.2998062718431598 0.91775976772519441 0 0 0 0 588.07151593764138 758.13733202868707 0 758.13733202868707 581.39022859604131 0 0 0 0 4490.4542254362295 486.2225687552899 0 486.2225687552899 -321.8464457131322 0 0 0 0 -16.059720246412326 -395.3201548134096 0 -395.3201548134096 99.746265899789108 0 0 0 0 22.765954256947282 -12.251349530247996 0 -12.251349530247996 -1.9317720521026052 0 0 0 0 17.195042457518866 -12.15792435620385 0 -12.15792435620385 -23.267455145196664 0 0 0 0 25.019682098343708 4.8698845246543669 0 4.8698845246543669 -3.5299888081656308 0 0 0 0 6.2697189535979305 -18.956045161901486 0 -18.956045161901486 -1.0911746387954095 0 0 0 0 55.146211483282968 68.343662924791261 0 68.343662924791261 154.40300505648725 0 0 0 0 29.52356313983546 -6.3615392823475254 0 -6.3615392823475254 0.94261299696756695 0 0 0 0 2.7502624212138471 -174.40260409040161 0 -174.40260409040161 942.2353755758736 0 0 0 0 434.17666212073527 -841.12593498175829 0 -841.12593498175829 -616.20417769112055 0 0 0 0 605.70542954496887 349.08461559014859 0 349.08461559014859 -757.92050378116528 0 0 0 0 198.5290546870965 44.262290917559767 0 44.262290917559767 -196.0446026498289 0 0 0 0 -148.53846441954374 107.77468228203361 0 107.77468228203361 215.98403325684308 0 0 0 0 13.170132213737816 18.941700257977118 0 18.941700257977118 -20.915331223910243 0 0 0 0 18.816278556606733 -4.0902640184708901 0 -4.0902640184708901 -2.4084104690990351 0 0 0 0 1.7860434746599481 0.37972429429067844 0 0.37972429429067844 -1.2286078231580366 0 0 0 0 8.6939264872344211 3.7303487574171186 0 3.7303487574171186 -62.69015237146175 0 0 0 0 -30.414052152744262 -21.980710259775265 0 -21.980710259775265 -3.0532865975225718 0 0 0 0 0.3335423874111143 -0.6090033876895049 0 -0.6090033876895049 0.17213217867422792 0 0 0 0 -23.811776319314959 -36.513064821292801 0 -36.513064821292801 136.0524856507426 0 0 0 0 -30.694691057360615 21.804177264862261 0 21.804177264862261 33.264318949005087 0 0 0 0 3.5479998331575189 -17.721530408735454 0 -17.721530408735454 26.674635048750574 0 0 0 0 -4.2940920976634516 -82.377198087959755 0 -82.377198087959755 40.421443737646086 0 0 0 0 33.797358866853756 -56.323425758999115 0 -56.323425758999115 -40.807757796214901 0 0 0 0 -6.855643683069502 -36.375311888290121 0 -36.375311888290121 19.536411853105953 0 0 0 0 5.9517973267938942 -38.202139532941487 0 -38.202139532941487 -19.865941565161521 0 0 0 0 31.847856756188378 -14.442033278093078 0 -14.442033278093078 -2.0930721171777513 0 0 0 0 -44.356169574992236 206.44396769522504 0 206.44396769522504 269.56455077486061 0 0 0 0 68.539632148604142 -78.167568336948193 0 -78.167568336948193 -39.111936669238155 0 0 0 0 -94.437368205472012 3.7217613419994109 0 3.7217613419994109 -23.259698775373693 0 0 0 0 43.433663017388369 -16.353037833216234 0 -16.353037833216234 -3.9681248569655412 0 0 0 0 56.53578559818925 -304.51108689045526 0 -304.51108689045526 -1523.3230583068062 0 0 0 0 38.966963751044318 -8.2681931594986793 0 -8.2681931594986793 -5.5073890322010293 0 0 0 0 398.11022574352683 -579.43111884623499 0 -579.43111884623499 -1309.4687570172664 0 0 0 0 431.47899417701524 587.04601188384709 0 587.04601188384709 -2297.2893544014601 0 0 0 0 38.841372256974751 2.7358107918891896 0 2.7358107918891896 -2.6735950408967764 0 0 0 0 1613.8278660458236 2604.5384984092989 0 2604.5384984092989 -635.04822266199596 0 0 0 0 4490.9647937166737 -1467.7131430586228 0 -1467.7131430586228 -240.65821585916331 0 0 0 0 18.860018940138502 2.3392653547760638 0 2.3392653547760638 -1.0894459177368807 0 0 0 0 778.71588914564927 -100.69099856487449 0 -100.69099856487449 -291.91083972412594 0 0 0 0 779.41824234514206 164.11800156345163 0 164.11800156345163 -292.70078213935528 0 0 0 0 313.35269924586464 72.145053866171565 0 72.145053866171565 85.731178665771949 0 0 0 0 411.80373719399358 148.37976184676381 0 148.37976184676381 1.5005963092175989 0 0 0 0 405.21905904579762 146.58705397692484 0 146.58705397692484 177.22007423521427 0 0 0 0 -122.96781640870904 245.01735192153728 0 245.01735192153728 54.324540976657772 0 0 0 0 357.75067826369195 242.10028267339931 0 242.10028267339931 50.847029976524937 0 0 0 0 560.08738664415432 158.04675317982719 0 158.04675317982719 58.258137394914229 0 0 0 0 459.00314897170756 93.522873172333675 0 93.522873172333675 55.42275310269136 0 0 0 0 398.80689053937385 61.967525945985471 0 61.967525945985471 47.201363898494492 0 0 0 0 507.68074652930954 -23.520547892312607 0 -23.520547892312607 78.837539113255843 0 0 0 0 401.75985229987054 -11.889352180578072 0 -11.889352180578072 259.62698041725344 0 0 0 0 500.86590711301051 -58.602161648578601 0 -58.602161648578601 24.83583020824517 0 0 0 0 501.99765221533653 -43.302659857199444 0 -43.302659857199444 -30.995720388661539 0 0 0 0 371.30280068141292 -106.34549580772818 0 -106.34549580772818 14.71414260106485 0 0 0 0 534.43038170351065 15.199489889473625 0 15.199489889473625 57.251409734297454 0 0 0 0 503.4031373555008 89.248347951461596 0 89.248347951461596 -45.40530580428549 0 0 0 0 463.50345081932028 95.39966867895555 0 95.39966867895555 17.385282840758009 0 0 0 0 455.58239579525252 107.16461954359715 0 107.16461954359715 13.476379034955244 0 0 0 0 388.03113867668435 210.78143675109015 0 210.78143675109015 56.251397651572915 0 0 0 0 213.64266410810524 161.68356093206967 0 161.68356093206967 76.987737257073377 0 0 0 0 4.1749918840448572 -3.0127028730565542 0 -3.0127028730565542 1.723480806611672 0 0 0 0 125.60812247930517 15.430172099921947 0 15.430172099921947 -5.4350724901905778 0 0 0 0 262.79847340426204 125.96941813192234 0 125.96941813192234 68.406508114416283 0 0 0 0 522.25268462069653 147.37456646787473 0 147.37456646787473 9.2400337825981751 0 0 0 0 210.09167637178325 47.144298594885868 0 47.144298594885868 -14.204104209889238 0 0 0 0 207.68987492653105 1.9706133805702848 0 1.9706133805702848 -49.930276847662299 0 0 0 0 463.69992471137084 -30.636571007290968 0 -30.636571007290968 216.55155605469605 0 0 0 0 17.045464966337022 -42.111236909099034 0 -42.111236909099034 216.37642441553589 0 0 0 0 2.2628157277576122 -1.2701367779586406 0 -1.2701367779586406 0.69387044397414854 0 0 0 0 408.52185273944224 -99.416938460972347 0 -99.416938460972347 131.12609843475002 0 0 0 0 403.63587904393853 -23.347467271598404 0 -23.347467271598404 247.01786489005008 0 0 0 0 243.79466764110111 177.74551047185128 0 177.74551047185128 68.812712800870941 0 0 0 0 246.67205552579253 186.83073019688186 0 186.83073019688186 90.661433357877286 0 0 0 0 335.73297923141217 114.94647373890393 0 114.94647373890393 -0.092885424362407321 0 0 0 0 1.3342394529618531 1.2096826745586213 0 1.2096826745586213 0.78106541236609672 0 0 0 0 -32.543436330801342 206.83283601961057 0 206.83283601961057 98.931482291961856 0 0 0 0 414.80346353301866 -85.633312611492784 0 -85.633312611492784 -46.342829422548675 0 0 0 0 611.7864538076501 -86.723997685906625 0 -86.723997685906625 61.929148825860466 0 0 0 0 470.79888746709912 -158.4280905525552 0 -158.4280905525552 34.820503993560351 0 0 0 0 3.0044491180746746 2.7399050330566865 0 2.7399050330566865 1.0049097873812904 0 0 0 0 431.11167346127331 -137.29893221062298 0 -137.29893221062298 4.0972454788852701 0 0 0 0 464.45417310521589 -74.199738447756317 0 -74.199738447756317 110.7276110527298 0 0 0 0 243.90672756089043 -99.696583155207009 0 -99.696583155207009 25.136351533988545 0 0 0 0 415.19090145619703 -256.66391573575493 0 -256.66391573575493 100.42811162814087 0 0 0 0 362.36093583575348 -119.95996835774633 0 -119.95996835774633 -4.7416283634238425 0 0 0 0 633.39319854533096 -156.91980256106194 0 -156.91980256106194 -70.696557479815965 0 0 0 0 151.08425764442654 137.37008885684872 0 137.37008885684872 5.4568353904758737 0 0 0 0 1.8644887975378879 1.2051219514048057 0 1.2051219514048057 0.46829799206036071 0 0 0 0 1261.9435219643346 167.57291062302443 0 167.57291062302443 -52.876990126451801 0 0 0 0 555.94053211056962 6.5420396055219072 0 6.5420396055219072 -20.605458608834851 0 0 0 0 422.78883914567996 130.03663145339704 0 130.03663145339704 -72.465559412143193 0 0 0 0 485.19937539248349 112.49928231329864 0 112.49928231329864 -136.04994953459391 0 0 0 0 448.5942619826601 100.45004381457511 0 100.45004381457511 -50.911518558826288 0 0 0 0 665.08410056979483 189.43135675046642 0 189.43135675046642 -103.81793641491095 0 0 0 0 218.22651673428845 1.1884676758763817 0 1.1884676758763817 -40.921486090494 0 0 0 0 2.2058726849218147 1.5270694780391807 0 1.5270694780391807 0.77828713623498302 0 0 0 0 659.43720060625492 -98.847501152024506 0 -98.847501152024506 -93.39594672489784 0 0 0 0 461.1652216180737 137.61060438824529 0 137.61060438824529 -107.2885956541395 0 0 0 0 75.822600304658408 168.32420468193459 0 168.32420468193459 -116.88056735492228 0 0 0 0 163.30663810081023 -37.189068076727381 0 -37.189068076727381 -67.214495696525773 0 0 0 0 47.19851627657772 -5.2197750826019274 0 -5.2197750826019274 -71.166572096652089 0 0 0 0 192.92881585814757 153.59164698863106 0 153.59164698863106 50.475380154924096 0 0 0 0 532.96000064502641 209.72950351495456 0 209.72950351495456 -15.2085506124331 0 0 0 0 294.30619543050125 58.147637452081653 0 58.147637452081653 -82.843236090772507 0 0 0 0 178.68303777748952 140.36776489109525 0 140.36776489109525 203.96957811989842 0 0 0 0 59.5493269990111 65.433489846986504 0 65.433489846986504 54.926332695701603 0 0 0 0 122.05911132041365 14.317111403529452 0 14.317111403529452 42.599029099970721 0 0 0 0 31.680205739467056 33.41130558959776 0 33.41130558959776 52.555476221499703 0 0 0 0 -3.8041756877573789 91.778820044601389 0 91.778820044601389 82.022248128436331 0 0 0 0 103.65187000544393 111.03011910010537 0 111.03011910010537 4.8246486199686842 0 0 0 0 -91.094214990967885 89.515670587897603 0 89.515670587897603 83.035115100454277 0 0 0 0 -20.102900819387287 24.765166284329098 0 24.765166284329098 58.737060148685487 0 0 0 0 -118.85726332038757 225.94018891171254 0 225.94018891171254 -55.273315502085779 0 0 0 0 -142.87845930855838 95.446415879914184 0 95.446415879914184 41.420297551273734 0 0 0 0 355.15856799142784 -137.5784598758687 0 -137.5784598758687 -14.567412362681353 0 0 0 0 1.7559970531278282 1.3087444403354311 0 1.3087444403354311 0.66318551566840966 0 0 0 0 389.24224587072968 -15.639370428208622 0 -15.639370428208622 -147.15966919658877 0 0 0 0 -43.045238545048051 54.825969359165356 0 54.825969359165356 166.51355035014876 0 0 0 0 1.7109117119400707 -1.5458911665400024 0 -1.5458911665400024 -5.3771165781385584 0 0 0 0 404.13393745067879 -66.247289968072437 0 -66.247289968072437 -39.18980683972768 0 0 0 0 223.23667400405975 44.65820662441547 0 44.65820662441547 -88.290387036448919 0 0 0 0 23.686545791118988 -42.027674597615714 0 -42.027674597615714 5.5882785117464664 0 0 0 0 33.585287823807448 108.15012584733995 0 108.15012584733995 -97.916550560851647 0 0 0 0 15.924163788571605 -9.7693981897573394 0 -9.7693981897573394 -36.329297024979951 0 0 0 0 132.74452214123448 82.809978846567901 0 82.809978846567901 -87.755455754042742 0 0 0 0 2.8940420250471419 -3.8334874706687287 0 -3.8334874706687287 -16.079219965593584 0 0 0 0 -54.852815729711438 124.14822611836507 0 124.14822611836507 54.309304095520019 0 0 0 0 40.843942834158412 25.122668973098257 0 25.122668973098257 -8.0677943125832599 0 0 0 0 71.595245674485341 2.967879824891952 0 2.967879824891952 -37.822762826026064 0 0 0 0 -62.087346446576703 26.19991528141702 0 26.19991528141702 -30.272189279294253 0 0 0 0 -37.625925260887016 -58.143898641452324 0 -58.143898641452324 9.9426348453114315 0 0 0 0 1.651668296223562 -1.5559085885301869 0 -1.5559085885301869 -1.8457601615203041 0 0 0 0 -47.545774011980029 -10.24837476269505 0 -10.24837476269505 75.445234269918728 0 0 0 0 -17.197032905020023 -111.76920776950635 0 -111.76920776950635 109.61578802664917 0 0 0 0 250.31381576946296 -15.635575799546814 0 -15.635575799546814 -56.475974133059026 0 0 0 0 49.087742040443118 3.1780388371284971 0 3.1780388371284971 -31.651730685170605 0 0 0 0 -1.6636110984371726 -0.09293162820584655 0 -0.09293162820584655 2.389815907235171 0 0 0 0 -57.86787796029239 79.746456862634659 0 79.746456862634659 137.42469008094304 0 0 0 0 0.13579149255144785 -1.1650067289577919 0 -1.1650067289577919 -8.835542454484651 0 0 0 0 -4.4906930568395182 41.896875604870047 0 41.896875604870047 5.4888371845891015 0 0 0 0 49.962310013594106 -64.127038428467699 0 -64.127038428467699 38.872952058571173 0 0 0 0 241.38034461982897 -188.86670131338542 0 -188.86670131338542 46.012087029614122 0 0 0 0 150.26981164827885 -48.851883513353187 0 -48.851883513353187 -31.244368416349062 0 0 0 0 147.89330893798615 -158.72380011317682 0 -158.72380011317682 55.080662829565881 0 0 0 0 14.046996717953675 8.5579149752130377 0 8.5579149752130377 4.3780810577790348 0 0 0 0 276.83697781398951 -249.63472622067366 0 -249.63472622067366 95.373132197491941 0 0 0 0 351.52354500426736 -187.68220903625388 0 -187.68220903625388 52.797346177357213 0 0 0 0 225.3446449674957 -160.64676954222296 0 -160.64676954222296 24.713664489590883 0 0 0 0 217.71816281069187 -198.23019083197687 0 -198.23019083197687 71.89878083950407 0 0 0 0 154.21140965288214 -118.82231893898916 0 -118.82231893898916 50.839907096337811 0 0 0 0 177.56555466301143 -42.217472779201785 0 -42.217472779201785 -79.573105143263092 0 0 0 0 236.80001173024539 -76.349353380254342 0 -76.349353380254342 57.677204735216947 0 0 0 0 304.496240224762 -150.99082569864322 0 -150.99082569864322 -68.589966300158494 0 0 0 0 0.60238026658328181 -0.068722477146195615 0 -0.068722477146195615 -3.1328872035384521 0 0 0 0 -50.077089912680094 45.406728605022863 0 45.406728605022863 50.221743393662109 0 0 0 0 224.3916094933229 -73.72182133866454 0 -73.72182133866454 -152.12819702178808 0 0 0 0 4.0269010321852647 2.9680203356258517 0 2.9680203356258517 1.1519758120561256 0 0 0 0 142.83831921461024 -84.770016633491537 0 -84.770016633491537 -8.1771299639767676 0 0 0 0 75.701652719479171 100.40441950468175 0 100.40441950468175 -117.12670994156679 0 0 0 0 230.65653636680508 -12.339561832630352 0 -12.339561832630352 3.3583653541872991 0 0 0 0 221.00099108413997 10.386433947738169 0 10.386433947738169 -46.546794189333013 0 0 0 0 43.146749043022282 4.4911785324738958 0 4.4911785324738958 -6.3329406375878534 0 0 0 0 52.111268438515253 -8.3426457523505064 0 -8.3426457523505064 10.710299127305234 0 0 0 0 64.540177123184549 -3.2895832315055031 0 -3.2895832315055031 -0.8462033747976534 0 0 0 0 61.83620201870508 -3.1450789867931235 0 -3.1450789867931235 9.0363484540050649 0 0 0 0 32.168994184231963 14.868198208650853 0 14.868198208650853 -3.1031119728704151 0 0 0 0 490.9942452917312 -105.60397486347415 0 -105.60397486347415 -106.28376405639347 0 0 0 0 35.817651822457549 14.737992965014598 0 14.737992965014598 -8.2143755661928921 0 0 0 0 44.337646302425128 146.11473857732278 0 146.11473857732278 -181.31650603295589 0 0 0 0 53.88101745750464 11.854186707191275 0 11.854186707191275 -27.243608312133802 0 0 0 0 15.443752847723545 -3.6531240869465336 0 -3.6531240869465336 -9.0118663126415797 0 0 0 0 33.052869445818942 24.878610366803514 0 24.878610366803514 -18.669562666232196 0 0 0 0 34.37217324760968 40.947114974090425 0 40.947114974090425 -16.268980200147706 0 0 0 0 158.44361850245514 -221.74998103653689 0 -221.74998103653689 47.300698324085261 0 0 0 0 360.03458439654787 16.012647516453853 0 16.012647516453853 -0.03717995087026793 0 0 0 0 6.4173482766099141 3.2151899351929387 0 3.2151899351929387 2.6985781733640799 0 0 0 0 191.24203554726409 62.783000330318828 0 62.783000330318828 -39.602349201502875 0 0 0 0 238.30982722825138 -214.90137453902071 0 -214.90137453902071 37.731088869404175 0 0 0 0 179.04578672206844 55.841596527010097 0 55.841596527010097 -13.905133268835016 0 0 0 0 277.52437389575061 -190.40474253247567 0 -190.40474253247567 283.75207879011123 0 0 0 0 436.1938583960582 -134.55176521712326 0 -134.55176521712326 40.517135323914772 0 0 0 0 285.553497866822 -117.51934914971275 0 -117.51934914971275 31.713658249647779 0 0 0 0 314.61058500570653 -40.874492685266432 0 -40.874492685266432 38.496113805835193 0 0 0 0 247.94056183015346 -92.641328999969119 0 -92.641328999969119 46.057019493544544 0 0 0 0 114.48305516198161 -8.295326677774483 0 -8.295326677774483 39.251643478808475 0 0 0 0 142.38145823888772 -131.01911882559079 0 -131.01911882559079 59.712169490078395 0 0 0 0 52.683474025601328 20.089637662790665 0 20.089637662790665 -11.104964364165397 0 0 0 0 -148.72196917522524 72.14302187258636 0 72.14302187258636 -84.209480295509252 0 0 0 0 69.02531054749852 33.747471117753093 0 33.747471117753093 -46.660989818286907 0 0 0 0 204.03461828160653 -199.10093199751032 0 -199.10093199751032 129.24691297519712 0 0 0 0 77.511694052867824 -0.86396047027278655 0 -0.86396047027278655 -4.400533211619404 0 0 0 0 61.37790646088979 19.737423820446338 0 19.737423820446338 -30.307361965953532 0 0 0 0 44.421945451205829 109.50378735315462 0 109.50378735315462 -93.585164830055874 0 0 0 0 260.73602360216319 65.308897159516164 0 65.308897159516164 -6.4671764982282411 0 0 0 0 -23.198482460109517 65.682746066119762 0 65.682746066119762 -66.532195684114413 0 0 0 0 53.354548070548901 16.644855205242322 0 16.644855205242322 -16.074762688923865 0 0 0 0 191.59462830948178 71.278265081540667 0 71.278265081540667 13.655048989106945 0 0 0 0 82.274331139546121 -10.335679960410744 0 -10.335679960410744 -7.3316346449610137 0 0 0 0 22.790238728369815 16.461236655259427 0 16.461236655259427 7.8540154569163043 0 0 0 0 84.399581331908848 -3.8774515771516178 0 -3.8774515771516178 -9.0248090538320866 0 0 0 0 60.995125603680208 -20.761563702816943 0 -20.761563702816943 -18.232189968683315 0 0 0 0 83.48668733669183 -7.8592290920082633 0 -7.8592290920082633 -9.7692027859798145 0 0 0 0 84.749560354233836 -3.0025826431678979 0 -3.0025826431678979 -30.056527275302869 0 0 0 0 78.387298727800953 -15.65351336714798 0 -15.65351336714798 -19.070487141146259 0 0 0 0 57.024350362378755 -21.385065825998026 0 -21.385065825998026 3.5322160978107604 0 0 0 0 57.186854016836151 -20.927006897458568 0 -20.927006897458568 -11.823314542794321 0 0 0 0 59.886936886249828 -16.393807359386557 0 -16.393807359386557 -1.0563328926934918 0 0 0 0 87.557347471763933 -37.044520307272933 0 -37.044520307272933 -22.807257831839706 0 0 0 0 88.03740105961333 -39.667893075191614 0 -39.667893075191614 -8.4719905516383278 0 0 0 0 91.373939787546988 -16.611195694000799 0 -16.611195694000799 -30.092648684739288 0 0 0 0 100.17403389664833 -9.0767737448168191 0 -9.0767737448168191 -30.207942530097135 0 0 0 0 111.68067579029594 -30.097168636626975 0 -30.097168636626975 -29.184363386740216 0 0 0 0 155.50314236333361 -37.89634026245858 0 -37.89634026245858 -46.064113786922462 0 0 0 0 105.89696079285932 -17.414113356490475 0 -17.414113356490475 -50.469691787976444 0 0 0 0 113.86820270071621 -10.913939845569985 0 -10.913939845569985 -45.392288774840836 0 0 0 0 92.657251821045065 2.7099789488333954 0 2.7099789488333954 -48.357146864026618 0 0 0 0 91.392107588791987 6.018356230252266 0 6.018356230252266 -36.109424215178251 0 0 0 0 76.382417537737638 18.454087355297361 0 18.454087355297361 -49.469434083297074 0 0 0 0 78.000189967162441 22.648282375895178 0 22.648282375895178 -56.928294712274692 0 0 0 0 21.719270959001733 44.701393110540948 0 44.701393110540948 -51.357519258801858 0 0 0 0 77.843881298686028 24.318710857424549 0 24.318710857424549 -50.84432905860649 0 0 0 0 76.453828871715814 17.865394715138905 0 17.865394715138905 -55.64151625111117 0 0 0 0 101.12506221204239 7.3028886365480048 0 7.3028886365480048 -53.445207424486853 0 0 0 0 119.97029533389286 46.255610430473098 0 46.255610430473098 -76.614164765485839 0 0 0 0 108.29704627711908 16.634205007135904 0 16.634205007135904 -67.130079736978587 0 0 0 0 200.44104964856888 -22.976062619369259 0 -22.976062619369259 -50.123256153332477 0 0 0 0 151.64821206746637 86.851394332984512 0 86.851394332984512 -30.439136890625377 0 0 0 0 243.06416603177786 -21.996659438731058 0 -21.996659438731058 -14.241203259163342 0 0 0 0 151.76764394051861 -28.844652426017092 0 -28.844652426017092 -14.645752176184175 0 0 0 0 131.12279820682306 8.9107174616233351 0 8.9107174616233351 -62.274880787275833 0 0 0 0 110.54008870365215 -47.24392114106422 0 -47.24392114106422 -19.749835145451016 0 0 0 0 175.26403010977083 -64.420011818246962 0 -64.420011818246962 -21.530613566261763 0 0 0 0 111.9002212924388 -47.25028095697985 0 -47.25028095697985 -25.337765410822158 0 0 0 0 88.013677433176781 -69.213458413245007 0 -69.213458413245007 10.175448746736038 0 0 0 0 187.72997351241065 -104.47706206004614 0 -104.47706206004614 22.224870771969336 0 0 0 0 -2.7182536311302101 -47.703974911579508 0 -47.703974911579508 29.946039357566406 0 0 0 0 90.257847409520764 -51.215584025475437 0 -51.215584025475437 -2.3944611032745797 0 0 0 0 80.542796980327694 -53.997826735813987 0 -53.997826735813987 -0.86965936824481105 0 0 0 0 210.96188844639983 -80.203997331023857 0 -80.203997331023857 344.01458118821836 0 0 0 0 421.08939482763526 -64.310269767758655 0 -64.310269767758655 357.25326154641107 0 0 0 0 153.08164640593168 150.37601034557792 0 150.37601034557792 282.49575476180917 0 0 0 0 417.64754280079069 26.299327542897572 0 26.299327542897572 -60.732771152530404 0 0 0 0 214.17106104122649 -54.683585933381892 0 -54.683585933381892 -68.861602799301181 0 0 0 0 444.53786895328813 -342.72291502705093 0 -342.72291502705093 6.329082575672146 0 0 0 0 298.06978153547971 -46.50628790250812 0 -46.50628790250812 -144.79947036046815 0 0 0 0 340.49309271729726 -471.22385422716457 0 -471.22385422716457 252.01081500189866 0 0 0 0 176.76940835448477 -170.73792358914602 0 -170.73792358914602 337.41442066987656 0 0 0 0 338.25816871220013 -89.299138120601128 0 -89.299138120601128 52.14776975298355 0 0 0 0 -138.2590997597581 164.63221690473529 0 164.63221690473529 -130.81106631036278 0 0 0 0 57.956233153281403 22.578816886463045 0 22.578816886463045 -9.7886433252788336 0 0 0 0 -34.061807155201677 157.46400857863409 0 157.46400857863409 -134.93496308910107 0 0 0 0 63.700287893821951 56.389295866720204 0 56.389295866720204 -94.520441707084956 0 0 0 0 40.872953767739091 99.120406837963628 0 99.120406837963628 -83.416254317968196 0 0 0 0 66.220972471041023 72.238555524342928 0 72.238555524342928 -54.257646334958736 0 0 0 0 4.5982801569038827 2.3478006636640885 0 2.3478006636640885 0.96891015549428161 0 0 0 0 -199.73964441788848 87.519105770462374 0 87.519105770462374 -187.41663946944936 0 0 0 0 -6.932216294344471 115.7269923693911 0 115.7269923693911 -18.287939749747238 0 0 0 0 53.280665582400445 28.29717326228652 0 28.29717326228652 -7.8681222569925797 0 0 0 0 -20.443858212809573 61.003374622408614 0 61.003374622408614 -42.485105347791432 0 0 0 0 262.82970776779985 371.97015895372169 0 371.97015895372169 -63.45428133708765 0 0 0 0 78.906454352807486 40.631487495484635 0 40.631487495484635 -51.084698407386838 0 0 0 0 70.234932645777008 106.98440164331851 0 106.98440164331851 -23.80802532428379 0 0 0 0 77.29728880233597 130.0279660997528 0 130.0279660997528 38.109105400450062 0 0 0 0 114.19419038729393 61.287389760568203 0 61.287389760568203 -6.3297319312223408 0 0 0 0 5.8999870250263484 85.146344168077121 0 85.146344168077121 16.13839652491356 0 0 0 0 7.1620334926992655 86.079408956077884 0 86.079408956077884 -25.872699015033504 0 0 0 0 129.26112536209985 133.95225703402593 0 133.95225703402593 27.657598251794298 0 0 0 0 -36.572177115313366 35.05861260926784 0 35.05861260926784 -6.2380035277602701 0 0 0 0 22.844570583300083 50.61877856994397 0 50.61877856994397 81.03349880077667 0 0 0 0 368.76576024267706 70.231406799697652 0 70.231406799697652 39.060857186387693 0 0 0 0 87.854795787105104 63.140078447094311 0 63.140078447094311 61.870381059420197 0 0 0 0 41.971215541081619 182.41388934140923 0 182.41388934140923 172.6642422596924 0 0 0 0 11.372216612570867 0.66309975222407047 0 0.66309975222407047 -0.55242699060672606 0 0 0 0 -223.97214176255511 -207.87060096833284 0 -207.87060096833284 388.93238547591864 0 0 0 0 -9.467973610164961 4.1611946536807665 0 4.1611946536807665 2.7543219129602505 0 0 0 0 427.69380834953336 125.62096033868511 0 125.62096033868511 27.006264130902309 0 0 0 0 435.98834620843991 -54.201137970033415 0 -54.201137970033415 72.003964349379203 0 0 0 0 633.46019339178747 35.893191241455952 0 35.893191241455952 39.388928628989561 0 0 0 0 556.88715082491399 -115.03801732355532 0 -115.03801732355532 227.4526955415522 0 0 0 0 517.36510934571561 54.797647794749537 0 54.797647794749537 77.090398143432139 0 0 0 0 300.29523643871653 0.19376843142254074 0 0.19376843142254074 63.833112665064618 0 0 0 0 393.94164813193493 -0.79198169119536033 0 -0.79198169119536033 1.3179932822413321 0 0 0 0 302.17671871097991 -26.921352168352314 0 -26.921352168352314 22.490938114315213 0 0 0 0 104.96647002614918 53.95198731364917 0 53.95198731364917 21.557089886451649 0 0 0 0 206.18837189466285 124.02172749720739 0 124.02172749720739 -245.37882383437 0 0 0 0 64.140235921542512 18.155988565089999 0 18.155988565089999 3.687141719678479 0 0 0 0 119.14370547683211 -15.323265386503408 0 -15.323265386503408 -126.75957511782053 0 0 0 0 14.517549984222569 110.292344433582 0 110.292344433582 28.86898264253341 0 0 0 0 55.569522539772152 134.57564775470871 0 134.57564775470871 -65.258609024293037 0 0 0 0 -35.395563104661079 33.792560105714472 0 33.792560105714472 -2.8949794634141668 0 0 0 0 60.968067356501706 147.78669446466165 0 147.78669446466165 189.99486406653705 0 0 0 0 -0.20778281036882618 5.5295787840540527 0 5.5295787840540527 0.31579728667160456 0 0 0 0 -10.755967052275082 21.67737115912314 0 21.67737115912314 60.076934712858076 0 0 0 0 -90.067367778312473 -479.32457071640897 0 -479.32457071640897 -626.11834050573816 0 0 0 0 13.477974048016279 3.1787375207078412 0 3.1787375207078412 -4.1546113144256296 0 0 0 0 288.82262426749367 -81.19257500508661 0 -81.19257500508661 31.526655814605874 0 0 0 0 75.154341269439556 22.596750942077094 0 22.596750942077094 0.85767077179085938 0 0 0 0 272.31728917712462 84.313207997580776 0 84.313207997580776 -822.3485309953121 0 0 0 0 -99.684111473048688 -443.18980759213559 0 -443.18980759213559 -169.12818696736645 0 0 0 0 25.777495548860315 117.06795718557117 0 117.06795718557117 558.61744331058708 0 0 0 0 745.09130041075696 48.819987792426673 0 48.819987792426673 -516.394273179425 0 0 0 0 -66.447262953108293 -169.73504536063751 0 -169.73504536063751 664.70316525868611 0 0 0 0 631.97621071638423 140.82700486760268 0 140.82700486760268 177.33199558159458 0 0 0 0 517.0027106920752 -117.75415820967783 0 -117.75415820967783 478.99533105250975 0 0 0 0 212.37296652147779 162.67342692584509 0 162.67342692584509 338.79191516730134 0 0 0 0 88.364873050988535 73.632628454005044 0 73.632628454005044 578.46917056593816 0 0 0 0 -20.896127401785634 170.73322787657207 0 170.73322787657207 871.66855186606404 0 0 0 0 353.01997118521831 789.07779293143051 0 789.07779293143051 1894.2210049350751 0 0 0 0 1637.7743335719424 442.64293367752498 0 442.64293367752498 444.46719178596959 0 0 0 0 1440.8432647243353 -429.84027678850788 0 -429.84027678850788 418.72933095867711 0 0 0 0 1681.4843381598548 -564.64417404725873 0 -564.64417404725873 -990.78698337192509 0 0 0 0 1147.4190541944408 545.40066444132572 0 545.40066444132572 -1910.4027781268933 0 0 0 0 -217.39802319022783 261.58252365171967 0 261.58252365171967 -105.61462353870593 0 0 0 0 387.71851409404189 -895.1787386226033 0 -895.1787386226033 1207.0970903855512 0 0 0 0 -0.22319047301564865 1.0285375887872306 0 1.0285375887872306 -6.0856977247647883 0 0 0 0 -72.476002503026393 7.770685009421868 0 7.770685009421868 48.419329737525231 0 0 0 0 91.045089751220075 -57.878369909994035 0 -57.878369909994035 1.3497000845945877 0 0 0 0 89.760305260304449 -48.714245293867748 0 -48.714245293867748 85.179686666516318 0 0 0 0 95.44021666302433 -67.932226550786936 0 -67.932226550786936 -9.7995936524766876 0 0 0 0 100.36567614040541 -44.317508546514887 0 -44.317508546514887 88.360541609360553 0 0 0 0 260.26619855695753 -38.787277061613167 0 -38.787277061613167 19.322581480228109 0 0 0 0 279.75017875843696 65.568005131204586 0 65.568005131204586 181.89608828592827 0 0 0 0 353.62978887071949 157.00638595367695 0 157.00638595367695 19.593668630180218 0 0 0 0 348.53692611622682 -107.57072876350253 0 -107.57072876350253 53.856222520391384 0 0 0 0 423.54837953095557 78.909624636535227 0 78.909624636535227 -49.014947848954762 0 0 0 0 0.58638011503151688 -1.5230641576108042 0 -1.5230641576108042 0.13565570696684404 0 0 0 0 687.42106216729735 126.76836233618769 0 126.76836233618769 -42.559142770539211 0 0 0 0 -1001.4217197925609 -876.64752691736703 0 -876.64752691736703 358.74207056735304 0 0 0 0 5.4157585726942443 -5.8837849258499091 0 -5.8837849258499091 6.8775860056276201 0 0 0 0 18.691261938394746 58.231283952843569 0 58.231283952843569 -68.387105194584365 0 0 0 0 -103.34520879409683 -297.67925283850991 0 -297.67925283850991 14.782780213819933 0 0 0 0 34.269228438293794 -26.718290936256381 0 -26.718290936256381 90.391103541553321 0 0 0 0 145.47577786908369 44.403344314058359 0 44.403344314058359 46.307802273443031 0 0 0 0 378.88217726887524 -182.73499649146743 0 -182.73499649146743 56.310103195966803 0 0 0 0 -69.181068870952004 26.694102930153122 0 26.694102930153122 41.244661337839716 0 0 0 0 136.43319662770955 16.722873391937696 0 16.722873391937696 -38.298517241580157 0 0 0 0 128.65495140099665 41.49006760246084 0 41.49006760246084 -62.877604342499581 0 0 0 0 89.437831095288857 20.47379781951804 0 20.47379781951804 -64.978046624632725 0 0 0 0 15.521903161661044 7.4840970990239271 0 7.4840970990239271 -18.327473912314957 0 0 0 0 6.1489842889728976 -2.1729397646913924 0 -2.1729397646913924 -9.1627406816516324 0 0 0 0 66.090500151876768 -15.498711404344022 0 -15.498711404344022 -14.863280691705768 0 0 0 0 541.43469573184848 -247.30955589829279 0 -247.30955589829279 -22.591601869376255 0 0 0 0 13.669137594857602 42.400971380050919 0 42.400971380050919 157.7146768563058 0 0 0 0 237.96947899579754 -37.774932808315128 0 -37.774932808315128 -56.087723315874882 0 0 0 0 33.837158268754138 42.00416535184695 0 42.00416535184695 -59.519439690353465 0 0 0 0 7.5845804590134946 0.8380948479905328 0 0.8380948479905328 -10.568036632790756 0 0 0 0 47.976287542638602 -13.065268468734303 0 -13.065268468734303 -16.359189241789863 0 0 0 0 11.789458902701568 5.7751255620355835 0 5.7751255620355835 -16.149087700523051 0 0 0 0 16.562904702208471 2.4484901063530629 0 2.4484901063530629 5.2026538470418018 0 0 0 0 10.53052678007225 -47.702518954863081 0 -47.702518954863081 -45.233240968482278 0 0 0 0 14.467140208913236 -17.393270512045802 0 -17.393270512045802 16.820350079094212 0 0 0 0 13.615368098847568 -2.9721293427168689 0 -2.9721293427168689 -15.003481266195271 0 0 0 0 187.79120221870835 186.51814032724775 0 186.51814032724775 -19.640702131664625 0 0 0 0 70.840547442538082 -44.376126887930695 0 -44.376126887930695 -139.26289697272296 0 0 0 0 81.200840143632377 13.988100778459739 0 13.988100778459739 -51.441223338146756 0 0 0 0 15.559642950363923 -90.768545063450262 0 -90.768545063450262 -90.92311711741786 0 0 0 0 389.00011202776659 328.42478036383761 0 328.42478036383761 120.28740207886858 0 0 0 0 300.71694210454007 77.986352670489111 0 77.986352670489111 88.441423221016294 0 0 0 0 344.27104522197624 -20.141739153358571 0 -20.141739153358571 85.787044807852681 0 0 0 0 743.32378525056993 109.55556506717956 0 109.55556506717956 17.295842970051154 0 0 0 0 646.76462386979256 279.80462845864213 0 279.80462845864213 111.46891893925556 0 0 0 0 1290.2741287486569 438.34813248394613 0 438.34813248394613 37.367579308854545 0 0 0 0 411.21893695296603 -98.401360180874875 0 -98.401360180874875 143.54219530720087 0 0 0 0 962.33211317761015 -62.522616550297194 0 -62.522616550297194 9.2132392668607963 0 0 0 0 269.65298716101097 324.31675783104617 0 324.31675783104617 592.07356894523389 0 0 0 0 1025.6138719370738 566.84306879545397 0 566.84306879545397 146.94053026155791 0 0 0 0 205.99236752319848 186.58897735822984 0 186.58897735822984 280.97489540361022 0 0 0 0 533.46551865983929 282.87596709997797 0 282.87596709997797 -0.12150964089671534 0 0 0 0 93.562996099057273 -54.642514442595953 0 -54.642514442595953 48.413596429562858 0 0 0 0 10.438348699636208 -7.1364016552276439 0 -7.1364016552276439 2.2170665262893694 0 0 0 0 69.971645270859881 139.0838178530783 0 139.0838178530783 97.8989812424756 0 0 0 0 252.14569560572272 64.422557590194856 0 64.422557590194856 46.045492152478261 0 0 0 0 5.1002875698101775 -5.1388934897902629 0 -5.1388934897902629 2.7606696156227803 0 0 0 0 26.477178260218352 -8.9492751741397569 0 -8.9492751741397569 -6.9453524217878453 0 0 0 0 127.32439495682775 -97.86145240736532 0 -97.86145240736532 101.37317245100482 0 0 0 0 3.2101421524022129 4.0355966879012044 0 4.0355966879012044 -5.0248869301660148 0 0 0 0 355.21294079525978 -106.17354601822169 0 -106.17354601822169 0.11579144395439935 0 0 0 0 175.49494263141241 -148.2789711527451 0 -148.2789711527451 132.5888877617472 0 0 0 0 274.52512090792879 157.45905294063564 0 157.45905294063564 24.264325932738998 0 0 0 0 2.3596870825694793 -0.30521066252649121 0 -0.30521066252649121 0.64617122607416777 0 0 0 0 280.7653097207658 -188.3479920777703 0 -188.3479920777703 13.749922627190813 0 0 0 0 2.0760763120923684 0.25735465070761165 0 0.25735465070761165 -0.41089623377008599 0 0 0 0 565.94817798378062 -161.96365067084534 0 -161.96365067084534 6.2561058700617567 0 0 0 0 703.12302595507936 -293.77972222585925 0 -293.77972222585925 64.984197090862594 0 0 0 0 478.34437553747557 -175.45338013171022 0 -175.45338013171022 73.431357886700468 0 0 0 0 520.09031064351439 -134.24489983389691 0 -134.24489983389691 -12.981888358627501 0 0 0 0 238.84483557661588 362.38975529913063 0 362.38975529913063 184.45692353154038 0 0 0 0 184.36289060325362 381.42195591160868 0 381.42195591160868 178.304956559517 0 0 0 0 329.69021888953284 331.72430252511617 0 331.72430252511617 -292.83176863460085 0 0 0 0 107.04234858782729 74.54277490913114 0 74.54277490913114 -122.82519470664352 0 0 0 0 -17.600793813180644 368.35927318033976 0 368.35927318033976 -276.03767580601584 0 0 0 0 -350.1654422544525 156.83955618558898 0 156.83955618558898 -117.82997358053262 0 0 0 0 1.9326255845080595 257.63243371571616 0 257.63243371571616 132.48157595497082 0 0 0 0 -215.49821159863495 -297.62974671009675 0 -297.62974671009675 -388.22469829103693 0 0 0 0 423.42113517125836 60.975206658217871 0 60.975206658217871 -382.84856521551205 0 0 0 0 541.11301495294902 148.6867332074587 0 148.6867332074587 149.53468955492519 0 0 0 0 530.38043489886695 -552.77703415823532 0 -552.77703415823532 420.54805106790559 0 0 0 0 618.45913780143746 345.243320774209 0 345.243320774209 459.05131910861974 0 0 0 0 233.37853242627898 626.29188217856063 0 626.29188217856063 667.742566539873 0 0 0 0 431.45089712804474 332.78133586215273 0 332.78133586215273 421.76960637972326 0 0 0 0 435.88813822077645 372.45291655782432 0 372.45291655782432 81.114835332774646 0 0 0 0 454.83692601826624 348.91409480206698 0 348.91409480206698 110.35554300771469 0 0 0 0 662.20463088151882 501.62982642570802 0 501.62982642570802 144.02695251743421 0 0 0 0 627.34682651686308 221.30591863444221 0 221.30591863444221 16.902732528857285 0 0 0 0 175.47692552763328 134.82804785740313 0 134.82804785740313 -242.63851987098633 0 0 0 0 228.29705562710296 521.54512958010969 0 521.54512958010969 252.15242751448864 0 0 0 0 104.61472707883513 235.92341526184487 0 235.92341526184487 241.7812217546192 0 0 0 0 313.26708925563435 489.60588380561649 0 489.60588380561649 473.37196999744947 0 0 0 0 11.368670414474536 1.1290649967020343 0 1.1290649967020343 -0.44840570616239711 0 0 0 0 690.78606631365255 835.59065128636087 0 835.59065128636087 713.04255511029839 0 0 0 0 446.36389729692019 -118.82964976603996 0 -118.82964976603996 -439.7994749307245 0 0 0 0 1063.7512664804663 150.27863750893732 0 150.27863750893732 -337.74842499975716 0 0 0 0 338.69116753416893 133.47274072274169 0 133.47274072274169 -0.19706819557185001 0 0 0 0 -117.42730180504941 136.84956033208439 0 136.84956033208439 -61.319350531732496 0 0 0 0 -123.8348665451922 -58.033198492583821 0 -58.033198492583821 -50.042656719287798 0 0 0 0 -4.519404409074923 53.589190761149588 0 53.589190761149588 -0.0017592297154426298 0 0 0 0 141.35531500051729 56.802614317649983 0 56.802614317649983 -74.336212680507614 0 0 0 0 82.328464287769748 20.252776051070786 0 20.252776051070786 -62.028589685310912 0 0 0 0 276.72959439252736 218.70824650103293 0 218.70824650103293 -428.92126700251549 0 0 0 0 137.02071169411647 -125.94516293268566 0 -125.94516293268566 -306.06393186784607 0 0 0 0 27.945722363804691 0.1374644332508197 0 0.1374644332508197 -1.5998657492006461 0 0 0 0 38.219916130998172 103.73381921104477 0 103.73381921104477 -218.7812802698146 0 0 0 0 194.16479853735655 71.410444887669328 0 71.410444887669328 -75.691156525757904 0 0 0 0 50.202575392533618 266.94611544898248 0 266.94611544898248 -167.30470370415236 0 0 0 0 79.545358052186202 -456.27829983380906 0 -456.27829983380906 425.66339077932446 0 0 0 0 223.99228394386591 -42.628680095683578 0 -42.628680095683578 -44.346148818628208 0 0 0 0 112.93981828019605 6.2868470344764908 0 6.2868470344764908 -32.208800203393373 0 0 0 0 109.11936174989387 -7.8586668831432069 0 -7.8586668831432069 -0.047172118524046146 0 0 0 0 -1.8899506114830729 -18.841329481616132 0 -18.841329481616132 24.533986432440511 0 0 0 0 10.863158111142752 1.0647461283910289 0 1.0647461283910289 -0.68466015871544672 0 0 0 0 494.07080978248268 243.27422100460996 0 243.27422100460996 -581.1436379409688 0 0 0 0 2.7722857361177375 12.801988714413563 0 12.801988714413563 -5.9189908868514847 0 0 0 0 340.82701953765354 -118.43383023019447 0 -118.43383023019447 -409.42614696765139 0 0 0 0 -208.28578331293829 -170.47053976566269 0 -170.47053976566269 144.58863938106333 0 0 0 0 252.75987434838316 152.4063691761562 0 152.4063691761562 358.05110029035632 0 0 0 0 119.21180992190784 -55.92631437953483 0 -55.92631437953483 35.758870665900417 0 0 0 0 4.8592686283540729 1.5089830858180378 0 1.5089830858180378 0.19753751767074679 0 0 0 0 -93.807514472806361 256.89191814065526 0 256.89191814065526 -162.05519517516635 0 0 0 0 -127.91710692364722 251.22450349569783 0 251.22450349569783 -154.92722189690789 0 0 0 0 29.448528821238824 -2.0949993822172104 0 -2.0949993822172104 -1.2871202990873494 0 0 0 0 -88.159880645282101 250.63482657807754 0 250.63482657807754 -168.43175571963704 0 0 0 0 6.2156086911071498 -0.95097517209331528 0 -0.95097517209331528 -0.012558673277279164 0 0 0 0 195.01198370987549 -655.54645997705802 0 -655.54645997705802 527.10946308752227 0 0 0 0 6.1504363357371403 1.3337097054072182 0 1.3337097054072182 -0.011578891273443399 0 0 0 0 398.91520213964395 -805.17233948084538 0 -805.17233948084538 587.79425313269724 0 0 0 0 6.1521813455619849 1.3471416439874762 0 1.3471416439874762 0.021620672285797699 0 0 0 0 -1.9605714024801273 257.17015194816679 0 257.17015194816679 -68.190598809067978 0 0 0 0 -69.575112792894288 -441.63816505905754 0 -441.63816505905754 390.80110292128961 0 0 0 0 391.69188480632147 108.82926960445076 0 108.82926960445076 10.123533050879473 0 0 0 0 991.91703451503417 -82.363742000126422 0 -82.363742000126422 -110.59270058176855 0 0 0 0 1108.5838226339547 13.221516704424346 0 13.221516704424346 11.6433510550617 0 0 0 0 335.36218220318551 -622.32556878046614 0 -622.32556878046614 313.70772178343765 0 0 0 0 404.91313165854081 -657.20110768967959 0 -657.20110768967959 252.2231222811622 0 0 0 0 417.71769086096901 -631.89453507874646 0 -631.89453507874646 274.50161151776479 0 0 0 0 413.00223600215395 -565.60124848021417 0 -565.60124848021417 335.0688471456661 0 0 0 0 450.02406180874095 -618.6956573746146 0 -618.6956573746146 248.48722231142528 0 0 0 0 603.61419713945361 -759.3369935286388 0 -759.3369935286388 289.11735099452625 0 0 0 0 200.47269254696585 -57.534121408979999 0 -57.534121408979999 223.07889047212365 0 0 0 0 54.524792117902507 10.828523629860143 0 10.828523629860143 1.6036489594689789 0 0 0 0 -55.615036017923558 -280.31202974949662 0 -280.31202974949662 1566.0947268608663 0 0 0 0 992.91876272606896 -663.69874205806218 0 -663.69874205806218 745.84940986356378 0 0 0 0 1278.7066380510514 -1172.9844407952712 0 -1172.9844407952712 753.315013987008 0 0 0 0 20.013333500756858 3.150470254412987 0 3.150470254412987 1.315826548683833 0 0 0 0 -97.250055189862906 113.90241096698428 0 113.90241096698428 -85.798634728690629 0 0 0 0 815.70968509980594 -1314.2553938047288 0 -1314.2553938047288 1016.9613321251862 0 0 0 0 84.510553680418525 127.24774983796874 0 127.24774983796874 -459.87554541149007 0 0 0 0 -44.885471976012923 186.08295767128374 0 186.08295767128374 -378.28333250668334 0 0 0 0 496.77352252141281 -170.70638761328826 0 -170.70638761328826 -1188.1973198871049 0 0 0 0 156.10582015357795 -185.04700167840389 0 -185.04700167840389 373.13595182935899 0 0 0 0 171.20635558922368 524.13415497355356 0 524.13415497355356 -604.29076189013927 0 0 0 0 956.21655652963091 -1101.9862978451613 0 -1101.9862978451613 429.39102071647062 0 0 0 0 12.230453034621803 -2.7898740909508817 0 -2.7898740909508817 0.79475365694758471 0 0 0 0 -638.39159377193573 -534.59832600523782 0 -534.59832600523782 549.98988533086674 0 0 0 0 313.93729360273574 -1252.0646743550924 0 -1252.0646743550924 795.54568233176678 0 0 0 0 330.5341284336173 503.4884654875691 0 503.4884654875691 -295.02841904135641 0 0 0 0 1533.1912623253011 -628.25083149847364 0 -628.25083149847364 446.84427099385044 0 0 0 0 -21.737183666060446 -609.53615892996822 0 -609.53615892996822 1449.3732057856535 0 0 0 0 141.77758682682179 -297.66172559630223 0 -297.66172559630223 318.83534317783563 0 0 0 0 -211.44194722990505 1583.3647964578529 0 1583.3647964578529 1026.8686971103646 0 0 0 0 750.36483319461695 -978.36561114795461 0 -978.36561114795461 -3.2848268515419932 0 0 0 0 29.139449642432169 7.0821518024150016 0 7.0821518024150016 1.0789474644917931 0 0 0 0 24.756661199650637 11.284560495285731 0 11.284560495285731 4.2927821123577914 0 0 0 0 -72.18211253699701 1651.6514024313196 0 1651.6514024313196 932.51361479937259 0 0 0 0 -169.87144202654599 1541.1749055089472 0 1541.1749055089472 875.94703720951475 0 0 0 0 1675.5138523537607 -216.74374887859949 0 -216.74374887859949 -6.2423554670867816 0 0 0 0 -464.43278630363056 1450.9703421472234 0 1450.9703421472234 961.72944016584484 0 0 0 0 1762.2594162096211 1107.7478131328708 0 1107.7478131328708 750.77804834138351 0 0 0 0 2207.4822469144856 -1389.2223111293063 0 -1389.2223111293063 -326.27150241696472 0 0 0 0 746.24946988677766 628.72370347435185 0 628.72370347435185 -869.33227406597575 0 0 0 0 61.845287436572278 8.8886662668089009 0 8.8886662668089009 -1.6806896844078378 0 0 0 0 8.5531000141636468 -40.229959470002996 0 -40.229959470002996 -812.69725262904012 0 0 0 0 1476.6389217887772 171.94029624603036 0 171.94029624603036 -2000.9263506843924 0 0 0 0 624.03366844370612 304.57551121658889 0 304.57551121658889 -1244.2860556264288 0 0 0 0 13.266965090515441 -177.48873024621594 0 -177.48873024621594 -622.23762976134299 0 0 0 0 5.0661321307561593 228.05712596469698 0 228.05712596469698 -545.69943306729829 0 0 0 0 -268.54887078830507 162.44023584842489 0 162.44023584842489 -462.08514760868877 0 0 0 0 54.725784289370608 5.9968011193307831 0 5.9968011193307831 -0.81662677087255342 0 0 0 0 -85.549337483986164 76.454154571713161 0 76.454154571713161 226.26391328798854 0 0 0 0 -339.22120892578641 -565.29919879124407 0 -565.29919879124407 154.32926384382927 0 0 0 0 -543.68636715598768 205.23384755016951 0 205.23384755016951 441.26542765696831 0 0 0 0 294.80298563459655 706.93836432267835 0 706.93836432267835 1967.5814264774403 0 0 0 0 208.7560127270699 70.74680937929179 0 70.74680937929179 430.30339987970638 0 0 0 0 502.35388422165124 566.20898713150837 0 566.20898713150837 762.54319272783414 0 0 0 0 664.82071338471724 287.87945272013405 0 287.87945272013405 142.27987890374061 0 0 0 0 157.96821181552878 74.776235158339773 0 74.776235158339773 168.93005667077205 0 0 0 0 1.9525851486232568 -1.1809500100684147 0 -1.1809500100684147 0.63263733139955924 0 0 0 0 203.81844242733496 165.02365894164177 0 165.02365894164177 92.564416335583701 0 0 0 0 483.00860147650383 344.19131408355497 0 344.19131408355497 144.03152161008484 0 0 0 0 696.61092995626677 88.532702173522239 0 88.532702173522239 -47.961751327901595 0 0 0 0 646.44233738721232 -18.577299259497522 0 -18.577299259497522 -31.322657468797949 0 0 0 0 628.57765654398099 17.936717516499129 0 17.936717516499129 -101.30242694813978 0 0 0 0 347.43792946781468 -174.30865750471344 0 -174.30865750471344 39.002026659303738 0 0 0 0 580.03647857169562 -152.74104803144201 0 -152.74104803144201 -33.83894609297613 0 0 0 0 440.9998540210072 -298.02705083746923 0 -298.02705083746923 66.135765731409265 0 0 0 0 -0.49155868826346705 -7.3470425518487446 0 -7.3470425518487446 12.074699836456602 0 0 0 0 1507.74494565645 157.09670606077816 0 157.09670606077816 -80.707706738736533 0 0 0 0 253.32747019433191 -107.36475028346271 0 -107.36475028346271 -24.561755613906371 0 0 0 0 249.37762739538448 -19.37527185695285 0 -19.37527185695285 -107.15107237417442 0 0 0 0 517.65034395012481 -127.21621673694472 0 -127.21621673694472 -89.403887597717585 0 0 0 0 432.13617937511299 53.344505709954888 0 53.344505709954888 -190.16235574913662 0 0 0 0 377.38990742432998 16.087860363733085 0 16.087860363733085 -104.21259764477054 0 0 0 0 26.577231799121364 -8.2255951670481409 0 -8.2255951670481409 -11.003553769137397 0 0 0 0 3.6509450236449936 -2.843669052516745 0 -2.843669052516745 1.9384448878462273 0 0 0 0 19.972428670218505 -98.460373193533542 0 -98.460373193533542 10.946166245235872 0 0 0 0 200.60732304938574 87.981428901497793 0 87.981428901497793 36.327699773443442 0 0 0 0 -97.573001732176635 -48.894367298720226 0 -48.894367298720226 43.288647717068102 0 0 0 0 11.845513575985024 -94.665957686657947 0 -94.665957686657947 22.778104608257308 0 0 0 0 11.878558788463124 -93.673309851267277 0 -93.673309851267277 37.458426826695131 0 0 0 0 -11.183962886207155 -120.08821068288512 0 -120.08821068288512 13.787353592662157 0 0 0 0 34.399314123855106 4.4059816447509483 0 4.4059816447509483 0.087673134110988427 0 0 0 0 61.484681079367874 -46.525354501717629 0 -46.525354501717629 -185.74167172534953 0 0 0 0 195.92079433254548 -284.42106586411228 0 -284.42106586411228 259.45050736808298 0 0 0 0 -40.138274822777021 -10.468172316741629 0 -10.468172316741629 88.853968499996427 0 0 0 0 209.20830069815565 -202.45201613004633 0 -202.45201613004633 63.099124408147873 0 0 0 0 261.9646604979207 -128.88043816474908 0 -128.88043816474908 -48.411014504418745 0 0 0 0 898.33369719424081 -67.215948235314386 0 -67.215948235314386 -161.77107486583827 0 0 0 0 722.71372182718187 -386.01735578491025 0 -386.01735578491025 45.985620239653144 0 0 0 0 12.054475134186532 2.4484283509320761 0 2.4484283509320761 0.65716389433396927 0 0 0 0 638.72785712280893 -355.8474825605208 0 -355.8474825605208 256.80062766600963 0 0 0 0 1066.8130495547848 372.88220843511408 0 372.88220843511408 -158.39158399046187 0 0 0 0 201.9430548857199 337.17846784835979 0 337.17846784835979 353.99905174928313 0 0 0 0 701.4147789179915 -282.05144159172619 0 -282.05144159172619 -355.37311686411772 0 0 0 0 500.46448415223858 313.22871308296709 0 313.22871308296709 -164.48597276614106 0 0 0 0 380.96937508411793 121.20901845680899 0 121.20901845680899 -449.12783404044751 0 0 0 0 164.60820461687399 373.80364278319007 0 373.80364278319007 -270.58007563905687 0 0 0 0 1.7173125804547453 45.751564048466534 0 45.751564048466534 -17.08582023909397 0 0 0 0 -57.619331840556697 294.50301477136281 0 294.50301477136281 -298.31294914153125 0 0 0 0 92.364731427514926 55.951573564913815 0 55.951573564913815 -456.09547427123806 0 0 0 0 409.69844820794788 127.60554098712947 0 127.60554098712947 -731.97017533845701 0 0 0 0 314.76184128450404 -180.12059018758293 0 -180.12059018758293 -518.14847602071382 0 0 0 0 8.9205785339145223 175.50864560118123 0 175.50864560118123 -481.28341358027376 0 0 0 0 -34.429606860736385 142.81692022724553 0 142.81692022724553 -243.61443667325989 0 0 0 0 -12.229977842231165 101.2817496084939 0 101.2817496084939 -340.32596984185466 0 0 0 0 80.505863808756658 18.174901410986983 0 18.174901410986983 2.8451660997249468 0 0 0 0 68.428838289371924 324.72415775605305 0 324.72415775605305 -618.21169519508544 0 0 0 0 384.93902040118701 -553.3369384913068 0 -553.3369384913068 462.93033058171892 0 0 0 0 586.20462621912748 -473.09595519616897 0 -473.09595519616897 108.34621511847736 0 0 0 0 72.187811756637529 -297.57073473710579 0 -297.57073473710579 267.35157764066162 0 0 0 0 336.09395358121037 56.076045881673352 0 56.076045881673352 -140.24364983815195 0 0 0 0 453.2845266194272 1.0995778214842622 0 1.0995778214842622 3.2605719932535604 0 0 0 0 1150.9729736945592 -678.69267775855781 0 -678.69267775855781 176.59817152830635 0 0 0 0 102.28695243663969 18.139954143440782 0 18.139954143440782 0.86777579830712082 0 0 0 0 272.35199901435408 140.92853961651963 0 140.92853961651963 -732.58717811873657 0 0 0 0 84.034700599266216 100.01723373265853 0 100.01723373265853 -68.0390283503597 0 0 0 0 16.823646955118988 9.5084746352361833 0 9.5084746352361833 -1.5477773337388807 0 0 0 0 -21.851076198683586 -80.77725348307257 0 -80.77725348307257 -74.57093172463297 0 0 0 0 57.727303252671845 -35.190659895749391 0 -35.190659895749391 105.84197435750173 0 0 0 0 23.315231880482315 106.89027776376328 0 106.89027776376328 80.325809418134895 0 0 0 0 170.90784122634795 -66.621243786232384 0 -66.621243786232384 96.403471107617719 0 0 0 0 197.56462904841828 84.961559725505452 0 84.961559725505452 61.738839547689423 0 0 0 0 -1.1303209769397426 -0.29972040034763836 0 -0.29972040034763836 1.1634010495046796 0 0 0 0 -60.632820334198186 -50.502296345316161 0 -50.502296345316161 -0.13609535467034523 0 0 0 0 -62.618059324624483 -90.487270470474328 0 -90.487270470474328 -69.44294380012721 0 0 0 0 -87.809722602163674 -92.980861048104728 0 -92.980861048104728 6.7758455247272877 0 0 0 0 -32.169002740498399 -148.59618236909671 0 -148.59618236909671 -54.268467136237149 0 0 0 0 -62.177310194732854 -99.443168557283428 0 -99.443168557283428 -51.270491219664336 0 0 0 0 -76.175903592506074 -204.32920245681129 0 -204.32920245681129 -171.42056992783478 0 0 0 0 -4.661867564143904 -169.88194743035254 0 -169.88194743035254 -216.482421147389 0 0 0 0 -122.48781654494815 -134.71097691386845 0 -134.71097691386845 -55.677555373077595 0 0 0 0 12.814768466686644 -20.912054381255459 0 -20.912054381255459 -9.1381819148610912 0 0 0 0 -90.401013754861197 -82.05673672347703 0 -82.05673672347703 -124.90269112415984 0 0 0 0 -31.073793124829535 -123.67269920449245 0 -123.67269920449245 44.058577807141347 0 0 0 0 -8.1404874578583986 -103.26858446239467 0 -103.26858446239467 -175.01359864440394 0 0 0 0 -16.950928627338726 -271.47642406743046 0 -271.47642406743046 -95.597335823916239 0 0 0 0 0.43044690354145132 -122.19561349481569 0 -122.19561349481569 -149.05032438855204 0 0 0 0 137.88038088208123 -38.959416361750144 0 -38.959416361750144 -30.64320582491645 0 0 0 0 -47.652203888108488 -100.83473507754408 0 -100.83473507754408 0.065676039929596572 0 0 0 0 140.55865307015483 -83.648408606684569 0 -83.648408606684569 139.15407729090472 0 0 0 0 445.7906981537817 -22.363112517376567 0 -22.363112517376567 0.13318208670569498 0 0 0 0 502.26454914285569 -11.361493557968174 0 -11.361493557968174 -1.83485019082093 0 0 0 0 626.1345875840052 -65.319575737591947 0 -65.319575737591947 -126.54704275307219 0 0 0 0 764.87540278420784 298.77648356799403 0 298.77648356799403 319.79773526180435 0 0 0 0 646.42479033354903 -129.47419961323439 0 -129.47419961323439 25.154404296251386 0 0 0 0 650.83761098505443 394.51004848236988 0 394.51004848236988 156.85679566690021 0 0 0 0 464.72686428917223 52.287071948196285 0 52.287071948196285 -104.65582200299389 0 0 0 0 248.47569444181863 -119.32923080710876 0 -119.32923080710876 -73.830421148610071 0 0 0 0 170.79128112926264 -76.044957296207372 0 -76.044957296207372 59.403124814113681 0 0 0 0 167.22905029681351 -214.23404560105996 0 -214.23404560105996 -219.92416045696132 0 0 0 0 -136.0229046059103 -329.29751004466209 0 -329.29751004466209 -377.47254881046115 0 0 0 0 -80.619520984502742 -90.17228239984945 0 -90.17228239984945 -53.070544403164092 0 0 0 0 102.28609595567104 -25.931801465639523 0 -25.931801465639523 -33.014337975017952 0 0 0 0 95.007966967890354 -38.764507986757053 0 -38.764507986757053 -2.877915140925793 0 0 0 0 -212.20134441614209 -277.15244504003749 0 -277.15244504003749 111.89528198775815 0 0 0 0 -11.064917450581561 -144.15467552736322 0 -144.15467552736322 -147.76426026316085 0 0 0 0 357.8432234970096 -654.92052834559661 0 -654.92052834559661 462.07201448858768 0 0 0 0 1315.7387501333433 -193.40699765970302 0 -193.40699765970302 -342.77437017631246 0 0 0 0 88.880331392709195 -444.44632587650142 0 -444.44632587650142 -538.38185493136939 0 0 0 0 329.91215548865966 -445.32035601065621 0 -445.32035601065621 -544.42651877416472 0 0 0 0 389.38808395295928 -95.192508273470253 0 -95.192508273470253 -464.92555082862611 0 0 0 0 -105.49841512397688 -49.190933696886589 0 -49.190933696886589 -556.99337033937707 0 0 0 0 96.959642728315998 -31.814839800009366 0 -31.814839800009366 -5.6766371795916655 0 0 0 0 93.351518441973894 -3.7931876486283258 0 -3.7931876486283258 -12.992333693868375 0 0 0 0 96.97381582261005 -20.488469321925727 0 -20.488469321925727 0.13544690172093471 0 0 0 0 77.445954734030238 13.659356117616761 0 13.659356117616761 -18.211854857067188 0 0 0 0 23.50916722547845 -9.9527377144024118 0 -9.9527377144024118 -0.013411319469691468 0 0 0 0 25.820366335625295 -13.060488702503832 0 -13.060488702503832 -6.4440344583926645 0 0 0 0 26.357610013525118 -22.423570587704305 0 -22.423570587704305 -45.147780689875084 0 0 0 0 7.0687745301005407 -5.1704571029442548 0 -5.1704571029442548 2.199231343092483 0 0 0 0 -8.7002350297552766 18.3763100609631 0 18.3763100609631 -18.636590779443043 0 0 0 0 68.237958864541724 1.6394849588196097 0 1.6394849588196097 -0.099551348560433031 0 0 0 0 -41.137075850958354 -27.735828268360535 0 -27.735828268360535 -2.4425183242421893 0 0 0 0 64.301679299125681 -109.78499231460397 0 -109.78499231460397 -105.92829218423911 0 0 0 0 4.5081159483270312 -0.9537875963821989 0 -0.9537875963821989 -0.45408035938178259 0 0 0 0 201.50143785492401 141.05408240459019 0 141.05408240459019 186.24946992486042 0 0 0 0 231.81653791223653 36.694367623981861 0 36.694367623981861 -86.203355965931223 0 0 0 0 65.734676768828649 40.37694172094416 0 40.37694172094416 -12.106244056175115 0 0 0 0 130.33583478129003 44.049079088387998 0 44.049079088387998 -12.026835725643195 0 0 0 0 114.46633974244469 67.149385434690316 0 67.149385434690316 59.521305763469854 0 0 0 0 227.969111015831 134.49786643965982 0 134.49786643965982 58.462405764571713 0 0 0 0 105.07103730810923 76.796783367298303 0 76.796783367298303 -13.742663693804161 0 0 0 0 27.282228137184518 -0.47138327021787063 0 -0.47138327021787063 -0.30956399891176895 0 0 0 0 91.187463160223842 15.83676351770346 0 15.83676351770346 -5.3961516067893776 0 0 0 0 112.81007067661267 77.666336369801058 0 77.666336369801058 -13.851554579842741 0 0 0 0 29.603598645114829 0.019568159027144816 0 0.019568159027144816 -0.098195188799680366 0 0 0 0 95.346923128890921 -6.2454030639413673 0 -6.2454030639413673 -21.96804063084457 0 0 0 0 93.334056219864578 -8.8610656717668768 0 -8.8610656717668768 -4.1229037379092404 0 0 0 0 87.767017542253598 8.1727756170612196 0 8.1727756170612196 -20.773738133214465 0 0 0 0 93.795673884858843 -93.185389451255787 0 -93.185389451255787 -39.197838397099986 0 0 0 0 58.461327401812014 -40.456035700527764 0 -40.456035700527764 -117.76036382740222 0 0 0 0 105.41701659490172 -35.829196431267917 0 -35.829196431267917 -119.55510513557601 0 0 0 0 113.58953040025153 0.11303709353097702 0 0.11303709353097702 -200.35370849583887 0 0 0 0 175.36508972376032 -68.848307817180284 0 -68.848307817180284 -170.4825497088359 0 0 0 0 96.967382556118537 45.248889666167997 0 45.248889666167997 -333.71871257576686 0 0 0 0 175.13323303981451 -213.56102628425879 0 -213.56102628425879 -217.43342722806005 0 0 0 0 66.792545344535029 -114.4370155833326 0 -114.4370155833326 -154.86135157727404 0 0 0 0 238.4413359805767 127.1828832337842 0 127.1828832337842 -691.02929410341767 0 0 0 0 98.988331214420214 24.72788349865823 0 24.72788349865823 -6.35516538653361 0 0 0 0 153.77960250033357 21.497530651628722 0 21.497530651628722 -62.003632459199707 0 0 0 0 126.71214820747264 -34.025135837858898 0 -34.025135837858898 -101.34405349442653 0 0 0 0 -1.5344446246745065 473.37801491002392 0 473.37801491002392 -969.6977559525526 0 0 0 0 239.49383638698782 -286.72304661116414 0 -286.72304661116414 -751.92018841744186 0 0 0 0 -387.65335414152651 -436.04570463846858 0 -436.04570463846858 -283.83827474714099 0 0 0 0 -357.97433634642948 181.96940374008841 0 181.96940374008841 -163.84955954918541 0 0 0 0 26.982819546573012 -21.86029761132788 0 -21.86029761132788 -13.212643271662593 0 0 0 0 86.883326915678481 53.770763797026063 0 53.770763797026063 8.6557795501885266 0 0 0 0 -40.783126799753518 -284.30671017840103 0 -284.30671017840103 221.64758093653563 0 0 0 0 69.934366664587287 -391.80943423720032 0 -391.80943423720032 556.59081167975978 0 0 0 0 213.32513752137311 -185.71759516720476 0 -185.71759516720476 259.85764068245339 0 0 0 0 154.04849604688934 -224.21639537595956 0 -224.21639537595956 -139.89176762185252 0 0 0 0 148.08760719730344 -117.56843614966692 0 -117.56843614966692 -97.717533196503609 0 0 0 0 106.8594040514763 -291.27987770587993 0 -291.27987770587993 180.41214727214538 0 0 0 0 110.98051109098014 -142.77052001730613 0 -142.77052001730613 279.3860225889423 0 0 0 0 2.109989128582697 -6.5393788125741139 0 -6.5393788125741139 -5.1167347791640241 0 0 0 0 -2.4561123664607294 -91.291520268061959 0 -91.291520268061959 -53.031926375821058 0 0 0 0 176.02864093973767 -269.00045919546403 0 -269.00045919546403 188.32915772067008 0 0 0 0 2.1919478898388434 -7.7646864420810005 0 -7.7646864420810005 -6.6243384208376899 0 0 0 0 106.91354727029102 -91.500336467300258 0 -91.500336467300258 -38.981681208020746 0 0 0 0 114.60931936613997 -213.58537583570833 0 -213.58537583570833 169.7061376735337 0 0 0 0 553.08310755119601 300.11206471561286 0 300.11206471561286 -38.643743621178373 0 0 0 0 110.10466012450343 157.84179705049291 0 157.84179705049291 -21.143354456668476 0 0 0 0 3.0568709343048681 0.50565432497150198 0 0.50565432497150198 -0.62420814280321046 0 0 0 0 1285.8482775612356 293.83898360734509 0 293.83898360734509 214.94471737278218 0 0 0 0 252.97712269237672 -302.00398990605368 0 -302.00398990605368 -76.247287405132511 0 0 0 0 -62.912892274624028 82.068162718872259 0 82.068162718872259 -177.54521110677706 0 0 0 0 -181.39232423152134 -300.34792304587017 0 -300.34792304587017 -252.28073932212465 0 0 0 0 -123.33272214522003 -384.53783658555312 0 -384.53783658555312 -318.3889288834016 0 0 0 0 94.921823828042761 -37.899551007532821 0 -37.899551007532821 -0.62367991492034225 0 0 0 0 1.0962028656518328 0.095428169974809407 0 0.095428169974809407 -0.52237444766322394 0 0 0 0 0.93253559379081707 -328.68440454433699 0 -328.68440454433699 -510.21620273336703 0 0 0 0 173.48723622444959 -100.1802431604192 0 -100.1802431604192 -265.43870034973281 0 0 0 0 -34.373992684209952 20.960389266410857 0 20.960389266410857 -228.80107790737861 0 0 0 0 121.96518075966742 -52.347839326721896 0 -52.347839326721896 -334.74538220422437 0 0 0 0 4.0497452489541956 0.4261458385624195 0 0.4261458385624195 -1.0838203359644361 0 0 0 0 59.099208081694087 -54.17172020935368 0 -54.17172020935368 22.56577826193643 0 0 0 0 -3.3616009439574555 67.526165247479184 0 67.526165247479184 -110.59081198052081 0 0 0 0 55.238060753967147 -168.30547808282881 0 -168.30547808282881 -264.6415677026871 0 0 0 0 249.10114258971589 -342.46835058044553 0 -342.46835058044553 205.75616840703435 0 0 0 0 180.31897543271771 -57.253386015125216 0 -57.253386015125216 18.090784061722388 0 0 0 0 143.54753583515412 -10.785066305075816 0 -10.785066305075816 -10.089510407767648 0 0 0 0 262.55706605460728 14.431746863849867 0 14.431746863849867 -27.567101650869972 0 0 0 0 27.133351403448614 -37.446676640505757 0 -37.446676640505757 -120.95741410980554 0 0 0 0 97.314544669159659 93.885459470251647 0 93.885459470251647 -51.694338638687441 0 0 0 0 453.21509827000409 88.230087291304926 0 88.230087291304926 -135.4422830721669 0 0 0 0 378.2266679623408 8.5941016872499461 0 8.5941016872499461 -69.096122947065851 0 0 0 0 278.68064488380332 84.916675084074768 0 84.916675084074768 -125.64980114093078 0 0 0 0 254.21099160599988 7.8879390553249777 0 7.8879390553249777 11.861261765624931 0 0 0 0 286.0164551505768 -23.342840233032348 0 -23.342840233032348 -12.713460538824165 0 0 0 0 305.21436584088406 -71.856197924910646 0 -71.856197924910646 59.947079166852745 0 0 0 0 326.36693896571524 3.6254821055658795 0 3.6254821055658795 11.27699301972234 0 0 0 0 437.87552976308689 -133.56523225501388 0 -133.56523225501388 178.46789078158417 0 0 0 0 263.70396962802624 -19.686626200865248 0 -19.686626200865248 192.24178661920246 0 0 0 0 288.12412202640553 33.318471818442049 0 33.318471818442049 238.52266162125318 0 0 0 0 98.559398250756203 -3.5763574780949057 0 -3.5763574780949057 229.14824612140092 0 0 0 0 258.17741750349523 -42.824179040974286 0 -42.824179040974286 206.41437497599611 0 0 0 0 191.41227805509698 -20.65653637708283 0 -20.65653637708283 202.34479332744354 0 0 0 0 191.75041799714381 -14.643431061816955 0 -14.643431061816955 60.356334802974743 0 0 0 0 188.95231300438172 -13.257265750505212 0 -13.257265750505212 59.691907609106693 0 0 0 0 208.04753475690086 -16.744271074775043 0 -16.744271074775043 29.72359842168089 0 0 0 0 211.99118456947963 -75.120505211015981 0 -75.120505211015981 -27.133860867721523 0 0 0 0 118.15524981566705 -112.08955015111371 0 -112.08955015111371 1.2162452451857462 0 0 0 0 37.446906314893567 -366.06504399100459 0 -366.06504399100459 825.98878588898788 0 0 0 0 199.40979486437573 234.83069608125834 0 234.83069608125834 -867.32075601629504 0 0 0 0 0.8811245994314163 -2.3233593074327104 0 -2.3233593074327104 -1.889758904037647 0 0 0 0 -50.271372062983573 -113.05322700525903 0 -113.05322700525903 -192.30711808809338 0 0 0 0 355.05521552356367 -37.874009266701023 0 -37.874009266701023 -216.40438821782118 0 0 0 0 117.62630306918072 -217.43999324012543 0 -217.43999324012543 -305.66207315559586 0 0 0 0 -0.951330981857609 -47.837817817898213 0 -47.837817817898213 -101.97665901384153 0 0 0 0 -14.716308079325245 -142.36107515090225 0 -142.36107515090225 -167.83283143022209 0 0 0 0 21.62809355459467 -76.893969154588376 0 -76.893969154588376 -220.04570174789114 0 0 0 0 139.65894353698241 -27.253926764578864 0 -27.253926764578864 -466.75258311978359 0 0 0 0 32.548941222426947 -147.31448045153456 0 -147.31448045153456 -282.38274333927438 0 0 0 0 0.25374263783506024 -0.49202547816690867 0 -0.49202547816690867 0.66419342562280548 0 0 0 0 -186.91666963518946 -248.63978539653749 0 -248.63978539653749 -205.13679345159699 0 0 0 0 17.065590847152635 -31.548549657127751 0 -31.548549657127751 -91.836449677176461 0 0 0 0 -63.902087211477919 -117.30356308196906 0 -117.30356308196906 -137.40944050477083 0 0 0 0 89.978814254347526 2.9215635349316926 0 2.9215635349316926 -11.272658969919121 0 0 0 0 -19.137574567957927 -47.304483600643607 0 -47.304483600643607 -72.937358159039377 0 0 0 0 0.62992780018936401 -1.689604059577789 0 -1.689604059577789 2.2425281241754291 0 0 0 0 150.39148028267664 -200.7250910956077 0 -200.7250910956077 60.018141503923289 0 0 0 0 -39.721978650384699 -42.234170446221469 0 -42.234170446221469 93.359700568519258 0 0 0 0 304.26425610409933 135.21669240741721 0 135.21669240741721 -30.291484763770313 0 0 0 0 1.8124387067331611 -1.5703795755147496 0 -1.5703795755147496 1.7175988312905091 0 0 0 0 454.77450339890493 87.46651102945907 0 87.46651102945907 70.407823139424636 0 0 0 0 223.79981059013517 92.549095348205356 0 92.549095348205356 75.358054873645415 0 0 0 0 233.30544687077054 85.135925563520914 0 85.135925563520914 34.08150925064092 0 0 0 0 216.11661963857478 107.97858640939558 0 107.97858640939558 32.001027414791139 0 0 0 0 -13.088095882616471 -38.952528057217478 0 -38.952528057217478 -1.4559742780521674 0 0 0 0 4.4388042666761578 -4.5258245588799326 0 -4.5258245588799326 4.6701627908266818 0 0 0 0 53.805967623353354 -1.3675488792431452 0 -1.3675488792431452 -20.641710992472781 0 0 0 0 4.8732756886228543 -3.5792235055724859 0 -3.5792235055724859 3.5583823860566834 0 0 0 0 12.255102909373818 -18.226378119595893 0 -18.226378119595893 -0.84125841401009893 0 0 0 0 7.7216196321302277 -6.9815753724981988 0 -6.9815753724981988 5.8951678808021502 0 0 0 0 11.637962453884171 0.75483568043540572 0 0.75483568043540572 -5.8360558343652649 0 0 0 0 153.50509185914416 -5.4288428134773312 0 -5.4288428134773312 4.6640111458082174 0 0 0 0 170.63040109035683 75.011267033426179 0 75.011267033426179 10.656839273856349 0 0 0 0 250.24170806165785 83.682628025836038 0 83.682628025836038 11.214892918517165 0 0 0 0 264.2485261032125 1.431122209316527 0 1.431122209316527 4.4250366078448025 0 0 0 0 1.8495292418893996 -0.69502286733694518 0 -0.69502286733694518 0.80144154883258523 0 0 0 0 4.0274859525088686 12.168899264043603 0 12.168899264043603 -50.886225979401388 0 0 0 0 2.770431949723843 0.32261307093848757 0 0.32261307093848757 -1.5852461555468835 0 0 0 0 235.75949752927045 77.290771419243242 0 77.290771419243242 19.49473962877255 0 0 0 0 210.63337458713067 93.462451663073807 0 93.462451663073807 10.902734898112612 0 0 0 0 238.35791513753975 98.85037781071162 0 98.85037781071162 -7.1577230669136043 0 0 0 0 234.60271495744382 93.085478803347996 0 93.085478803347996 4.0863442869458595 0 0 0 0 109.21175521564146 36.423871650155434 0 36.423871650155434 27.859187867930814 0 0 0 0 215.7370225925315 77.525518683513042 0 77.525518683513042 7.1778818546144976 0 0 0 0 129.05627110005298 70.860999425392038 0 70.860999425392038 15.038847112359917 0 0 0 0 106.87048292104737 85.934980667612763 0 85.934980667612763 33.681426931134411 0 0 0 0 44.560014030925231 -2.4007303002726985 0 -2.4007303002726985 3.183448974712519 0 0 0 0 -14.466551589954179 -6.3731782396062044 0 -6.3731782396062044 20.757302578781491 0 0 0 0 1.3949712808389449 1.7624016575432506 0 1.7624016575432506 29.973044878944165 0 0 0 0 -0.056699001631756119 -0.73673045525356429 0 -0.73673045525356429 2.4980151302116482 0 0 0 0 107.53340997957275 41.644620198025223 0 41.644620198025223 11.687534645615301 0 0 0 0 144.40532169607468 16.785363404912005 0 16.785363404912005 12.619294716798777 0 0 0 0 291.80559105648717 -129.62124261536155 0 -129.62124261536155 168.77994040576186 0 0 0 0 0.22516716407901072 -0.24753808270247646 0 -0.24753808270247646 1.313918304570258 0 0 0 0 134.2123188071273 12.390869579979608 0 12.390869579979608 249.37990394946701 0 0 0 0 136.4292991276252 116.84382392046518 0 116.84382392046518 119.41830289228437 0 0 0 0 163.53406656038351 41.20668876738182 0 41.20668876738182 132.76512309770351 0 0 0 0 263.00715859235788 96.410102728365928 0 96.410102728365928 31.445752634685505 0 0 0 0 218.36830227711471 28.444319918899055 0 28.444319918899055 117.36869286236015 0 0 0 0 193.43739436331089 86.754571338009555 0 86.754571338009555 30.773008456253024 0 0 0 0 -48.898573437676532 -108.44544097755625 0 -108.44544097755625 -149.62239751631478 0 0 0 0 -40.117122950148769 -57.015765253012887 0 -57.015765253012887 -107.73617314177136 0 0 0 0 -27.472709018904425 -88.278035564919719 0 -88.278035564919719 -71.034851210332818 0 0 0 0 3.7908463919993665 -30.420205241215513 0 -30.420205241215513 -73.939357353326159 0 0 0 0 -26.155308318826428 -58.691923293610671 0 -58.691923293610671 -175.09622144080276 0 0 0 0 5.4788536909472896 -119.00322150356533 0 -119.00322150356533 -162.92039137659958 0 0 0 0 1.5491534228203818 -129.46844185701138 0 -129.46844185701138 -190.08599707454528 0 0 0 0 -11.874062796778162 -93.163752760087391 0 -93.163752760087391 -285.79198650108628 0 0 0 0 -164.63768352475017 -93.715314666826089 0 -93.715314666826089 -235.76497102619032 0 0 0 0 -68.055347014946165 -70.955578376039739 0 -70.955578376039739 -290.12443600794359 0 0 0 0 -75.296522086573532 -136.06369597282446 0 -136.06369597282446 -219.20773577563523 0 0 0 0 -101.83833971805871 -70.408682037932522 0 -70.408682037932522 -170.85623818252679 0 0 0 0 -50.328708296406148 -91.503485546808193 0 -91.503485546808193 -245.94418701039831 0 0 0 0 -92.252879446634324 -218.75219276154166 0 -218.75219276154166 -356.82262962597997 0 0 0 0 84.220884699723683 59.430879739869852 0 59.430879739869852 -586.59166765574082 0 0 0 0 -163.31319056733628 -184.35486696574662 0 -184.35486696574662 -282.27026174023285 0 0 0 0 15.080644712827052 -27.124505251744267 0 -27.124505251744267 -266.28231572497589 0 0 0 0 -22.291138089669403 -113.38035547023173 0 -113.38035547023173 -168.87622920067406 0 0 0 0 -49.285939122186392 -155.79630023707858 0 -155.79630023707858 -326.66515963240272 0 0 0 0 -33.544457900963607 -87.608757217492894 0 -87.608757217492894 -181.49875005403919 0 0 0 0 14.652722727292712 -36.239271294531704 0 -36.239271294531704 -101.53749345505639 0 0 0 0 30.489807694815681 -77.246533840841039 0 -77.246533840841039 -145.02808513672107 0 0 0 0 8.8098632891123998 -139.68835135680388 0 -139.68835135680388 -114.56861220171322 0 0 0 0 1.1472004152892623 -127.7314800825925 0 -127.7314800825925 -129.00395553950057 0 0 0 0 0.1220474973747514 -103.99897460361763 0 -103.99897460361763 -100.63410011215456 0 0 0 0 0.13237139843909063 -103.96559794456208 0 -103.96559794456208 -165.11294851928869 0 0 0 0 -58.253682255599415 -127.07676137858243 0 -127.07676137858243 -110.63921262679651 0 0 0 0 -17.579280880425358 -117.90151755037823 0 -117.90151755037823 -173.94681353658507 0 0 0 0 -15.855969825264765 -132.53150114450182 0 -132.53150114450182 -128.95779331355334 0 0 0 0 3.0684347479509597 -76.654834305128986 0 -76.654834305128986 -96.831992917203934 0 0 0 0 6.5467887708855415 -110.97443608181982 0 -110.97443608181982 -148.55838252565354 0 0 0 0 49.929836076669744 -49.966495252275763 0 -49.966495252275763 -96.441914065274887 0 0 0 0 23.697945970823639 -25.311083828568826 0 -25.311083828568826 -54.641701842311214 0 0 0 0 15.011482745932881 -51.512162433566573 0 -51.512162433566573 -76.014943277447856 0 0 0 0 7.9006777236936614 -4.4224034621588544 0 -4.4224034621588544 21.842535004668662 0 0 0 0 -0.079571336780645652 -27.386572273998979 0 -27.386572273998979 16.490295448113102 0 0 0 0 -8.7983401194996986 -31.512735984446522 0 -31.512735984446522 -28.345386030075133 0 0 0 0 -26.913038381841034 -86.293687805959053 0 -86.293687805959053 -74.470222126094086 0 0 0 0 -23.264835697074886 -85.827232598465343 0 -85.827232598465343 -55.573405325065025 0 0 0 0 42.549266966947471 23.713056806613679 0 23.713056806613679 -1.1112098096964473 0 0 0 0 20.301711356121814 -37.522868275529618 0 -37.522868275529618 -28.368881022894811 0 0 0 0 7.1015046538232127 -34.826295467952605 0 -34.826295467952605 -3.8562850955404429 0 0 0 0 19.80928636957816 -15.551921512837708 0 -15.551921512837708 3.4217928346025133 0 0 0 0 34.904672104748897 -24.703711652520724 0 -24.703711652520724 -9.2357533595577479 0 0 0 0 42.728984989516903 -28.80159787753837 0 -28.80159787753837 -8.6892201760324497 0 0 0 0 27.025608290336095 -17.074299674978874 0 -17.074299674978874 -8.8312152727185094 0 0 0 0 26.66866672548349 -21.608923671491993 0 -21.608923671491993 -9.0222389921912054 0 0 0 0 2.2142046568333171 -55.938845672117623 0 -55.938845672117623 0.16977732830233094 0 0 0 0 77.122318865265697 22.296456315398245 0 22.296456315398245 -29.501962843657111 0 0 0 0 60.67865813280514 -38.370205275696208 0 -38.370205275696208 -61.206609415188723 0 0 0 0 59.046137975412421 -7.1887674910053647 0 -7.1887674910053647 -45.752104245479131 0 0 0 0 54.873748698548297 -13.400600156906876 0 -13.400600156906876 -27.401231142282995 0 0 0 0 52.055844636372058 -16.798798661800902 0 -16.798798661800902 -30.165916710800502 0 0 0 0 60.644195693952497 -39.393010478718679 0 -39.393010478718679 -23.34043707885121 0 0 0 0 43.023268942604773 -13.038505504188834 0 -13.038505504188834 -15.150947951570288 0 0 0 0 48.241894701743149 -16.604772969864825 0 -16.604772969864825 -17.225606381713078 0 0 0 0 46.31198933556152 -7.0111842538731253 0 -7.0111842538731253 -9.20894357042107 0 0 0 0 19.508592423066148 -12.121865552394866 0 -12.121865552394866 0.87526168244676228 0 0 0 0 6.4481972582610183 -1.4772984069366544 0 -1.4772984069366544 -2.1966547616582908 0 0 0 0 60.5967570912253 3.547581396775513 0 3.547581396775513 -12.68701585947565 0 0 0 0 54.169816429435741 -6.9791260081519795 0 -6.9791260081519795 -24.382335597116708 0 0 0 0 19.203582438087324 -17.413537257100984 0 -17.413537257100984 9.546520716914074 0 0 0 0 42.438793479988817 -2.6359339431455737 0 -2.6359339431455737 -7.0663953228854552 0 0 0 0 14.031744089048459 5.6020251189587782 0 5.6020251189587782 -10.458564592999075 0 0 0 0 41.985061857863911 -8.9590169516095557 0 -8.9590169516095557 -9.9795201579315744 0 0 0 0 36.954104167147307 -7.8368475715305976 0 -7.8368475715305976 -1.2611576519911978 0 0 0 0 19.867268615709264 -13.839445059815034 0 -13.839445059815034 -0.39795770426259836 0 0 0 0 40.279982328269398 -9.8619057172872999 0 -9.8619057172872999 -0.66807837061867303 0 0 0 0 18.195268405482409 7.5777201570073487 0 7.5777201570073487 -8.1084280949037755 0 0 0 0 41.950637633924089 -36.107998150661913 0 -36.107998150661913 -19.871624150841853 0 0 0 0 39.358090356254252 -2.300958100907792 0 -2.300958100907792 -8.6982109393306928 0 0 0 0 -48.995893970772158 -78.199058246963432 0 -78.199058246963432 8.4482631815967579 0 0 0 0 42.059278018932673 11.243068203494431 0 11.243068203494431 -18.93199671525872 0 0 0 0 29.196494611365779 -13.793786367549274 0 -13.793786367549274 -5.8336224925683382 0 0 0 0 18.874885286665688 -14.376464291504959 0 -14.376464291504959 1.7533043091433633 0 0 0 0 -59.48064034843992 -119.25781683762489 0 -119.25781683762489 -49.331419670845207 0 0 0 0 -10.986708398173505 10.65794377453085 0 10.65794377453085 -5.6075533277817158 0 0 0 0 2.0334749951289268 -86.826913465661164 0 -86.826913465661164 -74.597168744014198 0 0 0 0 -5.7454738841042854 -121.80649300206005 0 -121.80649300206005 -148.83442336083408 0 0 0 0 -18.427216393683921 -137.56048304583828 0 -137.56048304583828 -132.96041383842612 0 0 0 0 -11.334495306771714 -205.81141720516803 0 -205.81141720516803 -195.53808920764459 0 0 0 0 -47.774906051185098 -165.84035151125795 0 -165.84035151125795 -106.70353513668033 0 0 0 0 -149.76365310519759 -277.00801490221238 0 -277.00801490221238 -222.07157930328094 0 0 0 0 -241.49118916002408 -108.05284929647837 0 -108.05284929647837 -26.111812585784719 0 0 0 0 -228.67999313112523 25.60570038285141 0 25.60570038285141 -142.58656954484059 0 0 0 0 44.872407653947448 -94.490114274526377 0 -94.490114274526377 -200.81075169992346 0 0 0 0 25.315779737502453 -155.10561947563656 0 -155.10561947563656 -388.19004237254148 0 0 0 0 76.601148667628877 16.395928050671955 0 16.395928050671955 -107.56531562569216 0 0 0 0 -6.5348480957036372 -11.756611454607537 0 -11.756611454607537 -10.438858935155736 0 0 0 0 40.733429316467664 -46.351639366509289 0 -46.351639366509289 -68.517966314449041 0 0 0 0 -56.014988195791375 89.85006463967693 0 89.85006463967693 -125.04423873840187 0 0 0 0 3.7897219998196192 -3.4213560706668602 0 -3.4213560706668602 -3.5788950098490897 0 0 0 0 84.030756173247937 9.5500335477363478 0 9.5500335477363478 1.9034798892171239 0 0 0 0 5.8653299725919794 -0.65027338634229181 0 -0.65027338634229181 -3.2344907855279157 0 0 0 0 82.124197502373136 -44.607240601541889 0 -44.607240601541889 -420.65321899201808 0 0 0 0 -130.92393781495048 -271.42621757345887 0 -271.42621757345887 -323.16543241314889 0 0 0 0 36.7764851036045 -77.270001179145311 0 -77.270001179145311 -253.21641684687711 0 0 0 0 24.7610903679888 -147.71161919653787 0 -147.71161919653787 -192.94471571948179 0 0 0 0 34.351614255749155 -150.90028289989914 0 -150.90028289989914 -223.65759074962239 0 0 0 0 10.951122380847664 -123.59013128299466 0 -123.59013128299466 -172.59490364939757 0 0 0 0 -12.526614577582222 -153.9145799536459 0 -153.9145799536459 -158.36586655752262 0 0 0 0 24.942091063407133 -75.367660012001579 0 -75.367660012001579 -60.271258736991513 0 0 0 0 21.080627477756934 -92.926161866353709 0 -92.926161866353709 -181.05435504236539 0 0 0 0 20.37725773944112 -135.71884500431861 0 -135.71884500431861 -102.65109689788551 0 0 0 0 -1.3145287515071686 -19.267046969095645 0 -19.267046969095645 -135.17887723674744 0 0 0 0 -27.476556963301846 -38.073814796869556 0 -38.073814796869556 1.0183367187346448 0 0 0 0 -119.79723484040733 -38.132854357316546 0 -38.132854357316546 -10.529069560527205 0 0 0 0 17.949319729697891 -24.042576448826367 0 -24.042576448826367 -17.059661815405434 0 0 0 0 31.45800305827288 35.857063891744474 0 35.857063891744474 -14.166416716549065 0 0 0 0 149.69660166221729 60.406259853011306 0 60.406259853011306 -10.018891528374752 0 0 0 0 6.6290199209485792 -15.755946839093923 0 -15.755946839093923 8.5871348858143577 0 0 0 0 -259.52813408945804 -30.370731784368672 0 -30.370731784368672 144.06094750479929 0 0 0 0 7.5013228021507956 -16.040616667895023 0 -16.040616667895023 2.9936393939681913 0 0 0 0 -161.65422033177674 -127.81264426610107 0 -127.81264426610107 15.014923749897207 0 0 0 0 159.33010524990095 -5.3812857818047632 0 -5.3812857818047632 -100.30701455486951 0 0 0 0 10.624481959828699 42.767632016029893 0 42.767632016029893 20.285721392991945 0 0 0 0 -5.5313349975622259 -95.39137071197456 0 -95.39137071197456 -26.955502081101713 0 0 0 0 88.547709153739561 -51.061466263103057 0 -51.061466263103057 -95.216884465142357 0 0 0 0 19.458853217540309 -171.06094807381896 0 -171.06094807381896 -140.51099190616333 0 0 0 0 8.86792945616304 -14.480830628325435 0 -14.480830628325435 -1.6441811589884736 0 0 0 0 -255.68531791103305 -158.10722965546574 0 -158.10722965546574 163.5077659142371 0 0 0 0 1.3209284973368085 -7.5706345405662319 0 -7.5706345405662319 -0.58504677846012276 0 0 0 0 -4.7325448640040122 -235.51036595029291 0 -235.51036595029291 -305.20002080839913 0 0 0 0 -2.400048857103684 -154.68728164081494 0 -154.68728164081494 -150.57453626316419 0 0 0 0 18.382024852675386 -184.40423667322466 0 -184.40423667322466 -198.33183421617468 0 0 0 0 1.6385138900368474 -2.8562674091751887 0 -2.8562674091751887 -109.95647135025774 0 0 0 0 26.415307924057004 1.8954411315899264 0 1.8954411315899264 -1.9251635910801408 0 0 0 0 -13.622112188346364 -69.119643668447338 0 -69.119643668447338 -56.665391662091679 0 0 0 0 39.546838701571687 -47.888395251814018 0 -47.888395251814018 -97.914377202859214 0 0 0 0 31.558658972397097 -78.428035318564525 0 -78.428035318564525 -346.47836216910855 0 0 0 0 26.092270816181554 -82.682214197089252 0 -82.682214197089252 -52.569365468402339 0 0 0 0 23.249969549447997 -78.594413574312966 0 -78.594413574312966 -24.158790476757531 0 0 0 0 152.46871604028274 -42.377172936350689 0 -42.377172936350689 -106.78460572368203 0 0 0 0 155.13067919639434 -120.43175568931383 0 -120.43175568931383 -11.254087907846952 0 0 0 0 255.06144568260061 63.138517529418209 0 63.138517529418209 -25.87314645625338 0 0 0 0 31.432526523101842 -40.384942948528078 0 -40.384942948528078 91.640800250740313 0 0 0 0 57.535973521225969 -114.02769903541503 0 -114.02769903541503 -37.13514840152493 0 0 0 0 413.41993335273582 -189.72301087132337 0 -189.72301087132337 148.11187775445569 0 0 0 0 281.17395158313593 224.48439585347325 0 224.48439585347325 204.20587633769992 0 0 0 0 284.37454771688499 165.93537828090109 0 165.93537828090109 87.535171493893358 0 0 0 0 423.05719069923362 -104.6621514234879 0 -104.6621514234879 77.315630538284495 0 0 0 0 152.79233523345829 -32.450266061207685 0 -32.450266061207685 62.043265993839213 0 0 0 0 245.92786655900272 76.486798846537226 0 76.486798846537226 -59.48037703900809 0 0 0 0 59.353668264273438 123.74983923153923 0 123.74983923153923 80.561467294620343 0 0 0 0 78.630486302776262 66.30013689410589 0 66.30013689410589 -59.850364909830773 0 0 0 0 -27.43914667100762 69.329781336348333 0 69.329781336348333 -13.270785570729004 0 0 0 0 32.717016006645281 68.232930784827886 0 68.232930784827886 -14.653388317537974 0 0 0 0 -33.177504296880215 79.536012233084421 0 79.536012233084421 345.90953836661106 0 0 0 0 -83.787693758000387 86.17377876058481 0 86.17377876058481 76.47963192955558 0 0 0 0 -25.367079502347224 8.2210301747854544 0 8.2210301747854544 30.818431137319749 0 0 0 0 47.804881512340216 5.7734138912746857 0 5.7734138912746857 40.996556849023364 0 0 0 0 68.944038752495544 27.603906591741634 0 27.603906591741634 37.875343263950526 0 0 0 0 13.178147057514209 -16.023176251047545 0 -16.023176251047545 12.539833640407419 0 0 0 0 -132.26457787308027 33.153708704462588 0 33.153708704462588 34.88250965431962 0 0 0 0 55.087980715656158 -14.970492521736787 0 -14.970492521736787 35.184477917651748 0 0 0 0 93.55633548834885 16.168848847810295 0 16.168848847810295 26.724534731332824 0 0 0 0 75.20545473000675 0.78516371179239286 0 0.78516371179239286 43.426496476438842 0 0 0 0 -4.4478210570523515 111.37459185830858 0 111.37459185830858 19.914849094137026 0 0 0 0 -46.685773543453251 88.355437925368733 0 88.355437925368733 -16.745069338630856 0 0 0 0 -36.019280284323031 48.153889602369418 0 48.153889602369418 -17.035131578755681 0 0 0 0 -44.577125271578552 111.81233445316047 0 111.81233445316047 -43.740951563414455 0 0 0 0 -54.136128311685752 85.216602685966791 0 85.216602685966791 6.2322738389721053 0 0 0 0 -50.576322751032421 108.35189327579337 0 108.35189327579337 -15.169484206246125 0 0 0 0 -63.520091670390684 98.885078604923365 0 98.885078604923365 -80.889095506890044 0 0 0 0 58.832585316500627 69.558708008414214 0 69.558708008414214 -140.21755926022979 0 0 0 0 18.992552881269347 3.1905771984997955 0 3.1905771984997955 -9.5621163315761173 0 0 0 0 27.543028532895391 -1.3997745955763463 0 -1.3997745955763463 3.8093961469954065 0 0 0 0 11.340118518623058 20.08248885955345 0 20.08248885955345 -27.247824501088417 0 0 0 0 40.335629515241038 -18.311810723745936 0 -18.311810723745936 1.5418416906074794 0 0 0 0 39.397164479014464 -28.019773526422341 0 -28.019773526422341 10.138159854527458 0 0 0 0 49.748759979789611 -7.6382155962123761 0 -7.6382155962123761 7.5775754842002243 0 0 0 0 11.230961230211477 -30.962271529260192 0 -30.962271529260192 15.172826863127904 0 0 0 0 22.047417664181623 -10.816411314357538 0 -10.816411314357538 0.40084293937740512 0 0 0 0 63.982951302547008 -3.1955649728400175 0 -3.1955649728400175 -2.0918582959422451 0 0 0 0 33.104305903078057 -51.802053908981975 0 -51.802053908981975 -20.582899919380907 0 0 0 0 27.304271005954774 -17.958130270615158 0 -17.958130270615158 0.81292394916086863 0 0 0 0 77.041705018782523 -11.478983877465282 0 -11.478983877465282 -22.811148078361953 0 0 0 0 69.377623960463097 -18.469145161609845 0 -18.469145161609845 -25.515682864729797 0 0 0 0 82.688137133933196 -1.5257103649334454 0 -1.5257103649334454 -35.338096884877586 0 0 0 0 84.068029285263037 -4.9458743942464025 0 -4.9458743942464025 -33.720920202296611 0 0 0 0 43.374274813046213 54.134081008770579 0 54.134081008770579 -12.806316413361628 0 0 0 0 85.428676650873967 31.179257627363086 0 31.179257627363086 -87.129372970112399 0 0 0 0 55.969643445509575 12.969001905535691 0 12.969001905535691 -9.285986162235897 0 0 0 0 24.861063595861197 50.880226446214692 0 50.880226446214692 -92.929386754147799 0 0 0 0 148.71301942041828 61.472798466291579 0 61.472798466291579 -95.648888420101684 0 0 0 0 57.226736094333205 14.512614914584475 0 14.512614914584475 -6.3982352662406736 0 0 0 0 52.638673631940037 104.88946916059012 0 104.88946916059012 -80.64388455673452 0 0 0 0 76.430319774255622 105.0238607248034 0 105.0238607248034 -107.0925496588161 0 0 0 0 133.50210091299959 -150.23022087803815 0 -150.23022087803815 -12.831525918072884 0 0 0 0 6.3436057051458761 -11.295049521737724 0 -11.295049521737724 -5.2251984056335088 0 0 0 0 118.11386427358229 -162.54464810541879 0 -162.54464810541879 20.932844340018164 0 0 0 0 -0.56709490774665028 -71.334009601097932 0 -71.334009601097932 97.718818666457992 0 0 0 0 32.899911967033404 -41.483232120796856 0 -41.483232120796856 -57.968971950804644 0 0 0 0 52.657897829878493 -107.3643377538715 0 -107.3643377538715 -38.815687779862401 0 0 0 0 23.473429731413489 -16.63489466811825 0 -16.63489466811825 91.746425386581564 0 0 0 0 198.58915021261782 -149.64227098191895 0 -149.64227098191895 -7.1838430525112926 0 0 0 0 8.7427840393625704 -5.8368024700780836 0 -5.8368024700780836 0.98029457461226954 0 0 0 0 44.082005727010028 -2.8042673831135403 0 -2.8042673831135403 -8.6510207249945577 0 0 0 0 36.165743676625425 -35.417407536099745 0 -35.417407536099745 50.923133887518816 0 0 0 0 92.10542723812614 -82.094556739979765 0 -82.094556739979765 79.807517328876202 0 0 0 0 7.4814740281253762 2.9865571514305884 0 2.9865571514305884 57.15672036594151 0 0 0 0 0.96493353674304672 -34.553471517407161 0 -34.553471517407161 118.6111304480105 0 0 0 0 17.909984178244486 11.445523641955219 0 11.445523641955219 53.569663202961237 0 0 0 0 -29.62170053247246 -1.9837334145704517 0 -1.9837334145704517 56.500840014222376 0 0 0 0 30.419685092638247 11.509850627442574 0 11.509850627442574 48.03709436781719 0 0 0 0 24.225715791879338 -9.8452570871295393 0 -9.8452570871295393 66.964461072796439 0 0 0 0 46.733244307892164 -22.335453502993005 0 -22.335453502993005 56.26910578324987 0 0 0 0 51.201016279621399 -2.3410447014287001 0 -2.3410447014287001 -11.035317438465995 0 0 0 0 38.554267919373899 -4.3964260776321566 0 -4.3964260776321566 -6.3098850596145111 0 0 0 0 51.500684086713591 -15.750305711973851 0 -15.750305711973851 43.261457610069556 0 0 0 0 45.216973438073182 -17.259952155774158 0 -17.259952155774158 9.9603247844262341 0 0 0 0 101.4364642737637 -21.978150841066622 0 -21.978150841066622 5.0827557356655007 0 0 0 0 80.898972551949555 -17.736594673021273 0 -17.736594673021273 -2.8670289469910131 0 0 0 0 51.955590432428835 -18.706659570846863 0 -18.706659570846863 14.189045317818454 0 0 0 0 -9.1185519797727466 -36.972674385235678 0 -36.972674385235678 170.373639349732 0 0 0 0 3.8398011661934568 -22.87607100746078 0 -22.87607100746078 7.627620035827837 0 0 0 0 153.54654152096191 -211.81764852760591 0 -211.81764852760591 -19.561518287264335 0 0 0 0 467.89056695826002 564.95285457085129 0 564.95285457085129 657.32401818210928 0 0 0 0 775.73062111067702 -387.36050822535481 0 -387.36050822535481 -762.71828257406878 0 0 0 0 79.992536974910763 -59.845180010962622 0 -59.845180010962622 77.795119310888367 0 0 0 0 -3.0577302919755311 -22.347054667647285 0 -22.347054667647285 10.149107465702363 0 0 0 0 494.40884147629549 292.96994936405747 0 292.96994936405747 98.362051295654055 0 0 0 0 9.6669526999758091 -177.27943762322411 0 -177.27943762322411 -22.49872071558093 0 0 0 0 1.1112518961141404 -3.7162240202526391 0 -3.7162240202526391 4.4906789053382692 0 0 0 0 -29.999647603821359 -102.39357741725462 0 -102.39357741725462 -8.059269479042996 0 0 0 0 74.844526299508289 -173.94718918681156 0 -173.94718918681156 -11.861621376370522 0 0 0 0 75.676611231974675 -109.98396720897654 0 -109.98396720897654 -39.843080812459448 0 0 0 0 106.00495300456532 -0.55702933929533316 0 -0.55702933929533316 -13.685858230093494 0 0 0 0 108.16723921778612 42.259727765075695 0 42.259727765075695 51.630527108805325 0 0 0 0 117.98208116987371 75.741355713763596 0 75.741355713763596 -17.576790301704023 0 0 0 0 86.397819314163144 15.722074462147404 0 15.722074462147404 -4.9839619929545673 0 0 0 0 187.31995905825897 -25.193587215286016 0 -25.193587215286016 -31.813707786189298 0 0 0 0 116.82920347174513 40.194052887324709 0 40.194052887324709 -20.699012729304883 0 0 0 0 139.69745236086601 -4.3580114444409901 0 -4.3580114444409901 -38.998160329383154 0 0 0 0 85.648964707140067 22.61703193422035 0 22.61703193422035 -7.2082174519677942 0 0 0 0 9.0881154121959824 -22.191704138515632 0 -22.191704138515632 7.4422294441825692 0 0 0 0 -1.1771321043196394 0.31155359574599117 0 0.31155359574599117 2.7869024486359768 0 0 0 0 119.26452831932966 -10.813731316309365 0 -10.813731316309365 -9.8569692315822977 0 0 0 0 129.75862631866767 -40.113022207201539 0 -40.113022207201539 10.982282221631749 0 0 0 0 57.131945493587409 -26.422010650281891 0 -26.422010650281891 19.100078567309993 0 0 0 0 59.017544945701957 -12.175952160230054 0 -12.175952160230054 19.716789011926267 0 0 0 0 56.959506573468389 -28.704872828008625 0 -28.704872828008625 5.6521125963026861 0 0 0 0 39.805092683778184 -26.100167575884683 0 -26.100167575884683 4.1076609883224862 0 0 0 0 59.522505899960379 -13.303111794106968 0 -13.303111794106968 3.0441744306849614 0 0 0 0 16.359801502971195 0.40954222689705944 0 0.40954222689705944 -0.96240095775381485 0 0 0 0 85.871036641183309 -55.053747167862241 0 -55.053747167862241 -43.438324274009119 0 0 0 0 32.502332540199859 -57.089429692199616 0 -57.089429692199616 -37.880513173611988 0 0 0 0 -13.639634494204074 -63.554351597179561 0 -63.554351597179561 -9.0016172133029215 0 0 0 0 30.447913315190817 -49.113680425948644 0 -49.113680425948644 -15.854027200087103 0 0 0 0 64.026704761294241 -30.546599860009714 0 -30.546599860009714 1.9799439769274727 0 0 0 0 21.072386237967294 -52.813343296471444 0 -52.813343296471444 -17.397213179546497 0 0 0 0 15.839819868211634 -46.76617359921984 0 -46.76617359921984 -0.29398159424192727 0 0 0 0 40.602641148594557 -65.519740589304746 0 -65.519740589304746 -13.462368985313788 0 0 0 0 16.570631763919664 -48.12230891704997 0 -48.12230891704997 -0.00074952576956492656 0 0 0 0 80.02963210712187 -39.935865151966411 0 -39.935865151966411 -14.651813410903655 0 0 0 0 -4.8787388345226645 -27.115931856927354 0 -27.115931856927354 -16.117743647602836 0 0 0 0 -7.9593376205302775 -60.712296141096374 0 -60.712296141096374 -34.979729782738346 0 0 0 0 45.589002714464925 -23.539449335720178 0 -23.539449335720178 0.85511036512879857 0 0 0 0 -10.590754422271857 -59.779861507606071 0 -59.779861507606071 -36.787859974083602 0 0 0 0 86.399256776348921 -35.969722775561422 0 -35.969722775561422 21.509044969981687 0 0 0 0 -9.3322834297832742 -77.440172742687977 0 -77.440172742687977 -25.792571291003327 0 0 0 0 -69.561349815048743 -55.915468499700609 0 -55.915468499700609 -28.831402851351179 0 0 0 0 17.1063054066326 -44.121612752464145 0 -44.121612752464145 -31.165831322931297 0 0 0 0 -4.3308022628189065 -69.49159087269507 0 -69.49159087269507 -21.751028374936979 0 0 0 0 167.55130783353525 82.821939873026992 0 82.821939873026992 18.048605138702598 0 0 0 0 79.582619867286667 28.032136838576672 0 28.032136838576672 -6.1922526491446348 0 0 0 0 38.214171011580746 23.226647338625668 0 23.226647338625668 -3.3438473816650127 0 0 0 0 55.43981252136291 26.338189112859254 0 26.338189112859254 14.706791973922577 0 0 0 0 9.7480199895494266 1.263410812885553 0 1.263410812885553 -0.20784186202255445 0 0 0 0 -18.305230396195839 -38.969679042927268 0 -38.969679042927268 -0.041651672699760965 0 0 0 0 5.5739101625817398 2.0999461630890437 0 2.0999461630890437 0.35131612451524186 0 0 0 0 10.934815492022608 -30.329742555580204 0 -30.329742555580204 -33.036953809149431 0 0 0 0 178.60529752529692 6.5551726404621604 0 6.5551726404621604 -27.530172255758593 0 0 0 0 2.216620829993019 -1.184814471882504 0 -1.184814471882504 -7.7999934400411437 0 0 0 0 224.69862526259385 52.196020506947121 0 52.196020506947121 6.9540266614644679 0 0 0 0 223.49612025532406 55.674636456384647 0 55.674636456384647 -1.7131264515434736 0 0 0 0 -1.0826319733512832 -1.1490702849729644 0 -1.1490702849729644 -0.69831880473161267 0 0 0 0 216.04798399994615 102.19738278428599 0 102.19738278428599 38.521573065267603 0 0 0 0 158.87362874852261 11.017552688943056 0 11.017552688943056 30.598342182267004 0 0 0 0 172.32522755660466 40.064148094878874 0 40.064148094878874 12.091487759939582 0 0 0 0 162.49491162889171 44.76543512182576 0 44.76543512182576 42.266894053416962 0 0 0 0 -392.62014656695828 -348.26358729515744 0 -348.26358729515744 -172.08698175368795 0 0 0 0 180.95918842568062 -238.62782436797397 0 -238.62782436797397 -333.3995743502096 0 0 0 0 2.3657077268167654 1.2055405568736433 0 1.2055405568736433 0.57377741248257985 0 0 0 0 51.472710905916756 57.074110118700958 0 57.074110118700958 -29.234103814360424 0 0 0 0 -10.629873957994278 29.540709229296624 0 29.540709229296624 -30.358707573235733 0 0 0 0 11.914457902836489 10.629079537915487 0 10.629079537915487 -11.877206837792709 0 0 0 0 124.78026748806587 66.705751946137866 0 66.705751946137866 -13.609584429117831 0 0 0 0 146.51468147269043 49.59849787392352 0 49.59849787392352 -0.92988369854128905 0 0 0 0 170.59170019597514 9.0441823870455664 0 9.0441823870455664 -4.6557178281816505 0 0 0 0 126.57499174197437 13.030400620002467 0 13.030400620002467 2.7783539910388981 0 0 0 0 127.72525585296535 -5.1373185559371031 0 -5.1373185559371031 -28.287614654034314 0 0 0 0 110.93370753870113 3.5784510153544034 0 3.5784510153544034 -32.429518406962984 0 0 0 0 112.4418792972574 -10.932913720322404 0 -10.932913720322404 -30.148775599600384 0 0 0 0 91.939647951119696 -26.238831410408494 0 -26.238831410408494 -30.770100094431655 0 0 0 0 89.076469360305055 -13.392973587554351 0 -13.392973587554351 -15.012741961177198 0 0 0 0 107.53771067137131 -24.057362889305125 0 -24.057362889305125 -11.482074407629398 0 0 0 0 130.60676124622114 -19.864949301166178 0 -19.864949301166178 -27.795965818985565 0 0 0 0 34.793238939892035 -55.22628931120471 0 -55.22628931120471 -31.57030794783509 0 0 0 0 38.703953513439046 -36.042484457536091 0 -36.042484457536091 -19.051854627536869 0 0 0 0 83.422472089952862 -48.729797675677318 0 -48.729797675677318 -34.950173448420742 0 0 0 0 -55.025303768146841 -83.045969847012515 0 -83.045969847012515 -20.008509398266483 0 0 0 0 40.167532486317214 -39.785300402464429 0 -39.785300402464429 -36.386117149344187 0 0 0 0 63.703228417376522 -63.624974467069649 0 -63.624974467069649 -53.911126187926357 0 0 0 0 48.32156143055181 -46.536732555124502 0 -46.536732555124502 -16.240004185318753 0 0 0 0 95.595535758329788 -15.872791150413036 0 -15.872791150413036 -30.430670500146292 0 0 0 0 109.18818456211011 -18.79919219852593 0 -18.79919219852593 -20.90557613488447 0 0 0 0 139.08161179494346 6.2248547660448139 0 6.2248547660448139 -6.1334402257828913 0 0 0 0 147.22894679242745 0.38163868459940886 0 0.38163868459940886 -2.4082536561079451 0 0 0 0 99.080129354377277 -24.804466396819748 0 -24.804466396819748 -9.5755993258069338 0 0 0 0 157.20002896204824 -5.0538108561525235 0 -5.0538108561525235 -18.584476714601166 0 0 0 0 149.88158550916705 24.868440043117118 0 24.868440043117118 9.357163095535455 0 0 0 0 162.39391610232997 29.273046107902836 0 29.273046107902836 27.932666994651413 0 0 0 0 199.48681966800359 -1.9446389265042185 0 -1.9446389265042185 -14.02960177523271 0 0 0 0 105.87033743543725 -52.961848213281954 0 -52.961848213281954 9.0085404315892106 0 0 0 0 69.048802594741574 -64.14564628790427 0 -64.14564628790427 -14.202347514949821 0 0 0 0 103.15696615717025 -18.009343174140255 0 -18.009343174140255 -0.43469749452893325 0 0 0 0 184.92916914905072 -47.732579965433388 0 -47.732579965433388 0.1076640834573564 0 0 0 0 91.296337636758835 -7.9420112425623364 0 -7.9420112425623364 17.88245476676542 0 0 0 0 356.34869137955684 60.23830720175868 0 60.23830720175868 -19.126698015210778 0 0 0 0 -644.33957923746493 -465.76542837990542 0 -465.76542837990542 -1.5036373850647806 0 0 0 0 0.94093769666667981 -1.4771821150137043 0 -1.4771821150137043 -2.270936748753642 0 0 0 0 200.04335920349695 12.04455736575818 0 12.04455736575818 3.4692645983488006 0 0 0 0 234.64288578731066 -413.37682111505774 0 -413.37682111505774 -262.21146943486048 0 0 0 0 158.43774774273334 116.13289598860071 0 116.13289598860071 39.202946954203867 0 0 0 0 689.37013748947356 -438.94233477259496 0 -438.94233477259496 5.226240252398286 0 0 0 0 1947.6813368433359 11.313117776371996 0 11.313117776371996 -215.21960695670577 0 0 0 0 1179.7492353292473 -804.3310391990027 0 -804.3310391990027 321.76226791088504 0 0 0 0 1774.8751029557097 2130.1705579844011 0 2130.1705579844011 1666.0569901543397 0 0 0 0 13.838876441182208 0.23340916749930329 0 0.23340916749930329 -2.0315300361925637 0 0 0 0 2480.8241418472462 1511.1410656850849 0 1511.1410656850849 309.5650060012149 0 0 0 0 121.79290121904342 497.15960180176126 0 497.15960180176126 184.52172413842379 0 0 0 0 230.97200958979442 44.832110394290254 0 44.832110394290254 244.69666233863791 0 0 0 0 523.05292765898048 -218.32407561955984 0 -218.32407561955984 -398.16291196894645 0 0 0 0 122.01568164258788 88.042336242725469 0 88.042336242725469 -608.95456480664461 0 0 0 0 1935.5535588929051 -335.43471357783096 0 -335.43471357783096 -1.9545291053511846 0 0 0 0 6.5698861783315579 5.4678378621079986 0 5.4678378621079986 3.9939210366687599 0 0 0 0 973.09691822718742 1640.1408644392827 0 1640.1408644392827 -11.722646632988926 0 0 0 0 217.00401517894352 -169.01784797140999 0 -169.01784797140999 136.53429380126727 0 0 0 0 172.47333287622314 17.098636722886795 0 17.098636722886795 0.58842099002959003 0 0 0 0 23.086404235057216 8.4191527635743171 0 8.4191527635743171 2.3293646092494873 0 0 0 0 1089.0188145916472 776.02347599822451 0 776.02347599822451 -50.061679677758548 0 0 0 0 1238.0486770931602 747.2264225530264 0 747.2264225530264 -113.08733642785683 0 0 0 0 1168.7833742970543 515.94171953194609 0 515.94171953194609 -192.92437590373265 0 0 0 0 1000.5099495157774 479.07433787880541 0 479.07433787880541 47.766710292916287 0 0 0 0 961.99926380890247 1080.6413561705706 0 1080.6413561705706 790.45955575314588 0 0 0 0 2229.2256759086667 845.50603348811796 0 845.50603348811796 -122.89275456838277 0 0 0 0 383.21242060078657 457.80477154822586 0 457.80477154822586 357.36314943522302 0 0 0 0 613.57574987734552 507.44961627854127 0 507.44961627854127 488.08336621146668 0 0 0 0 398.22868546484824 388.69357683331702 0 388.69357683331702 602.69427660457359 0 0 0 0 527.10862930714211 580.5298543816707 0 580.5298543816707 536.89637591222868 0 0 0 0 23.581933964791574 -1.4721234159364087 0 -1.4721234159364087 -6.1690820443530736 0 0 0 0 1538.5931146704243 1214.0949708740111 0 1214.0949708740111 235.48809607810267 0 0 0 0 1406.5338926187833 388.74355465491539 0 388.74355465491539 400.86582760296722 0 0 0 0 -11.636221636319533 892.17578988794526 0 892.17578988794526 1897.3775562396102 0 0 0 0 251.76717800943879 75.979641346288503 0 75.979641346288503 -160.81987853197367 0 0 0 0 1384.2260267382953 736.08341829876269 0 736.08341829876269 -0.45856930100732496 0 0 0 0 12.703864815942438 3.1853057439822905 0 3.1853057439822905 0.18624424619668131 0 0 0 0 65.144208960606193 1687.842383490879 0 1687.842383490879 669.4777179268367 0 0 0 0 -76.792843555042055 -17.724189375662547 0 -17.724189375662547 -0.27576387040238315 0 0 0 0 348.65112698294979 176.40938066238783 0 176.40938066238783 260.16484396761149 0 0 0 0 249.48764537810348 353.40750577444555 0 353.40750577444555 697.60047230797852 0 0 0 0 373.47336290936801 290.27432551215247 0 290.27432551215247 88.505791507734557 0 0 0 0 33.069892522442387 6.5377234943770377 0 6.5377234943770377 4.9126268130524835 0 0 0 0 36.180055929983439 2.8097102088047237 0 2.8097102088047237 -1.1027250139506553 0 0 0 0 83.237344292923808 403.19917729868996 0 403.19917729868996 223.16657764445807 0 0 0 0 261.11820445710327 -20.982915390296764 0 -20.982915390296764 -570.36335672857206 0 0 0 0 55.113397363985371 -0.50332806612798819 0 -0.50332806612798819 -1.4407000601637003 0 0 0 0 47.244444823612866 -5.9024957716717852 0 -5.9024957716717852 0.085480968535261076 0 0 0 0 -52.86333755211308 -169.40262747678884 0 -169.40262747678884 -85.60108933838319 0 0 0 0 -168.25232762361702 216.63539477542861 0 216.63539477542861 291.05838782290448 0 0 0 0 113.62890161502582 36.104518696061916 0 36.104518696061916 73.449689282628242 0 0 0 0 190.63575207942631 285.43478455885133 0 285.43478455885133 56.06511608748508 0 0 0 0 111.2297646580264 226.49510678970682 0 226.49510678970682 606.94843603044865 0 0 0 0 333.12085675646085 156.91451853876788 0 156.91451853876788 166.44065173143736 0 0 0 0 244.27448941374314 488.54039816170371 0 488.54039816170371 476.07177457197122 0 0 0 0 506.11308692673629 842.47383858474132 0 842.47383858474132 810.17904720216279 0 0 0 0 339.6551849161624 501.8524339089804 0 501.8524339089804 490.58306720855194 0 0 0 0 438.74137254682137 429.51184742597434 0 429.51184742597434 145.48205098090352 0 0 0 0 230.54961659360561 211.81015247835603 0 211.81015247835603 205.21819726693911 0 0 0 0 381.83121613500407 9.6102795603189861 0 9.6102795603189861 -962.37346275697178 0 0 0 0 65.793663310117893 -7.2882822644876839 0 -7.2882822644876839 -0.48099543408796391 0 0 0 0 65.786048994836165 -35.143701899723901 0 -35.143701899723901 -0.15644306398387231 0 0 0 0 124.00231224414892 -25.660976714909992 0 -25.660976714909992 -38.633802619278292 0 0 0 0 8.8589487789739678 11.763923556856213 0 11.763923556856213 -4.6787142244152529 0 0 0 0 40.330574132007314 -14.32157329081735 0 -14.32157329081735 -4.6133212180868197 0 0 0 0 44.589279723499203 -5.8609963200836077 0 -5.8609963200836077 -37.583208099482867 0 0 0 0 13.477880614955211 277.08683248125817 0 277.08683248125817 -241.2677407931958 0 0 0 0 180.66967876063427 272.79626989500957 0 272.79626989500957 114.41049544596103 0 0 0 0 -34.864789489540271 184.38465868308253 0 184.38465868308253 377.36193866922076 0 0 0 0 79.996771955688018 172.99448842984657 0 172.99448842984657 -35.367979206300049 0 0 0 0 -219.16280385468417 9.2173751770129684 0 9.2173751770129684 -9.9970600235906204 0 0 0 0 276.31884467438795 -123.84829644569163 0 -123.84829644569163 -771.39233043246759 0 0 0 0 821.02575571055058 236.91859721122546 0 236.91859721122546 -218.76131294870396 0 0 0 0 79.671883815986803 314.27079729203774 0 314.27079729203774 -621.14548311536623 0 0 0 0 91.66622287077189 39.278371122389672 0 39.278371122389672 -163.46142321987099 0 0 0 0 -51.909922903607367 95.001615112751551 0 95.001615112751551 744.01432147654623 0 0 0 0 636.64142487337813 389.58408303519099 0 389.58408303519099 265.8361387907637 0 0 0 0 81.105775772826746 473.04276678455699 0 473.04276678455699 567.47797114935156 0 0 0 0 0.56266451449505439 2.2289722711740581 0 2.2289722711740581 6.7941785060736004 0 0 0 0 -18.728660288441461 -120.22472884177023 0 -120.22472884177023 557.8875231888569 0 0 0 0 73.159785865427693 -98.540357355783726 0 -98.540357355783726 285.2140489471393 0 0 0 0 24.579987858407549 146.27445814324687 0 146.27445814324687 347.44392168940158 0 0 0 0 295.37042930768803 302.76786606070095 0 302.76786606070095 357.68041240637558 0 0 0 0 255.4855778956553 179.23934269485972 0 179.23934269485972 56.558081098935617 0 0 0 0 775.09348990473427 -24.924931906092141 0 -24.924931906092141 43.731496296551541 0 0 0 0 -0.98020002404280149 4.7493098492466288 0 4.7493098492466288 2.1046457628780315 0 0 0 0 17.453963767220159 0.25264460768268293 0 0.25264460768268293 -6.2926502065186529 0 0 0 0 694.01055151050969 354.09778062813848 0 354.09778062813848 433.96424963983191 0 0 0 0 531.2123028542228 243.54148559826587 0 243.54148559826587 -198.25850650625307 0 0 0 0 208.04093643988017 352.7941419559811 0 352.7941419559811 1089.1178094132515 0 0 0 0 595.11270272123875 1322.547223093155 0 1322.547223093155 793.95597729068686 0 0 0 0 270.35728446778376 548.47087428822283 0 548.47087428822283 567.06196778145568 0 0 0 0 6.6251203775122463 0.89563313084288154 0 0.89563313084288154 -3.0069465028374296 0 0 0 0 635.93512695810932 160.00523841883523 0 160.00523841883523 -471.05636839366588 0 0 0 0 307.52113252840354 -469.27042620140401 0 -469.27042620140401 -612.53930418980235 0 0 0 0 -16.547472215985181 135.6374335783255 0 135.6374335783255 24.951605489754002 0 0 0 0 886.59910782548832 465.66185474250051 0 465.66185474250051 -197.51676309318714 0 0 0 0 876.27547303516621 402.929425327236 0 402.929425327236 53.571654145749562 0 0 0 0 911.50815416557816 690.69203907608266 0 690.69203907608266 238.181839458387 0 0 0 0 429.00109426124982 172.29936378225284 0 172.29936378225284 69.737315819370906 0 0 0 0 1058.9246745890414 206.6872664089592 0 206.6872664089592 -38.553512854793098 0 0 0 0 918.06821983713598 502.38872919615483 0 502.38872919615483 281.28260726158578 0 0 0 0 679.70368664005946 51.564543972724778 0 51.564543972724778 138.43037008588999 0 0 0 0 1017.7460828828989 338.93326917218474 0 338.93326917218474 549.29255832483432 0 0 0 0 1719.2997973790043 547.95680418026245 0 547.95680418026245 140.3792298484741 0 0 0 0 6.6346696301989141 131.18038920285892 0 131.18038920285892 153.50732290329688 0 0 0 0 3.6458567082965061 11.032811007804554 0 11.032811007804554 16.122120760990672 0 0 0 0 -77.046865003791027 140.85135471502781 0 140.85135471502781 -75.313681849029251 0 0 0 0 554.74449494641158 22.480507998180201 0 22.480507998180201 -27.051769264952782 0 0 0 0 260.50522427927353 -33.766484748459789 0 -33.766484748459789 57.186132833205988 0 0 0 0 573.47462465212448 181.83540822443797 0 181.83540822443797 2.2367964924188186 0 0 0 0 3.7676641287279438 9.6004931447149602 0 9.6004931447149602 16.734769458707081 0 0 0 0 -379.88929723531328 183.96371589960697 0 183.96371589960697 146.89085959398625 0 0 0 0 114.01441378283198 104.52091454537572 0 104.52091454537572 -102.66062633504893 0 0 0 0 276.15959589307022 189.51179812394608 0 189.51179812394608 -109.65687658188182 0 0 0 0 1775.9089682610502 482.87531056531054 0 482.87531056531054 46.735866122257164 0 0 0 0 -415.46916091790627 -2.7845774684949447 0 -2.7845774684949447 947.17748125629532 0 0 0 0 2.0905542428048705 3.7597748662499271 0 3.7597748662499271 8.0530311264266459 0 0 0 0 420.7530377709918 -302.23269594565153 0 -302.23269594565153 92.178279414784356 0 0 0 0 1062.0957891550715 683.8747137189107 0 683.8747137189107 474.67148252372635 0 0 0 0 1166.9564642862533 791.07987194227871 0 791.07987194227871 564.61267528549683 0 0 0 0 1264.5018735614285 518.13262652795902 0 518.13262652795902 107.99850777237145 0 0 0 0 286.41703532029351 167.59603974628521 0 167.59603974628521 287.85071797861565 0 0 0 0 595.58801394025068 -135.50187757151161 0 -135.50187757151161 -168.61850285883247 0 0 0 0 -6.9853833221714012 -346.38726965061596 0 -346.38726965061596 -221.90116737282403 0 0 0 0 64.979276254525757 93.254634806214654 0 93.254634806214654 223.16860868055073 0 0 0 0 70.292754335649079 -40.455419064295256 0 -40.455419064295256 247.35175569671446 0 0 0 0 -4.5530291917093564 5.5005976264133096 0 5.5005976264133096 165.76207510124544 0 0 0 0 17.599279918867978 28.963103795160123 0 28.963103795160123 171.7020475367417 0 0 0 0 135.31913346247165 21.121649076928179 0 21.121649076928179 -37.36656430676021 0 0 0 0 31.638841033141944 -19.884394690506724 0 -19.884394690506724 161.76691357438801 0 0 0 0 63.173079618216434 -4.6569287819995679 0 -4.6569287819995679 -4.1322650706024433 0 0 0 0 55.704248318753343 -100.93860447674477 0 -100.93860447674477 -236.53103602945976 0 0 0 0 98.676946447296359 -18.961197010921353 0 -18.961197010921353 -47.803169283819898 0 0 0 0 67.122723692897125 19.570747768194678 0 19.570747768194678 -86.400543042359914 0 0 0 0 36.314815740385825 -7.0332241621945144 0 -7.0332241621945144 -1.0879863872327888 0 0 0 0 77.708854082844482 -15.353263583678768 0 -15.353263583678768 -115.89708631841586 0 0 0 0 22.404758436831969 -7.0508327527893897 0 -7.0508327527893897 -0.14079346859658948 0 0 0 0 833.58955451265501 440.57176245140272 0 440.57176245140272 44.402996763019928 0 0 0 0 875.91533344553318 688.33090700533057 0 688.33090700533057 287.95637605244974 0 0 0 0 9.7619360477605142 -1.4851659390731697 0 -1.4851659390731697 -0.46679366919446608 0 0 0 0 1356.4259517048195 1335.9551954184217 0 1335.9551954184217 948.77776727260152 0 0 0 0 17.663525333598955 81.469507984935717 0 81.469507984935717 -54.144391881419097 0 0 0 0 2196.7785890593223 -1146.8083422979607 0 -1146.8083422979607 -150.67975978915635 0 0 0 0 4491.7770910479157 -3369.3609686526934 0 -3369.3609686526934 1903.0049483835119 0 0 0 0 2083.7363815143617 -1275.5565176234984 0 -1275.5565176234984 618.30028618397216 0 0 0 0 52.257025500646989 10.218987103575998 0 10.218987103575998 -4.7447499948083705 0 0 0 0 25.212443224605522 -85.002396351266611 0 -85.002396351266611 -118.20920872297074 0 0 0 0 -157.66271190781845 -244.13734828392018 0 -244.13734828392018 657.37520725312265 0 0 0 0 20.641887954149396 3.336592987265135 0 3.336592987265135 -4.4956384915506726 0 0 0 0 1763.193399550888 947.82318957119651 0 947.82318957119651 253.53298512302001 0 0 0 0 1121.249707974639 1432.3913676358195 0 1432.3913676358195 1403.0551313857957 0 0 0 0 21.169455022183513 2.029997949111177 0 2.029997949111177 3.415874623864374 0 0 0 0 4475.4418624950631 1797.328002011287 0 1797.328002011287 251.32206980436771 0 0 0 0 1873.9208997685346 743.12420803203895 0 743.12420803203895 249.2099376245784 0 0 0 0 1142.8863690907892 511.53725972994147 0 511.53725972994147 334.60453773796849 0 0 0 0 9.632813807922048 0.18726342963208253 0 0.18726342963208253 -0.43846523902782819 0 0 0 0 1579.6294734243565 0.84263632261539634 0 0.84263632261539634 1.6946048343529792 0 0 0 0 4490.7595352999679 1510.991978281884 0 1510.991978281884 1.120924939532759 0 0 0 0 8.6829633059301159 -0.093529636064857868 0 -0.093529636064857868 -0.10633264426224409 0 0 0 0 2696.7072898352053 1521.8622529438876 0 1521.8622529438876 1004.9673714744119 0 0 0 0 3442.4367058243661 804.93019104007612 0 804.93019104007612 230.08131737719052 0 0 0 0 1253.8572433124646 367.43170316396265 0 367.43170316396265 505.59284287228758 0 0 0 0 2155.7809575689025 1059.5103619873782 0 1059.5103619873782 205.84335542871867 0 0 0 0 -0.16543099327395794 1.1776027886483291 0 1.1776027886483291 4.1323182458164647 0 0 0 0 -368.89310247447429 -93.743771104640132 0 -93.743771104640132 570.81178189100092 0 0 0 0 1330.7523664255823 1583.5671729404517 0 1583.5671729404517 1011.4563031783573 0 0 0 0 1281.0390029905411 668.88680220987385 0 668.88680220987385 -254.5805158619371 0 0 0 0 856.50398021595902 -1141.0596910514678 0 -1141.0596910514678 -88.061659549808837 0 0 0 0 1966.3773294341227 -262.29321930464488 0 -262.29321930464488 -612.49768552068736 0 0 0 0 1700.8002881662396 -603.22176543638636 0 -603.22176543638636 -275.26404753563816 0 0 0 0 2127.0079560089362 -644.55735265496651 0 -644.55735265496651 -292.93337404793419 0 0 0 0 1896.4410491461094 -273.37073209877235 0 -273.37073209877235 1.1484484114970013 0 0 0 0 1549.7601973222481 -408.63591232533321 0 -408.63591232533321 235.09730405091207 0 0 0 0 1416.3772241750412 -214.65823014709403 0 -214.65823014709403 -46.363602218806818 0 0 0 0 2353.7366352022364 445.39638493244945 0 445.39638493244945 -400.51460796333981 0 0 0 0 26.357413924210277 -9.2016650206241906 0 -9.2016650206241906 1.933598317324372 0 0 0 0 2049.673197539174 -2199.7617314837989 0 -2199.7617314837989 -482.51914443724149 0 0 0 0 -639.31041324115358 246.13461209442897 0 246.13461209442897 1479.1423194532535 0 0 0 0 3267.4543154728599 -232.87749531346321 0 -232.87749531346321 -613.55344454482986 0 0 0 0 2214.7459475239448 -1324.4762694447677 0 -1324.4762694447677 -141.91833443463975 0 0 0 0 1480.4347782157856 521.33064153792236 0 521.33064153792236 -878.90175573491388 0 0 0 0 93.197742253367323 -99.757174386481438 0 -99.757174386481438 -215.58576201388814 0 0 0 0 73.796610281041353 25.395392878250711 0 25.395392878250711 -0.45515907484625373 0 0 0 0 943.7533463458858 -1984.7809538670851 0 -1984.7809538670851 513.91971270568308 0 0 0 0 2374.333587985253 -3236.0325740445232 0 -3236.0325740445232 1339.2744473366708 0 0 0 0 4216.6700121064205 -1572.9195287730754 0 -1572.9195287730754 -452.99190103335422 0 0 0 0 5412.0532430690364 532.25483024092864 0 532.25483024092864 2480.0114410643009 0 0 0 0 5461.5028462226328 377.06082951416118 0 377.06082951416118 1110.5738417844755 0 0 0 0 5532.539462873654 -2668.5866113233947 0 -2668.5866113233947 358.49536082860209 0 0 0 0 1777.7295171008736 -1885.1687617666466 0 -1885.1687617666466 708.45848872184979 0 0 0 0 3643.792065483256 -1445.1775945850391 0 -1445.1775945850391 66.534382870648528 0 0 0 0 336.62140381999779 -435.74572368064469 0 -435.74572368064469 2341.0767261776282 0 0 0 0 1608.8910123589449 -1145.3158017465003 0 -1145.3158017465003 602.49815382204133 0 0 0 0 1176.5277696386911 374.36502561020779 0 374.36502561020779 5013.7010888167242 0 0 0 0 934.65220872248756 -1573.1742809516504 0 -1573.1742809516504 2957.2264942353054 0 0 0 0 1453.3594625423721 24.572355739029717 0 24.572355739029717 1887.3820137956836 0 0 0 0 433.5369334036277 214.76142299978864 0 214.76142299978864 1206.5191096136214 0 0 0 0 554.71178411506116 -167.48513187172659 0 -167.48513187172659 355.8574690953443 0 0 0 0 153.88418708332756 -237.27191894507553 0 -237.27191894507553 -1225.0192091039894 0 0 0 0 -383.42946643281721 917.12847118464879 0 917.12847118464879 70.14001057436667 0 0 0 0 264.96173559690942 -1538.9469400726866 0 -1538.9469400726866 158.85129271606047 0 0 0 0 252.59756104691769 -329.21678205546726 0 -329.21678205546726 -0.09458766971146107 0 0 0 0 134.16986950463615 -127.47444549187801 0 -127.47444549187801 -293.07000934461701 0 0 0 0 59.996657119132522 -16.042487542189271 0 -16.042487542189271 2.1142952403023356 0 0 0 0 29.528927503095474 -181.50830589570828 0 -181.50830589570828 -196.69500531852333 0 0 0 0 66.820014731174126 -14.648963749499444 0 -14.648963749499444 1.3902697362830319 0 0 0 0 0.60277546539145987 -203.33260303518728 0 -203.33260303518728 -82.77831992313719 0 0 0 0 -35.179886469559278 -140.02478351381393 0 -140.02478351381393 0.020465868065753179 0 0 0 0 -15.661926837987266 -78.466980432229747 0 -78.466980432229747 -22.899185172201875 0 0 0 0 -12.256791183375753 -98.569938273915881 0 -98.569938273915881 -150.19502550784881 0 0 0 0 -24.213061021175236 -101.79280602659075 0 -101.79280602659075 -77.983237768518222 0 0 0 0 74.121733824022272 -5.1354183218410085 0 -5.1354183218410085 -2.9322075584544027 0 0 0 0 -66.709507450839737 -108.02470553208514 0 -108.02470553208514 -863.2596064121542 0 0 0 0 223.90786038024817 -436.61713061481578 0 -436.61713061481578 -839.86296002503605 0 0 0 0 310.39142128967796 -411.76944703479182 0 -411.76944703479182 -52.933068684713362 0 0 0 0 -127.84679053263608 -291.80119787838856 0 -291.80119787838856 -82.850697502854473 0 0 0 0 4.357718353450764 360.39546144160124 0 360.39546144160124 715.23070624864147 0 0 0 0 -32.563659568768344 315.74446062683398 0 315.74446062683398 -226.929999387213 0 0 0 0 -54.985488700403948 61.445043554475205 0 61.445043554475205 148.34056563649392 0 0 0 0 -244.32057872879523 325.7420130141806 0 325.7420130141806 713.84504051735905 0 0 0 0 75.433110833735554 404.3359873116745 0 404.3359873116745 251.1009869396573 0 0 0 0 5.8760865261755839 1.0603010356413876 0 1.0603010356413876 2.3352806778310042 0 0 0 0 149.96186180973018 311.2136620223913 0 311.2136620223913 276.81546547697343 0 0 0 0 55.672480758774327 149.3493606410097 0 149.3493606410097 -58.898189150804853 0 0 0 0 61.501269551961741 35.769614520620479 0 35.769614520620479 -205.80354360308971 0 0 0 0 435.82691644484294 -591.78382854940196 0 -591.78382854940196 449.65666551043722 0 0 0 0 1.8518869566813692 -1.4631198933919194 0 -1.4631198933919194 0.87014419890637851 0 0 0 0 22.446746001467545 -283.37503574761416 0 -283.37503574761416 388.66277970197689 0 0 0 0 708.4218034549267 -580.27805372348882 0 -580.27805372348882 291.97686554427844 0 0 0 0 434.21872194407842 -503.15903061047538 0 -503.15903061047538 385.0657863808317 0 0 0 0 64.222843333864148 -36.871554396413352 0 -36.871554396413352 212.99627027709755 0 0 0 0 515.21662796514283 -184.71941382000335 0 -184.71941382000335 64.75775007275945 0 0 0 0 361.30793670479034 -291.85913869461774 0 -291.85913869461774 297.40234435422661 0 0 0 0 894.40057926648296 -319.73092279545142 0 -319.73092279545142 147.02692582803783 0 0 0 0 1241.5755955282366 -25.969986890039365 0 -25.969986890039365 599.74589539270482 0 0 0 0 1273.753934713779 -727.66161430367447 0 -727.66161430367447 492.76576071510692 0 0 0 0 394.58784347258916 -217.35731511199725 0 -217.35731511199725 584.70090794153577 0 0 0 0 -144.9356154162997 27.534883114505817 0 27.534883114505817 241.23521475327186 0 0 0 0 4.2747911713457825 2.5472710873518452 0 2.5472710873518452 2.9056490937910375 0 0 0 0 565.17049310638686 59.591130800360247 0 59.591130800360247 -465.62681140502445 0 0 0 0 702.02235053311597 -541.71716114936521 0 -541.71716114936521 583.78183486169223 0 0 0 0 924.95714108939865 -493.85374021900833 0 -493.85374021900833 278.7664836814605 0 0 0 0 12.916639623785585 8.6140796090054437 0 8.6140796090054437 3.3188094746976642 0 0 0 0 -93.407685811689589 -72.704993405385721 0 -72.704993405385721 28.374667517707167 0 0 0 0 20.474270576662093 -19.357106965532694 0 -19.357106965532694 45.834430653175332 0 0 0 0 251.7413651709503 232.93203396918079 0 232.93203396918079 121.46165369072878 0 0 0 0 924.1811451814051 -789.47109954533948 0 -789.47109954533948 370.44969233771121 0 0 0 0 3.310985545034157 1.0673712662374299 0 1.0673712662374299 2.9531790369869757 0 0 0 0 392.68311816275673 225.82341909709601 0 225.82341909709601 6.5065061360623986 0 0 0 0 239.61934873461723 -20.972607929775563 0 -20.972607929775563 22.870715929253787 0 0 0 0 146.46985442817095 -205.27932202057906 0 -205.27932202057906 -151.68737886939965 0 0 0 0 498.54632869419584 83.885285156572508 0 83.885285156572508 47.279838392818142 0 0 0 0 30.266318582316615 1.148756954454683 0 1.148756954454683 -13.783712185583052 0 0 0 0 902.78693944528641 330.82536035226269 0 330.82536035226269 101.36347018215793 0 0 0 0 0.78380175365732896 -6.8205148872164045 0 -6.8205148872164045 1.8733508308334841 0 0 0 0 768.2992064498103 235.68182444498962 0 235.68182444498962 56.865153729387202 0 0 0 0 1142.3100619060715 -11.978376318067944 0 -11.978376318067944 -24.628464704149337 0 0 0 0 1836.0963241900217 -375.53446588208817 0 -375.53446588208817 -63.753128157612991 0 0 0 0 116.63249525379797 18.070793282072941 0 18.070793282072941 -23.760720303235246 0 0 0 0 0.047147430624690401 -8.3066456021263377 0 -8.3066456021263377 9.590543684356815 0 0 0 0 2371.380699575675 -359.0293381860929 0 -359.0293381860929 -460.01246218117922 0 0 0 0 662.18731990759625 -643.50927012134616 0 -643.50927012134616 478.13660917689322 0 0 0 0 1031.599023600349 -629.17239449435237 0 -629.17239449435237 807.73723786167352 0 0 0 0 1021.6268004754384 -558.51881974174535 0 -558.51881974174535 311.70168516918704 0 0 0 0 672.68374822782062 -75.587448977287977 0 -75.587448977287977 560.27045598169343 0 0 0 0 626.83523782031989 -684.68390133844071 0 -684.68390133844071 972.37928927935536 0 0 0 0 783.2080013382074 -859.89089439412317 0 -859.89089439412317 1140.474524209937 0 0 0 0 1019.6962067094719 -797.36746140988703 0 -797.36746140988703 786.33279536547025 0 0 0 0 20.601644727149676 12.101909944435022 0 12.101909944435022 4.5281442738074889 0 0 0 0 970.58859960944392 -735.18927811380672 0 -735.18927811380672 837.32897664516895 0 0 0 0 1851.4994603452215 -814.34123929945963 0 -814.34123929945963 -66.604575742556335 0 0 0 0 1376.0537963035167 -1748.1312555765444 0 -1748.1312555765444 2554.5264383424051 0 0 0 0 14.479788988920859 4.2380631994049054 0 4.2380631994049054 5.5536673721493486 0 0 0 0 9.0007163273724586 3.1414661364944436 0 3.1414661364944436 -2.9968040173864612 0 0 0 0 6217.9059213448782 1248.8870680983855 0 1248.8870680983855 848.75568702521559 0 0 0 0 2967.75951917161 -3220.811828658294 0 -3220.811828658294 599.80079570259113 0 0 0 0 8060.4663273787592 -5515.7731723299366 0 -5515.7731723299366 -41.017372038846588 0 0 0 0 8700.9038227615092 -775.09806621500002 0 -775.09806621500002 -765.37776024790946 0 0 0 0 3730.548700652027 -265.42576218835438 0 -265.42576218835438 -514.64557404669176 0 0 0 0 2277.5049904237349 151.32078828732415 0 151.32078828732415 -429.91156942147427 0 0 0 0 2335.5298062919464 654.42062489161799 0 654.42062489161799 -230.99816100064299 0 0 0 0 2238.3187880227342 174.9535658284949 0 174.9535658284949 -444.0894256687734 0 0 0 0 5039.1821722369641 844.13732147884366 0 844.13732147884366 -513.67489645309615 0 0 0 0 1887.1940168046858 1482.4150291826081 0 1482.4150291826081 642.95631124077681 0 0 0 0 31.046682667598418 8.5892954437886004 0 8.5892954437886004 2.2560456319992994 0 0 0 0 6725.0229071270442 1060.757877980479 0 1060.757877980479 -582.97145631352032 0 0 0 0 310.04037844402046 816.37082326122732 0 816.37082326122732 878.88503539055455 0 0 0 0 45.858727286384237 -175.72624777560191 0 -175.72624777560191 39.843695297315207 0 0 0 0 19.023287650102191 -10.474309385172745 0 -10.474309385172745 -30.681977856540929 0 0 0 0 497.35107071373204 323.0243147842466 0 323.0243147842466 270.03713690738732 0 0 0 0 -1.9356920320675357 -4.6187197910974476 0 -4.6187197910974476 -7.980548726247549 0 0 0 0 963.39772302614438 431.79636923208028 0 431.79636923208028 -489.84959644797982 0 0 0 0 1523.2530916605901 333.28009054865925 0 333.28009054865925 -904.86649652864344 0 0 0 0 1576.8631541299692 550.86439589195288 0 550.86439589195288 -244.89681213345852 0 0 0 0 948.66821529367007 7.765507320684037 0 7.765507320684037 -471.03267958172819 0 0 0 0 1917.4606937841745 -53.6267832383719 0 -53.6267832383719 -426.44723376149341 0 0 0 0 1494.1827246090106 221.23185805322873 0 221.23185805322873 -271.69422676155136 0 0 0 0 1802.8816311229129 191.3736876463563 0 191.3736876463563 -552.20146493338871 0 0 0 0 1312.9755108430691 555.55118614734715 0 555.55118614734715 -104.47834774131252 0 0 0 0 1414.4789978849585 393.94483857767659 0 393.94483857767659 -428.05006247880192 0 0 0 0 1221.48543947906 791.67011925777228 0 791.67011925777228 -703.88529010403602 0 0 0 0 822.66597063577501 480.59601756756103 0 480.59601756756103 -51.106701514042584 0 0 0 0 1118.6050752396259 764.40176056962878 0 764.40176056962878 193.77048547491631 0 0 0 0 500.85695094853872 559.15617784452002 0 559.15617784452002 500.11036612695489 0 0 0 0 1608.9527020004025 716.27747577323407 0 716.27747577323407 148.12086209405379 0 0 0 0 2547.4855976958788 674.080670300826 0 674.080670300826 75.89890691251523 0 0 0 0 1344.6285721235618 448.09267925532049 0 448.09267925532049 27.159429324803568 0 0 0 0 2293.9889903327057 -123.94731950622622 0 -123.94731950622622 -287.7606623233919 0 0 0 0 1691.2690300675822 -353.29478749927881 0 -353.29478749927881 -928.8809805962569 0 0 0 0 825.08265564947214 858.72661774714322 0 858.72661774714322 22.361738549573147 0 0 0 0 4795.8149194937287 381.00760495879638 0 381.00760495879638 -828.58961993219316 0 0 0 0 2500.3952562387421 534.69719397279846 0 534.69719397279846 -227.65927557915904 0 0 0 0 3192.5614624678856 -68.021171116341293 0 -68.021171116341293 -361.28010763273619 0 0 0 0 2937.2193663128273 400.25552983619684 0 400.25552983619684 -108.40360711791936 0 0 0 0 2598.5319296329981 128.21137192955609 0 128.21137192955609 -32.368120650797465 0 0 0 0 4500.943739021197 1013.4845554923456 0 1013.4845554923456 -130.6238401127608 0 0 0 0 2855.4285676083236 175.99016112794379 0 175.99016112794379 22.0817349900301 0 0 0 0 3706.9631806709003 831.75538325995581 0 831.75538325995581 332.76922377225037 0 0 0 0 7.6462469531194301 -1.8065252475394402 0 -1.8065252475394402 -3.676151752394401 0 0 0 0 3384.2013428723076 -1051.3275481343544 0 -1051.3275481343544 -1532.9985717828197 0 0 0 0 4937.6174028669629 867.51212895826097 0 867.51212895826097 -776.59484959297151 0 0 0 0 4496.621928333916 1013.0478383443914 0 1013.0478383443914 -129.66040317731972 0 0 0 0 4501.7237574233732 -1052.8781350072525 0 -1052.8781350072525 -1694.7098415841406 0 0 0 0 2480.0862848195247 -436.4648453835174 0 -436.4648453835174 -924.25132070061647 0 0 0 0 3348.1028320002661 -738.73009243646868 0 -738.73009243646868 -953.16372063944982 0 0 0 0 1148.3776876339689 -405.32969188592938 0 -405.32969188592938 -16.505499364044283 0 0 0 0 2131.182157260555 -696.92854373286764 0 -696.92854373286764 -197.83515981369555 0 0 0 0 3253.5353868099337 -1475.2474514470978 0 -1475.2474514470978 -223.3808232240244 0 0 0 0 4499.6883867911311 448.20512598919339 0 448.20512598919339 95.765199141433044 0 0 0 0 3461.5064430559141 608.43145693008159 0 608.43145693008159 1441.0559322338008 0 0 0 0 4065.0501405038522 112.26734187438547 0 112.26734187438547 -693.86157048691553 0 0 0 0 3844.2924857390608 350.25736441673865 0 350.25736441673865 83.83710996372136 0 0 0 0 4004.5645880198645 -253.52712414246923 0 -253.52712414246923 -261.76467936062801 0 0 0 0 4494.8769112910832 187.05164277797545 0 187.05164277797545 51.428544432648337 0 0 0 0 2547.0178610119474 -210.06077259378139 0 -210.06077259378139 220.73196783038611 0 0 0 0 2827.9632497920684 -319.17764716212076 0 -319.17764716212076 28.225947897718925 0 0 0 0 9.014391773346091 -2.2763622517306317 0 -2.2763622517306317 -3.9864201192537383 0 0 0 0 4744.7071325521538 728.22990791111727 0 728.22990791111727 -240.02309465242342 0 0 0 0 3335.6775534392673 462.97088359928381 0 462.97088359928381 -107.05383886889354 0 0 0 0 3472.8004452757013 -70.85221282408304 0 -70.85221282408304 -80.473569747330771 0 0 0 0 806.11296503477206 -1658.9857672500621 0 -1658.9857672500621 -1622.5500745781824 0 0 0 0 3620.050494007839 2433.1320080093151 0 2433.1320080093151 1494.3514109827365 0 0 0 0 16.433242333322767 -0.85334201221873229 0 -0.85334201221873229 -5.394276255830019 0 0 0 0 1262.544742458078 820.2081871662524 0 820.2081871662524 607.57059087459095 0 0 0 0 116.49826579893124 -50.78827219118557 0 -50.78827219118557 -959.56232356897294 0 0 0 0 1295.9858956149801 745.98092901690109 0 745.98092901690109 399.3098181502416 0 0 0 0 32.146018908415158 -1.984278244330838 0 -1.984278244330838 -13.291876018115472 0 0 0 0 514.48556064355944 736.1834401387631 0 736.1834401387631 -504.7870858347718 0 0 0 0 48.583652788445761 476.62910648814403 0 476.62910648814403 179.71672847947156 0 0 0 0 2761.9122455372562 -528.46019931791739 0 -528.46019931791739 433.35195403515405 0 0 0 0 -510.20357092891936 957.88828388986576 0 957.88828388986576 1700.155492407443 0 0 0 0 2077.1839588921121 1305.7406313898221 0 1305.7406313898221 499.00075625472579 0 0 0 0 -173.15634361242701 464.74057826777607 0 464.74057826777607 198.70787832665701 0 0 0 0 586.46242169250036 581.99234489226569 0 581.99234489226569 67.716866012211085 0 0 0 0 -206.22108843428578 730.60210000995573 0 730.60210000995573 988.38585376645187 0 0 0 0 -491.82333405074314 332.13832079995541 0 332.13832079995541 1035.0837425030145 0 0 0 0 44.170340866068727 430.86957939915345 0 430.86957939915345 -180.87032223358437 0 0 0 0 -19.954834639080218 104.45837351850173 0 104.45837351850173 -102.25296924211716 0 0 0 0 117.63753320744385 173.73469759579186 0 173.73469759579186 -67.412061806689962 0 0 0 0 5.2898343473152494 8.1973234405298001 0 8.1973234405298001 22.500867201663361 0 0 0 0 233.6648904611211 8.9478222857222818 0 8.9478222857222818 70.230792111958976 0 0 0 0 -0.22789359909370432 1.5620882933523319 0 1.5620882933523319 10.119425754841167 0 0 0 0 789.2172467988712 305.07185746285734 0 305.07185746285734 194.56705978295247 0 0 0 0 937.30422202508271 732.93101783808561 0 732.93101783808561 572.17777761048342 0 0 0 0 78.273258501791133 168.93181928427708 0 168.93181928427708 314.79443314413618 0 0 0 0 765.82279909420322 204.67145720424287 0 204.67145720424287 841.26141509330728 0 0 0 0 373.29411019661666 64.285330474458533 0 64.285330474458533 545.72505935715753 0 0 0 0 390.6653828600538 433.50762625741413 0 433.50762625741413 950.41632354715637 0 0 0 0 276.92116746299143 -37.52709438095053 0 -37.52709438095053 528.19699297296825 0 0 0 0 357.03119903406878 311.51667564824982 0 311.51667564824982 26.646226377720268 0 0 0 0 -101.46023047091148 102.63563166925269 0 102.63563166925269 -66.747640280624637 0 0 0 0 252.61902035204912 387.31753795260511 0 387.31753795260511 -701.53344133986775 0 0 0 0 -361.89267325430774 753.29302704963129 0 753.29302704963129 -755.87789512802919 0 0 0 0 -42.246762170092552 272.0737967122941 0 272.0737967122941 -446.5774975049917 0 0 0 0 202.9227818287909 293.05652257960264 0 293.05652257960264 -472.59850948463009 0 0 0 0 -78.988927397396765 678.36603162369011 0 678.36603162369011 -927.61934805302735 0 0 0 0 -250.85697978776625 580.9108190148869 0 580.9108190148869 -982.80486209107403 0 0 0 0 71.985043003885949 315.77258211694129 0 315.77258211694129 -692.16274942262498 0 0 0 0 -443.7690340046247 495.38227804073722 0 495.38227804073722 -643.14411225295044 0 0 0 0 -301.96608835767256 490.49771363971922 0 490.49771363971922 -690.97290225249446 0 0 0 0 -16.87486068092403 357.20525451067806 0 357.20525451067806 -737.06036949157715 0 0 0 0 -396.95234204642475 299.04295011497743 0 299.04295011497743 -713.40194837772833 0 0 0 0 10.72755694220541 17.107849582478138 0 17.107849582478138 -1.6373369634911796 0 0 0 0 -497.52517210219048 715.17767672375794 0 715.17767672375794 -729.52484921341602 0 0 0 0 -106.63075849149027 285.75697099519039 0 285.75697099519039 -880.7467322694938 0 0 0 0 6.8225526204418863 19.763861084331637 0 19.763861084331637 6.0634359830619005 0 0 0 0 -23.294519350660266 44.593773080027859 0 44.593773080027859 19.054282226152509 0 0 0 0 7.5349342860458215 6.3787123673438373 0 6.3787123673438373 -1.2553090274757537 0 0 0 0 -83.722499214634809 58.282317469974117 0 58.282317469974117 67.967173822121367 0 0 0 0 -65.558201964449836 113.13977150119192 0 113.13977150119192 -21.330443266037719 0 0 0 0 48.563479680080491 30.737239621570311 0 30.737239621570311 13.435384818614843 0 0 0 0 62.810527226203703 371.54822645101081 0 371.54822645101081 -934.81692071821271 0 0 0 0 -169.50766549489344 297.38348262383045 0 297.38348262383045 -65.275491819145543 0 0 0 0 48.050075970378941 30.397205094746184 0 30.397205094746184 16.95104129647526 0 0 0 0 -1.9851751081150724 -6.3076680882481639 0 -6.3076680882481639 59.982857240368162 0 0 0 0 -24.198708612209884 -11.285875008701623 0 -11.285875008701623 82.919845614266023 0 0 0 0 89.925231968285516 73.675007021951899 0 73.675007021951899 84.451274311892519 0 0 0 0 257.22136472389684 -234.70528502013215 0 -234.70528502013215 245.10238054583829 0 0 0 0 237.09584242492565 43.902182136064312 0 43.902182136064312 113.57731405704021 0 0 0 0 -52.368873099687335 -79.348079442617049 0 -79.348079442617049 130.1089111872989 0 0 0 0 38.710709267086088 26.484672172332864 0 26.484672172332864 16.036197873545341 0 0 0 0 285.42839415807975 399.74791801180544 0 399.74791801180544 -373.74208374985312 0 0 0 0 -284.04254840828071 293.06049370238043 0 293.06049370238043 -23.473787289414986 0 0 0 0 -282.62065805158448 966.9803970214349 0 966.9803970214349 -337.45401633114125 0 0 0 0 16.041420896212173 10.839508233360206 0 10.839508233360206 8.0933945985797315 0 0 0 0 3379.6591745640108 1323.7377850174323 0 1323.7377850174323 403.43774957561726 0 0 0 0 2986.3664399819245 -372.35176142875764 0 -372.35176142875764 -373.81925425441682 0 0 0 0 58.204830673743345 -76.473963962235615 0 -76.473963962235615 388.85680126164516 0 0 0 0 1245.7599379424501 -161.5679579945207 0 -161.5679579945207 37.870050228776563 0 0 0 0 271.40752331382828 -167.0286077001345 0 -167.0286077001345 366.18604693692089 0 0 0 0 313.2578617149702 -146.57309626076608 0 -146.57309626076608 382.39874656858183 0 0 0 0 635.5711406870978 -206.19949360021985 0 -206.19949360021985 219.16734737670629 0 0 0 0 2075.4042725188483 1049.8891584174339 0 1049.8891584174339 568.82381090134061 0 0 0 0 1937.4370234846901 743.34648293810187 0 743.34648293810187 248.70150240839811 0 0 0 0 732.07856374085895 293.96316809861423 0 293.96316809861423 268.56619556550379 0 0 0 0 3513.9817892065475 1537.6180892105106 0 1537.6180892105106 34.138436077249096 0 0 0 0 2001.1074720787365 1249.7132380322466 0 1249.7132380322466 31.402672207798258 0 0 0 0 4487.9608709993117 2618.287832783883 0 2618.287832783883 695.46050788841433 0 0 0 0 4502.2316020643048 1301.2832175042702 0 1301.2832175042702 -247.63402018349001 0 0 0 0 2177.0373924662999 600.10147057579934 0 600.10147057579934 -20.938040393521987 0 0 0 0 3665.322151607048 1068.0748163966202 0 1068.0748163966202 -140.44999122451264 0 0 0 0 3605.8913106931632 910.32282831297471 0 910.32282831297471 255.1423252013135 0 0 0 0 3505.355766454355 1301.3789344422285 0 1301.3789344422285 151.84863843474926 0 0 0 0 284.40878551171045 149.1385394331387 0 149.1385394331387 -120.88218068242895 0 0 0 0 2.2985255658941099 -3.8804725760060137 0 -3.8804725760060137 3.8179430047741185 0 0 0 0 21.337881831386767 -36.031943996031487 0 -36.031943996031487 -31.609011808545802 0 0 0 0 83.989954472024692 -138.07171799576054 0 -138.07171799576054 -187.96411388764318 0 0 0 0 148.79327947377897 13.23610720929787 0 13.23610720929787 -29.568648856673462 0 0 0 0 668.51413252912607 -589.86033541767392 0 -589.86033541767392 458.47777308243894 0 0 0 0 83.045013888793619 -299.36403113816903 0 -299.36403113816903 552.90519104048963 0 0 0 0 -75.235261312845978 16.736458079151362 0 16.736458079151362 416.86023914498492 0 0 0 0 6.4849259877137797 -3.183354158141114 0 -3.183354158141114 1.3063338002820393 0 0 0 0 245.281025436645 -186.34755740459718 0 -186.34755740459718 124.57290281843962 0 0 0 0 298.86033146697446 -27.801521912183944 0 -27.801521912183944 -69.600445940301142 0 0 0 0 377.07289225902423 -162.45912495580086 0 -162.45912495580086 -133.12372886005869 0 0 0 0 410.98062771660807 -384.4145141929344 0 -384.4145141929344 228.81699306702649 0 0 0 0 737.51100580224011 -409.01864033495508 0 -409.01864033495508 50.437376680125453 0 0 0 0 534.60043109839899 -351.85135581117265 0 -351.85135581117265 -3.1208584182281811 0 0 0 0 516.05653291658382 -506.91971043062676 0 -506.91971043062676 150.64842362276386 0 0 0 0 220.7367312428978 -123.7953384330026 0 -123.7953384330026 19.178558484928544 0 0 0 0 353.27531545681995 259.5948406574189 0 259.5948406574189 307.86896942055409 0 0 0 0 -0.60428502502578851 -1.1860204822093579 0 -1.1860204822093579 5.5984762181803589 0 0 0 0 476.6115212451914 -341.13276592631496 0 -341.13276592631496 110.33546111484702 0 0 0 0 923.30191980913514 -296.73231549658158 0 -296.73231549658158 -777.37966080956539 0 0 0 0 131.44358452045708 132.2488008960263 0 132.2488008960263 -89.169181026030628 0 0 0 0 111.61636467864446 -117.87435300339757 0 -117.87435300339757 99.670074752238179 0 0 0 0 6.4298847153174279 0.71791512692779236 0 0.71791512692779236 0.041366586497283642 0 0 0 0 22.498897278899676 -71.276362279949353 0 -71.276362279949353 75.693440612513768 0 0 0 0 109.19134790822864 0.69170724032119324 0 0.69170724032119324 -220.43088670931161 0 0 0 0 17.809753952766414 1.831748145149156 0 1.831748145149156 -0.066749780949254323 0 0 0 0 25.64573039257084 -28.050745128980452 0 -28.050745128980452 -117.02506340161267 0 0 0 0 -105.808890414497 15.377543559992773 0 15.377543559992773 -74.217828674185512 0 0 0 0 116.93704429763602 57.045182261333593 0 57.045182261333593 -81.430693364678859 0 0 0 0 24.788098479926703 12.539360996830055 0 12.539360996830055 -29.076864844400006 0 0 0 0 50.71628664364107 73.237592293584612 0 73.237592293584612 -6.5147630566943917 0 0 0 0 97.466464787023142 87.936485771820116 0 87.936485771820116 -134.81500545014819 0 0 0 0 77.84329840898863 93.271338406495715 0 93.271338406495715 91.174896140810688 0 0 0 0 63.601478783917628 30.169927307770479 0 30.169927307770479 15.351719092827807 0 0 0 0 78.180760706673027 58.507094377197291 0 58.507094377197291 98.713472501051911 0 0 0 0 10.792062282002007 11.28274282739693 0 11.28274282739693 146.56933784715056 0 0 0 0 3.8645972721907924 -1.1367380246437051 0 -1.1367380246437051 0.70119526029831647 0 0 0 0 28.888550598931033 -75.910817057992062 0 -75.910817057992062 344.32178321694346 0 0 0 0 7.6362043410481419 -41.817955447069835 0 -41.817955447069835 73.88442842381437 0 0 0 0 -14.200636632922397 -30.88988612489436 0 -30.88988612489436 170.5033087355132 0 0 0 0 10.815141223258706 -3.7575719251507707 0 -3.7575719251507707 1.5647081777840945 0 0 0 0 89.776906589358987 64.414638872166393 0 64.414638872166393 76.626295240368108 0 0 0 0 25.822046113724355 -19.624675387341767 0 -19.624675387341767 22.950397486288466 0 0 0 0 16.402070533642132 -6.8504899679842026 0 -6.8504899679842026 1.6093547870054392 0 0 0 0 66.707583106195671 45.536340265233775 0 45.536340265233775 -28.857437912645544 0 0 0 0 60.43727922684775 31.48704302929832 0 31.48704302929832 50.782868296162633 0 0 0 0 4.8056045019524447 -2.4288859742279101 0 -2.4288859742279101 -0.67147958146139786 0 0 0 0 165.26015626971275 116.56073302362461 0 116.56073302362461 236.7985757405595 0 0 0 0 318.8710144568031 -23.944108436878651 0 -23.944108436878651 104.82189231317489 0 0 0 0 927.08140127311344 312.86379495987717 0 312.86379495987717 35.750958011059538 0 0 0 0 935.43578440187866 231.29797163053115 0 231.29797163053115 831.17715059318698 0 0 0 0 1089.8691086109829 -112.50535626754788 0 -112.50535626754788 396.87465011050608 0 0 0 0 1080.1016726318048 -220.15961247129121 0 -220.15961247129121 525.58973633989081 0 0 0 0 1089.5730824193597 85.827028160212194 0 85.827028160212194 45.108513442615276 0 0 0 0 547.27566633206152 149.80567478941532 0 149.80567478941532 837.23092593848446 0 0 0 0 646.88748754687549 445.2350227763427 0 445.2350227763427 1100.4584971571251 0 0 0 0 1258.3906493472641 260.38175738787697 0 260.38175738787697 676.13535389879553 0 0 0 0 656.84785630326951 12.556957042366093 0 12.556957042366093 574.65902398163075 0 0 0 0 742.96725597145269 306.78490926860309 0 306.78490926860309 691.27000701547968 0 0 0 0 855.88929017238115 45.818668649692199 0 45.818668649692199 411.22416244645387 0 0 0 0 520.86966094152012 -173.43671941008165 0 -173.43671941008165 268.29376019965503 0 0 0 0 545.01401354743575 150.6088153874482 0 150.6088153874482 364.08146014012118 0 0 0 0 798.41127976276039 -122.1715421323097 0 -122.1715421323097 662.29548078259586 0 0 0 0 1147.0903489006305 -75.550400962510139 0 -75.550400962510139 132.00858199944196 0 0 0 0 749.02440112666227 -204.32877242370296 0 -204.32877242370296 118.65169481234886 0 0 0 0 740.85489279724425 -420.09039729985352 0 -420.09039729985352 86.955116993916818 0 0 0 0 1185.1200528464396 -460.09087040317218 0 -460.09087040317218 43.820038775154899 0 0 0 0 738.33324438524869 -349.75396237837754 0 -349.75396237837754 -26.022895627946127 0 0 0 0 687.24545365864469 -304.43297166355796 0 -304.43297166355796 -28.665047120595148 0 0 0 0 893.2658121373388 -334.78187025632997 0 -334.78187025632997 -25.754665585547627 0 0 0 0 721.3757110424267 -274.33872855452023 0 -274.33872855452023 -24.863258524139383 0 0 0 0 763.93748434459849 -210.61674024577633 0 -210.61674024577633 -173.51994883755833 0 0 0 0 593.44779619920882 -152.84679548702206 0 -152.84679548702206 -161.31612802611039 0 0 0 0 581.16442771026959 -206.01392035769936 0 -206.01392035769936 -290.82472842185052 0 0 0 0 717.72281740666949 -218.76335265844727 0 -218.76335265844727 -225.88567479269932 0 0 0 0 630.05786708085361 -213.0954488671573 0 -213.0954488671573 -81.435787855861236 0 0 0 0 278.89323435294045 -118.74154709733128 0 -118.74154709733128 153.93289228177036 0 0 0 0 364.66043667246413 129.59840495768549 0 129.59840495768549 -123.51187757563548 0 0 0 0 627.31184024131107 0.22933581016422977 0 0.22933581016422977 79.534202146882308 0 0 0 0 488.82255009515211 -190.24580297653074 0 -190.24580297653074 -161.29301001233944 0 0 0 0 325.11036384869658 -1.7699985943208958 0 -1.7699985943208958 -203.74679946716844 0 0 0 0 566.48468932803371 -99.677231378726901 0 -99.677231378726901 -356.73956026406995 0 0 0 0 349.56584624064999 -59.847647382247715 0 -59.847647382247715 -424.4077834523996 0 0 0 0 165.04720156473923 180.09895280321143 0 180.09895280321143 -390.56516030258354 0 0 0 0 188.09227458487021 -21.371217571986264 0 -21.371217571986264 -242.15439436982706 0 0 0 0 -112.0279650168377 348.30663994923998 0 348.30663994923998 -644.26811118102341 0 0 0 0 -66.686781615859218 156.18303106307712 0 156.18303106307712 -589.9338590542884 0 0 0 0 150.5708269738825 197.55378195948833 0 197.55378195948833 -599.94650520153391 0 0 0 0 -59.627687348605832 100.45084302268265 0 100.45084302268265 -414.52324662408864 0 0 0 0 89.226302114642749 71.953456251326543 0 71.953456251326543 -381.071951991893 0 0 0 0 223.19195397204021 125.22316843711815 0 125.22316843711815 -525.15367706573988 0 0 0 0 280.81162807063083 -63.48878045196011 0 -63.48878045196011 -392.45906297860893 0 0 0 0 431.01453222121927 18.554381329238822 0 18.554381329238822 -386.02466333492293 0 0 0 0 409.40384313384129 -23.479510252474483 0 -23.479510252474483 -502.45767972249723 0 0 0 0 156.44692614061205 166.62414417039054 0 166.62414417039054 -556.75100465167998 0 0 0 0 123.46180558102787 110.18414737671719 0 110.18414737671719 -417.86095949064475 0 0 0 0 4.1490774221892934 171.81678890643525 0 171.81678890643525 -465.88002795217471 0 0 0 0 -71.939387638587505 196.92453241573094 0 196.92453241573094 -448.9099933267953 0 0 0 0 9.6052690496184141 15.38724864480298 0 15.38724864480298 11.059498984062863 0 0 0 0 -245.84487819283095 412.3447227933525 0 412.3447227933525 -555.09494861704297 0 0 0 0 -184.09723178294371 456.97720442695936 0 456.97720442695936 -651.11103497768272 0 0 0 0 63.101363929410581 233.15932950798924 0 233.15932950798924 -609.17323405302523 0 0 0 0 636.47574931122654 -77.786632598537381 0 -77.786632598537381 -210.70499354742628 0 0 0 0 634.8660617761052 -106.60105805352259 0 -106.60105805352259 -414.65851843341989 0 0 0 0 454.42084318352136 -104.71171938714349 0 -104.71171938714349 -275.23178348499641 0 0 0 0 413.50673186882341 4.2631724408106493 0 4.2631724408106493 -326.02009927740437 0 0 0 0 773.26510522064791 -59.928585794851941 0 -59.928585794851941 -534.52725578818718 0 0 0 0 760.54695040099614 159.52772252868635 0 159.52772252868635 -206.84785023946893 0 0 0 0 634.54704760827008 -35.382328771914672 0 -35.382328771914672 -284.1286023578532 0 0 0 0 524.23892755099223 -53.526074618242092 0 -53.526074618242092 -83.91588140588533 0 0 0 0 403.05996262088593 -167.35380195908556 0 -167.35380195908556 52.833995640054127 0 0 0 0 489.11169726696971 -204.00957176692418 0 -204.00957176692418 34.346590428310265 0 0 0 0 401.78939507402538 -211.50186001214206 0 -211.50186001214206 40.492977160668488 0 0 0 0 631.45143283398374 -337.69729639724773 0 -337.69729639724773 109.65786524227133 0 0 0 0 606.06557833193801 -137.43399115232796 0 -137.43399115232796 -78.51511135983219 0 0 0 0 623.82329414504329 -108.06166328948123 0 -108.06166328948123 -56.433981321084502 0 0 0 0 666.77354945553816 -279.69475357786405 0 -279.69475357786405 26.476217921201169 0 0 0 0 734.24117550063238 -231.87923369535815 0 -231.87923369535815 52.179651715071032 0 0 0 0 0.48925548047593281 -0.67569767264461689 0 -0.67569767264461689 1.5907113993920134 0 0 0 0 900.37325541455357 -386.10225091183179 0 -386.10225091183179 23.116323482854568 0 0 0 0 583.29340827286069 -301.31891782676621 0 -301.31891782676621 114.01676859540021 0 0 0 0 632.59036670421483 -377.19144840272202 0 -377.19144840272202 41.058739037983287 0 0 0 0 6.8917902359535219 -17.778190699530569 0 -17.778190699530569 -69.039191058648612 0 0 0 0 35.948775776094408 -104.90922452908217 0 -104.90922452908217 -39.470348684170858 0 0 0 0 156.05085068462358 -69.389432616265822 0 -69.389432616265822 -17.84905048778819 0 0 0 0 70.856482703326037 -110.3244656483248 0 -110.3244656483248 -1.7565059027886036 0 0 0 0 62.811650127143366 -173.87459448773097 0 -173.87459448773097 8.08789395194799 0 0 0 0 19.75683636564645 -135.66335510038653 0 -135.66335510038653 -13.339238227907117 0 0 0 0 74.689463623595657 -108.32005811480087 0 -108.32005811480087 -85.459882993105566 0 0 0 0 40.563109435846854 -105.58018965512315 0 -105.58018965512315 -112.82941761791972 0 0 0 0 109.76403031178052 -163.10529227482129 0 -163.10529227482129 -81.634911265614164 0 0 0 0 153.13804345569224 -233.03314814428268 0 -233.03314814428268 -215.3765540844438 0 0 0 0 434.96239722882456 -268.88948984633055 0 -268.88948984633055 69.164216257940097 0 0 0 0 197.700593196103 -374.42012344352224 0 -374.42012344352224 65.890549815148006 0 0 0 0 288.71072958348668 -273.37109415508257 0 -273.37109415508257 70.012717679787045 0 0 0 0 424.18908342104987 -422.42859430795897 0 -422.42859430795897 233.90112964874788 0 0 0 0 293.77345253311796 -778.76093919075811 0 -778.76093919075811 658.64688500681314 0 0 0 0 49.983480825587229 6.1032153906495594 0 6.1032153906495594 -397.46886017726683 0 0 0 0 2.9459697370041908 -1.4355954827291271 0 -1.4355954827291271 -1.6546986343504386 0 0 0 0 47.313367366892635 -460.09441418607639 0 -460.09441418607639 602.34772794027401 0 0 0 0 361.76896741481323 -194.20281076281253 0 -194.20281076281253 -92.88704383481263 0 0 0 0 254.46468112064758 -35.944399616305418 0 -35.944399616305418 -171.60253620465573 0 0 0 0 -41.411601578700356 -70.59881882288937 0 -70.59881882288937 268.11039000987518 0 0 0 0 284.71187048860884 -310.05063685200048 0 -310.05063685200048 -25.980555444099082 0 0 0 0 250.31202685891185 -222.02404480591304 0 -222.02404480591304 -187.14296790947265 0 0 0 0 -85.277624423993984 45.375927151579731 0 45.375927151579731 32.72943463541651 0 0 0 0 0.72160662112784735 -0.63915150187364134 0 -0.63915150187364134 -4.732247801425391 0 0 0 0 0.76923764792584848 -1.6533074056885653 0 -1.6533074056885653 -13.533667445034913 0 0 0 0 156.81000942991523 -52.398576791061259 0 -52.398576791061259 15.988302015358386 0 0 0 0 186.51565735519398 -232.33245725629786 0 -232.33245725629786 80.080224504218677 0 0 0 0 -30.976853867934551 58.695612575515497 0 58.695612575515497 -147.29561183699479 0 0 0 0 134.50097560233553 -115.36517415245271 0 -115.36517415245271 -124.65923494415449 0 0 0 0 45.048254439374432 50.314475737825887 0 50.314475737825887 -187.99905496891552 0 0 0 0 -25.257765579764964 4.1501747295451423 0 4.1501747295451423 -209.98394968448338 0 0 0 0 106.81968775397399 -51.893542034747952 0 -51.893542034747952 -21.928492024638217 0 0 0 0 107.76796121260122 -82.618640575712561 0 -82.618640575712561 -173.27553410679502 0 0 0 0 392.24866970762378 -136.08387599095977 0 -136.08387599095977 -97.438425218433622 0 0 0 0 270.80739364965848 -131.51575278228518 0 -131.51575278228518 3.6000200149192096 0 0 0 0 246.37572651421215 -38.423093788303959 0 -38.423093788303959 -182.29853535450457 0 0 0 0 431.82611774514953 -275.6913782827063 0 -275.6913782827063 6.1762091024984329 0 0 0 0 346.50490144254582 -79.143210240963981 0 -79.143210240963981 -24.662494287572372 0 0 0 0 34.939506341717788 236.53723937383711 0 236.53723937383711 -538.20548943482618 0 0 0 0 -35.34311998920748 -442.35405447706853 0 -442.35405447706853 471.98420223608809 0 0 0 0 29.149847384401426 7.5546091059416511 0 7.5546091059416511 -0.25349149208753108 0 0 0 0 -37.463103190879337 35.55637858748014 0 35.55637858748014 -206.02759425190879 0 0 0 0 -77.782190753961913 43.155076307340096 0 43.155076307340096 -149.43773113886618 0 0 0 0 12.470679324920638 80.205665064258255 0 80.205665064258255 -402.61468971180329 0 0 0 0 129.59992875099124 -121.57743202061147 0 -121.57743202061147 -107.59785254794406 0 0 0 0 22.35978123278619 45.543215432094257 0 45.543215432094257 -222.29877590127398 0 0 0 0 113.23187881251215 -45.367427393713115 0 -45.367427393713115 -308.22534655418121 0 0 0 0 56.923082846111356 66.202547940977411 0 66.202547940977411 -101.91656591627179 0 0 0 0 324.70908410866105 1.3594769583032758 0 1.3594769583032758 -89.342911009128784 0 0 0 0 100.70872003640397 -106.07283704623865 0 -106.07283704623865 -61.301048342480499 0 0 0 0 174.6241761856727 -50.723546735702712 0 -50.723546735702712 -41.97188449015357 0 0 0 0 303.27025064011104 -137.3537251769194 0 -137.3537251769194 -56.538309294163355 0 0 0 0 261.06262924795737 -95.931119637926258 0 -95.931119637926258 58.532879675036611 0 0 0 0 416.69739406982262 6.734737441919151 0 6.734737441919151 -42.74829512335964 0 0 0 0 465.80597520705487 -9.9656062315684721 0 -9.9656062315684721 -59.688731695280467 0 0 0 0 497.06260598475365 167.54132402638527 0 167.54132402638527 -34.399543866906242 0 0 0 0 706.53400851874903 111.96675680233102 0 111.96675680233102 -72.418869251337583 0 0 0 0 3.807550713495516 -0.028051927522779962 0 -0.028051927522779962 -0.50866881960739851 0 0 0 0 377.35782369124354 -79.287125909582301 0 -79.287125909582301 -427.29802074907138 0 0 0 0 554.07996879829443 304.0833014726129 0 304.0833014726129 -32.905455675951998 0 0 0 0 1050.0340951102116 177.30573233656014 0 177.30573233656014 -267.97271461862135 0 0 0 0 794.67482700032997 256.99938409143442 0 256.99938409143442 -247.63840136399904 0 0 0 0 236.7196693084843 249.50836068614944 0 249.50836068614944 -54.479830388675055 0 0 0 0 -33.198817089520162 -105.4267573269135 0 -105.4267573269135 -135.86939342741516 0 0 0 0 -8.146347660114543 8.3488814399119935 0 8.3488814399119935 2.6512687935455022 0 0 0 0 2.2053087937965756 17.2890537511189 0 17.2890537511189 6.3098263749348007 0 0 0 0 -114.50062266881287 -48.628727062524149 0 -48.628727062524149 -91.100667658561179 0 0 0 0 8.3599370826898394 6.8012669208092689 0 6.8012669208092689 3.1283386721860289 0 0 0 0 7.5433427918760572 -166.4355739962748 0 -166.4355739962748 -69.012194490343973 0 0 0 0 -88.457160135905724 306.52084989041487 0 306.52084989041487 -522.16801834628541 0 0 0 0 -109.36285968584707 -0.80722897107807512 0 -0.80722897107807512 -348.24730781587095 0 0 0 0 -43.833374329318758 13.870753735178369 0 13.870753735178369 16.612988890068664 0 0 0 0 326.70409825885145 115.57211488709117 0 115.57211488709117 19.684666270906234 0 0 0 0 92.036107111780439 -205.82798523529664 0 -205.82798523529664 151.08520951415539 0 0 0 0 -76.538212935090996 -117.46612263014231 0 -117.46612263014231 30.768260627233758 0 0 0 0 -94.100783056725049 -35.437142088203927 0 -35.437142088203927 32.961254917455165 0 0 0 0 -113.87776885236963 -78.724543354709112 0 -78.724543354709112 0.52088842860212026 0 0 0 0 -365.09729590183997 39.06812458487957 0 39.06812458487957 114.36577962845672 0 0 0 0 -141.76954475985258 -6.6876690324336323 0 -6.6876690324336323 -49.735364468599073 0 0 0 0 481.70121247112547 268.18079057038585 0 268.18079057038585 611.46561052501966 0 0 0 0 316.13820328944712 -54.703006371796846 0 -54.703006371796846 109.1354157151136 0 0 0 0 -92.076744444275391 123.74242086997469 0 123.74242086997469 289.64027124043241 0 0 0 0 -320.7220582832233 137.35596615247823 0 137.35596615247823 367.02862632683696 0 0 0 0 678.89180428392137 -184.87013978152061 0 -184.87013978152061 -343.79986016314115 0 0 0 0 -209.80486613716494 422.17620939032849 0 422.17620939032849 -46.380868684105735 0 0 0 0 -35.245558707691089 43.22294404476699 0 43.22294404476699 -17.119688972489087 0 0 0 0 3.5954394545530306 16.654743187093629 0 16.654743187093629 9.4225631151277334 0 0 0 0 -21.893300465162611 531.98299492126307 0 531.98299492126307 -236.90249996084663 0 0 0 0 11.076795094572901 2.0603600685975749 0 2.0603600685975749 -0.3373594231503958 0 0 0 0 820.57306144175527 389.95588642412167 0 389.95588642412167 -241.87961829747155 0 0 0 0 745.69713693372614 -272.87860869001224 0 -272.87860869001224 195.77276780540979 0 0 0 0 1705.9143401242472 -109.24388992857735 0 -109.24388992857735 -113.8325556771415 0 0 0 0 794.05592630791944 39.227158792200953 0 39.227158792200953 83.695871637500204 0 0 0 0 1111.0284346865374 -834.23644865535539 0 -834.23644865535539 764.34127007703955 0 0 0 0 409.82401334313909 -180.71955096216334 0 -180.71955096216334 415.85250963685849 0 0 0 0 477.48211270901083 -298.08244027836236 0 -298.08244027836236 269.85920052923848 0 0 0 0 358.83865781940403 9.3522771120068455 0 9.3522771120068455 85.923794194054608 0 0 0 0 69.826471939042676 -372.0938152469098 0 -372.0938152469098 330.6345166435151 0 0 0 0 372.48043227038579 -88.829385253632779 0 -88.829385253632779 60.983646298399563 0 0 0 0 798.03623873586184 -288.75256818561934 0 -288.75256818561934 211.57437408331793 0 0 0 0 1023.231522514332 32.970558957912658 0 32.970558957912658 -202.78545411554296 0 0 0 0 827.6507060444419 170.01973068146634 0 170.01973068146634 -68.343612915788754 0 0 0 0 846.10669033672457 193.51330766455476 0 193.51330766455476 -297.61004924006011 0 0 0 0 288.26924537413288 -135.45275245100902 0 -135.45275245100902 351.781919057447 0 0 0 0 84.734025527024642 157.36099529879249 0 157.36099529879249 54.096152467651734 0 0 0 0 284.11366511598681 -177.9376771954411 0 -177.9376771954411 -70.17794929237985 0 0 0 0 605.43068639244302 222.59113316147051 0 222.59113316147051 262.06057040772646 0 0 0 0 -14.770972299990717 39.011954138069697 0 39.011954138069697 -18.080121314461962 0 0 0 0 8.6283148017273845 4.0443643170993511 0 4.0443643170993511 2.8569596219089184 0 0 0 0 306.82959010734339 543.66883167259709 0 543.66883167259709 144.83797185718558 0 0 0 0 -19.193213901045965 101.43179905387517 0 101.43179905387517 339.48185248060577 0 0 0 0 24.371742390459985 124.72402169208473 0 124.72402169208473 89.41731037410085 0 0 0 0 31.938829753362711 36.320659413537015 0 36.320659413537015 -11.801420746149544 0 0 0 0 162.48136387341947 191.85875670306081 0 191.85875670306081 -143.00112061157893 0 0 0 0 151.56356995893293 48.977900789117029 0 48.977900789117029 -123.38982625798752 0 0 0 0 185.55839179591567 211.55999731491445 0 211.55999731491445 -269.38913675420054 0 0 0 0 130.30624419485684 28.844219971678285 0 28.844219971678285 -20.927164605645885 0 0 0 0 163.91048700384999 7.9016171949920704 0 7.9016171949920704 -8.7007285532652077 0 0 0 0 197.68233786128985 16.771351991131553 0 16.771351991131553 -255.64062491113307 0 0 0 0 126.16749760617193 42.479616235425311 0 42.479616235425311 -16.826437888786828 0 0 0 0 140.21416615052203 22.170101057742357 0 22.170101057742357 0.91165658449244802 0 0 0 0 73.884927146208483 19.286023696828352 0 19.286023696828352 7.2350021689618291 0 0 0 0 129.42271061055362 33.387039544815025 0 33.387039544815025 -8.103736428809043 0 0 0 0 111.56666300220692 48.41426988440179 0 48.41426988440179 -8.7205972341713629 0 0 0 0 274.98706913448405 163.80844500238777 0 163.80844500238777 -69.927401804307465 0 0 0 0 721.94990064718877 -370.12755990156609 0 -370.12755990156609 -403.11914095278973 0 0 0 0 514.60595620691311 200.64192130003448 0 200.64192130003448 -629.65717598019251 0 0 0 0 38.277116071297783 6.1921688179315026 0 6.1921688179315026 -7.8108520437192395 0 0 0 0 461.13237646943526 510.00852148380125 0 510.00852148380125 -197.82233069226277 0 0 0 0 208.33781168381756 -363.52783115625186 0 -363.52783115625186 570.92407445455865 0 0 0 0 153.96320830401964 -236.94336090504476 0 -236.94336090504476 -51.974257032260084 0 0 0 0 6.8514436822417792 -3.8688092484025347 0 -3.8688092484025347 1.7516870639212838 0 0 0 0 214.84265405652695 471.81560133180233 0 471.81560133180233 342.54448335379129 0 0 0 0 70.358120272256201 40.862254662299165 0 40.862254662299165 -196.15184872281657 0 0 0 0 20.742148615738074 -7.7339777322878618 0 -7.7339777322878618 -2.5483359875090881 0 0 0 0 196.83511419243041 -56.950264318124994 0 -56.950264318124994 -76.969908755307188 0 0 0 0 5.5719442866718225 -2.1155997218209848 0 -2.1155997218209848 -11.645205268921387 0 0 0 0 -42.26824416242016 -95.382184892573576 0 -95.382184892573576 -33.441232806499308 0 0 0 0 110.75325317629176 -56.64650558870153 0 -56.64650558870153 -53.516495730722454 0 0 0 0 -21.113810625167389 2.2848404415184405 0 2.2848404415184405 37.088400429875833 0 0 0 0 -43.107837494826526 -69.236790548124645 0 -69.236790548124645 -59.030339895051384 0 0 0 0 7.2918549303488618 0.60217965516437744 0 0.60217965516437744 -7.767611777262843 0 0 0 0 16.91622452522472 -9.075183331346949 0 -9.075183331346949 -0.74551322446569301 0 0 0 0 -148.82509494149417 -103.77005486071675 0 -103.77005486071675 -59.086015866404523 0 0 0 0 4.8850175288534956 -102.25472558459069 0 -102.25472558459069 -86.035413866894487 0 0 0 0 514.67230749691225 -158.36537737354274 0 -158.36537737354274 -78.897022262044629 0 0 0 0 197.78645463549765 107.30451523369493 0 107.30451523369493 -41.086759924582111 0 0 0 0 446.29987901455024 27.534964338936334 0 27.534964338936334 -122.27480415530567 0 0 0 0 88.92268977650383 -355.44539557316921 0 -355.44539557316921 573.19024992094091 0 0 0 0 5.5113297686754663 -4.7871991841930424 0 -4.7871991841930424 2.3742449389672795 0 0 0 0 338.39066762778384 -503.98229607880097 0 -503.98229607880097 113.59381942029768 0 0 0 0 40.852653019697755 -14.600912410183582 0 -14.600912410183582 40.533882869576018 0 0 0 0 78.854839902356616 -214.21818314212851 0 -214.21818314212851 281.96726222598227 0 0 0 0 242.69205933535704 -227.25665779590008 0 -227.25665779590008 149.36314102946312 0 0 0 0 441.48200017702766 215.55779708763657 0 215.55779708763657 -389.78978240510332 0 0 0 0 254.14105162113265 -175.1816007573052 0 -175.1816007573052 138.59666684912168 0 0 0 0 141.34185829524358 -236.76195136330333 0 -236.76195136330333 202.65236542962452 0 0 0 0 196.41530876867182 -304.31531430302766 0 -304.31531430302766 197.85106768903279 0 0 0 0 260.22695268318057 -332.28745970461159 0 -332.28745970461159 209.14061007346368 0 0 0 0 259.10492776805768 -177.44455414564572 0 -177.44455414564572 246.45740307002688 0 0 0 0 261.5260407536407 -231.86285936033471 0 -231.86285936033471 200.92960708145068 0 0 0 0 214.21568709105486 -212.2601335465564 0 -212.2601335465564 322.08205754282653 0 0 0 0 56.270190856448068 18.707494625585866 0 18.707494625585866 1.4460748646578923 0 0 0 0 11.099861207228855 -5.0776563039833746 0 -5.0776563039833746 -4.441907889830448 0 0 0 0 263.8199049991963 434.87783509666133 0 434.87783509666133 -259.98436500761272 0 0 0 0 266.31072929082438 -84.547062389478356 0 -84.547062389478356 -374.17284903533812 0 0 0 0 72.298560613369688 19.61867447069946 0 19.61867447069946 -0.40307719407566722 0 0 0 0 324.31369700447249 -292.84710956273466 0 -292.84710956273466 143.99893033515241 0 0 0 0 145.20742989616701 352.78876708548341 0 352.78876708548341 -262.48917721654834 0 0 0 0 285.34218551556114 -273.37459522275464 0 -273.37459522275464 134.40989654935777 0 0 0 0 25.540092776485835 375.4192746047529 0 375.4192746047529 -15.014927365360563 0 0 0 0 -111.94807526450313 203.42792969303287 0 203.42792969303287 89.716873769810263 0 0 0 0 -282.9104308107635 78.139587781783121 0 78.139587781783121 -418.75715343683987 0 0 0 0 235.38749006630678 180.61551171229439 0 180.61551171229439 148.05917910842618 0 0 0 0 509.89706356322858 40.172389784438565 0 40.172389784438565 54.246522779849784 0 0 0 0 247.55236679175869 153.94908972176222 0 153.94908972176222 -180.35325936645677 0 0 0 0 168.30223102174932 94.59454335760438 0 94.59454335760438 24.887280202845432 0 0 0 0 95.416705329233082 237.72615743565257 0 237.72615743565257 -55.581231555025624 0 0 0 0 184.71987896677456 115.19970452140353 0 115.19970452140353 -226.31749174905599 0 0 0 0 452.83441087066603 -143.01451206801448 0 -143.01451206801448 -27.684603479387988 0 0 0 0 265.73398656380596 -13.203031986340648 0 -13.203031986340648 -129.00473525022971 0 0 0 0 291.20788558910135 -126.59938251252629 0 -126.59938251252629 189.14028875002805 0 0 0 0 -192.83056857337942 -386.22144533250412 0 -386.22144533250412 -235.1299572378739 0 0 0 0 253.38482469669543 -495.65901060466422 0 -495.65901060466422 -457.9255301163264 0 0 0 0 259.22047549020499 -124.06248953154727 0 -124.06248953154727 351.44167305205724 0 0 0 0 210.27534647320863 169.82210251597553 0 169.82210251597553 -388.70944439252435 0 0 0 0 404.34250524092931 59.248298369280747 0 59.248298369280747 -345.40880710487909 0 0 0 0 15.273081516497768 -16.103037106135162 0 -16.103037106135162 -279.66074061349627 0 0 0 0 116.15978309057027 9.3164826919661436 0 9.3164826919661436 -276.96849081253458 0 0 0 0 117.20961290522246 -7.9489425932879385 0 -7.9489425932879385 -82.397825207475762 0 0 0 0 -91.918778933468275 -6.7541620002202762 0 -6.7541620002202762 -133.12386663003008 0 0 0 0 -51.783642530353973 102.89555218544706 0 102.89555218544706 -256.70713911223538 0 0 0 0 -425.49854386003426 102.24535319302049 0 102.24535319302049 -151.86344805396584 0 0 0 0 46.019822875110094 12.295281535344458 0 12.295281535344458 0.14062423551245384 0 0 0 0 -118.41352278832346 270.83999743344384 0 270.83999743344384 -395.73271137710526 0 0 0 0 151.45019613200566 -387.00229249782069 0 -387.00229249782069 537.75549155279646 0 0 0 0 328.68389887637022 -346.47358383622333 0 -346.47358383622333 269.74795738738123 0 0 0 0 151.17694058472989 -177.68286831573755 0 -177.68286831573755 537.48071565960072 0 0 0 0 252.05469718259701 -247.01547812374349 0 -247.01547812374349 553.94363194577954 0 0 0 0 -417.78746953880909 29.624493341662621 0 29.624493341662621 339.74101327598891 0 0 0 0 -0.090208253731972832 1.5191878368088965 0 1.5191878368088965 -3.1043449040636251 0 0 0 0 129.4562580709171 40.955103297997084 0 40.955103297997084 2.2634496268397015 0 0 0 0 256.51032208478136 -172.37188760009712 0 -172.37188760009712 22.025071177026803 0 0 0 0 137.80751802671875 -162.18625488122245 0 -162.18625488122245 166.40137519520442 0 0 0 0 271.09450310720422 -234.07898154075224 0 -234.07898154075224 165.59536749163112 0 0 0 0 212.22189368994441 -288.36789346631508 0 -288.36789346631508 374.28968392922502 0 0 0 0 4500.4352436042464 1958.2027915517774 0 1958.2027915517774 781.08764435382125 0 0 0 0 4409.779848008744 1232.7074507838063 0 1232.7074507838063 -289.62384860666538 0 0 0 0 909.79867731965351 1011.8127747247009 0 1011.8127747247009 463.71278958030643 0 0 0 0 484.65884433373503 -108.18554708008523 0 -108.18554708008523 122.54267571821697 0 0 0 0 685.91444279332791 399.09313257168617 0 399.09313257168617 751.29641220754922 0 0 0 0 543.28458017653611 -138.74430798665549 0 -138.74430798665549 175.75268213779509 0 0 0 0 1351.0058499567822 26.220715160180234 0 26.220715160180234 -221.63657101141521 0 0 0 0 2405.3889134422352 -64.892363033813311 0 -64.892363033813311 -261.59310975189851 0 0 0 0 1311.1273317846571 -83.113755737153113 0 -83.113755737153113 -159.45551019300808 0 0 0 0 4492.5931182895956 -1548.2980796820057 0 -1548.2980796820057 57.95672514193695 0 0 0 0 -288.66929589351639 1983.3582370941565 0 1983.3582370941565 2038.8699142806699 0 0 0 0 19.961650026003809 10.474280315723135 0 10.474280315723135 7.6188239626324137 0 0 0 0 1071.6148479041258 -355.98302479849787 0 -355.98302479849787 -63.969475648261778 0 0 0 0 45.543450049281603 25.190271944137876 0 25.190271944137876 11.10956758815443 0 0 0 0 -18.200640603521606 602.08138903282952 0 602.08138903282952 -643.54433431037637 0 0 0 0 313.38773479229712 -3.3830348648766631 0 -3.3830348648766631 -558.59193059347854 0 0 0 0 -239.83947341807652 345.05475552181269 0 345.05475552181269 650.43399346189051 0 0 0 0 1.3489503496212762 2.1831178214100504 0 2.1831178214100504 3.2719553316411378 0 0 0 0 216.16999381346977 -360.08343304352229 0 -360.08343304352229 286.98969620157231 0 0 0 0 -6.0261214956699405 389.97220447553173 0 389.97220447553173 -268.77456292559907 0 0 0 0 483.64021956203942 -280.91987551067211 0 -280.91987551067211 -109.94388560161542 0 0 0 0 7.381932452480271 4.5143621825247777 0 4.5143621825247777 2.1760513717131165 0 0 0 0 120.0820816726773 -130.5318137488257 0 -130.5318137488257 55.944351054645722 0 0 0 0 87.864449591637822 102.824723582361 0 102.824723582361 -436.66108163761328 0 0 0 0 14.883869134850102 435.64402254685183 0 435.64402254685183 -506.60299631064561 0 0 0 0 -52.963781688635208 199.3389502250883 0 199.3389502250883 -339.21330032741662 0 0 0 0 48.160075213808 28.266795317914614 0 28.266795317914614 12.354119863306256 0 0 0 0 -136.55635015579173 -18.038712223153993 0 -18.038712223153993 315.01638763659082 0 0 0 0 -38.455865801990512 267.50211248724776 0 267.50211248724776 -5.0448344512104768 0 0 0 0 24.427674735772598 21.254855609680476 0 21.254855609680476 214.33475884911104 0 0 0 0 12.455514747329289 -38.124976488775928 0 -38.124976488775928 38.889095618813215 0 0 0 0 -40.369905194354942 13.736953692672273 0 13.736953692672273 22.654775464251429 0 0 0 0 58.549602241340523 20.472649828201753 0 20.472649828201753 6.683811141131593 0 0 0 0 95.111041230833507 15.183403341829944 0 15.183403341829944 -323.59600853263044 0 0 0 0 -153.04701071089767 169.84645725924901 0 169.84645725924901 17.537111671067578 0 0 0 0 -357.26824464660604 212.84517210049307 0 212.84517210049307 -726.80758855576642 0 0 0 0 98.900183402525727 59.929021589846343 0 59.929021589846343 -656.12940970889338 0 0 0 0 3.7416559520041233 0.93138859823798725 0 0.93138859823798725 -1.0717519015056318 0 0 0 0 22.716647189091759 16.624961141343306 0 16.624961141343306 -0.53849949947950648 0 0 0 0 -184.83183385184384 558.68644573269194 0 558.68644573269194 -357.18552770338556 0 0 0 0 472.48111456786864 -414.78633834231778 0 -414.78633834231778 150.2255261758591 0 0 0 0 -49.813937865488697 414.90884622486737 0 414.90884622486737 -621.09396119869064 0 0 0 0 242.85059957980411 -308.93989271096189 0 -308.93989271096189 163.95598406641329 0 0 0 0 182.99406375143735 -277.71333283885565 0 -277.71333283885565 160.90668656277376 0 0 0 0 36.242526185975294 194.83900745877054 0 194.83900745877054 -260.53578907384963 0 0 0 0 64.418214145538514 54.94437925381817 0 54.94437925381817 -262.71984062130923 0 0 0 0 8.4811802678817116 3.4061178964155658 0 3.4061178964155658 -0.48500688840792705 0 0 0 0 32.005826534004882 157.39363024212344 0 157.39363024212344 -332.96716423968343 0 0 0 0 342.7788847204065 117.7707120375635 0 117.7707120375635 -275.86283451187046 0 0 0 0 782.43275572094717 -269.58072420535109 0 -269.58072420535109 -246.87296944999892 0 0 0 0 -143.95103727684545 -99.120894956431755 0 -99.120894956431755 555.64219520796632 0 0 0 0 708.07108964745203 -110.44043628428722 0 -110.44043628428722 12.046821268711028 0 0 0 0 -0.31789713475885151 0.71945479920609046 0 0.71945479920609046 0.61245768068402029 0 0 0 0 592.19521785114193 -469.11882097057924 0 -469.11882097057924 181.67249592704684 0 0 0 0 7.6890405065441882 -12.709606602192537 0 -12.709606602192537 54.435241975412282 0 0 0 0 7.6913004610833013 -14.086904402665368 0 -14.086904402665368 110.93802125989646 0 0 0 0 4.1582974678393612 1.7921469150559708 0 1.7921469150559708 -1.9319009329639119 0 0 0 0 236.32139051138074 -270.6967248992396 0 -270.6967248992396 142.63131664163984 0 0 0 0 245.82481263500813 -241.82340019388613 0 -241.82340019388613 117.77300702974298 0 0 0 0 343.52992912632908 -544.04351129066549 0 -544.04351129066549 750.00242573273954 0 0 0 0 -7.0558812566159759 26.336209222976549 0 26.336209222976549 -11.176717702196356 0 0 0 0 -8.2315201953297219 17.860659565050383 0 17.860659565050383 8.4435214174700377 0 0 0 0 16.223298966162929 4.2303825099083099 0 4.2303825099083099 -2.1981490707586708 0 0 0 0 -39.615747015879606 3.1026728469505542 0 3.1026728469505542 70.184305131777364 0 0 0 0 -4.2911692318714358 6.9579910656805586 0 6.9579910656805586 -1.7355317036657842 0 0 0 0 -33.958746024401989 47.03878849036866 0 47.03878849036866 27.987494861042251 0 0 0 0 -8.2271013526042225 0.75484272129187957 0 0.75484272129187957 43.352499877301852 0 0 0 0 0.96508209488820285 26.729024532967287 0 26.729024532967287 16.969562826729316 0 0 0 0 -29.376547933701659 41.929743523309753 0 41.929743523309753 33.640394486373225 0 0 0 0 -20.297824500237766 40.862109363316449 0 40.862109363316449 23.466335545554102 0 0 0 0 -8.3586682815773088 14.826806038478068 0 14.826806038478068 2.0205712604765855 0 0 0 0 -1.662668537880986 22.278718480202656 0 22.278718480202656 10.664494726973505 0 0 0 0 -196.97641664647381 -40.416826794124972 0 -40.416826794124972 -9.8982546037623251 0 0 0 0 8.9180032866279362 15.640334313923177 0 15.640334313923177 -9.742999845841041 0 0 0 0 18.114605576876784 24.508699281840109 0 24.508699281840109 -1.2169584365819901 0 0 0 0 11.005784680138451 24.939494663270722 0 24.939494663270722 -2.5767966452832951 0 0 0 0 233.2110791093437 35.383770392878887 0 35.383770392878887 24.389256634811318 0 0 0 0 16.303892301727927 21.491666299866921 0 21.491666299866921 4.705138135952911 0 0 0 0 -9.3437485681643011 44.066811318382861 0 44.066811318382861 -13.026627409126661 0 0 0 0 177.2977957551484 -136.7350770497244 0 -136.7350770497244 106.36344629364612 0 0 0 0 352.88021585159004 -256.70661196434003 0 -256.70661196434003 119.54930587547301 0 0 0 0 324.02794794384681 35.286099779288861 0 35.286099779288861 -10.785550616077217 0 0 0 0 639.55766537159798 -155.23862074992894 0 -155.23862074992894 -5.6280738448758711 0 0 0 0 378.0190286913421 189.3673463910925 0 189.3673463910925 -127.31784523276838 0 0 0 0 241.80666088362341 -5.8973341483520016 0 -5.8973341483520016 -29.011273605608721 0 0 0 0 128.08730130994081 -11.337404748436597 0 -11.337404748436597 16.389884780957118 0 0 0 0 7.6545814932044998 38.464506430019185 0 38.464506430019185 -13.464903315120115 0 0 0 0 229.11690216066199 -72.939306526066503 0 -72.939306526066503 20.769221920451002 0 0 0 0 217.51106807334872 20.116140870012032 0 20.116140870012032 -54.212385860852464 0 0 0 0 46.222895066341152 166.57281473839862 0 166.57281473839862 -69.990104646544751 0 0 0 0 94.157685586465959 290.7065401457171 0 290.7065401457171 -85.426807533535111 0 0 0 0 160.56832694164041 144.76382326938398 0 144.76382326938398 -78.745287908728642 0 0 0 0 119.26763764619562 56.697986570522275 0 56.697986570522275 16.178373711671714 0 0 0 0 157.13464900277904 39.812307182677458 0 39.812307182677458 -36.749875965775118 0 0 0 0 118.48550509579945 54.157938882753569 0 54.157938882753569 -28.495028616901664 0 0 0 0 97.5229528526541 55.342720440509893 0 55.342720440509893 11.285317070046858 0 0 0 0 24.742962173346314 191.98744395508066 0 191.98744395508066 -28.034055322745303 0 0 0 0 -23.306311922737223 75.617473237685886 0 75.617473237685886 180.45515253536291 0 0 0 0 323.85350544916582 -36.284540101251196 0 -36.284540101251196 -34.42591918594244 0 0 0 0 -46.817581361691737 -47.627475134536347 0 -47.627475134536347 147.82053633776104 0 0 0 0 67.133025569237475 7.6373434494615253 0 7.6373434494615253 0.24523503462667051 0 0 0 0 91.72266129435593 2.204172925162311 0 2.204172925162311 11.226342836088634 0 0 0 0 95.021270763099892 44.766654157578387 0 44.766654157578387 -30.056526421266426 0 0 0 0 9.7108227361101314 8.7223229579730877 0 8.7223229579730877 -4.9246575651797642 0 0 0 0 3.6569343219671566 -4.9751860366790339 0 -4.9751860366790339 3.2582254760736689 0 0 0 0 75.305974829287152 -13.26961870917421 0 -13.26961870917421 14.092365251446608 0 0 0 0 -0.079830144477455178 -3.0934275259143575 0 -3.0934275259143575 306.55596054720468 0 0 0 0 66.056764119934087 30.871496590441325 0 30.871496590441325 -6.5526721169985649 0 0 0 0 57.233156840524316 29.128273449567871 0 29.128273449567871 136.56423546947747 0 0 0 0 -52.144699418196979 55.568596867369166 0 55.568596867369166 145.14218162268173 0 0 0 0 70.847406323944597 85.974907023275819 0 85.974907023275819 414.03302257837231 0 0 0 0 68.122293054584588 114.46548526932656 0 114.46548526932656 160.07919239876264 0 0 0 0 57.953370791479756 -56.893054532790018 0 -56.893054532790018 241.66389272102242 0 0 0 0 92.690790630502306 -60.211290147430873 0 -60.211290147430873 -12.395834490885591 0 0 0 0 51.977066342801557 -12.844076151067286 0 -12.844076151067286 4.163979452348487 0 0 0 0 11.617778462361336 -3.4945351233444413 0 -3.4945351233444413 5.199554156073745 0 0 0 0 441.8824789687751 197.92467085967462 0 197.92467085967462 114.98726100107763 0 0 0 0 320.96988210223572 176.51734982851463 0 176.51734982851463 136.93824796107435 0 0 0 0 349.38862966569104 -86.497575377532911 0 -86.497575377532911 68.77060328567768 0 0 0 0 262.21762632218815 229.3244439655042 0 229.3244439655042 368.2948881164516 0 0 0 0 257.51876708223426 47.978354760603906 0 47.978354760603906 -98.656913108330059 0 0 0 0 450.18073862427627 230.86988716781411 0 230.86988716781411 24.426569154792105 0 0 0 0 106.46565087833369 57.001938400324434 0 57.001938400324434 -62.80096251276882 0 0 0 0 133.45848270878193 61.678177836185796 0 61.678177836185796 16.403572035545675 0 0 0 0 234.03375322782085 125.757630781834 0 125.757630781834 -159.60103562207678 0 0 0 0 29.952911453441629 96.665555914143653 0 96.665555914143653 20.052672858181268 0 0 0 0 211.95049686517041 -34.957660575828697 0 -34.957660575828697 -147.20900885249648 0 0 0 0 98.482798356803528 -12.104539769712474 0 -12.104539769712474 -14.949920140994028 0 0 0 0 9.9307118000724586 -62.480556320675078 0 -62.480556320675078 25.655769155914626 0 0 0 0 37.780045698935282 -50.838118837402362 0 -50.838118837402362 -21.943104550989801 0 0 0 0 172.78860894631362 -207.88068332131093 0 -207.88068332131093 134.31455273614012 0 0 0 0 115.39304569139131 -147.68875142089706 0 -147.68875142089706 -57.747635787350646 0 0 0 0 82.363570168702623 -26.920989999615468 0 -26.920989999615468 -16.758175985054478 0 0 0 0 55.735386997061141 -188.01135647541832 0 -188.01135647541832 -102.92986997516778 0 0 0 0 271.02008059466971 80.473145926268728 0 80.473145926268728 -61.686403898487889 0 0 0 0 198.40263991163738 87.775962952712533 0 87.775962952712533 123.6908823731149 0 0 0 0 270.52625528337194 281.47175198967057 0 281.47175198967057 355.37720305620383 0 0 0 0 254.97218542712289 228.74127825240748 0 228.74127825240748 185.02792153551383 0 0 0 0 715.15158566324681 155.41378777411643 0 155.41378777411643 -115.19139454309141 0 0 0 0 137.36527521541939 -475.04761818601844 0 -475.04761818601844 -113.48896861597291 0 0 0 0 15.493845349643379 -42.337405887066225 0 -42.337405887066225 -25.652203865184447 0 0 0 0 43.068449372453188 -241.99522639330337 0 -241.99522639330337 -110.13224072456876 0 0 0 0 106.99957378211548 58.75037807807098 0 58.75037807807098 -100.15312182489038 0 0 0 0 86.75484199252088 -25.544091534035516 0 -25.544091534035516 -17.050361620380844 0 0 0 0 21.152031369292828 -6.9406644923522833 0 -6.9406644923522833 -14.395204607919064 0 0 0 0 -422.36905845605725 -112.65960696841398 0 -112.65960696841398 28.948910726446002 0 0 0 0 4491.7460007327645 815.69305134332762 0 815.69305134332762 28.317604388172512 0 0 0 0 20.197012948886012 -8.6205883205077036 0 -8.6205883205077036 11.419496749325106 0 0 0 0 156.30901616414121 -440.01214659415456 0 -440.01214659415456 1933.1056495064522 0 0 0 0 28.612249694405186 19.770279378146341 0 19.770279378146341 15.577271320141699 0 0 0 0 2478.6814093458743 13.929307158650284 0 13.929307158650284 3.4246007817879267 0 0 0 0 4503.284632694591 -1159.972301095544 0 -1159.972301095544 -41.501831990868695 0 0 0 0 189.42596047029474 -18.775938420609521 0 -18.775938420609521 -174.34402611342693 0 0 0 0 362.96316317639503 26.464544907187872 0 26.464544907187872 38.027385038679085 0 0 0 0 155.68921797636722 -140.65191363301165 0 -140.65191363301165 -70.010344305200078 0 0 0 0 6.3293031084006515 8.1665568678046299 0 8.1665568678046299 6.4337091223634468 0 0 0 0 5351.3848971122061 -331.69185426938753 0 -331.69185426938753 153.32155002208216 0 0 0 0 -318.69352116708978 474.77464030621559 0 474.77464030621559 317.06500831457106 0 0 0 0 3145.3634467328011 46.684713848943318 0 46.684713848943318 -811.18912101662795 0 0 0 0 1880.7062549639268 -233.95485518739167 0 -233.95485518739167 7.3144543114793237 0 0 0 0 2617.829002610205 -534.22016576270198 0 -534.22016576270198 147.19430888398477 0 0 0 0 4499.7599511580174 -334.18510855660315 0 -334.18510855660315 -730.12264001783319 0 0 0 0 2547.1771094716933 -1121.4010867603242 0 -1121.4010867603242 -222.33629811339881 0 0 0 0 4491.4323343396118 -1721.3818088126211 0 -1721.3818088126211 -45.674262514414252 0 0 0 0 2123.9816000041683 -2819.1634662554907 0 -2819.1634662554907 858.81798363384303 0 0 0 0 354.89758024706862 -765.47187616383542 0 -765.47187616383542 1206.3405640704862 0 0 0 0 1597.8214252837934 -281.78630375889452 0 -281.78630375889452 1040.5225092782482 0 0 0 0 1572.2629071173251 -432.09273483408231 0 -432.09273483408231 160.51649529051642 0 0 0 0 12.486780852394389 -3.1493158577293237 0 -3.1493158577293237 1.2403500977736963 0 0 0 0 891.95127121339829 866.51815132112938 0 866.51815132112938 706.89410427697021 0 0 0 0 1821.4969759453106 -92.542803706069662 0 -92.542803706069662 -229.17978491960719 0 0 0 0 409.30399019415927 -560.12029488945996 0 -560.12029488945996 282.07124406344855 0 0 0 0 -54.646968047447444 49.051366120696656 0 49.051366120696656 329.00104126739973 0 0 0 0 515.34292256243589 -372.81345742181577 0 -372.81345742181577 465.06590195611989 0 0 0 0 548.25350733480627 -330.43089948472783 0 -330.43089948472783 255.28755430725346 0 0 0 0 1353.7083325482545 -436.77338331388177 0 -436.77338331388177 180.82524550571992 0 0 0 0 1487.9190469107016 -108.18371116388084 0 -108.18371116388084 143.77229020620899 0 0 0 0 559.68677052035673 -205.96306167111914 0 -205.96306167111914 311.39976587187215 0 0 0 0 240.59343325946838 -229.30224074886928 0 -229.30224074886928 211.76306643781095 0 0 0 0 481.67691702562479 -375.21393153147017 0 -375.21393153147017 234.78899730662263 0 0 0 0 258.03496226814786 -203.96395563006027 0 -203.96395563006027 37.395029662623273 0 0 0 0 -108.2500155883663 33.333866948534521 0 33.333866948534521 169.50385080869933 0 0 0 0 -0.16660731659728967 3.4014810289537785 0 3.4014810289537785 11.07714925323072 0 0 0 0 122.43360048902468 -133.52809352463578 0 -133.52809352463578 117.99534208819296 0 0 0 0 141.85441195150815 -71.613556203426697 0 -71.613556203426697 312.424201541564 0 0 0 0 124.02927768960035 104.58196714169537 0 104.58196714169537 -144.72964856554972 0 0 0 0 21.728992458537505 174.15380065741445 0 174.15380065741445 34.314519255093956 0 0 0 0 55.78060053497029 26.397274942028616 0 26.397274942028616 -192.98938656297264 0 0 0 0 32.941941849992901 -8.7828664433621011 0 -8.7828664433621011 3.7858913901971634 0 0 0 0 9.2339844520365872 1.7246263878471098 0 1.7246263878471098 10.042430103718699 0 0 0 0 -44.304610483163742 90.159590634318675 0 90.159590634318675 -53.958308111691395 0 0 0 0 64.748465763143031 -10.58583490704757 0 -10.58583490704757 16.067436788506711 0 0 0 0 102.52232094080136 -26.135571338061936 0 -26.135571338061936 11.055106825511302 0 0 0 0 69.485991069913325 -17.179144994481476 0 -17.179144994481476 16.381170489249598 0 0 0 0 81.056432530360325 -17.633990820884719 0 -17.633990820884719 12.677191301165294 0 0 0 0 118.45646510126971 -0.51136093870900368 0 -0.51136093870900368 2.7116344467976887 0 0 0 0 126.46045858263278 -6.5295142306986236 0 -6.5295142306986236 -5.3271304842951395 0 0 0 0 107.87465439073708 -1.7773246599307413 0 -1.7773246599307413 3.0335238669276805 0 0 0 0 124.18490424549327 -51.803388108201148 0 -51.803388108201148 16.034912953284447 0 0 0 0 187.03160029529408 9.1677096422131399 0 9.1677096422131399 -2.3865263199140827 0 0 0 0 56.587992779408523 -13.235091318590321 0 -13.235091318590321 20.157235527250236 0 0 0 0 147.52647968616657 13.282357931320121 0 13.282357931320121 15.323419622072112 0 0 0 0 227.62122310047653 -90.168727180234896 0 -90.168727180234896 67.437848375385101 0 0 0 0 151.7681502698606 29.136769069359701 0 29.136769069359701 150.19032190554071 0 0 0 0 21.48088278166324 -8.3936790651152933 0 -8.3936790651152933 72.884710499133689 0 0 0 0 1.0232810523646307 2.4446405475979098 0 2.4446405475979098 9.0413937923241647 0 0 0 0 249.29312230544747 101.28545705827975 0 101.28545705827975 43.301123896957904 0 0 0 0 224.19659292288679 -65.513982899691428 0 -65.513982899691428 113.38513999128304 0 0 0 0 0.74419065750326041 1.296816448702117 0 1.296816448702117 3.3776161217985994 0 0 0 0 153.33766336405824 13.512985059901382 0 13.512985059901382 -21.123045660413538 0 0 0 0 119.14469180038753 67.359097631597265 0 67.359097631597265 140.92308196681472 0 0 0 0 102.15094034539288 -67.203147005599021 0 -67.203147005599021 48.054195880808038 0 0 0 0 82.586654730610462 208.20232113352682 0 208.20232113352682 42.99622965670045 0 0 0 0 349.20258313548402 3.6359890344956511 0 3.6359890344956511 -8.5422915248560969 0 0 0 0 124.59073111753658 -30.83761992415263 0 -30.83761992415263 -1.4495001787858408 0 0 0 0 120.98766663605107 202.1667300751069 0 202.1667300751069 39.821878371003322 0 0 0 0 122.40986855392839 -32.215189324184394 0 -32.215189324184394 10.296095291700112 0 0 0 0 96.781291056493501 -50.689134155614738 0 -50.689134155614738 41.713000518488116 0 0 0 0 109.62221998849418 -76.584056258736382 0 -76.584056258736382 7.5638119324357831 0 0 0 0 108.62574839094759 -81.381277336627591 0 -81.381277336627591 -24.330257824858563 0 0 0 0 105.30643155059988 -68.39645528427036 0 -68.39645528427036 3.3193984192112111 0 0 0 0 143.62265002191998 -72.853539372881642 0 -72.853539372881642 -52.377320828235497 0 0 0 0 108.30870385736489 -63.855770533340547 0 -63.855770533340547 0.6435883201265824 0 0 0 0 99.250697645926266 -63.739046462607803 0 -63.739046462607803 17.655909059627447 0 0 0 0 115.42786621840787 -64.200848113418033 0 -64.200848113418033 7.8557111913078188 0 0 0 0 115.13661476958077 -52.28167828014557 0 -52.28167828014557 19.629109970097488 0 0 0 0 97.681682855574763 -55.196374489241862 0 -55.196374489241862 31.381997920150752 0 0 0 0 103.41700389374455 -48.767329875932774 0 -48.767329875932774 27.299349026972777 0 0 0 0 106.71842227345769 -56.042523194126261 0 -56.042523194126261 12.5049405782338 0 0 0 0 97.41201513211854 -57.618857283136094 0 -57.618857283136094 7.6963575533300173 0 0 0 0 90.750313892684062 -66.227701424448242 0 -66.227701424448242 9.8405605885054683 0 0 0 0 84.097701911625336 -75.224140801601607 0 -75.224140801601607 -11.018075740597851 0 0 0 0 100.13395658655281 -78.903085761314287 0 -78.903085761314287 -12.723340770688083 0 0 0 0 109.71379782831355 -76.219632131935214 0 -76.219632131935214 -14.428141065485761 0 0 0 0 101.29042329168442 -77.284782063816237 0 -77.284782063816237 -13.666743154681171 0 0 0 0 105.51382180601649 -90.260033974045655 0 -90.260033974045655 -28.629881294691586 0 0 0 0 110.55605073738843 -77.455071473519638 0 -77.455071473519638 -23.031249696527084 0 0 0 0 106.74128158128588 -69.051949109853012 0 -69.051949109853012 6.2324093755742069 0 0 0 0 102.41970495312853 -69.039975147126825 0 -69.039975147126825 8.4039115545456298 0 0 0 0 114.02339536098793 -72.517931930598138 0 -72.517931930598138 7.7067044434661511 0 0 0 0 113.56844913414011 -59.984826964185913 0 -59.984826964185913 17.764192034868756 0 0 0 0 108.22277051078709 -66.131754480833479 0 -66.131754480833479 21.987795185610594 0 0 0 0 132.69721475953702 -70.571164097811561 0 -70.571164097811561 25.819155563118329 0 0 0 0 116.11780946046929 -71.696773731746362 0 -71.696773731746362 25.768006375838013 0 0 0 0 136.94169677897298 -56.317638746433659 0 -56.317638746433659 20.158727716960129 0 0 0 0 148.90822914903401 -51.352499320710194 0 -51.352499320710194 21.843616092512093 0 0 0 0 135.32534008248331 -15.490638794159167 0 -15.490638794159167 30.308721713008708 0 0 0 0 131.84222250242601 -28.015592482439388 0 -28.015592482439388 29.015433279360877 0 0 0 0 134.88208586754627 -55.63759354314243 0 -55.63759354314243 20.53957455924683 0 0 0 0 152.00942131591728 -35.320475459753652 0 -35.320475459753652 24.468190318697452 0 0 0 0 134.63519900903339 -38.129323833156377 0 -38.129323833156377 24.094331037442316 0 0 0 0 142.57182465981168 -42.139289451799414 0 -42.139289451799414 22.404475210845703 0 0 0 0 130.71826534165302 -45.907997299276758 0 -45.907997299276758 21.238097494235262 0 0 0 0 122.63888960260374 -62.532475448184414 0 -62.532475448184414 17.535104577546008 0 0 0 0 126.37264741754916 -46.263286306922964 0 -46.263286306922964 23.505300254742906 0 0 0 0 119.37868062968118 -51.324760199882803 0 -51.324760199882803 19.937327993655344 0 0 0 0 110.86362711447873 -54.440617489075521 0 -54.440617489075521 21.967621619463898 0 0 0 0 122.83809796330024 -24.682659539919769 0 -24.682659539919769 36.578502320495318 0 0 0 0 115.47067023350974 -35.46905584490014 0 -35.46905584490014 38.261090894207882 0 0 0 0 98.456504804169526 -30.715435490914388 0 -30.715435490914388 56.477575020020595 0 0 0 0 106.71535574753943 -47.861950600388809 0 -47.861950600388809 27.17713426813134 0 0 0 0 128.8762091503886 -37.329062818360399 0 -37.329062818360399 25.59391588321887 0 0 0 0 128.87620915041771 -37.329062818258535 0 -37.329062818258535 25.593915883131558 0 0 0 0 122.19031751617149 -38.324345111434013 0 -38.324345111434013 30.464252941543236 0 0 0 0 128.87620915044681 -37.329062818258535 0 -37.329062818258535 25.593915883144291 0 0 0 0 128.28379769329331 -37.257948768148708 0 -37.257948768148708 26.304867350234417 0 0 0 0 135.88605808696593 -36.874033649284684 0 -36.874033649284684 25.225602988030005 0 0 0 0 704.63055509312107 677.86656949594635 0 677.86656949594635 749.34682929304199 0 0 0 0 612.70720949114184 464.62350810611042 0 464.62350810611042 440.10082011663326 0 0 0 0 613.10253971934435 359.16197551627647 0 359.16197551627647 471.79108862390558 0 0 0 0 249.12918040485602 19.606128676063463 0 19.606128676063463 96.455711473796327 0 0 0 0 765.17120197175245 409.15607289990771 0 409.15607289990771 369.05849351917141 0 0 0 0 646.35975218111707 401.52189671470433 0 401.52189671470433 446.77753048237628 0 0 0 0 46.749848108651349 474.96586766604923 0 474.96586766604923 802.24182434611066 0 0 0 0 163.72673049208242 -37.889879151989589 0 -37.889879151989589 22.852632090813131 0 0 0 0 165.24945160113566 -48.346805001026951 0 -48.346805001026951 23.509372977452585 0 0 0 0 148.30211407572278 -51.597522552920054 0 -51.597522552920054 22.909763168834615 0 0 0 0 591.89253246937733 278.59122746271623 0 278.59122746271623 450.21551286604881 0 0 0 0 510.63938500561926 166.94875770387927 0 166.94875770387927 304.8053750099516 0 0 0 0 691.21597328272765 279.65956125961111 0 279.65956125961111 273.35052018605484 0 0 0 0 673.766520533929 262.10340958375696 0 262.10340958375696 280.36799031635212 0 0 0 0 734.8970060270658 370.58662279977602 0 370.58662279977602 335.28065943983438 0 0 0 0 -350.46106340912957 -470.49153120760093 0 -470.49153120760093 46.629252797610732 0 0 0 0 148.3589648585621 -67.353254355097306 0 -67.353254355097306 26.186819791859307 0 0 0 0 37.996588691673466 2.8992163578802383 0 2.8992163578802383 -26.209384338178705 0 0 0 0 623.90026679231232 207.74230425369865 0 207.74230425369865 226.45922675755514 0 0 0 0 620.74478552688015 149.99177877753073 0 149.99177877753073 227.34307637080065 0 0 0 0 607.73524144607654 -157.39668323640774 0 -157.39668323640774 -22.381495151270599 0 0 0 0 559.01350568134148 74.134350650091392 0 74.134350650091392 155.83642664780521 0 0 0 0 591.11484895410831 -321.21745154516321 0 -321.21745154516321 -135.17969046204581 0 0 0 0 779.14007305838641 -214.94374698552269 0 -214.94374698552269 -132.94913035960616 0 0 0 0 995.89307200753319 -107.38409174123876 0 -107.38409174123876 -199.916605924755 0 0 0 0 1059.2150475142698 -218.42740363328693 0 -218.42740363328693 -236.00992832517568 0 0 0 0 1128.7873966393308 118.23416267964024 0 118.23416267964024 -28.533656575051282 0 0 0 0 763.28094924032484 191.02544873402218 0 191.02544873402218 121.85870900763075 0 0 0 0 768.31905634808936 225.51546792073077 0 225.51546792073077 178.90927723076948 0 0 0 0 938.7406072513113 14.133128329227702 0 14.133128329227702 -83.873695414533131 0 0 0 0 1026.2805110165136 212.02665425141504 0 212.02665425141504 -113.99850407472513 0 0 0 0 939.01423573105421 303.40394317616438 0 303.40394317616438 116.20896886148444 0 0 0 0 1041.288451100947 384.41457802114996 0 384.41457802114996 178.61148271714319 0 0 0 0 767.2506237580692 385.91140855590709 0 385.91140855590709 306.12486147829622 0 0 0 0 1110.3291796795384 542.05772088287358 0 542.05772088287358 279.98841513804723 0 0 0 0 95.702038883602654 0.8865224643923284 0 0.8865224643923284 37.121406774116622 0 0 0 0 69.282039853149826 -58.721279637131339 0 -58.721279637131339 44.975345697199259 0 0 0 0 1042.6966165274498 563.03969065659567 0 563.03969065659567 124.33862429759847 0 0 0 0 993.71587331597402 584.67886596072503 0 584.67886596072503 205.13931648824746 0 0 0 0 968.29760936726666 468.93927731721857 0 468.93927731721857 118.6020006628296 0 0 0 0 968.59759347685031 449.02307145956092 0 449.02307145956092 124.5186013129055 0 0 0 0 991.49228580644558 447.80947925018472 0 447.80947925018472 109.67096243533342 0 0 0 0 1008.9584690547563 413.97734575846948 0 413.97734575846948 143.18579542895895 0 0 0 0 320.99246977281291 594.48755696274384 0 594.48755696274384 795.92952886278363 0 0 0 0 878.95420500670298 821.98114887609654 0 821.98114887609654 298.20477264542569 0 0 0 0 1298.0307713566581 698.91719360913339 0 698.91719360913339 53.302694565292768 0 0 0 0 1319.4164506069792 647.38494512426314 0 647.38494512426314 98.697537993173682 0 0 0 0 1334.6562999396174 702.42890269094141 0 702.42890269094141 30.004297908086301 0 0 0 0 1239.6795860416823 777.1643436680838 0 777.1643436680838 -1.5746954741644004 0 0 0 0 1246.6531336174958 685.79065533733137 0 685.79065533733137 165.28090566163246 0 0 0 0 1070.2592730981269 552.34988335722119 0 552.34988335722119 179.06051682691839 0 0 0 0 1344.4669950895186 434.61524586088308 0 434.61524586088308 2.1319425801011676 0 0 0 0 1599.6102037701057 66.625443441188395 0 66.625443441188395 -320.25277538883938 0 0 0 0 2036.2573078001878 178.19100874499418 0 178.19100874499418 -346.35070889105373 0 0 0 0 1354.0070522923343 414.15910647057808 0 414.15910647057808 -96.498215497597812 0 0 0 0 1009.6962081285747 -260.67739515373091 0 -260.67739515373091 -163.41394375915252 0 0 0 0 2058.6972990004142 -467.82428233985843 0 -467.82428233985843 -280.5012117816359 0 0 0 0 1484.6659635306969 -599.82774054475942 0 -599.82774054475942 -299.94636630021523 0 0 0 0 1710.6695326177432 505.8648257629261 0 505.8648257629261 -88.453230056711106 0 0 0 0 1709.5868658049585 437.8410844626253 0 437.8410844626253 -351.70905008732825 0 0 0 0 2846.7005236925943 -794.57851156924062 0 -794.57851156924062 -388.37902920271517 0 0 0 0 3937.6897195712372 1136.3765385199613 0 1136.3765385199613 -444.51071469721865 0 0 0 0 1877.4334143479791 1203.4215619077977 0 1203.4215619077977 88.294344242309307 0 0 0 0 2277.7223005117121 595.05600005680935 0 595.05600005680935 -399.32468349392798 0 0 0 0 5179.7807031184093 2327.607991018549 0 2327.607991018549 239.08167635413702 0 0 0 0 1724.4975385119178 1267.2627676802003 0 1267.2627676802003 -85.288492615947689 0 0 0 0 16.862133321044208 5.4395017537375594 0 5.4395017537375594 -0.70943207234110939 0 0 0 0 1726.3620571722477 2905.3972713153694 0 2905.3972713153694 1437.2704780528829 0 0 0 0 4243.5098922757243 -752.67125607245271 0 -752.67125607245271 -399.22078053493169 0 0 0 0 3246.7297007420057 208.5635005559202 0 208.5635005559202 -388.1452553646177 0 0 0 0 6804.9252871671924 981.80299974443096 0 981.80299974443096 -566.23994348611086 0 0 0 0 4139.2255009452456 -1963.7754561246436 0 -1963.7754561246436 576.38465788288249 0 0 0 0 440.20866549389757 -913.79355161746025 0 -913.79355161746025 617.61739028858437 0 0 0 0 1802.071057363697 -1462.649569192296 0 -1462.649569192296 507.91046346988333 0 0 0 0 4721.588922356641 78.705426397690189 0 78.705426397690189 2475.3599900703757 0 0 0 0 65.812058512095803 -49.95417033943221 0 -49.95417033943221 38.425452917702394 0 0 0 0 3064.9198019377072 -1256.5777649340998 0 -1256.5777649340998 14377.388112478562 0 0 0 0 66.248785611533094 -37.710287702211645 0 -37.710287702211645 36.515944453247357 0 0 0 0 87.367740765213966 -84.116744294966338 0 -84.116744294966338 87.337462840048829 0 0 0 0 55.437706058335607 -38.591830962119275 0 -38.591830962119275 40.246587127713383 0 0 0 0 57.977210719371215 -50.849269790567632 0 -50.849269790567632 26.941670400294242 0 0 0 0 78.382332882480114 -54.423329487697629 0 -54.423329487697629 15.807176212384434 0 0 0 0 74.06192918385932 -58.293223240687439 0 -58.293223240687439 15.580831360261072 0 0 0 0 94.201516411587363 -49.019067575674853 0 -49.019067575674853 17.079964035099692 0 0 0 0 77.897155325699714 -57.955262852898159 0 -57.955262852898159 13.060945945660933 0 0 0 0 83.069283324832213 -48.414607436292499 0 -48.414607436292499 29.074196964007569 0 0 0 0 87.046087222290225 -42.760306762604159 0 -42.760306762604159 30.538795260654297 0 0 0 0 81.909824794385713 -41.055137086665127 0 -41.055137086665127 30.414568738997332 0 0 0 0 88.398026584385661 -61.756618580104259 0 -61.756618580104259 19.533510839864903 0 0 0 0 93.54564569471404 -56.093916822341271 0 -56.093916822341271 61.074524068273604 0 0 0 0 96.072623707761522 -47.496066553911078 0 -47.496066553911078 29.138979651317641 0 0 0 0 1091.1693930394977 1172.5188906513908 0 1172.5188906513908 211.21681857006888 0 0 0 0 407.69677786415559 -838.87051756909568 0 -838.87051756909568 2081.2483260989011 0 0 0 0 -3.0021975974479602 8.8765815272617949 0 8.8765815272617949 0.0056609549547225746 0 0 0 0 376.92963609842263 -324.36529991623229 0 -324.36529991623229 -333.16866010807917 0 0 0 0 -83.460812184822544 87.645103252026772 0 87.645103252026772 -124.65236469328602 0 0 0 0 -63.841216720662487 -379.73916434750402 0 -379.73916434750402 151.54544424304413 0 0 0 0 749.65735792487249 -525.59363943775202 0 -525.59363943775202 -148.43172061679888 0 0 0 0 278.36964903494663 -329.17674126891268 0 -329.17674126891268 -87.883298902493152 0 0 0 0 360.04225474906707 -278.35618811420557 0 -278.35618811420557 -266.14572804386432 0 0 0 0 148.995217785563 179.00670487770549 0 179.00670487770549 -474.96049140121727 0 0 0 0 282.68665673519718 -202.10598330866276 0 -202.10598330866276 -508.81876052856046 0 0 0 0 241.53189087248757 -303.63734589995858 0 -303.63734589995858 -246.39907562794372 0 0 0 0 243.21664618530485 -138.82230688512334 0 -138.82230688512334 -287.57179312751623 0 0 0 0 413.31133950397634 -355.07995680929423 0 -355.07995680929423 -340.89400612405746 0 0 0 0 692.10065560864314 -425.85265043604909 0 -425.85265043604909 -171.37520156362717 0 0 0 0 682.2276661243377 -333.40857719884855 0 -333.40857719884855 -253.17911915933428 0 0 0 0 396.32322277085041 -371.56667957872241 0 -371.56667957872241 -145.93863666362597 0 0 0 0 406.64385180711179 -425.82802784340151 0 -425.82802784340151 -121.3178601688121 0 0 0 0 608.65438412748017 -398.19744122819145 0 -398.19744122819145 -239.52910785715835 0 0 0 0 415.67074634287837 -422.79146344839171 0 -422.79146344839171 -279.10443668271967 0 0 0 0 387.13393550641922 -443.91082134757102 0 -443.91082134757102 -27.210759009993012 0 0 0 0 547.15269221485869 -390.24386505715813 0 -390.24386505715813 -118.02320137519774 0 0 0 0 463.15776295848264 -267.87078601027986 0 -267.87078601027986 -93.568630423738711 0 0 0 0 535.61477442741307 -215.39023928756288 0 -215.39023928756288 -55.64220703986598 0 0 0 0 120.57854981093624 -150.3544811022025 0 -150.3544811022025 72.114268076953692 0 0 0 0 378.91671663517263 -215.04801797251872 0 -215.04801797251872 -45.737966365329981 0 0 0 0 352.52622678250145 -351.84634497872401 0 -351.84634497872401 46.385776507894661 0 0 0 0 395.6022361555697 -414.7500136989064 0 -414.7500136989064 108.94361894096789 0 0 0 0 491.04691541995089 -229.22255416578784 0 -229.22255416578784 151.86504204140226 0 0 0 0 798.45972328665084 -366.31021744024002 0 -366.31021744024002 161.7642604042012 0 0 0 0 738.38718093379794 -73.40976925472529 0 -73.40976925472529 97.102032675477744 0 0 0 0 1061.1813231389096 170.25155454030431 0 170.25155454030431 204.93797529113124 0 0 0 0 601.03746697420138 7.158651782277957 0 7.158651782277957 63.120634768753916 0 0 0 0 644.72263796843254 241.074440229218 0 241.074440229218 -159.46884592130368 0 0 0 0 129.78914916387293 -281.88719488154231 0 -281.88719488154231 -61.770142109365651 0 0 0 0 287.84610032128694 -412.16979915389402 0 -412.16979915389402 115.36880384505579 0 0 0 0 197.08208312951319 -370.37689033984213 0 -370.37689033984213 -88.268196511977123 0 0 0 0 420.64126232217995 -361.39131691000762 0 -361.39131691000762 -88.049234724041582 0 0 0 0 233.54431251197821 -447.42554149489968 0 -447.42554149489968 -311.32977624910376 0 0 0 0 216.59708624386906 -64.250955871280752 0 -64.250955871280752 -373.35886764140241 0 0 0 0 -85.980069759367325 130.89405657480378 0 130.89405657480378 -832.38935593194878 0 0 0 0 -413.94917846970566 301.61847668730019 0 301.61847668730019 -730.76732921921644 0 0 0 0 101.31354784425821 -295.01434131119061 0 -295.01434131119061 -581.29209615004777 0 0 0 0 -354.5006575626976 -44.411640926807706 0 -44.411640926807706 -613.65202760146144 0 0 0 0 273.51825270441623 -346.77810574159457 0 -346.77810574159457 -497.48864140072271 0 0 0 0 118.97162913433567 -214.98468321045857 0 -214.98468321045857 -425.63989515922663 0 0 0 0 214.16434670479066 -87.890496737141802 0 -87.890496737141802 -535.73473882049666 0 0 0 0 245.77061384162153 22.620576863023331 0 22.620576863023331 -757.85151660087013 0 0 0 0 680.03246891133858 915.15273730810668 0 915.15273730810668 -1370.2617897607831 0 0 0 0 186.97917756790048 102.01462672149694 0 102.01462672149694 -68.996708280270923 0 0 0 0 1239.3880927471155 686.48820479730909 0 686.48820479730909 -1289.0757101584691 0 0 0 0 22.588120316441525 12.636367952172218 0 12.636367952172218 -0.14514780943995928 0 0 0 0 58.928550895780063 -233.72648971282254 0 -233.72648971282254 -669.76614610526167 0 0 0 0 27.173847663145246 0.54015454024437837 0 0.54015454024437837 -2.974904967013563 0 0 0 0 -1618.8217211766159 104.97657238357647 0 104.97657238357647 -445.97888131722038 0 0 0 0 37.466267489118678 3.3437084919189601 0 3.3437084919189601 -1.3717036810989507 0 0 0 0 1676.2376236351238 465.7113270141013 0 465.7113270141013 -1540.7603471645564 0 0 0 0 31.420489670184967 6.7763636998494521 0 6.7763636998494521 -0.17439883334319739 0 0 0 0 -532.48815281210955 -69.077839024187597 0 -69.077839024187597 -18.197694847936646 0 0 0 0 793.04592958992998 -438.9803479945042 0 -438.9803479945042 -2113.9064608383928 0 0 0 0 -496.87951871476798 -28.420366878294594 0 -28.420366878294594 -109.05729490726941 0 0 0 0 236.08810072432948 -66.947210360546109 0 -66.947210360546109 -107.4534080821129 0 0 0 0 316.24466887021845 -369.49632647424255 0 -369.49632647424255 -1509.3140782842697 0 0 0 0 287.58222692555682 341.37811769692144 0 341.37811769692144 -1706.3933282862097 0 0 0 0 113.99707911024234 -244.8241943375811 0 -244.8241943375811 -532.14202959264401 0 0 0 0 251.98302530758156 134.89938385227401 0 134.89938385227401 -1086.0713974057462 0 0 0 0 -134.66517980138451 -291.52777255356165 0 -291.52777255356165 -241.7148673158683 0 0 0 0 -98.81067569159859 -551.35135070058232 0 -551.35135070058232 -1009.217910779151 0 0 0 0 -714.70137842949407 458.38506381091611 0 458.38506381091611 324.76000872801876 0 0 0 0 -883.038118956576 -49.603199467553452 0 -49.603199467553452 -12.203681994960277 0 0 0 0 -836.00432213609747 -238.07652370738654 0 -238.07652370738654 323.71105535041909 0 0 0 0 2663.2031646962873 -2418.654293216071 0 -2418.654293216071 690.70578961315846 0 0 0 0 2483.4047542421476 518.71260113130722 0 518.71260113130722 207.84682634308069 0 0 0 0 19.805032201565503 -1.6208664111789055 0 -1.6208664111789055 0.54739893469209222 0 0 0 0 4670.8279128827871 799.56403476004482 0 799.56403476004482 -297.26581455261487 0 0 0 0 1264.1881484378055 1926.9668758260882 0 1926.9668758260882 686.63240453677577 0 0 0 0 2655.453946241566 180.16277424958284 0 180.16277424958284 16.257029006889681 0 0 0 0 15.110391493868029 5.6861690296083163 0 5.6861690296083163 1.5670399965941006 0 0 0 0 4494.5765954429389 1289.1123084462467 0 1289.1123084462467 1475.0902985925925 0 0 0 0 3332.6276619541495 2438.1394527576094 0 2438.1394527576094 3.7861180149124039 0 0 0 0 3240.6403583530027 1329.1285759413142 0 1329.1285759413142 -387.68072648359544 0 0 0 0 4620.4044808663284 1680.464645588303 0 1680.464645588303 -733.72736190331329 0 0 0 0 3229.2231151031556 1538.7624474101372 0 1538.7624474101372 -731.43843686846833 0 0 0 0 1539.1525884898219 1269.9107343986727 0 1269.9107343986727 197.15027883797359 0 0 0 0 1576.691163333966 1287.1825096735652 0 1287.1825096735652 -181.45188952321405 0 0 0 0 275.07610999266581 403.64494033794278 0 403.64494033794278 114.46360714692855 0 0 0 0 1497.934489268082 752.44146275120011 0 752.44146275120011 131.99914851410983 0 0 0 0 2660.9658033984742 594.58016206662865 0 594.58016206662865 -280.05860910673846 0 0 0 0 1939.8544892463397 518.34607868353373 0 518.34607868353373 -274.7616781526159 0 0 0 0 4499.8812390028534 849.150582984533 0 849.150582984533 -1064.5622769669405 0 0 0 0 63.684797683932558 17.38158383911566 0 17.38158383911566 -15.853042447301966 0 0 0 0 65.348165788484039 31.090831031424386 0 31.090831031424386 -19.937470505166857 0 0 0 0 66.684231525447103 44.444101890351703 0 44.444101890351703 -21.017229904615021 0 0 0 0 20.405620121403558 27.811217011651635 0 27.811217011651635 1.2042828691146745 0 0 0 0 96.056755358448811 12.195388156255333 0 12.195388156255333 -27.618911058971623 0 0 0 0 128.80980282129349 23.940322129215474 0 23.940322129215474 8.6743453117253466 0 0 0 0 141.82461864584093 8.2825279055255123 0 8.2825279055255123 12.367840472390981 0 0 0 0 101.69194903399875 -9.6271984156728649 0 -9.6271984156728649 29.239665509291285 0 0 0 0 -27.739473873574752 97.387671990656713 0 97.387671990656713 -17.605415706585632 0 0 0 0 73.026646606637826 13.212911307682617 0 13.212911307682617 -10.656977659767296 0 0 0 0 99.184075229761049 16.417785020748553 0 16.417785020748553 21.962526386899299 0 0 0 0 78.612349241154334 -10.081367775289891 0 -10.081367775289891 29.770450687043137 0 0 0 0 113.02300028385071 34.602603383932319 0 34.602603383932319 -116.40028726022319 0 0 0 0 19.940722398536309 45.531283905748069 0 45.531283905748069 36.917774273850227 0 0 0 0 74.278776445184917 16.430923959491274 0 16.430923959491274 -11.419306994983504 0 0 0 0 65.25010436980665 27.461409045454729 0 27.461409045454729 -35.350177717241309 0 0 0 0 72.794782108551715 13.090233947299964 0 13.090233947299964 -26.962345441467072 0 0 0 0 89.462677982643072 7.2010110535420608 0 7.2010110535420608 -31.2035308637669 0 0 0 0 182.49212822231129 -49.348092465057562 0 -49.348092465057562 8.8543845271124155 0 0 0 0 53.825782719030627 24.096890929938652 0 24.096890929938652 -22.270931645708952 0 0 0 0 179.70113551815302 -44.97167704337653 0 -44.97167704337653 32.548493419268198 0 0 0 0 199.38033229394932 -27.904313946128241 0 -27.904313946128241 8.9771032022254076 0 0 0 0 187.49505306678475 -30.513566105932114 0 -30.513566105932114 47.212998711551336 0 0 0 0 -7.7774894851014551 10.37123685416179 0 10.37123685416179 4.0897638737621094 0 0 0 0 206.97883638818166 -101.47687641252196 0 -101.47687641252196 76.823174946801373 0 0 0 0 207.2005087271973 -44.145454159934161 0 -44.145454159934161 56.471424116582057 0 0 0 0 180.39634297288285 -47.895271566994325 0 -47.895271566994325 36.566965086265554 0 0 0 0 86.837943726992876 7.4967529794764367 0 7.4967529794764367 -12.23908861385385 0 0 0 0 69.018435030640831 29.425382860801847 0 29.425382860801847 -34.938823096701526 0 0 0 0 70.324269064949476 41.497424819869593 0 41.497424819869593 -39.42422944789223 0 0 0 0 17.832678111691251 -2.5116779632944457 0 -2.5116779632944457 -3.3501121920560877 0 0 0 0 168.03900496469578 -95.422505616412309 0 -95.422505616412309 184.97568753566884 0 0 0 0 96.676182075563702 -18.74575083181162 0 -18.74575083181162 317.4868916564028 0 0 0 0 65.003854382041027 64.188675322948257 0 64.188675322948257 332.98752173338653 0 0 0 0 191.79026739895926 88.618592957716828 0 88.618592957716828 60.163907910544367 0 0 0 0 168.16493584486307 46.565608304765192 0 46.565608304765192 228.66322547808977 0 0 0 0 202.73285140303778 50.455367744179966 0 50.455367744179966 23.340295088040875 0 0 0 0 179.1925172710944 -3.8515733086005639 0 -3.8515733086005639 50.631807230536651 0 0 0 0 180.28569812296337 20.665873956805626 0 20.665873956805626 49.030373147568753 0 0 0 0 178.04449194799236 -4.3826654970853269 0 -4.3826654970853269 100.5541402153176 0 0 0 0 199.96824607270264 77.360412623514378 0 77.360412623514378 39.307606962742284 0 0 0 0 238.61448040147661 45.763452972616506 0 45.763452972616506 -10.342979874343655 0 0 0 0 174.59660358079418 56.854644295467551 0 56.854644295467551 -102.82761983123009 0 0 0 0 291.09478692405537 35.012953253069554 0 35.012953253069554 -124.34528315159514 0 0 0 0 229.50016825181956 8.1717585699948359 0 8.1717585699948359 -58.736737553719649 0 0 0 0 226.50900531810476 100.98905043358718 0 100.98905043358718 -89.754370862134238 0 0 0 0 307.83572112864931 -15.723583005686578 0 -15.723583005686578 -61.229223641694261 0 0 0 0 251.93697651025286 52.841114058105859 0 52.841114058105859 -308.00693513438364 0 0 0 0 180.92890788041404 87.398055508495418 0 87.398055508495418 7.7703948820835649 0 0 0 0 202.16057548098615 -10.235411855484017 0 -10.235411855484017 -121.53902591050519 0 0 0 0 5.3024324401994818 -159.68165366755829 0 -159.68165366755829 -229.56588024842495 0 0 0 0 -282.14019901770007 -411.57130775952214 0 -411.57130775952214 383.179674656727 0 0 0 0 117.11401005419611 320.55453095514531 0 320.55453095514531 -11.035628951382023 0 0 0 0 75.948616495297756 11.569608317850452 0 11.569608317850452 -10.034889356686108 0 0 0 0 -178.77055558957363 204.95907953940696 0 204.95907953940696 -114.24380486270093 0 0 0 0 143.65203372034375 35.073514369681106 0 35.073514369681106 -100.83897170250521 0 0 0 0 107.63316472084978 2.5988957171209073 0 2.5988957171209073 -8.8680564767792127 0 0 0 0 235.63905812668963 142.34515004398918 0 142.34515004398918 -248.92791394772757 0 0 0 0 -114.13358912942567 158.04016786922534 0 158.04016786922534 -132.54562483578775 0 0 0 0 328.96741560917144 -153.6617384518762 0 -153.6617384518762 -117.61564868968344 0 0 0 0 194.9345172362664 -215.91013664970251 0 -215.91013664970251 -17.519242586902692 0 0 0 0 8.1056515647069318 22.519855732040469 0 22.519855732040469 -149.33335919355704 0 0 0 0 399.92306134357932 -216.87847877377681 0 -216.87847877377681 -101.51897491598538 0 0 0 0 803.44369597535115 416.90083148041867 0 416.90083148041867 -740.92989256890178 0 0 0 0 132.76346424227484 22.039625412645307 0 22.039625412645307 -11.987099297134593 0 0 0 0 86.096706472890219 25.38855348229481 0 25.38855348229481 -37.955217378476846 0 0 0 0 132.33399032629964 35.27297182909939 0 35.27297182909939 -26.045768629998932 0 0 0 0 1165.0606854613034 455.92081481194145 0 455.92081481194145 -1150.125544648507 0 0 0 0 445.52870914033792 -431.05493369742612 0 -431.05493369742612 231.3828659933306 0 0 0 0 -391.3174881509749 246.20215167213928 0 246.20215167213928 302.07482290443522 0 0 0 0 2.0357978275987989 183.37397230027614 0 183.37397230027614 944.96370824112455 0 0 0 0 11.991501484668127 3.063531929477346 0 3.063531929477346 2.5463797673372035 0 0 0 0 412.53509657687755 -47.719058159030283 0 -47.719058159030283 -96.177102637492681 0 0 0 0 827.83769396543357 -270.78970546552159 0 -270.78970546552159 -205.14265822838752 0 0 0 0 248.79764617985347 -224.75257565223546 0 -224.75257565223546 244.07130989591553 0 0 0 0 113.77395339828541 28.65631786954804 0 28.65631786954804 -11.772415859529099 0 0 0 0 125.31926132866029 10.631515231976358 0 10.631515231976358 -18.982936349648281 0 0 0 0 112.95384499245847 35.287518247916523 0 35.287518247916523 -113.17709438481597 0 0 0 0 116.67161464248784 262.80578358619459 0 262.80578358619459 -420.23167602227113 0 0 0 0 123.56399465287305 23.704374959827952 0 23.704374959827952 -3.7895710073324009 0 0 0 0 136.47635642751993 6.1894436814568508 0 6.1894436814568508 1.2077390794265739 0 0 0 0 28.827316109884208 -0.35257084712209519 0 -0.35257084712209519 -0.45166485180743976 0 0 0 0 180.23081944139631 31.054198217955673 0 31.054198217955673 -10.574554645892476 0 0 0 0 232.68400891779075 26.054994312844357 0 26.054994312844357 -28.598687280318934 0 0 0 0 37.968936819874898 1.2548491189792941 0 1.2548491189792941 0.050868712736750865 0 0 0 0 207.20332691197109 20.466317051053466 0 20.466317051053466 -10.55953602426689 0 0 0 0 -127.3842054491306 -291.19080147602222 0 -291.19080147602222 304.69609795029464 0 0 0 0 211.12745120458931 11.787352432665557 0 11.787352432665557 1.627360580515699 0 0 0 0 199.80079091240441 17.38020526366256 0 17.38020526366256 8.8313072506284698 0 0 0 0 0.0041792048083291178 0.66779546141685842 0 0.66779546141685842 -0.21216841232563155 0 0 0 0 199.71190208635926 -8.6842713970672776 0 -8.6842713970672776 8.1629901597252683 0 0 0 0 285.92192585997873 53.946794322901269 0 53.946794322901269 -8.1005456445876689 0 0 0 0 -3.2038120655250903 -0.5846871499382722 0 -0.5846871499382722 3.2213876817048863 0 0 0 0 -60.296306602824188 68.146310101409881 0 68.146310101409881 11.814583758599838 0 0 0 0 383.86922559776394 233.29316242141749 0 233.29316242141749 -270.27672118491728 0 0 0 0 174.38023333409001 0.74813765223302653 0 0.74813765223302653 -29.938801809986671 0 0 0 0 148.85605215239229 53.971344014233409 0 53.971344014233409 -12.366679886045858 0 0 0 0 399.88689252663244 41.442485695477444 0 41.442485695477444 13.150673127412745 0 0 0 0 251.33374935845677 -46.598801371349282 0 -46.598801371349282 -42.022082371713168 0 0 0 0 244.51826408889792 -54.002603557088605 0 -54.002603557088605 26.568260351878507 0 0 0 0 79.618607154043275 -12.607978930118179 0 -12.607978930118179 60.967214702858655 0 0 0 0 181.09111226456298 -150.21577340841486 0 -150.21577340841486 194.23881608240481 0 0 0 0 345.06870252897897 -92.875858014888308 0 -92.875858014888308 -23.828030947788648 0 0 0 0 492.1009121521929 -219.1346842056164 0 -219.1346842056164 58.936478212705879 0 0 0 0 372.65086108908326 -53.450932148169613 0 -53.450932148169613 -58.745600606222069 0 0 0 0 371.45274105568751 -0.79628023536997716 0 -0.79628023536997716 -128.48627185519717 0 0 0 0 311.39922050141831 -86.528331122727195 0 -86.528331122727195 -15.589721512185406 0 0 0 0 262.37514077848209 -16.915912550497069 0 -16.915912550497069 -8.3158700013982525 0 0 0 0 211.29697049577953 45.971979481501421 0 45.971979481501421 -68.148248277179164 0 0 0 0 244.05311166482534 13.205344893935489 0 13.205344893935489 7.7875697678613278 0 0 0 0 246.33296121332933 -35.806914832625921 0 -35.806914832625921 -0.6833757328969341 0 0 0 0 139.99775509136452 65.608394501234784 0 65.608394501234784 127.93577167106469 0 0 0 0 175.91972716313467 -7.3781652108350499 0 -7.3781652108350499 122.56591419414008 0 0 0 0 278.24596343026678 54.929424435118733 0 54.929424435118733 48.73970208332554 0 0 0 0 310.6654934986131 -217.49124924134713 0 -217.49124924134713 68.203998092750339 0 0 0 0 0.55705470852454475 0.11681064637746985 0 0.11681064637746985 1.2354540424803346 0 0 0 0 38.676840154145793 -10.767242211543646 0 -10.767242211543646 61.923154250857806 0 0 0 0 338.67856998251409 -75.747781079492967 0 -75.747781079492967 75.824255638943029 0 0 0 0 244.23241258942835 103.02454696279166 0 103.02454696279166 25.114306129213617 0 0 0 0 150.24443112657173 53.709506367251265 0 53.709506367251265 118.65758323966361 0 0 0 0 270.10452652515778 -126.21600870873944 0 -126.21600870873944 116.51511049229305 0 0 0 0 10.831931683250332 -93.317278663957211 0 -93.317278663957211 129.9133813179858 0 0 0 0 -103.34169556408597 156.62670986359859 0 156.62670986359859 108.2518198012009 0 0 0 0 -324.52372494187966 -501.16600196878642 0 -501.16600196878642 543.93547386240868 0 0 0 0 143.28425774835009 -31.083935260360267 0 -31.083935260360267 -5.0882685561674936 0 0 0 0 689.37062496646467 115.56767357939339 0 115.56767357939339 -344.5883959892659 0 0 0 0 3.1986145344639816 1.9961256143078447 0 1.9961256143078447 0.46848724051226975 0 0 0 0 157.96049042983941 -111.31447597984061 0 -111.31447597984061 -148.15425084544404 0 0 0 0 134.93469314255344 -74.83980839772812 0 -74.83980839772812 -106.88738215974877 0 0 0 0 142.40062315816613 -54.868932200608469 0 -54.868932200608469 -130.52323116892512 0 0 0 0 118.75439232266581 -103.90404457252544 0 -103.90404457252544 -78.629456403237782 0 0 0 0 162.43086819137716 -48.427350220601511 0 -48.427350220601511 -82.697304994755541 0 0 0 0 94.447339333051559 -55.729812043350464 0 -55.729812043350464 71.75364327944726 0 0 0 0 29.07785587938271 -16.936132352922872 0 -16.936132352922872 7.0281057299221299 0 0 0 0 175.56664242838451 47.230843682490843 0 47.230843682490843 -224.59122462422397 0 0 0 0 349.52296826116662 -117.0216974288852 0 -117.0216974288852 -133.48161769540013 0 0 0 0 23.557193357704818 -37.923131559265968 0 -37.923131559265968 20.630640367532067 0 0 0 0 65.411870692001685 212.14789482934623 0 212.14789482934623 -41.460676336896171 0 0 0 0 211.92758687709284 -5.3848590626703299 0 -5.3848590626703299 -236.93481234193496 0 0 0 0 152.09296728378419 -24.727747237472197 0 -24.727747237472197 -8.7373219689742196 0 0 0 0 162.48824293032885 -26.817591842028833 0 -26.817591842028833 -242.13303990500935 0 0 0 0 268.18880011934652 -45.137276213124778 0 -45.137276213124778 -336.82590834823714 0 0 0 0 274.52972918286105 -82.782913122487116 0 -82.782913122487116 -233.81275166888736 0 0 0 0 218.44344754767371 17.707889876399349 0 17.707889876399349 -264.15161260723653 0 0 0 0 180.10301335613985 93.137486025803355 0 93.137486025803355 -367.54261066894105 0 0 0 0 106.79438957926322 -14.501137134838245 0 -14.501137134838245 -64.529916588225205 0 0 0 0 96.390000860654254 57.510230045443677 0 57.510230045443677 -125.17116019843161 0 0 0 0 44.804088032788059 112.88216272953082 0 112.88216272953082 -12.287627510886523 0 0 0 0 85.135248083595528 -3.2787697364218644 0 -3.2787697364218644 -6.0267605165066325 0 0 0 0 25.823535308642022 189.94600377342431 0 189.94600377342431 -288.88915608040406 0 0 0 0 103.26888440365316 -21.629274962042977 0 -21.629274962042977 -5.9768427353515428 0 0 0 0 126.59373665924068 0.032771807069366332 0 0.032771807069366332 -51.664064985066034 0 0 0 0 94.591408309374486 -9.0881717182080486 0 -9.0881717182080486 -1.9621611642347432 0 0 0 0 116.80186400718958 -0.17506412279499273 0 -0.17506412279499273 -19.228447388428322 0 0 0 0 152.99023759053671 -90.375811052583231 0 -90.375811052583231 -17.381459223866841 0 0 0 0 85.985220725816333 -24.574292948277353 0 -24.574292948277353 -8.1984251592385249 0 0 0 0 57.845199048264476 -9.6572640361679305 0 -9.6572640361679305 6.2991108749729392 0 0 0 0 124.05901371331856 -2.6343004876816849 0 -2.6343004876816849 -53.150101364060902 0 0 0 0 91.165720314070683 -4.8976232759234506 0 -4.8976232759234506 -11.060199493357487 0 0 0 0 92.736748225317569 -54.934071164261695 0 -54.934071164261695 -59.010198112654507 0 0 0 0 134.89761095750146 65.480573677486973 0 65.480573677486973 -138.75326711061643 0 0 0 0 94.506839393242444 -9.5700264075120813 0 -9.5700264075120813 -8.0394758897972469 0 0 0 0 143.71227638825189 -123.05228600040617 0 -123.05228600040617 16.779864939964682 0 0 0 0 19.119464039049916 -3.5438788756323722 0 -3.5438788756323722 2.9433143237036381 0 0 0 0 167.59603027627054 -12.309760032615316 0 -12.309760032615316 -114.28348946163993 0 0 0 0 9.3359711100210916 10.669859900855727 0 10.669859900855727 27.025361284095879 0 0 0 0 113.68854902232579 33.416228215338833 0 33.416228215338833 31.865305118536867 0 0 0 0 0.6491702924881011 2.089159020663292 0 2.089159020663292 -0.30219062529569474 0 0 0 0 93.262787735799066 -26.759246777503904 0 -26.759246777503904 -12.344273610217442 0 0 0 0 63.020560880931043 -24.867255463724405 0 -24.867255463724405 18.249770284504848 0 0 0 0 61.376840397081935 17.824067465578786 0 17.824067465578786 -10.860288067838107 0 0 0 0 77.403291444502429 -15.610631028469015 0 -15.610631028469015 12.006865423677482 0 0 0 0 90.522794563904426 -10.21055319069967 0 -10.21055319069967 12.045477612437256 0 0 0 0 96.569701380292372 -19.873948636465855 0 -19.873948636465855 0.46955031110610435 0 0 0 0 88.357102615807889 -15.836296579084888 0 -15.836296579084888 6.9788175925302767 0 0 0 0 83.223737255539163 -2.7879963834216142 0 -2.7879963834216142 4.5015533623291049 0 0 0 0 85.458262438666679 -8.7488644599319514 0 -8.7488644599319514 3.5065897205136025 0 0 0 0 93.24703560062153 -12.966811374253275 0 -12.966811374253275 9.389245282962392 0 0 0 0 97.280707809191881 -2.1941782657841031 0 -2.1941782657841031 5.1230499268095286 0 0 0 0 122.7394961019836 1.7318512529127901 0 1.7318512529127901 5.6517676868735833 0 0 0 0 107.00407728488062 -15.564375883984837 0 -15.564375883984837 -7.0010131648150491 0 0 0 0 55.792385229462525 -7.781279989457289 0 -7.781279989457289 -57.901203708948117 0 0 0 0 81.362256366248445 -11.859743733283318 0 -11.859743733283318 -8.766800833143007 0 0 0 0 100.18425794629184 -23.652367027498308 0 -23.652367027498308 25.317722479415011 0 0 0 0 11.701661534330816 2.9718797617300012 0 2.9718797617300012 -1.7321770928466229 0 0 0 0 105.05097352876737 -31.682016279102854 0 -31.682016279102854 -19.332870553159783 0 0 0 0 106.51152296106375 -48.816300848980745 0 -48.816300848980745 -191.07703304085589 0 0 0 0 75.105160030844246 5.181485339909063 0 5.181485339909063 -3.4065458902156647 0 0 0 0 72.200932657709927 47.553000243941028 0 47.553000243941028 -34.011977514973466 0 0 0 0 102.91590126111259 -95.902209775639051 0 -95.902209775639051 7.8696370921982179 0 0 0 0 18.466205737155335 -5.8929296804956621 0 -5.8929296804956621 -5.5587708817955512 0 0 0 0 33.235816547385184 -17.913693297831799 0 -17.913693297831799 -10.962148843002524 0 0 0 0 45.431414052422042 57.658502788228361 0 57.658502788228361 -26.481708646873813 0 0 0 0 64.895945549771781 28.032725255867668 0 28.032725255867668 -33.294431811564536 0 0 0 0 61.136057203439123 -21.811202759060052 0 -21.811202759060052 -7.8461248779502739 0 0 0 0 76.715578062900065 -6.415799385492396 0 -6.415799385492396 -2.2153640812123601 0 0 0 0 116.49840830626999 -5.8270580369461982 0 -5.8270580369461982 -26.819429736995474 0 0 0 0 70.559930823191166 -10.645412986039506 0 -10.645412986039506 -1.744925384927956 0 0 0 0 174.53370020876173 27.341069461155733 0 27.341069461155733 -13.317352630839046 0 0 0 0 -0.63779412866037433 -10.373208054328604 0 -10.373208054328604 0.32283938293079495 0 0 0 0 204.81359798817721 -163.66957750402435 0 -163.66957750402435 72.291750193634016 0 0 0 0 -142.59200516247074 -89.87180449394009 0 -89.87180449394009 67.751120485933939 0 0 0 0 -37.825814622552571 -12.645394674545287 0 -12.645394674545287 -157.99711727909198 0 0 0 0 903.69703520496842 576.57568570062665 0 576.57568570062665 -165.94157184608594 0 0 0 0 134.08603770328773 -303.43986865163265 0 -303.43986865163265 130.33242659350185 0 0 0 0 19.207144980321999 4.3809679918494169 0 4.3809679918494169 7.9444952653061591 0 0 0 0 -627.81231640942133 141.13906890956287 0 141.13906890956287 -130.67780493400801 0 0 0 0 -216.45678271489123 352.47501503420824 0 352.47501503420824 152.80763620687355 0 0 0 0 184.2023281113361 -1.2387061245820519 0 -1.2387061245820519 23.195113014913659 0 0 0 0 160.96476440713013 621.95704882547091 0 621.95704882547091 144.34543377396983 0 0 0 0 171.92795726694749 -79.292631222748298 0 -79.292631222748298 -3.8878348864527652 0 0 0 0 12.020964324504632 -4.9738848999529779 0 -4.9738848999529779 1.8943503823426506 0 0 0 0 243.62965353555046 -577.9651710385333 0 -577.9651710385333 200.20821794058725 0 0 0 0 190.92433598006028 -169.97483379894129 0 -169.97483379894129 -127.23337108813917 0 0 0 0 999.26110265494935 -362.2024337249029 0 -362.2024337249029 -93.949898369479342 0 0 0 0 204.32717135656276 -148.91914575491546 0 -148.91914575491546 -206.96866209572181 0 0 0 0 234.06289926517638 -191.80994032386025 0 -191.80994032386025 -216.3737089526694 0 0 0 0 242.54753935246845 -162.90754375633287 0 -162.90754375633287 -309.91306859401266 0 0 0 0 263.33593258846668 -7.8446399390977604 0 -7.8446399390977604 -298.34589823313166 0 0 0 0 255.99043684618664 76.888731943943185 0 76.888731943943185 9.1830569521625875 0 0 0 0 110.90777435329801 -83.761467017494255 0 -83.761467017494255 29.012484980113527 0 0 0 0 223.72323868933017 -271.64735099067207 0 -271.64735099067207 -706.38598298418765 0 0 0 0 15.252589944680395 12.262789556342771 0 12.262789556342771 -8.9607803102213257 0 0 0 0 129.35646697421907 154.70390147115813 0 154.70390147115813 84.530401436426473 0 0 0 0 107.16833116730587 0.80708110489032592 0 0.80708110489032592 2.6197475458144019 0 0 0 0 94.203100291234165 8.3024191986683817 0 8.3024191986683817 -0.24472781255858145 0 0 0 0 78.728122682499816 0.49738851779102333 0 0.49738851779102333 -6.1773289813663723 0 0 0 0 66.950835672778524 12.909727744252418 0 12.909727744252418 2.749365897324604 0 0 0 0 70.051625129845007 -8.7525722526352361 0 -8.7525722526352361 -0.51894225114132198 0 0 0 0 74.732550752132738 3.8745169243452438 0 3.8745169243452438 -7.2120443315034208 0 0 0 0 96.59570128073679 25.338980898230055 0 25.338980898230055 -4.2528663952852845 0 0 0 0 99.936541540231701 -26.863713277016757 0 -26.863713277016757 8.7454000910965988 0 0 0 0 234.17119816316699 -17.976046393764591 0 -17.976046393764591 -50.709341023791694 0 0 0 0 234.52682530099992 -17.047187339922857 0 -17.047187339922857 -44.812134693710505 0 0 0 0 139.98630652629635 -23.366217207651331 0 -23.366217207651331 -26.057545052877941 0 0 0 0 239.12285470934876 33.835921320425768 0 33.835921320425768 27.805366677074744 0 0 0 0 61.066632361325716 -18.893662295257634 0 -18.893662295257634 0.568393752013995 0 0 0 0 84.025592136821615 -5.7402942252663252 0 -5.7402942252663252 2.9592296458217788 0 0 0 0 60.466917929591986 -27.421268685361667 0 -27.421268685361667 -3.5552264350628153 0 0 0 0 92.810069567367464 -8.13298560219053 0 -8.13298560219053 -11.502407998670037 0 0 0 0 179.42613639518095 -84.29975301689251 0 -84.29975301689251 -66.584423834036897 0 0 0 0 -250.43636306307371 -270.37128388468295 0 -270.37128388468295 430.5527459161799 0 0 0 0 88.349851555773142 23.426842346428174 0 23.426842346428174 -7.995354853192759 0 0 0 0 229.71839286130125 -64.940712310187394 0 -64.940712310187394 -45.043453651176719 0 0 0 0 243.19405125557387 48.198487409659265 0 48.198487409659265 -43.037655677381608 0 0 0 0 147.09576330077834 50.445570904538329 0 50.445570904538329 -24.968375103306769 0 0 0 0 223.97622022024007 -38.860581313805369 0 -38.860581313805369 39.470774281757372 0 0 0 0 87.529129328305601 6.057993734722217 0 6.057993734722217 -7.5947290101913065 0 0 0 0 1181.3167570513217 -391.95901997689725 0 -391.95901997689725 -333.5791719747092 0 0 0 0 862.33193982059697 517.32380535904076 0 517.32380535904076 -271.94250049075345 0 0 0 0 8.2209658117267228 5.1450158400205224 0 5.1450158400205224 2.0574044768523709 0 0 0 0 113.20953064953119 -71.521655111349446 0 -71.521655111349446 -32.841276073051176 0 0 0 0 -287.26967386698823 114.09249172072782 0 114.09249172072782 8.7557661728242238 0 0 0 0 -756.55128148568474 91.358265527306685 0 91.358265527306685 195.43803488047865 0 0 0 0 4.7328125647994375 15.344152513084092 0 15.344152513084092 -5.1249145278641244 0 0 0 0 -665.35898034789989 536.07472508514684 0 536.07472508514684 258.39706685313405 0 0 0 0 67.39029267544538 132.65551568817318 0 132.65551568817318 29.325727983139586 0 0 0 0 135.48983851622677 4.7104753995990922 0 4.7104753995990922 -1.9142732600333705 0 0 0 0 85.37612876884296 9.0091841213691612 0 9.0091841213691612 5.5812793783065331 0 0 0 0 111.51780659740325 21.157488801018189 0 21.157488801018189 -13.874027206380561 0 0 0 0 112.87950589803586 20.405428714936534 0 20.405428714936534 -17.066853412030468 0 0 0 0 85.623850421339512 0.65646737371287145 0 0.65646737371287145 -61.307433791133008 0 0 0 0 83.912484540420337 24.961240972500065 0 24.961240972500065 1.9449007947005157 0 0 0 0 107.70122438971885 60.485042239901304 0 60.485042239901304 -11.833680718616506 0 0 0 0 20.83629366299337 4.8927277911063811 0 4.8927277911063811 1.4670164483853085 0 0 0 0 81.712647187374387 -13.074523027362602 0 -13.074523027362602 -2.8218142633209027 0 0 0 0 60.457250982419893 15.882474934138321 0 15.882474934138321 -15.764509454020544 0 0 0 0 84.676258101623262 -1.7008159769537485 0 -1.7008159769537485 -4.535472033668384 0 0 0 0 113.50259574077239 5.5002965550958756 0 5.5002965550958756 -20.3176095659779 0 0 0 0 171.80255813126132 -8.9632122757975594 0 -8.9632122757975594 -7.3861919779692471 0 0 0 0 92.476553162909141 14.068251014056305 0 14.068251014056305 -19.678076645550075 0 0 0 0 170.09148408249894 25.554475904453284 0 25.554475904453284 -28.921646022245113 0 0 0 0 99.407188432767725 -5.5463708787956421 0 -5.5463708787956421 -25.164836412370278 0 0 0 0 111.41656726763176 -14.255687475140803 0 -14.255687475140803 -25.6317346703363 0 0 0 0 283.25997373258724 44.452042878352586 0 44.452042878352586 -70.841079243218701 0 0 0 0 85.858079998823172 -21.327458333914748 0 -21.327458333914748 -16.688342703711392 0 0 0 0 121.93668276289827 12.347635838741553 0 12.347635838741553 -17.105757344010271 0 0 0 0 86.684081397123009 25.547119664093771 0 25.547119664093771 -12.469452897305018 0 0 0 0 133.41276455010458 -6.8568550123928595 0 -6.8568550123928595 -0.0035974559090199421 0 0 0 0 114.18069873812458 15.735120597813363 0 15.735120597813363 -9.3505733611217803 0 0 0 0 29.560259590489295 16.003183689736943 0 16.003183689736943 -25.65856965332523 0 0 0 0 29.833266865929023 6.1286803949437472 0 6.1286803949437472 -2.4541169214156082 0 0 0 0 329.1361122217495 -61.53788252157392 0 -61.53788252157392 -34.301540206217396 0 0 0 0 95.830234602236359 -20.333226553554788 0 -20.333226553554788 -10.711414817295749 0 0 0 0 28.850366800927048 1.5676352280011656 0 1.5676352280011656 -3.6506059674375244 0 0 0 0 157.35979840543587 73.448629231213999 0 73.448629231213999 -39.36407049409172 0 0 0 0 128.39098016401627 -28.150404025749044 0 -28.150404025749044 -10.176162962365295 0 0 0 0 86.423607802184094 10.006240455595833 0 10.006240455595833 1.1540029656190569 0 0 0 0 112.13461512134592 12.49587124651303 0 12.49587124651303 -28.904688955337676 0 0 0 0 55.530924713417178 3.5284607499769578 0 3.5284607499769578 -9.6396554957596976 0 0 0 0 166.53692517921445 -21.443164494475695 0 -21.443164494475695 -61.542430350319364 0 0 0 0 136.11551035186312 -20.203328377903688 0 -20.203328377903688 -10.965718206596193 0 0 0 0 172.8245290373743 -20.222045034161965 0 -20.222045034161965 22.278178900225612 0 0 0 0 194.3480206755994 -43.668753708133409 0 -43.668753708133409 8.2443668936248287 0 0 0 0 169.94727611198323 -42.588388477595345 0 -42.588388477595345 20.375302765867673 0 0 0 0 172.60202853224473 -38.501978973763471 0 -38.501978973763471 25.441812802317145 0 0 0 0 174.43006143334787 -16.760229752657324 0 -16.760229752657324 22.11950217944252 0 0 0 0 155.07127282354122 -16.938693319920731 0 -16.938693319920731 13.049634804367088 0 0 0 0 109.03263209231955 -15.247988538813843 0 -15.247988538813843 27.745013823720001 0 0 0 0 45.514726003857504 11.443093533687261 0 11.443093533687261 21.125712817681688 0 0 0 0 34.304217820762418 -27.787815074845938 0 -27.787815074845938 22.11579489458034 0 0 0 0 163.60638409433159 -29.743314744779127 0 -29.743314744779127 17.525968571293561 0 0 0 0 49.960908996130456 39.577271409704053 0 39.577271409704053 111.26519594226102 0 0 0 0 24.679482621293573 -98.381909264662681 0 -98.381909264662681 121.42398109685746 0 0 0 0 103.92872528042062 -59.602298112135031 0 -59.602298112135031 133.70846138668389 0 0 0 0 2.2536908387603347 2.3527418458752578 0 2.3527418458752578 -1.3151595850736051 0 0 0 0 211.95567767571447 -23.315406814655148 0 -23.315406814655148 76.111267704625789 0 0 0 0 78.142201585244038 -67.416163773318658 0 -67.416163773318658 58.594229947085751 0 0 0 0 10.199685229726882 -0.50591098940320478 0 -0.50591098940320478 1.7347028018513484 0 0 0 0 187.16241771775094 -85.035570783845117 0 -85.035570783845117 12.108022006441161 0 0 0 0 33.079707718614372 -33.256666790276995 0 -33.256666790276995 32.781612204383237 0 0 0 0 8.3254632996274438 -29.430820467748617 0 -29.430820467748617 26.257805144048294 0 0 0 0 129.18853748792026 -85.529113250960563 0 -85.529113250960563 65.506725122276748 0 0 0 0 185.72639239532873 -88.467041556805611 0 -88.467041556805611 43.504761964632053 0 0 0 0 231.15559549693717 -143.39980310343469 0 -143.39980310343469 -68.110810998634179 0 0 0 0 3.2559087153131259 -132.56154450887925 0 -132.56154450887925 37.571107902285803 0 0 0 0 -8.1725994493267393 3.458581198980653 0 3.458581198980653 6.9428945685265679 0 0 0 0 -11.05056304435918 -19.526001253479848 0 -19.526001253479848 23.723056909969866 0 0 0 0 -27.816594702395378 -35.550262817251621 0 -35.550262817251621 257.36497203874796 0 0 0 0 352.63643877785944 -21.892057834699472 0 -21.892057834699472 -11.332164964412726 0 0 0 0 113.84274934435962 -116.86284631345461 0 -116.86284631345461 64.112187002476276 0 0 0 0 131.39020064967917 -55.608779493637485 0 -55.608779493637485 -9.3096981256549043 0 0 0 0 20.705373484335723 -43.442753984651063 0 -43.442753984651063 47.29128401086291 0 0 0 0 223.53999240716803 -71.719077386850586 0 -71.719077386850586 -6.5842562312348036 0 0 0 0 238.77399224135297 -71.138289361322222 0 -71.138289361322222 -82.299969218805927 0 0 0 0 187.61128078933598 -27.240380224773105 0 -27.240380224773105 2.4418136582535226 0 0 0 0 188.44895710142737 -6.8507001380003203 0 -6.8507001380003203 13.567641105457369 0 0 0 0 177.4401082656841 -16.707331921861623 0 -16.707331921861623 11.294560892634763 0 0 0 0 153.36052943271352 -40.042074777292328 0 -40.042074777292328 7.9377699287470023 0 0 0 0 77.777070399388322 -50.823612538798443 0 -50.823612538798443 31.953776079002637 0 0 0 0 129.71774613500747 -47.551201483344812 0 -47.551201483344812 23.61096056518636 0 0 0 0 441.5084424893721 -65.16505794751447 0 -65.16505794751447 -58.404814094199082 0 0 0 0 161.99505559345926 20.519234513708312 0 20.519234513708312 219.1910308357119 0 0 0 0 149.4075704696952 81.854079583945747 0 81.854079583945747 -30.594914897450735 0 0 0 0 -15.824462945318373 -6.018085575330133 0 -6.018085575330133 58.278499687625299 0 0 0 0 -302.66210246792252 75.315337339215304 0 75.315337339215304 96.847504953541431 0 0 0 0 -70.117557631041564 -78.713931622808801 0 -78.713931622808801 42.193781536685961 0 0 0 0 369.49549449874758 191.29854878374499 0 191.29854878374499 14.177556922748863 0 0 0 0 499.38651201231187 -76.128187012382568 0 -76.128187012382568 30.912795709110469 0 0 0 0 353.67921317107539 -215.97043423315517 0 -215.97043423315517 175.8664306077751 0 0 0 0 5.7635836142251833 0.38318470702616736 0 0.38318470702616736 -2.4490333527767492 0 0 0 0 -34.969851525299418 134.28813593816042 0 134.28813593816042 26.345691002317835 0 0 0 0 224.88046380547894 104.93749101270805 0 104.93749101270805 29.645083018228434 0 0 0 0 447.21214675613669 21.150355057234307 0 21.150355057234307 -11.471701243022835 0 0 0 0 326.7989380266954 -28.315562178579057 0 -28.315562178579057 -30.659569341256429 0 0 0 0 192.82889346305456 -80.562838766351319 0 -80.562838766351319 82.39676494534433 0 0 0 0 187.99246047079941 -45.528361580620185 0 -45.528361580620185 133.49992708224636 0 0 0 0 211.85959710869793 -142.92138732731655 0 -142.92138732731655 52.53547224279464 0 0 0 0 300.64968512071937 -61.096639635601605 0 -61.096639635601605 84.905562958081646 0 0 0 0 321.8709134271121 -113.1409497412069 0 -113.1409497412069 210.25599607351614 0 0 0 0 462.14566760037269 -152.22733226398668 0 -152.22733226398668 81.841524493050201 0 0 0 0 450.66113482546643 137.30327235728191 0 137.30327235728191 -54.47827530586892 0 0 0 0 522.60763395331742 -107.15040461694707 0 -107.15040461694707 -44.385562016898803 0 0 0 0 271.90621675723196 38.162359406047472 0 38.162359406047472 -88.029800507198161 0 0 0 0 274.47885767945991 21.79449690225556 0 21.79449690225556 -66.902603207632637 0 0 0 0 -38.363837652684197 99.670965395818541 0 99.670965395818541 -130.48137355469498 0 0 0 0 46.093559274231666 -23.46452649429466 0 -23.46452649429466 -22.435386135091903 0 0 0 0 5.7512139023310738 114.07074363574066 0 114.07074363574066 48.161692852663691 0 0 0 0 -192.30116391014599 -115.78377912587985 0 -115.78377912587985 -66.625406640698202 0 0 0 0 -112.68091626715614 -15.38549853004406 0 -15.38549853004406 70.980059072795711 0 0 0 0 84.895021852689752 254.47257396566374 0 254.47257396566374 181.0456269309343 0 0 0 0 -213.14474954221077 190.63074361000236 0 190.63074361000236 58.63814354218448 0 0 0 0 67.550918909404572 -13.103410647437158 0 -13.103410647437158 4.2831501977502739 0 0 0 0 60.264680270022616 -32.66269772959695 0 -32.66269772959695 0.17781487923969408 0 0 0 0 -95.993609877625204 -381.47351521713495 0 -381.47351521713495 -145.02370990509189 0 0 0 0 -107.61930509006197 -424.75419988743488 0 -424.75419988743488 521.25023429507701 0 0 0 0 605.07056594922324 -97.215375002389464 0 -97.215375002389464 -510.6117804473397 0 0 0 0 102.56036528410732 -34.095010958555577 0 -34.095010958555577 -33.728012307590461 0 0 0 0 97.859989292958517 -30.296511527144123 0 -30.296511527144123 5.1338052028768111 0 0 0 0 88.230093289423394 -31.172989148229441 0 -31.172989148229441 -7.3159491208842375 0 0 0 0 107.37180949318372 13.192613596588444 0 13.192613596588444 1.0384596670419342 0 0 0 0 59.665578161670155 -2.165213890390195 0 -2.165213890390195 1.9671145435380772 0 0 0 0 235.98978503190119 -1.4555352346478685 0 -1.4555352346478685 -32.499531397988449 0 0 0 0 79.01393105055547 -33.778707249218982 0 -33.778707249218982 0.28382733866088561 0 0 0 0 -0.24570092375512331 -4.1156037259994989 0 -4.1156037259994989 3.9941255252102863 0 0 0 0 103.36991540903182 -172.46623569540225 0 -172.46623569540225 44.726111862184553 0 0 0 0 102.39152616795764 570.93907582219617 0 570.93907582219617 142.91243716931194 0 0 0 0 124.6296347089592 -513.67226589014263 0 -513.67226589014263 154.53318331852643 0 0 0 0 158.67366755745752 359.39582742991388 0 359.39582742991388 379.9258239292667 0 0 0 0 3.9837686406512205 -5.6460971733143097 0 -5.6460971733143097 3.8659320369391459 0 0 0 0 272.40778047393178 78.191133248588812 0 78.191133248588812 -340.13018833604019 0 0 0 0 125.35307599844964 174.08510966138238 0 174.08510966138238 51.177792092013988 0 0 0 0 220.00580987711874 -94.759241939454341 0 -94.759241939454341 -167.21579047721207 0 0 0 0 29.865602818307721 1.813908179617215 0 1.813908179617215 -0.44447228949753637 0 0 0 0 86.348367099863935 45.813888758532585 0 45.813888758532585 -6.7143014499542915 0 0 0 0 119.41610053921613 -27.659856306050642 0 -27.659856306050642 -60.283269497621404 0 0 0 0 76.270336777459306 86.210727660850125 0 86.210727660850125 -130.5482049243401 0 0 0 0 14.584128517335742 -12.878934862518292 0 -12.878934862518292 -7.5295387347261356 0 0 0 0 123.28089686594448 -14.275519428526747 0 -14.275519428526747 -0.41202889758688066 0 0 0 0 90.768569020978248 -19.168964683813329 0 -19.168964683813329 0.14005401286067354 0 0 0 0 112.61644128573971 4.1331951744756452 0 4.1331951744756452 -5.9614808579367491 0 0 0 0 115.4282655321058 -25.29931901505779 0 -25.29931901505779 -61.49741945713231 0 0 0 0 86.287458255732417 -13.372313651115633 0 -13.372313651115633 31.08554571422053 0 0 0 0 122.23354648039231 -69.70652759011864 0 -69.70652759011864 52.453476537270944 0 0 0 0 37.113642502323934 0.063405966244779677 0 0.063405966244779677 3.6811934372297235 0 0 0 0 132.58673434963293 17.628221695206776 0 17.628221695206776 -64.547569244542501 0 0 0 0 253.10909194097803 -87.931920335034192 0 -87.931920335034192 -83.681832453552488 0 0 0 0 129.94115283078008 -130.67847169378547 0 -130.67847169378547 87.219622399828495 0 0 0 0 604.32067930750054 -2.8137999337932342 0 -2.8137999337932342 -38.866357406023781 0 0 0 0 246.2427537156068 160.53094235890293 0 160.53094235890293 -111.63755161642212 0 0 0 0 119.01757213870223 -155.70687767418258 0 -155.70687767418258 48.489416731217567 0 0 0 0 163.39844329963489 -103.39507270817819 0 -103.39507270817819 -20.695278984951983 0 0 0 0 -24.083950408986951 -18.192166146417378 0 -18.192166146417378 13.583108329970916 0 0 0 0 63.147094673779307 -0.27315816869197107 0 -0.27315816869197107 -9.6597219194864294 0 0 0 0 -152.31604246348434 -10.732499491919043 0 -10.732499491919043 121.15817580589646 0 0 0 0 65.057542513693022 -36.938877346149894 0 -36.938877346149894 -0.96767717430817068 0 0 0 0 153.45437655000387 21.061092980912001 0 21.061092980912001 -28.765716627602199 0 0 0 0 85.53189700047551 -47.981592665863843 0 -47.981592665863843 5.4111187298021832 0 0 0 0 67.061282442890231 -23.001213453288059 0 -23.001213453288059 0.94360664380775172 0 0 0 0 18.189510695363282 -29.328123501304848 0 -29.328123501304848 -4.8421910209636714 0 0 0 0 65.295390991891239 -76.533961337373341 0 -76.533961337373341 8.0869992773918273 0 0 0 0 206.13670697135967 -324.18229695871446 0 -324.18229695871446 237.41269735067999 0 0 0 0 615.21300278196577 -163.45313388715795 0 -163.45313388715795 -120.43972162015052 0 0 0 0 774.33368624599825 -53.881706767171067 0 -53.881706767171067 -398.9295960770512 0 0 0 0 -20.029654854748514 52.888453225585295 0 52.888453225585295 90.422107669816057 0 0 0 0 55.461257790650507 9.5799664985215642 0 9.5799664985215642 16.314981026569285 0 0 0 0 -3.0341697982092057 4.1274725088343587 0 4.1274725088343587 4.9006021237395156 0 0 0 0 30.439851815980944 18.693521392251711 0 18.693521392251711 1.9847711433294566 0 0 0 0 51.018530408048406 18.23327819843108 0 18.23327819843108 3.1021964128094837 0 0 0 0 85.244205568345933 -3.7886165512777552 0 -3.7886165512777552 -13.968957496243547 0 0 0 0 105.11307061517627 14.201674462515697 0 14.201674462515697 -7.4301228976839431 0 0 0 0 52.212528092907817 0.86266535175629855 0 0.86266535175629855 -7.5570888761673913 0 0 0 0 112.52106075990014 1.2205167368424554 0 1.2205167368424554 2.0141768415915067 0 0 0 0 116.75322309556941 -3.8457166114383199 0 -3.8457166114383199 7.0939336321648625 0 0 0 0 125.49505873497401 -7.1317245788691253 0 -7.1317245788691253 -8.4374015361745478 0 0 0 0 145.28256677392346 -8.9319285138681153 0 -8.9319285138681153 -8.4112196772441479 0 0 0 0 30.595014997528267 -1.9997972644942195 0 -1.9997972644942195 -7.065846419062046 0 0 0 0 124.03804826589112 -8.8036938764130355 0 -8.8036938764130355 -10.283521794536682 0 0 0 0 127.64459458097554 -8.1257457175825039 0 -8.1257457175825039 -14.071451867317592 0 0 0 0 129.68096042210527 -4.2525464443915553 0 -4.2525464443915553 -12.246470758243959 0 0 0 0 130.35548356274194 -12.045229221660065 0 -12.045229221660065 -2.3938152601440379 0 0 0 0 128.74319299107447 -6.5413669769545777 0 -6.5413669769545777 -11.792214809628604 0 0 0 0 97.688271155756354 9.3473003718377434 0 9.3473003718377434 -33.974330665513868 0 0 0 0 124.85660934907173 -5.1011295088283077 0 -5.1011295088283077 -8.1278587009760486 0 0 0 0 45.874167867252609 -37.309230249260871 0 -37.309230249260871 -11.685161536857153 0 0 0 0 48.98680879510357 -21.734403545112855 0 -21.734403545112855 -41.197417217518705 0 0 0 0 102.17193580210551 -39.989863309035854 0 -39.989863309035854 6.4455125746544581 0 0 0 0 37.068455374261205 -42.183202240839648 0 -42.183202240839648 3.8328073694373437 0 0 0 0 121.64047417630536 -14.778755594424183 0 -14.778755594424183 -3.0293817796714393 0 0 0 0 130.13674334842563 -20.790079545006392 0 -20.790079545006392 -1.9233171504765778 0 0 0 0 167.95815823395606 -22.08296637425974 0 -22.08296637425974 -2.0146898586285715 0 0 0 0 112.32981022383865 -14.508467341458982 0 -14.508467341458982 3.8706105085529998 0 0 0 0 120.91107010707583 -32.556757206126804 0 -32.556757206126804 41.787853590476516 0 0 0 0 408.32964422966643 423.58141754282667 0 423.58141754282667 -212.12283446194124 0 0 0 0 174.58431721003581 -152.93575273500574 0 -152.93575273500574 -150.48438683874156 0 0 0 0 17.116227828822517 9.3884977975862967 0 9.3884977975862967 -1.6539281739207254 0 0 0 0 129.73408701852122 -26.914071786142021 0 -26.914071786142021 4.4831863017512319 0 0 0 0 94.828064887478831 27.503113521172054 0 27.503113521172054 -50.184867370215215 0 0 0 0 64.367009545001565 -75.143043904662363 0 -75.143043904662363 -57.373677040595794 0 0 0 0 159.50073239758422 31.154267680662997 0 31.154267680662997 -102.13252135806397 0 0 0 0 147.25812278110607 24.359901149095549 0 24.359901149095549 -41.35864546805351 0 0 0 0 81.994240368973152 -15.304563979688339 0 -15.304563979688339 0.062026073479804822 0 0 0 0 47.252892464419176 -7.0172470224538088 0 -7.0172470224538088 -2.0825128879143548 0 0 0 0 139.06844229334638 16.702356829462587 0 16.702356829462587 -0.1246609240588441 0 0 0 0 100.97323660902475 7.4257107377079592 0 7.4257107377079592 7.3368154182080616 0 0 0 0 108.29947491628718 7.7102564902560857 0 7.7102564902560857 -7.0304636618457153 0 0 0 0 24.110796207477616 25.937417062826615 0 25.937417062826615 -3.2553599134794027 0 0 0 0 43.841029163442137 6.503296304779095 0 6.503296304779095 -1.4928870541311952 0 0 0 0 85.162947352463689 2.2797906418602025 0 2.2797906418602025 -3.8512954931391761 0 0 0 0 77.605795069576089 6.4148774814789657 0 6.4148774814789657 -8.2135812931542862 0 0 0 0 89.684521179533476 1.8220784121513134 0 1.8220784121513134 -3.557264031998784 0 0 0 0 75.838932387313875 4.3471503408825534 0 4.3471503408825534 -6.3339040719799291 0 0 0 0 85.476689442404677 7.8873377346794769 0 7.8873377346794769 10.450469763178489 0 0 0 0 65.16030596803418 -0.88343250655399785 0 -0.88343250655399785 4.9648432937245772 0 0 0 0 85.896299924202609 3.8715083484791535 0 3.8715083484791535 -1.5583271552113729 0 0 0 0 77.891905893263043 -9.8935111935149713 0 -9.8935111935149713 -10.44596114213059 0 0 0 0 133.39027839219852 1.7522783154690842 0 1.7522783154690842 -10.75466083374522 0 0 0 0 83.967304964642267 -12.188578444205426 0 -12.188578444205426 -0.76972491429097722 0 0 0 0 59.629396674228701 -7.5297068650997971 0 -7.5297068650997971 -8.2419825943943579 0 0 0 0 148.938428770668 3.6161349188369059 0 3.6161349188369059 8.3521778536232887 0 0 0 0 27.711375004832369 8.5642695937233206 0 8.5642695937233206 -2.6571645795117611 0 0 0 0 124.97290733766204 -7.1527308082577292 0 -7.1527308082577292 4.4272449656391473 0 0 0 0 122.27261395051509 -12.175403510328843 0 -12.175403510328843 -6.062592585283177 0 0 0 0 4.7660065753819509 -9.5750564482347826 0 -9.5750564482347826 15.275061899084724 0 0 0 0 13.664920582714302 -14.074552070756454 0 -14.074552070756454 13.963355007159425 0 0 0 0 -2281.4225941953628 -319.26466261879432 0 -319.26466261879432 863.07294343380818 0 0 0 0 1046.5865261751969 233.13324047314677 0 233.13324047314677 144.57457868414986 0 0 0 0 895.39275492318848 81.792569950190796 0 81.792569950190796 -244.73491517377261 0 0 0 0 -2255.1347750935965 -222.00234796424138 0 -222.00234796424138 834.76673689877043 0 0 0 0 623.41350618308934 361.30864347305669 0 361.30864347305669 108.26028322250249 0 0 0 0 -3049.8403066784667 471.93925826320083 0 471.93925826320083 244.74920035392279 0 0 0 0 934.51656547796847 178.05073164003292 0 178.05073164003292 3.5664119210050558 0 0 0 0 1030.67139814658 104.30669898341228 0 104.30669898341228 81.296567310573664 0 0 0 0 917.36398905573878 61.482432557404081 0 61.482432557404081 77.957551319648701 0 0 0 0 797.53087227224023 120.93169621392144 0 120.93169621392144 50.34076025098193 0 0 0 0 838.80775317909138 226.27656928172962 0 226.27656928172962 -16.911419539104827 0 0 0 0 572.94173014260014 177.72967329536323 0 177.72967329536323 23.087027054879627 0 0 0 0 561.70799560836167 185.30455786229913 0 185.30455786229913 19.981891093799277 0 0 0 0 716.38902770771529 45.935700256994096 0 45.935700256994096 -14.961283406680195 0 0 0 0 743.96863337563991 116.20199048952873 0 116.20199048952873 -62.274640717208968 0 0 0 0 558.67750209962833 130.11591621809816 0 130.11591621809816 -29.491370840290983 0 0 0 0 246.01283294206951 0.6821924160517483 0 0.6821924160517483 -7.5364319437219365 0 0 0 0 293.99557117377117 199.06534398866279 0 199.06534398866279 42.361962167576166 0 0 0 0 518.61157991696382 68.315512974540979 0 68.315512974540979 -48.961326932643829 0 0 0 0 565.69139868411003 200.41040935049386 0 200.41040935049386 7.2600172337929507 0 0 0 0 218.51709914625098 394.55742697024755 0 394.55742697024755 125.18462632141609 0 0 0 0 575.56432462789235 192.73771862945523 0 192.73771862945523 11.581400383693108 0 0 0 0 4335.9825124618364 343.49535106589246 0 343.49535106589246 -591.75192622094346 0 0 0 0 -48.627687757776584 136.27100725142179 0 136.27100725142179 202.6740539590096 0 0 0 0 56.894473009335343 -135.33080186861969 0 -135.33080186861969 -26.321297910869475 0 0 0 0 189.62811595575477 -542.87450611973782 0 -542.87450611973782 -140.88261495458391 0 0 0 0 36.739993631618788 -31.83527049284681 0 -31.83527049284681 26.834465271137297 0 0 0 0 74.969145338487579 -363.92212234466206 0 -363.92212234466206 281.49239961234525 0 0 0 0 321.36387302824005 -510.90299714004959 0 -510.90299714004959 246.32381951828393 0 0 0 0 707.69226591748884 -567.71510781463985 0 -567.71510781463985 116.7930777527481 0 0 0 0 576.82886453506944 -86.928131344383473 0 -86.928131344383473 -190.97475369138556 0 0 0 0 1029.920287776913 -316.91761868554204 0 -316.91761868554204 -135.00324058482511 0 0 0 0 586.77761416553403 -307.57163284774288 0 -307.57163284774288 1.6604313310776888 0 0 0 0 402.03261630278575 -256.53075356500995 0 -256.53075356500995 15.868877149234322 0 0 0 0 92.247304987809912 -156.54444011897067 0 -156.54444011897067 148.71213675137824 0 0 0 0 55.881966276807361 -108.92920122557825 0 -108.92920122557825 109.13504775340243 0 0 0 0 8.1961990200506989 83.359028750419384 0 83.359028750419384 -99.87869915506667 0 0 0 0 -123.68338304467579 61.386743992148695 0 61.386743992148695 75.126490158956585 0 0 0 0 2.800851169595262 -83.930524560599224 0 -83.930524560599224 165.28688420307844 0 0 0 0 32.62152923434769 -8.329926501074624 0 -8.329926501074624 26.928656551699532 0 0 0 0 -25.056756859368761 22.744282134850323 0 22.744282134850323 12.672839664875937 0 0 0 0 28.423296685054083 5.2119067947987787 0 5.2119067947987787 -4.7330096650748601 0 0 0 0 1.2977972200205841 -43.518512541096698 0 -43.518512541096698 8.5757403652462472 0 0 0 0 65.733069778732897 -32.765914753817015 0 -32.765914753817015 20.52340815734442 0 0 0 0 0.57318131254578475 -41.117849393205006 0 -41.117849393205006 89.974170958681952 0 0 0 0 153.44725704102893 -108.70095041803052 0 -108.70095041803052 -19.368713305453639 0 0 0 0 131.25767235206149 -558.36663253920744 0 -558.36663253920744 -102.31639631073267 0 0 0 0 72.213327128160017 -114.92338618933536 0 -114.92338618933536 5.8172530277988699 0 0 0 0 59.87348611910511 -56.079117367214167 0 -56.079117367214167 29.644737501937925 0 0 0 0 103.74678825149725 -36.526344273388261 0 -36.526344273388261 7.6751336096081548 0 0 0 0 59.398580748905303 -46.166031766934914 0 -46.166031766934914 11.944832348135677 0 0 0 0 194.29970921356289 -22.659255235550972 0 -22.659255235550972 -15.021503344808025 0 0 0 0 133.53927594975903 -43.560646890113276 0 -43.560646890113276 -20.710798030241676 0 0 0 0 278.46468824017211 -65.076403528590163 0 -65.076403528590163 -38.824455270420003 0 0 0 0 155.29530466156575 -91.117803180904048 0 -91.117803180904048 -20.277375194875276 0 0 0 0 326.32879178183771 -151.42740534300572 0 -151.42740534300572 -5.4054066229527962 0 0 0 0 327.09617233957283 -127.97359571686296 0 -127.97359571686296 -79.403139413725512 0 0 0 0 657.37552167907415 -83.347631152734721 0 -83.347631152734721 -209.48628113519135 0 0 0 0 524.07407222915344 12.910952453940638 0 12.910952453940638 -277.80438524727651 0 0 0 0 529.69560195632221 126.07776896478936 0 126.07776896478936 -205.42264236220035 0 0 0 0 268.59349447327259 10.15556032628956 0 10.15556032628956 -110.38829520527543 0 0 0 0 526.9166291247966 -81.432039951851038 0 -81.432039951851038 -93.271162043201002 0 0 0 0 428.78874541970436 127.92963378452578 0 127.92963378452578 -37.751723435782878 0 0 0 0 128.75865133487241 101.09742579384601 0 101.09742579384601 -24.416261766006755 0 0 0 0 524.19764197530458 85.330825681116949 0 85.330825681116949 -353.0868255877067 0 0 0 0 123.8105705121925 -56.622202010250476 0 -56.622202010250476 -230.49446599833209 0 0 0 0 1183.6487513681932 116.55539359617342 0 116.55539359617342 -284.11778561006014 0 0 0 0 -211.06037825709063 111.11117795284872 0 111.11117795284872 -83.111840812178343 0 0 0 0 117.89850129959814 277.97734933625543 0 277.97734933625543 -233.0700159866592 0 0 0 0 554.64455347380135 213.07912995894458 0 213.07912995894458 -257.92424348742679 0 0 0 0 -2058.9707432661962 -516.10883495374128 0 -516.10883495374128 1024.2526037770881 0 0 0 0 645.55419831560903 -87.482375411745807 0 -87.482375411745807 -284.84340165933554 0 0 0 0 685.61651559692109 -129.60747779798476 0 -129.60747779798476 -246.84949315116432 0 0 0 0 670.49714534430677 46.382926792382023 0 46.382926792382023 -330.12925861075746 0 0 0 0 1326.111967751156 -122.28663878409128 0 -122.28663878409128 -262.93592609397501 0 0 0 0 815.38886335121788 633.60462624433967 0 633.60462624433967 314.48335594449691 0 0 0 0 820.4850495440478 -891.42808882740337 0 -891.42808882740337 -410.23112595501766 0 0 0 0 14.345700435022593 -2.2545268642787182 0 -2.2545268642787182 0.97607114517994109 0 0 0 0 526.39340827225169 510.15092225912554 0 510.15092225912554 396.1420459163387 0 0 0 0 385.14391997839266 -444.74859359894208 0 -444.74859359894208 499.30913908592822 0 0 0 0 90.699265939538236 -0.68009634726530521 0 -0.68009634726530521 14.756416713597332 0 0 0 0 -31.480275673722645 -238.94879899770058 0 -238.94879899770058 122.78573245275743 0 0 0 0 -103.86394925060358 -158.09404200403441 0 -158.09404200403441 138.85006916724546 0 0 0 0 58.246054831112943 -75.374521679574173 0 -75.374521679574173 34.978944443725347 0 0 0 0 29.383990418748141 -29.634866314778709 0 -29.634866314778709 10.522231368901256 0 0 0 0 80.279541040775456 -69.01794452834082 0 -69.01794452834082 24.102613435043754 0 0 0 0 -69.054296453068673 -98.772213617375712 0 -98.772213617375712 96.31319357503321 0 0 0 0 -20.823528757036911 -161.84206003937652 0 -161.84206003937652 7.9283358528336976 0 0 0 0 197.74998867077738 -56.992930669252019 0 -56.992930669252019 -39.726663001586985 0 0 0 0 153.22869478071152 -114.79301794776075 0 -114.79301794776075 -50.955735339588728 0 0 0 0 165.77144137294999 -151.51300897874307 0 -151.51300897874307 56.537958334463838 0 0 0 0 52.444910733996039 -134.68183669284855 0 -134.68183669284855 417.36431546414906 0 0 0 0 5.2742833590686047 -4.3515656563060698 0 -4.3515656563060698 1.8629273556314545 0 0 0 0 -6.495046439642465 66.374825079601123 0 66.374825079601123 137.67489724492452 0 0 0 0 255.12772376187058 157.52320564288311 0 157.52320564288311 169.11403937703517 0 0 0 0 50.181073313658999 -22.104607592808861 0 -22.104607592808861 13.696788830088963 0 0 0 0 15.501078949871449 -11.028331549990796 0 -11.028331549990796 7.8284897316944821 0 0 0 0 24.987691616536722 -34.464456999210995 0 -34.464456999210995 59.896653276945926 0 0 0 0 501.75302848493448 180.18760204166801 0 180.18760204166801 -186.25945614978082 0 0 0 0 861.08431251292495 136.97996669416079 0 136.97996669416079 -259.25903834699511 0 0 0 0 -117.88107584038517 -262.28234454482435 0 -262.28234454482435 463.82606085316365 0 0 0 0 92.350248939286388 -73.805659104255795 0 -73.805659104255795 33.474009136418474 0 0 0 0 -21.802691052814225 -35.571501160836533 0 -35.571501160836533 87.093438826238071 0 0 0 0 5.413043663778808 96.06112517967631 0 96.06112517967631 -365.70824657930461 0 0 0 0 74.930042400696436 142.16449748644666 0 142.16449748644666 -63.065774909245299 0 0 0 0 250.31569210295706 73.656225131402977 0 73.656225131402977 -15.729516352641912 0 0 0 0 726.62371159890608 446.56220101757935 0 446.56220101757935 -145.39169172072434 0 0 0 0 140.08389068348333 282.68166711747472 0 282.68166711747472 -232.73568392109155 0 0 0 0 241.69003667673678 23.929212249886405 0 23.929212249886405 43.048446675768218 0 0 0 0 -2.1597844629893928 -4.1459422239561405 0 -4.1459422239561405 0.35372625671037383 0 0 0 0 -137.16477572973236 171.07011893906383 0 171.07011893906383 -215.65053453861219 0 0 0 0 225.59897594156791 404.42279445710847 0 404.42279445710847 -108.82791747638112 0 0 0 0 -11.140044083380189 17.621025080365978 0 17.621025080365978 7.2071722118069115 0 0 0 0 756.5100331781432 -414.45597927852396 0 -414.45597927852396 261.93750205506512 0 0 0 0 -82.604712682801619 33.04769591919603 0 33.04769591919603 -118.97519067318717 0 0 0 0 1047.4954476050989 -260.36404655683737 0 -260.36404655683737 -100.91727569837349 0 0 0 0 871.3897000480647 -59.701543253061573 0 -59.701543253061573 -281.93463922111277 0 0 0 0 449.39727587062225 -167.09170368513787 0 -167.09170368513787 170.37915288965632 0 0 0 0 32.970303785093265 9.9434175891420438 0 9.9434175891420438 2.4898294804976757 0 0 0 0 263.38356013210432 102.06841097131701 0 102.06841097131701 31.404906642687138 0 0 0 0 33.091960669317359 9.6912877343152957 0 9.6912877343152957 7.1614078052357399 0 0 0 0 2.6986936984433498 4.3348298142275894 0 4.3348298142275894 4.0276765619754045 0 0 0 0 94.059693157552829 1.0250858189169776 0 1.0250858189169776 -3.7123385587119628 0 0 0 0 40.991730156312769 -12.085897080026484 0 -12.085897080026484 -6.6087835901325889 0 0 0 0 2.4247248173972853 2.674008447556254 0 2.674008447556254 -0.56241803193571371 0 0 0 0 10.751453895989817 13.096511194059843 0 13.096511194059843 2.7068243905270002 0 0 0 0 -445.53738110674385 50.912212218614059 0 50.912212218614059 176.98464461169351 0 0 0 0 10.332465355457057 0.99542232127156183 0 0.99542232127156183 0.027076358016163482 0 0 0 0 10.009932395943594 -3.8397117444951192 0 -3.8397117444951192 -1.3701405633791381 0 0 0 0 52.750523903520843 16.733701861027839 0 16.733701861027839 0.80231502781680319 0 0 0 0 -577.76813423540443 -190.3212065736152 0 -190.3212065736152 -21.184270945504977 0 0 0 0 47.866452130198013 16.171311387115566 0 16.171311387115566 8.4328406035201624 0 0 0 0 31.981778208455658 -9.1767757007198725 0 -9.1767757007198725 -3.7719029021624877 0 0 0 0 193.87237618687504 101.95376310599386 0 101.95376310599386 43.471528730509817 0 0 0 0 149.02067735004675 60.583268237237462 0 60.583268237237462 32.692720574177656 0 0 0 0 186.18222307239193 16.272503526496166 0 16.272503526496166 -53.174719674610969 0 0 0 0 221.9794467523534 -41.931134556533834 0 -41.931134556533834 -60.316716630387532 0 0 0 0 167.37184974217234 27.443776845615503 0 27.443776845615503 -4.066432302346584 0 0 0 0 208.3799154392691 -45.792138370160501 0 -45.792138370160501 -41.475258347067211 0 0 0 0 233.42769744235193 25.760087613879932 0 25.760087613879932 -9.9977858774618653 0 0 0 0 279.73156785746687 -98.03581024489722 0 -98.03581024489722 -86.275777094253499 0 0 0 0 285.33630623088538 -87.380627457912851 0 -87.380627457912851 -95.527191252163902 0 0 0 0 288.0396999408913 -86.433104366507905 0 -86.433104366507905 -122.58306756774709 0 0 0 0 285.10419262895448 -101.16328575925399 0 -101.16328575925399 -109.88859504675838 0 0 0 0 322.85984850449313 -67.149025242169046 0 -67.149025242169046 -79.329998430672276 0 0 0 0 282.28430856892737 -58.66861647816404 0 -58.66861647816404 -22.085835867896094 0 0 0 0 258.83788343806737 56.509162904023924 0 56.509162904023924 23.31482037520891 0 0 0 0 329.23815777080745 -24.747485964209318 0 -24.747485964209318 -46.158678602839018 0 0 0 0 259.44951625695103 44.22024685530323 0 44.22024685530323 37.598834307679681 0 0 0 0 428.05533709487463 118.67003815634541 0 118.67003815634541 66.350161395104806 0 0 0 0 209.54387713778124 -81.270222308438633 0 -81.270222308438633 477.45397932847095 0 0 0 0 551.41923120205684 -41.36224388633191 0 -41.36224388633191 -20.996391005777067 0 0 0 0 416.0927017439808 -264.29108677167585 0 -264.29108677167585 101.771947463326 0 0 0 0 545.31145317412302 75.892970404431708 0 75.892970404431708 -20.531629143597002 0 0 0 0 470.86732661183851 -285.59450976060089 0 -285.59450976060089 157.59951656307589 0 0 0 0 187.25540468820691 -200.4645873764548 0 -200.4645873764548 255.9343214692617 0 0 0 0 159.48270846937885 -94.951630685689679 0 -94.951630685689679 47.758145994689244 0 0 0 0 190.33128103856507 6.8829106732725904 0 6.8829106732725904 73.851790619491567 0 0 0 0 148.88545168626297 -42.588469575484623 0 -42.588469575484623 30.762073046714249 0 0 0 0 0.025919051213953992 3.6383991986807942 0 3.6383991986807942 1.9643584463888839 0 0 0 0 -1.2642404194394228 2.4283947322352049 0 2.4283947322352049 2.7221344177851234 0 0 0 0 76.457168428387376 -7.2551978651448223 0 -7.2551978651448223 40.988650093276419 0 0 0 0 33.25886586937122 -5.513796925980273 0 -5.513796925980273 69.888691522468434 0 0 0 0 30.227062931733599 12.191528274188732 0 12.191528274188732 2.9964553362145097 0 0 0 0 56.101216436509276 32.049215374069718 0 32.049215374069718 -31.725712084346014 0 0 0 0 44.300524756697996 -23.680859088254408 0 -23.680859088254408 91.656288088576957 0 0 0 0 192.91670906700892 -70.020074551510334 0 -70.020074551510334 183.11411840407777 0 0 0 0 0.62543735077499996 3.2622773431088063 0 3.2622773431088063 1.3430884419611928 0 0 0 0 237.10572236291318 -167.83885526404256 0 -167.83885526404256 115.99526482575584 0 0 0 0 195.4329466106301 -8.3046615911957815 0 -8.3046615911957815 -50.738703884306233 0 0 0 0 330.04306236217963 -157.08584526730419 0 -157.08584526730419 46.281986074247015 0 0 0 0 287.37722812293214 -25.640248408198659 0 -25.640248408198659 -33.785227191272043 0 0 0 0 193.4524092715626 130.86756325443753 0 130.86756325443753 -94.132770477246595 0 0 0 0 216.12680182183612 -89.661880228684367 0 -89.661880228684367 65.340648505156082 0 0 0 0 915.6374638334637 -402.89777347353754 0 -402.89777347353754 -552.03117811707125 0 0 0 0 1623.5166561205697 453.01623527514494 0 453.01623527514494 52.690518996903847 0 0 0 0 162.06009980358402 27.650299732081912 0 27.650299732081912 -21.804923528470116 0 0 0 0 10.029185441326206 -2.9222336942062466 0 -2.9222336942062466 -0.3184031081459634 0 0 0 0 143.77469513269898 138.24452306897177 0 138.24452306897177 286.59197752903384 0 0 0 0 -68.129669364134315 8.6118935891217916 0 8.6118935891217916 209.55030601910448 0 0 0 0 -842.49702521791187 -369.16410735060362 0 -369.16410735060362 351.56146910565587 0 0 0 0 544.13870607773424 252.85861287945181 0 252.85861287945181 129.81387392008628 0 0 0 0 413.0615474589722 -18.397817162996034 0 -18.397817162996034 -139.77222293816294 0 0 0 0 37.456961782036103 7.9204606430027695 0 7.9204606430027695 0.95659118268445553 0 0 0 0 187.49286714196205 -36.55391213242865 0 -36.55391213242865 -102.12655534543046 0 0 0 0 228.38772846938809 -546.38408887534933 0 -546.38408887534933 680.82956057722458 0 0 0 0 1135.5246546279668 28.664940327373188 0 28.664940327373188 -261.96527999166483 0 0 0 0 146.51518100344401 -261.02759036690259 0 -261.02759036690259 -279.58742007604241 0 0 0 0 38.223600615310716 -979.4848686001942 0 -979.4848686001942 -23.536100668434301 0 0 0 0 773.17899193060657 823.08624184363271 0 823.08624184363271 -484.17690065889565 0 0 0 0 196.91239154227515 -0.15904115465491486 0 -0.15904115465491486 8.6619728259884141 0 0 0 0 160.25093080685463 30.865825551054293 0 30.865825551054293 -19.788755831933948 0 0 0 0 239.69518514840092 -32.167959323556261 0 -32.167959323556261 19.476346379189636 0 0 0 0 18.423053964783321 11.137172473506382 0 11.137172473506382 6.7800580195607836 0 0 0 0 109.04039393110634 -7.0123548906852875 0 -7.0123548906852875 -9.8651602766467477 0 0 0 0 23.265814961661818 35.369153335861995 0 35.369153335861995 92.571395240014567 0 0 0 0 14.374007861337351 10.342654759543123 0 10.342654759543123 -1.3763110503401235 0 0 0 0 2.3662758274583666 2.5407605030680238 0 2.5407605030680238 0.1895788402485814 0 0 0 0 205.9782412568311 158.00031258909212 0 158.00031258909212 54.575277662292251 0 0 0 0 545.70655314187752 29.998024879826971 0 29.998024879826971 -50.049610636297075 0 0 0 0 163.22998663324688 -103.66960448748942 0 -103.66960448748942 -67.517717368593367 0 0 0 0 163.70386593873263 -70.432947984763359 0 -70.432947984763359 -52.100058367447673 0 0 0 0 264.84519696216739 24.15770103135651 0 24.15770103135651 -50.156928828775563 0 0 0 0 521.94130298309028 -88.471881575450425 0 -88.471881575450425 -160.32532991398057 0 0 0 0 72.78548292616324 303.43356310449963 0 303.43356310449963 348.52619987728667 0 0 0 0 114.79356656166783 -122.55486962952637 0 -122.55486962952637 313.92016463757307 0 0 0 0 303.4258012236096 -116.72423638369052 0 -116.72423638369052 -154.29355923162899 0 0 0 0 325.25236558911274 -183.84313260955219 0 -183.84313260955219 -107.84894642993459 0 0 0 0 10.076997492225246 6.6587664312575896 0 6.6587664312575896 -2.0275380410007902 0 0 0 0 252.71356162865413 -43.721824980024891 0 -43.721824980024891 -86.248519807330169 0 0 0 0 123.04582114642835 -144.42341640227914 0 -144.42341640227914 185.23302041525176 0 0 0 0 -55.420781554363202 20.268072226976983 0 20.268072226976983 196.0083942430274 0 0 0 0 -96.631187205799506 78.338443089154552 0 78.338443089154552 128.74083306547416 0 0 0 0 -3.7326036346597302 10.283724163834606 0 10.283724163834606 5.6698782685688851 0 0 0 0 42.72636806088849 26.270551506799393 0 26.270551506799393 -0.84927923943450878 0 0 0 0 37.960498954317757 -2.5028499899806107 0 -2.5028499899806107 2.3855497494842428 0 0 0 0 0.89281840451272387 40.593757915701062 0 40.593757915701062 0.67169883974774569 0 0 0 0 30.247733254742343 9.5495702136352776 0 9.5495702136352776 -63.631238919721739 0 0 0 0 -119.9301897653495 -35.977456162048384 0 -35.977456162048384 -58.275713279615729 0 0 0 0 232.10089574183803 -91.079750075119563 0 -91.079750075119563 -127.44594374194617 0 0 0 0 4.9339542150904521 0.36621021307230706 0 0.36621021307230706 -0.88962084330181734 0 0 0 0 127.42488089805556 10.605987821836607 0 10.605987821836607 6.9570563229276559 0 0 0 0 160.44166321877128 18.121145283087344 0 18.121145283087344 -1.2818107216953649 0 0 0 0 163.31934447509411 26.351661777144727 0 26.351661777144727 22.090861520049884 0 0 0 0 86.807731827791343 -11.116243307854116 0 -11.116243307854116 -0.59140970983795693 0 0 0 0 152.10418363899498 -15.912765141747286 0 -15.912765141747286 0.74399128892082445 0 0 0 0 122.63339577485749 -18.991550065023603 0 -18.991550065023603 -9.940238898399457 0 0 0 0 94.060780444975535 -26.017228548095545 0 -26.017228548095545 1.0329670445039483 0 0 0 0 109.72955305141659 -5.2779176727397044 0 -5.2779176727397044 -15.33244597893281 0 0 0 0 90.2146875336839 -18.118480641454425 0 -18.118480641454425 -8.3712353202211034 0 0 0 0 90.742724118550541 -19.778624201150251 0 -19.778624201150251 -11.266381647660324 0 0 0 0 108.6008379568957 -100.17194794176558 0 -100.17194794176558 49.438781444216715 0 0 0 0 73.176303731907183 -19.417012025709539 0 -19.417012025709539 5.1945554331944246 0 0 0 0 85.034587070662383 -8.5140905814603798 0 -8.5140905814603798 -13.093870941625028 0 0 0 0 -5.6387462993188819 10.697688885811203 0 10.697688885811203 19.539232963490576 0 0 0 0 81.344977462758834 16.052625250328674 0 16.052625250328674 16.411777444275458 0 0 0 0 69.347418081250794 -4.8820907294819591 0 -4.8820907294819591 -8.5397478476971287 0 0 0 0 54.627681422825844 141.29671538891762 0 141.29671538891762 49.593346224859488 0 0 0 0 122.73421527645405 75.466099948781448 0 75.466099948781448 -133.19261260747771 0 0 0 0 43.034566501598313 14.527131262677923 0 14.527131262677923 -31.949654413543662 0 0 0 0 122.2292501376578 83.437961954560706 0 83.437961954560706 -123.03582257878043 0 0 0 0 150.27618846343287 17.406031270344506 0 17.406031270344506 -26.475481374896642 0 0 0 0 265.70416785836278 95.821328212412652 0 95.821328212412652 54.086053407566411 0 0 0 0 -25.489262443436019 53.550934348349301 0 53.550934348349301 -13.039552048714995 0 0 0 0 53.594098723802915 14.331760751925259 0 14.331760751925259 3.6277120718356652 0 0 0 0 1032.0448366942583 259.01282776187873 0 259.01282776187873 -19.337547572866242 0 0 0 0 294.62579121689487 -296.96527940123451 0 -296.96527940123451 -213.90770630388784 0 0 0 0 535.37849147630914 136.58356450689053 0 136.58356450689053 -67.470934997832956 0 0 0 0 3.2339807314221503 1.2018455813972011 0 1.2018455813972011 0.35540119636531564 0 0 0 0 148.29711162978492 170.53436996130267 0 170.53436996130267 167.282992692888 0 0 0 0 -975.12143174509401 -129.34217822726532 0 -129.34217822726532 138.20654248822939 0 0 0 0 9.097984748397721 65.381219672260158 0 65.381219672260158 93.803482301646454 0 0 0 0 31.799438911721921 -6.8806546008208418 0 -6.8806546008208418 -2.3253195877083743 0 0 0 0 45.607581821248459 7.6870927768017907 0 7.6870927768017907 15.970586434376457 0 0 0 0 404.78344292294059 66.718084888812427 0 66.718084888812427 -151.67319734860621 0 0 0 0 68.412345047957672 11.986802605653061 0 11.986802605653061 -2.3858991055591132 0 0 0 0 68.401107734380645 -7.0624408171111224 0 -7.0624408171111224 -7.6672935061916041 0 0 0 0 59.144253257240052 -9.2738529485945946 0 -9.2738529485945946 -28.182397869429565 0 0 0 0 65.650874658553221 8.1206831487578484 0 8.1206831487578484 -18.523482179069106 0 0 0 0 46.702200356551259 11.302886960169346 0 11.302886960169346 -2.7943729348479005 0 0 0 0 46.60172039992176 -8.6329529200104389 0 -8.6329529200104389 -22.821706498919411 0 0 0 0 55.524243133009662 -20.080776870002289 0 -20.080776870002289 -25.681079604532261 0 0 0 0 54.862285643637222 -9.3593701409081831 0 -9.3593701409081831 -10.574198161278492 0 0 0 0 -36.446153343713377 -27.581358067538531 0 -27.581358067538531 -18.620637543528574 0 0 0 0 -2.5851665949739981 -60.266284172257656 0 -60.266284172257656 -50.879253461025655 0 0 0 0 -32.297459147346672 -11.097355955784224 0 -11.097355955784224 -6.9734179844963364 0 0 0 0 12.48313226383226 -5.1034620084506663 0 -5.1034620084506663 -4.2827176817563934 0 0 0 0 56.617069219893892 -12.516752460417138 0 -12.516752460417138 -38.583062807600072 0 0 0 0 -21.094259500328917 -8.396574582771791 0 -8.396574582771791 -6.4952193818990054 0 0 0 0 66.233661295380443 9.4228807775220957 0 9.4228807775220957 2.2537335818915381 0 0 0 0 2.1647567816416995 -6.4888566383210105 0 -6.4888566383210105 32.880839121062309 0 0 0 0 24.338065611955244 -12.852431441067893 0 -12.852431441067893 -15.341615568437192 0 0 0 0 39.410110073920805 -3.4526038491726467 0 -3.4526038491726467 -22.417196779244023 0 0 0 0 75.448788365494693 -11.870207538619979 0 -11.870207538619979 32.757803282441159 0 0 0 0 56.181246265399238 -11.860737625098583 0 -11.860737625098583 -26.906203021851525 0 0 0 0 49.908098943691584 38.876920559746168 0 38.876920559746168 -60.460142662372164 0 0 0 0 11.06952927740647 0.48690507178531561 0 0.48690507178531561 -8.6153816198779403 0 0 0 0 66.615454736136599 36.545627220018105 0 36.545627220018105 -71.504257409510501 0 0 0 0 19.236644265800294 16.731064594569872 0 16.731064594569872 1.0556206242684389 0 0 0 0 84.567435899582847 9.9287162164852987 0 9.9287162164852987 -5.9802364326244692 0 0 0 0 246.58672333220602 69.324448743540415 0 69.324448743540415 -277.72650872667691 0 0 0 0 62.491379702005361 -85.742320996864692 0 -85.742320996864692 -60.05490797460152 0 0 0 0 67.37251147502684 -54.480840732159777 0 -54.480840732159777 -37.693004776991074 0 0 0 0 87.209760998322679 -7.851108885429241 0 -7.851108885429241 -20.626161198495531 0 0 0 0 84.696966515205517 -6.6729911433828022 0 -6.6729911433828022 -24.276523427448172 0 0 0 0 57.544818408787251 -31.892767613995602 0 -31.892767613995602 -38.704781386462855 0 0 0 0 76.560583962725758 -20.326590005676252 0 -20.326590005676252 -31.205287628964481 0 0 0 0 54.374666513496777 -11.699716540297231 0 -11.699716540297231 -21.741302319958777 0 0 0 0 40.657358099846959 -16.329429113095486 0 -16.329429113095486 -10.801794408287703 0 0 0 0 11.614040216738886 -15.791112312391299 0 -15.791112312391299 -10.0245037125202 0 0 0 0 68.775910642332747 -18.211994448164091 0 -18.211994448164091 -37.77230639057052 0 0 0 0 213.98744942602934 -185.17555796254055 0 -185.17555796254055 22.244165314860766 0 0 0 0 207.91555286687799 -233.94526347492319 0 -233.94526347492319 205.73034413465894 0 0 0 0 586.12450033679852 -109.47754324992547 0 -109.47754324992547 -126.25555578178682 0 0 0 0 212.73039767410955 -21.341793426348886 0 -21.341793426348886 -135.4073808675912 0 0 0 0 -199.85434111859649 245.15111067305588 0 245.15111067305588 -83.941388187555276 0 0 0 0 -107.2407659698074 109.12718468202092 0 109.12718468202092 52.822658233798393 0 0 0 0 31.848274423465227 142.94221863026289 0 142.94221863026289 -91.560068941194004 0 0 0 0 68.844773967284709 42.941924325622949 0 42.941924325622949 -107.70961830076158 0 0 0 0 58.148276428557438 37.802767586646723 0 37.802767586646723 -71.534922871074741 0 0 0 0 58.652352628691006 15.584466210051687 0 15.584466210051687 4.2027602857942838 0 0 0 0 78.279033534839982 46.726598955417103 0 46.726598955417103 39.551864047766685 0 0 0 0 85.924843821441755 7.0877717632174608 0 7.0877717632174608 6.7197060552248331 0 0 0 0 87.834504321690474 -10.113083991621409 0 -10.113083991621409 -53.409845508122089 0 0 0 0 -1.3492438191376515 0.10598202128198864 0 0.10598202128198864 -2.9367816590188696 0 0 0 0 78.480508569569793 -34.005816658651838 0 -34.005816658651838 -57.633210263110868 0 0 0 0 114.3646944673601 -41.284145295295275 0 -41.284145295295275 -139.89538565688053 0 0 0 0 131.41712916188089 -19.992314169836163 0 -19.992314169836163 -71.696557774153916 0 0 0 0 129.97444416748476 2.6827468004612456 0 2.6827468004612456 -68.724180628558315 0 0 0 0 141.51708551938646 28.854686627867522 0 28.854686627867522 -26.813389731394636 0 0 0 0 218.62819272157503 147.55981714803329 0 147.55981714803329 44.688279300311478 0 0 0 0 93.289817575234338 47.20562120826753 0 47.20562120826753 -32.644573173698518 0 0 0 0 263.49695277673891 9.1186442683941777 0 9.1186442683941777 -125.79525670884868 0 0 0 0 165.52333228833231 -19.633789755395128 0 -19.633789755395128 -71.829200829521142 0 0 0 0 -169.74137699160929 -99.988652323466795 0 -99.988652323466795 3.5557796651346507 0 0 0 0 121.01295239759565 -38.543295393215885 0 -38.543295393215885 -26.394862536152687 0 0 0 0 130.66107582941186 -51.962409503881645 0 -51.962409503881645 -99.782002136433448 0 0 0 0 140.80052168264228 2.9117803778840425 0 2.9117803778840425 -45.884790309005666 0 0 0 0 136.04186351290991 -16.925479589687711 0 -16.925479589687711 -81.186830635058868 0 0 0 0 179.7266004740959 64.905460782770206 0 64.905460782770206 -74.915100423560943 0 0 0 0 212.46406784786711 98.813206676235694 0 98.813206676235694 13.763627202964017 0 0 0 0 212.50979858658812 90.844860964921281 0 90.844860964921281 21.030222519546442 0 0 0 0 0.59841701413540704 0.73782211240286699 0 0.73782211240286699 -0.0086249945504692782 0 0 0 0 96.387719684353215 99.345080815505298 0 99.345080815505298 80.432771156473336 0 0 0 0 -2.0687866126099834 35.779999659847363 0 35.779999659847363 47.805886321980324 0 0 0 0 148.5890483232215 14.192389349846508 0 14.192389349846508 -142.17346776708746 0 0 0 0 111.51660826061561 66.821070213066378 0 66.821070213066378 -214.23834993347282 0 0 0 0 6.5122091879848085 -35.034147003483099 0 -35.034147003483099 2.9485904713656055 0 0 0 0 -11.121133742788516 -3.0239683676304594 0 -3.0239683676304594 1.8553096797168109 0 0 0 0 -0.026943073298546949 -1.196757098724845 0 -1.196757098724845 1.1767224601822157 0 0 0 0 4.3888466696953401 -13.802186265370437 0 -13.802186265370437 -26.19128981664818 0 0 0 0 67.269512162602041 76.836664054807443 0 76.836664054807443 -130.24504477427945 0 0 0 0 -247.8031997315411 -13.047717139844735 0 -13.047717139844735 20.411179509900194 0 0 0 0 2.086304045585905 0.56302698318091871 0 0.56302698318091871 0.082217378400972985 0 0 0 0 113.42503485239286 55.259555967127199 0 55.259555967127199 -172.06560281319616 0 0 0 0 282.12116559680726 145.42157747523788 0 145.42157747523788 -12.282812855044085 0 0 0 0 131.56222222521319 -179.14859629689727 0 -179.14859629689727 45.57826974329555 0 0 0 0 811.26266869732353 -345.67549541895733 0 -345.67549541895733 84.021720565512169 0 0 0 0 -153.83915851285565 -303.98386553102455 0 -303.98386553102455 564.21093472367329 0 0 0 0 951.2462334180218 296.89039206660607 0 296.89039206660607 -17.508318730845531 0 0 0 0 211.42775323256501 337.63385036086402 0 337.63385036086402 173.6932481868339 0 0 0 0 13.794429952765768 1.8189234904986264 0 1.8189234904986264 0.27457634942849829 0 0 0 0 -55.327509257258498 1.935708550619438 0 1.935708550619438 43.445750052348558 0 0 0 0 2.5727231012424454 97.189953336696817 0 97.189953336696817 -200.04859912689153 0 0 0 0 71.784210755031381 75.955094715112864 0 75.955094715112864 17.625125002005916 0 0 0 0 250.57019344136643 209.0278054529449 0 209.0278054529449 79.6377570896816 0 0 0 0 206.71749103852198 140.32475274699664 0 140.32475274699664 30.512216286200783 0 0 0 0 148.3385645238377 74.870037557860542 0 74.870037557860542 18.178607613290296 0 0 0 0 268.9527226096252 104.25904511820613 0 104.25904511820613 -6.3381135286899735 0 0 0 0 473.5760767730244 123.99441016555556 0 123.99441016555556 -40.065836796589792 0 0 0 0 262.15269159976015 88.003115299355613 0 88.003115299355613 -42.762322788531492 0 0 0 0 386.23178701331199 -125.1855860290766 0 -125.1855860290766 1.9015848409926548 0 0 0 0 153.54330696328543 -48.417565802946228 0 -48.417565802946228 2.3199430469394429 0 0 0 0 134.27096024522325 -33.133811061708911 0 -33.133811061708911 7.4006828903732185 0 0 0 0 133.80479765836208 58.99351122400094 0 58.99351122400094 -35.083318279443574 0 0 0 0 303.29888741863397 39.324012398865079 0 39.324012398865079 -46.712087430948486 0 0 0 0 22.434847351367353 -52.487629736869394 0 -52.487629736869394 13.799743577962545 0 0 0 0 66.227531440817984 -21.894692294431479 0 -21.894692294431479 26.918320540830337 0 0 0 0 40.930431190907257 -52.889855355152122 0 -52.889855355152122 45.74972113554395 0 0 0 0 41.90737134408846 -47.453190400341555 0 -47.453190400341555 15.413909067066925 0 0 0 0 43.630842074475368 -32.435856885673275 0 -32.435856885673275 5.6196587088625165 0 0 0 0 26.345795191627985 -25.945214227388078 0 -25.945214227388078 42.490401838119396 0 0 0 0 26.365734210732626 -32.610313321094964 0 -32.610313321094964 66.520527049699012 0 0 0 0 27.521400966259534 -25.745627940239501 0 -25.745627940239501 37.237768257728021 0 0 0 0 155.53869787564963 -69.485090725969144 0 -69.485090725969144 21.924611293205089 0 0 0 0 134.84663096426311 -52.617962395886835 0 -52.617962395886835 22.7169107993941 0 0 0 0 10.786888966977131 -26.015411450388456 0 -26.015411450388456 63.806917248601621 0 0 0 0 48.56492658573552 -79.528825916916958 0 -79.528825916916958 95.038817942153401 0 0 0 0 119.13231105664181 -93.89135889448238 0 -93.89135889448238 97.89066512447971 0 0 0 0 -88.645758690676303 -102.50891180481722 0 -102.50891180481722 232.01851450144557 0 0 0 0 -63.84087799790359 70.300025839804732 0 70.300025839804732 37.964812971238644 0 0 0 0 -16.629085865977686 13.084770552360169 0 13.084770552360169 -10.069176505473479 0 0 0 0 15.124961957671985 8.7728159191485702 0 8.7728159191485702 43.767488225314082 0 0 0 0 14.110416552372044 1.469014526560386 0 1.469014526560386 98.344024877245829 0 0 0 0 36.20790153472467 6.5074830690217738 0 6.5074830690217738 -11.972467885106306 0 0 0 0 93.975228712719399 29.796827527152345 0 29.796827527152345 40.010365924716098 0 0 0 0 189.65757123540061 -47.588769854123711 0 -47.588769854123711 38.455848565406995 0 0 0 0 191.9176097089512 -42.312640712220855 0 -42.312640712220855 50.149730934095714 0 0 0 0 -135.04861932751373 276.81948714562077 0 276.81948714562077 -137.42546951186114 0 0 0 0 -324.79590699363325 162.66824958683992 0 162.66824958683992 198.58538811698736 0 0 0 0 149.49750174074802 19.512098059651208 0 19.512098059651208 -15.863397231730477 0 0 0 0 84.550048233475536 -82.353489274485923 0 -82.353489274485923 25.198369659308582 0 0 0 0 90.790870743105188 -107.45743423220533 0 -107.45743423220533 75.36741549427046 0 0 0 0 97.043140398120158 -108.99223614101493 0 -108.99223614101493 75.682774538980539 0 0 0 0 59.896925526860286 -80.51507789008042 0 -80.51507789008042 73.636260547761708 0 0 0 0 92.474892268867464 -67.45000662395509 0 -67.45000662395509 48.666396042238333 0 0 0 0 37.588483768937294 -94.341368784123915 0 -94.341368784123915 80.039533662837471 0 0 0 0 66.578948176909762 -26.397777614967822 0 -26.397777614967822 45.698537637763366 0 0 0 0 25.496142650508375 -4.0520404875654066 0 -4.0520404875654066 13.834010912903711 0 0 0 0 23.798318942965125 -18.32914158614858 0 -18.32914158614858 44.570351055598621 0 0 0 0 0.33360843693890274 6.0220936928705129 0 6.0220936928705129 5.5510383189768566 0 0 0 0 52.240406138647813 -82.074300829797778 0 -82.074300829797778 140.17670039998552 0 0 0 0 30.484355376640451 -90.664449532050412 0 -90.664449532050412 144.60237147110001 0 0 0 0 30.313569776091754 -25.062385644323285 0 -25.062385644323285 39.587969024482845 0 0 0 0 15.853047179189161 -16.814158022463744 0 -16.814158022463744 16.155239387212532 0 0 0 0 12.300718055274046 -22.145543835085618 0 -22.145543835085618 39.151810207025392 0 0 0 0 41.048019082241808 -6.3106415480692704 0 -6.3106415480692704 44.635319720547159 0 0 0 0 34.72695559181011 -22.056363185208738 0 -22.056363185208738 15.190626879216325 0 0 0 0 22.439075906622747 -28.535195541570829 0 -28.535195541570829 16.328510582088711 0 0 0 0 23.493174855029793 -23.84746482469518 0 -23.84746482469518 -7.3365048678372204 0 0 0 0 -2.9024031654407736 -21.204448783093994 0 -21.204448783093994 18.562254702008431 0 0 0 0 19.92871871432871 -16.818576736030948 0 -16.818576736030948 6.0221451165857189 0 0 0 0 -4.7732660407200456 -36.040408064107282 0 -36.040408064107282 16.151407508972625 0 0 0 0 35.404337200627197 4.630718679729398 0 4.630718679729398 16.077675563354546 0 0 0 0 17.218621673975861 -0.51987449238076522 0 -0.51987449238076522 -2.3516969369667784 0 0 0 0 26.970073815235082 -19.326960495357127 0 -19.326960495357127 9.1828750387348919 0 0 0 0 439.64237031238736 -279.82874911319163 0 -279.82874911319163 172.77627719917746 0 0 0 0 0.9227344255837977 0.16280727022228803 0 0.16280727022228803 2.555053301455942 0 0 0 0 -18.115432332400815 -67.507963627824211 0 -67.507963627824211 407.47506067053519 0 0 0 0 11.178068762936164 -32.367871285168803 0 -32.367871285168803 12.619735713130922 0 0 0 0 -3.0545438438829251 -4.4934615854188849 0 -4.4934615854188849 2.5853691620864634 0 0 0 0 40.732866987673333 -14.096701277007924 0 -14.096701277007924 135.95816568938335 0 0 0 0 8.3257596216811862 -1.1230843507541834 0 -1.1230843507541834 -3.2827377582841786 0 0 0 0 283.53861208852322 -461.45740419759272 0 -461.45740419759272 424.64883382802827 0 0 0 0 268.27315143083706 -216.57682384479475 0 -216.57682384479475 131.86574555859715 0 0 0 0 267.7334175370197 -219.93383620927307 0 -219.93383620927307 152.34766748042875 0 0 0 0 186.75637734710472 -135.28636483789501 0 -135.28636483789501 346.0850491455617 0 0 0 0 130.13923811077257 -158.6085305694437 0 -158.6085305694437 192.04156739106452 0 0 0 0 210.0803078723693 -102.91741471482192 0 -102.91741471482192 -25.557364112843061 0 0 0 0 -99.170352938002907 29.938449646920834 0 29.938449646920834 26.919500516682163 0 0 0 0 93.234334388980642 47.737364954701889 0 47.737364954701889 -30.32663457268313 0 0 0 0 94.505846691104921 -99.338182165700616 0 -99.338182165700616 110.68838138393949 0 0 0 0 191.56487055614707 -107.67149154987328 0 -107.67149154987328 80.388858267248679 0 0 0 0 211.7966381246224 -11.547624803846389 0 -11.547624803846389 -15.264837365643046 0 0 0 0 85.92462678537413 -46.241974183604611 0 -46.241974183604611 -6.3531649217642325 0 0 0 0 111.6076844658237 27.574136014792536 0 27.574136014792536 -82.784796238969705 0 0 0 0 121.90047223394504 -156.75161893920301 0 -156.75161893920301 119.12898631221219 0 0 0 0 38.025936186017134 -134.40209836709494 0 -134.40209836709494 212.45510606522839 0 0 0 0 201.75708453485277 -283.31550289889003 0 -283.31550289889003 260.49622246636881 0 0 0 0 387.08516817078635 -87.170001277790902 0 -87.170001277790902 63.408083856294638 0 0 0 0 181.38469244833686 -73.207605839079633 0 -73.207605839079633 -10.089585460285434 0 0 0 0 180.05074264751602 -122.15371757881726 0 -122.15371757881726 64.611165104704241 0 0 0 0 175.86844823912543 -141.84122403041169 0 -141.84122403041169 48.523218593268211 0 0 0 0 100.50366552593186 -129.54788902592659 0 -129.54788902592659 109.73611833348957 0 0 0 0 132.69921489289845 -97.833501781220548 0 -97.833501781220548 4.0776235888356496 0 0 0 0 122.75288863357855 -80.235560952724427 0 -80.235560952724427 5.2195108180403622 0 0 0 0 105.70645654209511 -73.266272727813657 0 -73.266272727813657 20.864987814434244 0 0 0 0 150.82087722874712 -82.892327254349084 0 -82.892327254349084 -9.3033428910400744 0 0 0 0 88.999690878037654 -27.357389662883179 0 -27.357389662883179 -24.268101026727891 0 0 0 0 129.14167771695065 -74.745426546752014 0 -74.745426546752014 7.0096286954103562 0 0 0 0 127.18436080597166 -65.682575146932322 0 -65.682575146932322 1.8082928145870483 0 0 0 0 129.27403990674793 -56.321971040345431 0 -56.321971040345431 23.062209266816353 0 0 0 0 433.79755869446672 -3.0391562267812162 0 -3.0391562267812162 -12.179688700802217 0 0 0 0 6.4862096659071256 -7.9346387538852525 0 -7.9346387538852525 -18.231117774746895 0 0 0 0 -24.466962420148775 52.739240624031254 0 52.739240624031254 -23.931961783234101 0 0 0 0 419.57411541792317 -387.58880791218229 0 -387.58880791218229 264.10374590121319 0 0 0 0 8.2296176384435284 -5.0322968527163852 0 -5.0322968527163852 -2.3934592456745563 0 0 0 0 107.06281301892886 -11.767036981032334 0 -11.767036981032334 -64.707652342740403 0 0 0 0 31.680259045329876 -34.525531087038189 0 -34.525531087038189 -36.807008505385511 0 0 0 0 126.43899163036258 -2.0436055683949235 0 -2.0436055683949235 -42.360973602890226 0 0 0 0 83.860912132295198 -38.218629385970416 0 -38.218629385970416 25.354477212278638 0 0 0 0 49.145812020339832 -8.5421627986156068 0 -8.5421627986156068 -24.750079887544125 0 0 0 0 2.4739506484199865 -21.270772825322894 0 -21.270772825322894 7.4279027840702119 0 0 0 0 222.57120912127721 -99.195160908752754 0 -99.195160908752754 -161.72767388894169 0 0 0 0 56.161264996757382 -177.26093414912134 0 -177.26093414912134 188.54611128803481 0 0 0 0 287.23156896760679 350.43668740817094 0 350.43668740817094 98.405072626186666 0 0 0 0 306.36950659212016 -327.36894952444345 0 -327.36894952444345 235.08200128427495 0 0 0 0 76.292304118409191 18.001483768049532 0 18.001483768049532 7.9929456198598974 0 0 0 0 1.6658863375813553 -15.744911601054227 0 -15.744911601054227 31.006995211786425 0 0 0 0 -39.670192680543551 -34.773064292785875 0 -34.773064292785875 56.162502351809053 0 0 0 0 70.839079166413285 -181.56415724573708 0 -181.56415724573708 147.67272273683648 0 0 0 0 469.45829590692301 -136.05241455393434 0 -136.05241455393434 -78.284259267002199 0 0 0 0 47.870026005130541 -25.223283059199744 0 -25.223283059199744 22.799199823075462 0 0 0 0 74.482497644308097 -4.2826168000683751 0 -4.2826168000683751 -14.506455712213196 0 0 0 0 75.117904531041859 -28.436505532458341 0 -28.436505532458341 19.379301935844069 0 0 0 0 70.880499066628545 -31.817970752093288 0 -31.817970752093288 26.989885304876225 0 0 0 0 71.135844887113024 -8.9362278498958716 0 -8.9362278498958716 -12.117947700257901 0 0 0 0 95.176801685069222 -21.286384662364071 0 -21.286384662364071 11.500867170761921 0 0 0 0 188.44466276526873 -95.011460013939541 0 -95.011460013939541 -141.28506949038865 0 0 0 0 9.0702226265700716 -0.11183157387317522 0 -0.11183157387317522 -6.2378857097645639 0 0 0 0 105.08404373472149 -425.16684486410372 0 -425.16684486410372 93.583544031243946 0 0 0 0 147.07438526149781 -215.918128162225 0 -215.918128162225 -986.54739846681605 0 0 0 0 47.423507046885788 289.98429471591203 0 289.98429471591203 95.088108838908738 0 0 0 0 68.449895663492498 -80.474877423858743 0 -80.474877423858743 49.034722117811725 0 0 0 0 16.045338144077931 -2.808594923957628 0 -2.808594923957628 -0.11077463634565898 0 0 0 0 72.884216353559168 -40.860736466159324 0 -40.860736466159324 41.235553224046271 0 0 0 0 95.236260461864731 -129.62363748398673 0 -129.62363748398673 147.7991169719653 0 0 0 0 77.4870076123334 -79.834725499316846 0 -79.834725499316846 11.720772991332524 0 0 0 0 158.55520395842177 -87.447838887010221 0 -87.447838887010221 56.659987345652553 0 0 0 0 19.612164080191491 -19.652281011485002 0 -19.652281011485002 4.2615810396468454 0 0 0 0 79.214634641964949 -40.040139163553931 0 -40.040139163553931 -10.667867671749264 0 0 0 0 151.22647715818675 -64.555622535617999 0 -64.555622535617999 0.092410700852269656 0 0 0 0 198.34079589941757 -18.146501296381302 0 -18.146501296381302 33.110566498226945 0 0 0 0 313.82364592859449 -17.245169750459354 0 -17.245169750459354 13.831976404077977 0 0 0 0 107.82164097749046 49.559680607119958 0 49.559680607119958 118.45068242790785 0 0 0 0 -11.345516547458828 163.66418334879813 0 163.66418334879813 43.229584156250382 0 0 0 0 215.03912066265184 -67.926660234217707 0 -67.926660234217707 64.05522313207166 0 0 0 0 190.21277515379916 -5.8201552897098736 0 -5.8201552897098736 146.96028339206487 0 0 0 0 191.19378959196911 -42.166758353909245 0 -42.166758353909245 48.390718898170235 0 0 0 0 206.8013621532873 -38.043005800714923 0 -38.043005800714923 44.109942302413401 0 0 0 0 188.91489311348596 -35.435333958861747 0 -35.435333958861747 44.467043487042247 0 0 0 0 78.050082454588846 -105.87911178001332 0 -105.87911178001332 30.015581605900593 0 0 0 0 76.664985206201081 -69.163359349090086 0 -69.163359349090086 49.231036609191975 0 0 0 0 68.467494155185705 -86.499471560789061 0 -86.499471560789061 60.194879590714663 0 0 0 0 81.726473363445052 -66.435589793453673 0 -66.435589793453673 42.805051591457996 0 0 0 0 139.88422025691762 -66.534543480139291 0 -66.534543480139291 55.037671518118032 0 0 0 0 140.1774541376758 -69.351562182647967 0 -69.351562182647967 26.198331255238372 0 0 0 0 
</DataArray>
<DataArray type="Float64" Name="cross_section_updated" format="ascii">
1 1 1 1 0.011067346075955511 1 1 1 1 1 1 0.010035462585613893 1 1 1 1 0.011065844423005212 1 1 1 1 1 0.01009272750143856 1 1 0.010128073592155926 1 1 1 1 1 1 1 1 1 1 1 1 1 1 1 1 1 1 1 1 1 1 1 1 0.008517964437169314 1 1 1 1 0.0097846097170136773 1 1 1 1 1 0.011530247772889711 1 1 1 1 1 1 1 1 1 1 1 1 1 1 1 1 1 1 1 1 0.0099217607742952321 1 1 0.013250357663805987 1 1 1 1 1 1 1 1 1 1 1 1 1 0.010012260088368002 1 1 1 0.01238794128924766 0.010510490019227742 1 1 1 1 0.010142759894542691 1 0.012437629123111735 1 1 1 1 1 0.011259751453043044 0.01151911186492535 1 1 1 0.010001602931095706 1 0.0099749180430167787 1 1 1 1 1 0.013256613717924574 1 1 1 1 0.010110994219946857 1 1 0.010118528840079679 1 1 0.013213227686423218 1 1 1 0.0096001141177523529 0.012301929438528918 1 1 1 1 1 0.010080873348120889 0.0099719231169676306 1 1 1 0.0099939305531244766 1 0.010106579350145136 1 1 1 1 1 1 1 1 1 1 1 1 1 1 1 1 1 1 1 1 1 1 1 1 1 1 1 1 1 1 1 1 1 1 1 0.011028268642287502 1 0.0096665515666407385 0.0099771385770123303 1 1 0.0099224773171290876 1 1 1 1 1 1 1 0.01037639703970919 1 1 1 1 0.00984294323544283 1 1 1 1 0.010032861385706138 1 1 0.014484695348375244 1 1 0.0093188105410564118 0.013535730457058991 1 1 1 0.0091810019175714176 0.014040133699482198 1 1 0.010228264610961662 0.0099040986740342417 1 1 0.014987907921628289 1 1 1 1 1 0.016080535644982956 1 0.017608887680051335 1 1 0.0099845951828435621 1 1 0.011210190031889472 1 0.014097594476726323 1 1 1 1 0.010651749587212279 1 1 1 1 1 0.010267785716523519 1 1 1 1 1 1 1 1 1 1 1 1 1 1 1 1 1 1 0.010373195491568524 1 1 1 1 1 0.0099913328530098731 1 1 1 1 1 1 1 1 0.024011793993766104 1 1 1 0.0099527518885336539 1 1 1 0.01071600321756289 1 1 1 1 0.010920716635591968 0.023049963235767287 0.010019336686586387 0.0095888031071352763 1 1 1 1 1 1 1 1 1 1 1 1 1 1 1 1 1 1 1 1 0.024440917184413612 0.010646263462145894 0.010332188921351369 1 1 1 1 1 1 1 1 1 0.0097778468380862807 1 1 0.032605263482621841 1 1 1 1 1 1 1 1 1 0.031614419189126983 1 1 1 1 1 1 1 1 1 1 1 1 1 0.0099229794900984585 0.010232362316252524 1 1 1 1 1 1 1 1 1 1 1 1 1 1 1 1 1 1 1 1 0.010634928407828131 1 1 1 1 1 1 1 1 1 1 1 1 1 1 1 1 1 1 1 1 1 1 1 1 0.010557177435959481 1 0.012217296487124529 0.013549988689269356 1 1 1 1 1 1 1 1 1 1 1 1 1 0.010711725889949232 0.010698491389964414 1 0.010653460173035461 1 1 0.010853736717778069 0.009837554074584089 1 0.011225837083963916 0.010180719616791199 1 1 0.011374146323966725 1 1 1 1 1 1 0.010650492451649216 0.010795109048071516 1 1 0.011680859212195846 1 1 1 1 1 1 1 1 1 1 0.009821005736343192 1 1 1 1 1 1 1 1 1 1 1 1 1 1 1 1 1 1 1 1 1 1 1 0.011769794786413684 1 1 0.013717699567398042 1 0.01571232413289745 1 1 1 0.012303650740555758 1 1 1 0.010194598080281524 0.019493205783870045 1 1 0.013294977893050036 1 0.0067293523154513604 0.010155628416816845 1 1 0.020897035637863673 1 1 1 1 1 0.019658558568240961 1 1 1 1 1 1 1 0.01010190977536265 1 1 1 0.015095141633927073 1 1 1 0.010490787762966677 1 1 1 0.0082523898950496218 1 0.014431409358757015 1 1 1 0.016185712004177982 1 1 1 1 1 1 1 1 1 1 1 1 1 1 1 1 1 1 0.010152731214175023 1 1 0.0099208608133916111 1 1 1 0.010672139080175709 1 1 1 1 1 1 1 1 1 1 0.010190010006470941 1 1 1 1 1 1 1 1 1 1 1 1 1 1 1 1 1 1 1 1 1 1 1 1 1 1 0.015813263008472911 1 1 1 1 1 0.011751805072353121 1 0.01425422967286713 1 1 1 1 1 1 1 1 1 1 1 0.012675422064311367 1 1 1 1 1 1 1 1 1 1 1 1 1 1 1 1 1 1 1 1 1 0.010598058649433931 1 1 1 1 1 1 1 1 1 1 1 1 0.01085457373064712 1 0.011314657844781657 1 1 1 1 0.012419622889226222 1 1 1 0.01139760915768253 1 1 1 1 0.013301022926069913 1 1 0.011987449975229471 1 1 1 1 1 0.0095022616860369682 0.0099478143089779276 1 1 1 1 1 0.012655587689211809 1 1 1 1 1 0.009354264302100887 1 1 0.012317816880758631 1 1 1 0.0096500155115145647 0.012221462456829334 1 1 1 1 1 1 1 1 1 1 1 1 1 0.011322173842799012 1 1 1 0.01028534211623934 1 1 1 1 1 1 1 1 1 1 1 1 1 1 1 1 0.010068620808434103 1 0.011518875515471523 1 1 1 1 1 1 1 1 1 1 1 1 1 1 1 0.0098332752121167329 1 1 1 1 1 1 1 1 1 1 1 0.011706572193373838 1 1 1 1 0.0081323615896905649 1 1 1 0.012878958960944164 1 0.0093177136982751062 1 1 1 1 1 1 1 1 1 1 0.012338124658355178 1 1 0.011657109794245826 1 1 1 1 1 1 1 1 1 1 1 1 1 1 1 1 1 1 1 1 1 1 1 0.011314170802578153 1 1 1 1 1 1 1 0.0099981862249836212 0.01446415186247124 0.0096792531108564547 0.0099414854316319697 1 1 0.010000596368417573 0.010912744483183122 1 1 1 1 1 1 1 1 1 1 1 1 1 1 1 1 1 1 1 1 1 1 1 1 1 1 1 1 1 1 1 1 1 1 1 1 1 1 1 1 1 1 0.010786746046126798 1 1 1 1 1 1 1 1 1 1 0.010022179845451118 1 1 1 1 1 1 1 1 0.01175936546784895 1 1 1 1 1 1 0.012374677315793312 1 1 1 1 1 1 1 0.011845294940908677 0.0082778565345905351 1 1 1 1 1 1 1 1 1 1 1 1 1 0.010698904597789429 1 1 1 1 1 1 1 1 1 1 1 1 1 1 1 1 1 1 1 1 1 1 1 1 1 1 1 1 1 1 1 1 1 1 1 1 1 1 1 1 1 1 1 1 0.016855984316346641 1 1 1 1 0.0099936551202544823 1 1 1 1 1 1 1 1 1 1 1 1 1 1 1 1 1 1 1 1 1 1 1 1 1 1 1 1 1 1 1 1 1 1 1 1 1 1 1 1 1 1 1 1 1 1 1 1 1 1 1 1 1 1 1 1 1 1 1 1 1 1 1 0.0095820036373278697 1 1 1 1 1 1 1 0.011590918485067034 1 1 1 1 1 1 1 0.0097812075090246853 1 1 1 0.0091815180783450297 1 1 0.012330219636997888 1 1 1 1 1 1 1 1 1 1 1 1 1 1 0.0095112635781425085 1 1 1 1 1 0.010021942073386258 1 1 1 1 0.010128275827310372 1 1 1 1 0.0073507924381813611 1 0.010131313375198231 1 1 0.00715547787508503 1 1 1 1 1 1 1 1 1 1 1 1 1 1 1 1 1 1 1 1 0.014289574381568628 1 1 0.011492672234487951 1 1 1 1 1 1 1 1 1 1 1 1 1 1 1 1 1 1 1 1 1 1 1 1 1 1 1 1 1 1 1 1 1 1 1 1 1 1 1 1 1 1 1 1 1 1 1 1 1 1 1 1 1 1 1 1 1 1 1 1 1 1 1 1 1 1 1 1 1 1 1 1 1 1 1 1 1 1 1 1 1 1 1 1 1 1 1 1 1 1 1 1 1 1 1 0.016490624273518203 1 1 1 1 1 1 1 1 1 1 1 0.010795415985947188 1 1 1 0.011751076843474534 1 1 1 1 1 1 1 1 1 1 1 1 1 1 1 1 0.010511858518573123 1 1 1 1 1 1 1 0.0080936989427436677 1 1 1 0.022115731581174851 1 1 1 1 1 1 1 0.01558372544977899 1 1 0.012219906738488735 1 1 1 0.0099858588607703164 1 1 1 1 1 1 1 1 1 1 1 1 1 1 1 1 1 1 1 1 1 1 1 1 1 1 1 1 1 1 1 1 1 1 0.010211836742350298 1 1 1 1 1 1 1 1 1 0.01015128489325089 1 1 1 0.016750766385847632 1 0.0094828244122541778 1 1 1 1 1 1 1 1 1 1 0.018304304240012378 1 0.0099843802284328605 1 0.021716660238543985 0.009815898643565352 1 1 1 1 1 1 1 1 1 1 1 1 1 1 0.011086514812193048 1 0.011227510092560017 1 1 0.010478305677517783 0.010050734812555525 1 0.01016450794257575 1 1 1 1 0.010008208655051238 1 1 1 1 0.011747806022880248 1 0.014015519318598881 1 1 1 1 1 0.01290704769635208 1 1 0.0092476023252974857 1 0.01168645414990763 1 1 1 1 0.010016621875052032 1 1 1 1 0.010178016902563024 1 1 1 1 1 1 0.010068170076273079 1 1 1 0.010206418711255402 1 1 1 1 1 1 1 1 0.010445168733909872 1 1 1 1 1 1 1 1 0.010855521141457948 1 1 1 1 1 1 1 1 1 1 1 1 1 1 1 1 1 1 1 1 1 1 1 1 1 1 1 1 1 1 1 1 1 1 1 1 1 1 1 1 1 1 1 1 1 0.011484331739498305 1 1 1 1 1 1 1 1 1 1 1 1 1 1 0.0094631891211991899 1 1 1 1 1 1 1 0.017612511464412728 1 1 1 1 1 0.010764430250255952 1 1 1 1 1 1 1 1 1 1 1 1 1 1 1 1 1 1 1 1 1 1 1 1 1 1 1 0.012287797904423243 1 1 1 1 1 1 1 1 1 1 1 1 1 1 1 1 1 1 1 1 1 1 1 1 1 1 1 0.010569127281539548 1 1 1 1 0.010938295135997573 1 1 0.010805317901494874 1 1 0.01102940180810651 1 1 1 0.013410235899287224 0.012210173194968532 1 1 1 1 1 1 1 0.013337427397616348 1 1 1 1 1 1 1 1 0.010360601980740172 1 1 1 0.012322775943473127 0.014440360480798671 1 1 1 1 0.013455218053854318 1 1 0.016647517037344451 0.013289151325795286 0.016205374580749939 1 1 0.012729079800001375 1 1 1 1 1 1 1 1 1 1 1 1 1 1 0.010986366790657578 1 1 1 1 0.011174218415153859 1 1 1 1 1 1 0.011133752209657269 1 1 0.01058542446665833 1 1 1 1 1 1 1 0.0098002163338746125 0.010322168923208426 1 0.010788356878810367 1 1 1 1 1 1 1 1 1 0.010184217705529545 0.012174174759145943 1 1 1 1 0.01064938059601471 1 1 1 1 1 1 1 0.011599982639728664 1 1 1 0.0098275390892131036 1 1 1 0.010267659043693096 1 1 1 0.013144384059654159 1 1 1 1 1 1 1 1 1 1 1 1 1 1 1 0.0088754041717545949 0.010218145055273759 1 1 1 1 1 0.011217434884097027 1 0.010607838978240096 1 1 1 1 1 1 1 1 1 1 1 1 0.011494500438992403 1 1 1 1 1 1 0.0099886096755119093 0.0099893480482842172 1 1 0.015381336690878534 1 1 1 1 1 1 0.0093993560118996802 1 1 1 0.017307493763975001 1 1 1 1 1 1 1 1 1 1 1 1 1 1 1 0.011614509305304837 1 1 1 1 0.011694408879505775 1 1 0.011083196791909125 1 1 1 1 1 0.011927168343346716 1 1 1 1 1 1 1 1 1 1 0.010271873266723325 1 1 1 0.012120645598908488 1 0.015699910686040069 0.010310837876974299 1 1 1 1 1 1 0.0099921162218732894 1 0.010932799654044626 1 1 1 1 1 1 0.010986439944311786 1 1 1 1 1 1 1 1 1 1 1 1 1 1 0.010652725003602365 1 1 1 1 1 1 1 1 1 1 1 0.01062596739540252 1 1 0.011565121872560938 1 1 1 1 1 1 1 0.010694374438536576 1 1 1 0.010396264478583496 1 1 1 1 1 1 1 0.010298991186380391 1 1 1 1 1 1 1 1 1 1 1 1 1 0.01018183963198312 1 0.011540431043137284 1 1 1 1 1 1 1 1 1 1 0.010669683609112924 1 1 1 0.010028283722450656 1 1 1 1 0.0099140226217055202 0.0099039507870495383 1 1 0.0082653607194137103 1 1 1 0.010302697125048308 1 1 0.014614689868035916 1 1 1 1 0.013356912961643898 1 1 1 1 1 1 1 1 1 1 1 1 1 1 1 1 1 1 1 1 1 1 1 0.012169526652939574 1 1 0.010801908741982979 1 1 1 1 1 1 1 1 1 1 1 1 0.013951795962825661 1 0.0098037487193085426 1 1 1 1 1 0.014001696487085305 1 1 1 0.010064649783485435 1 1 0.010316351896357611 0.011075265296504129 0.011147363943044069 1 1 1 1 0.010004017116342362 1 1 1 0.010013112554511362 1 1 1 1 0.010144385620889882 1 1 1 1 1 1 1 1 1 1 0.0097987729442617424 1 1 0.00952647479574786 1 1 1 1 1 1 0.013603247059514769 1 1 1 1 1 1 1 1 0.012146548722040644 1 0.013038066837544254 1 1 1 1 1 1 1 1 1 1 1 1 0.010141864117358138 0.010427739555981752 1 1 0.0086703765800690401 1 1 0.012990253636129195 1 1 1 1 1 0.010390100445521326 1 1 1 1 1 1 1 1 1 0.01292033353408947 0.01330618282342989 1 1 1 1 1 1 1 1 1 1 1 1 1 1 1 1 1 1 1 1 1 1 1 1 1 1 1 1 1 1 1 0.0099518621254667625 1 1 1 1 1 1 0.0099955196411925674 1 0.0098825294919779403 1 1 0.010030469581615279 1 1 0.010582386969255914 1 1 1 1 1 1 1 1 1 1 1 1 0.0091799881839830389 0.0079836729171851358 1 0.01114119569365281 0.014302238881754366 1 1 1 1 1 1 1 1 1 1 1 1 1 1 1 1 1 1 1 1 1 1 1 1 1 1 1 1 1 1 1 1 1 1 1 1 1 1 1 1 1 1 1 1 1 1 1 1 1 1 1 1 1 1 1 0.01023361197213208 1 1 1 1 0.0099660414017953471 1 0.0074526543158862334 1 1 0.012134509385746763 1 1 1 0.011464928840268901 1 1 1 0.0084844225992846169 1 1 1 1 1 1 1 1 1 1 1 1 1 0.0098369534488873967 1 1 1 1 0.010347310278839974 1 1 1 1 1 1 1 1 1 1 1 1 1 1 1 0.0091891427447832671 1 1 0.0079770372228126531 1 1 1 1 1 0.010081092211261335 0.010210089770659705 1 1 1 1 1 1 0.0091452761428320282 1 1 1 0.0097233164051611157 1 1 1 1 1 1 1 0.010006932870224175 1 1 1 1 1 1 1 0.010052537161689148 1 0.011703834008297099 1 1 1 0.0099862735948719542 0.010943955290534055 1 1 1 0.011891194285400936 1 0.0091988431170321617 1 0.011272238418919322 0.0089339357437012695 1 1 1 1 0.01175239873617547 1 1 1 0.012394814379096251 0.013886074371980953 0.01000222436440671 1 1 1 0.0085895823292513607 1 1 1 1 1 1 1 0.0084069431864974148 1 1 0.0097895005255501863 1 1 0.013087026670239896 0.010067190831671126 1 1 1 1 1 1 1 1 1 1 0.012582067532467796 1 0.013183396458294524 1 1 1 1 1 1 1 1 1 1 0.013898466631673056 0.013219968272017039 0.017981442261887984 1 0.01762390085351723 1 1 1 1 1 1 0.016847267559299509 1 1 1 1 1 1 1 1 1 1 1 1 1 1 1 1 1 1 1 1 1 1 0.010637371372334337 1 1 1 1 0.01022178541387685 1 1 0.010493640488935224 1 1 1 1 1 1 1 1 0.011334200487835877 1 1 1 1 0.010885798769469502 1 1 1 1 0.010325854567146801 1 1 1 1 1 1 1 0.010375661488258759 1 1 0.010830647498229226 1 1 1 1 1 1 1 1 1 1 1 1 1 1 1 1 1 1 1 1 1 1 1 1 1 1 1 1 1 1 1 1 1 1 1 1 1 1 1 1 1 1 0.0099024676340603215 1 0.012311013337403569 1 1 1 1 1 1 1 1 1 1 1 1 1 1 1 1 1 1 1 0.010833287750249318 1 1 1 1 1 1 1 1 1 1 1 1 1 1 1 1 0.0096175959604437519 1 1 1 1 1 0.0070567618765104943 1 1 0.0099751874063269269 1 1 1 1 1 1 1 1 0.01334787109866676 1 1 1 1 0.010108447675513461 1 1 0.018361626982887694 1 1 1 1 1 1 1 1 1 1 1 1 1 1 0.010722771726493965 1 1 0.010050303200390655 1 1 1 1 0.010602368568378796 1 1 1 1 1 1 1 0.011854033635052792 1 1 0.015049807202960473 1 1 1 1 1 1 1 1 0.010090395598914108 0.020652342628886558 1 1 1 0.019579726904596348 1 0.010678998086520343 0.013751792302955312 1 1 1 1 1 1 1 1 1 1 1 1 1 1 1 1 1 1 1 1 1 1 1 1 1 1 1 0.012129704795206808 1 1 1 1 0.016454106335369881 0.01066765368707575 1 1 1 0.015434970921731586 1 1 1 0.016660444016020091 1 1 1 1 1 0.017810378347909231 1 1 0.01693143506442487 1 1 1 1 1 1 1 1 1 1 1 1 1 1 1 1 1 1 1 1 1 1 1 1 1 1 1 1 0.010863352338604006 1 1 1 1 1 1 0.009922422730771735 1 1 1 1 1 1 1 1 1 0.011918529149958577 1 1 0.010452106897044004 1 1 1 0.010354677236262579 1 1 1 1 1 1 1 1 1 1 1 1 1 1 1 0.010253640742191351 1 0.010155382572958553 1 1 1 1 1 1 1 1 1 1 1 1 1 1 1 1 1 0.012671811472651395 1 1 1 1 1 1 1 1 1 1 1 1 0.011400243428996246 1 1 1 0.012976442611337305 1 0.012399405607648836 1 1 1 1 1 1 1 1 1 0.011074460298345204 1 1 0.0097618775323312784 0.011935801278847372 1 1 1 1 1 1 1 0.010012128939201975 1 0.0079205504478927456 1 1 0.0084994008581607203 0.0099404705877385938 1 1 1 0.010195704361175506 1 1 1 1 1 1 1 1 0.011782279908677092 1 1 1 1 1 1 1 1 1 1 1 1 1 1 1 1 0.010116946623781256 1 1 1 1 1 1 1 1 1 0.010122288207686387 1 0.010055073472048754 1 1 0.010210721120701515 1 1 1 1 1 1 0.0099441457092647179 1 1 1 1 1 0.010651673661074276 0.016361146138105506 1 1 0.0099770550130736137 1 0.010266090421884297 1 1 0.0082633046922893829 1 1 0.018977778058029214 1 1 1 1 1 0.0086983281403769167 1 1 0.010295062946015784 0.016497139034839244 1 1 1 1 1 1 1 1 1 1 1 1 1 0.010611338898154712 1 0.011745371317663171 1 1 1 1 1 0.0098322570507473096 1 1 1 1 0.010159995656890457 1 1 1 1 0.010084329962390261 1 1 1 0.0099907792964864656 1 1 1 1 1 0.012741361022935048 1 1 1 0.013777483909709766 0.014407838034939315 0.01000085177555643 1 0.0099998595383178172 1 1 1 1 1 1 1 1 0.015842480334684224 1 1 1 1 1 0.017141392175905594 1 1 1 0.014949615603075575 1 0.012338446812902996 1 1 1 0.010183115845764808 1 1 1 1 1 1 1 1 1 1 1 1 1 1 0.010008084642423792 1 1 1 1 1 0.011438629256428075 1 1 1 0.011429856040338263 1 1 1 1 1 0.014565281728345189 1 1 1 1 1 1 0.010064529580120676 1 1 1 0.0090163243748061367 0.011328625019965694 1 0.0090680192600574045 0.0057604493932873323 1 1 0.010486133592194267 1 1 1 1 1 0.015292551203863726 1 1 0.012690294364553911 1 1 1 1 1 1 0.014833268465343705 1 1 1 1 1 1 0.0073571152091682565 1 1 1 1 1 1 0.0099704334709801515 0.0082247578503820626 1 0.0099758979135319038 0.0099127748287870052 1 0.0088238766575382439 1 1 0.0097902990852303598 1 1 1 1 1 1 1 1 0.013159194185021006 1 1 1 1 1 1 1 1 1 1 1 0.012027122058957541 1 1 1 1 1 1 1 1 1 1 1 1 1 1 1 0.010226384525351885 1 1 0.010350411994493457 1 1 1 1 1 1 1 0.014295212508190578 0.0099086594629276339 1 1 1 0.0093715676061961461 1 0.016540044198128351 1 1 1 1 0.013181285880259866 1 1 1 0.012679257578953839 1 1 1 0.012641516744402038 1 1 1 1 1 1 0.0099968349146474025 1 1 0.009795167447688484 1 1 1 1 1 1 1 1 1 1 1 1 1 1 1 1 1 1 1 1 1 1 1 1 1 1 1 1 1 1 0.0092851108275030011 1 1 1 1 0.010508924893000447 1 1 1 1 1 1 1 1 1 1 1 1 1 1 1 1 0.010183174799561743 1 1 1 1 0.011051016315225801 1 0.0099239469343845466 1 0.010125984244824341 1 1 1 1 0.011676005522633606 0.0074233520187897556 1 1 1 1 0.0078543362478359271 1 1 1 0.011401664749077826 1 0.010786556647871011 1 1 0.0094682518329342082 1 1 1 1 0.0099159569237526959 1 1 1 1 1 1 1 1 1 1 1 1 1 1 1 1 1 0.01557820591952179 1 1 1 1 1 1 1 1 0.010026890406944254 1 1 1 1 0.015953390719309485 1 0.0082647590143063981 1 1 1 1 1 0.011921278168829416 1 1 1 0.010022053024141057 1 1 1 1 1 1 1 1 1 1 1 1 1 1 0.013194613032755979 1 1 1 1 0.016266791859719638 1 1 1 1 1 0.015099300885921207 1 1 1 1 1 1 1 1 1 1 1 1 1 1 1 1 1 1 1 1 1 1 1 1 1 1 1 1 1 1 0.012626817613136034 1 1 1 1 1 1 1 1 1 0.0099463080918118056 1 1 1 1 1 1 1 1 0.02453689103079339 1 1 1 1 1 1 0.022789256510813073 1 1 1 0.0096645693041733996 1 0.020752681952211138 1 1 1 1 1 1 0.013099832216660563 1 1 1 0.01104513146074584 1 1 1 1 1 1 1 1 1 1 1 1 1 1 1 1 1 1 1 1 0.0099457279179459013 1 1 1 1 0.0099428188144291343 1 1 0.017808175078574837 1 0.015084035322904414 1 1 1 0.018415217651976359 1 1 1 1 1 1 1 1 1 1 1 1 1 1 1 1 1 1 1 0.0094940863986273279 1 1 1 1 1 1 1 1 1 1 0.011713030329146657 1 1 1 1 1 1 1 1 1 0.014107033998511329 1 1 1 1 1 1 1 1 1 1 1 1 1 1 1 1 1 1 1 1 1 1 1 1 1 1 0.009961723811320513 1 1 1 1 1 1 1 1 1 1 1 1 1 1 1 1 1 1 0.010316779481343649 1 1 1 1 1 1 1 1 0.013138883885912738 1 1 1 1 1 1 1 1 1 1 1 0.011203119677375797 1 1 1 1 1 1 1 1 1 1 1 1 1 1 1 1 1 1 1 1 1 1 1 0.0092389161584693364 1 1 1 1 1 1 1 1 1 1 0.017144698517225505 1 0.015243955873060287 1 0.014578774186545912 1 1 1 1 0.0077944167786021968 1 1 1 0.0066519834970784238 1 1 1 1 1 1 1 0.018670346285217656 1 1 1 1 0.010429071781078889 1 1 1 1 1 0.013858304679634025 1 1 1 1 1 1 0.010152090353830266 1 1 1 1 1 1 1 1 1 1 1 1 1 1 1 0.011287385303787888 1 1 0.013394394333405432 0.015097848094602594 1 1 1 1 1 1 1 1 1 1 1 1 0.010099903034222429 1 1 1 1 1 1 1 1 1 1 1 1 1 1 1 1 1 1 1 0.015931808987428388 1 1 1 0.010695731502518957 1 1 1 1 1 0.011871320623539544 1 1 1 1 0.012476901834558428 0.011182410278084309 1 1 1 1 1 1 1 1 1 1 0.01235001350553571 1 1 1 1 1 1 1 1 1 1 1 1 1 1 1 1 1 1 1 1 0.015332288057976061 1 1 0.016026630906854022 1 1 1 1 1 1 1 1 0.01050106254188877 1 1 1 1 1 1 1 1 0.011282976394578131 1 1 1 1 0.011581647134646607 0.011194860867687589 1 1 1 1 1 1 1 1 1 1 1 1 1 1 1 0.0089160385396124218 1 1 0.013458966276719553 1 1 1 1 1 1 0.017786271390762928 1 1 1 1 1 1 0.0077402360733652125 0.0091025895136501531 1 0.01234954641175863 1 0.010679678667087066 0.011949218147234271 1 1 0.011777859744832579 1 1 1 0.012399954384816919 1 1 1 0.012371330819566956 1 1 0.011952049733064539 1 1 0.012374505068337475 1 1 0.01280568436651474 1 1 0.010122576184829701 0.01243745977570937 0.010756459369318724 1 1 1 1 1 1 1 0.013155740000987154 1 1 1 0.012227861921521185 1 1 0.013952342693645439 1 1 1 1 1 1 1 1 1 1 1 1 0.010925013156191972 1 1 1 0.010196982522659345 1 1 1 1 1 1 1 1 1 1 1 1 1 1 1 1 1 1 1 1 1 1 0.010542151950859432 1 0.015498017849870836 1 1 1 0.010170472282539533 1 1 1 1 1 1 1 1 1 1 0.010615811887639104 1 0.014718462218307977 1 1 1 1 1 1 1 1 1 1 1 1 1 1 1 1 1 1 1 1 0.011168147139903394 0.011171391291303588 1 1 1 1 1 1 1 1 0.011896177773436024 1 1 1 1 1 1 1 1 1 0.011764381343886639 1 1 1 0.010105237677615932 1 1 1 1 1 1 1 1 1 1 1 1 1 1 0.012665523234892971 1 1 1 1 1 0.011592474570618357 1 0.013967903687027661 0.010145928694458115 1 1 1 1 1 1 1 0.012002886470223455 1 1 1 1 1 1 1 1 1 1 1 1 1 1 1 1 1 1 1 1 0.010312346231972892 1 0.013067349128401622 1 1 1 1 0.011056253911019276 1 0.014968877881026958 1 1 1 1 1 1 1 0.010271212657880106 1 1 1 1 1 1 1 0.011290328740289653 1 1 1 0.011251846651454539 1 1 1 1 1 0.011048193818236518 1 0.01009066797444555 1 1 1 1 1 1 1 1 0.010303124701385401 1 0.01015265267253181 1 0.009673493336368395 1 1 1 1 1 1 1 1 1 1 1 1 1 1 1 1 1 1 0.013230782291173556 1 1 0.016008417487407046 1 1 1 1 0.009880037678408185 1 1 1 1 1 1 1 1 1 1 1 1 1 0.016676210930817718 1 1 0.0099907659983856263 0.009177803887833182 0.0096966432268440015 1 1 1 1 1 1 1 1 1 1 1 1 0.012049989880354949 1 0.01462225534753841 1 1 1 0.013094246567729886 1 1 1 1 1 1 0.011486403275207427 1 1 1 0.0058747110023095218 1 1 0.010088821984127411 1 1 1 0.012455213249488202 1 0.016182160631865467 1 1 1 1 0.019367405902692036 1 1 1 1 1 1 1 1 1 1 1 0.017028233096744488 1 1 1 1 0.010036164521185834 1 1 1 1 1 1 0.02162160174753627 1 1 0.012375403881501356 1 0.015058092580150921 1 1 1 1 1 1 1 1 1 0.0098590674130574155 1 1 0.013730475899487558 1 1 1 1 1 0.011235093172298562 1 1 1 1 1 1 1 1 0.010094292352121177 1 1 1 1 1 1 1 1 1 0.014983323049147559 1 1 0.014299902051149286 1 0.010730459677419112 1 1 1 1 0.012878748380501959 1 1 0.011343813102542476 1 1 1 0.011373286907117978 1 1 1 1 1 1 1 1 1 1 0.013209293294203743 1 1 0.014067023415529015 1 1 1 1 1 1 1 1 1 1 1 0.010223268737869749 1 1 0.010951613118816202 1 1 1 1 1 1 1 1 1 1 1 1 1 1 1 1 1 1 1 1 1 1 1 1 1 1 1 1 1 1 1 1 0.010129803853289099 1 1 1 1 1 1 1 1 1 1 1 1 1 1 1 1 1 1 1 1 1 1 1 1 1 0.010229559719142156 1 1 1 1 1 1 1 1 1 1 1 1 1 1 1 0.0089195027624902057 0.0088658612920912185 1 1 1 1 1 1 0.0096762154977240271 1 1 0.0081362075811717699 1 1 1 1 1 1 1 0.011270500054099263 1 1 1 0.0097188050536165266 1 1 1 0.013000491085178804 1 1 1 0.011772712818642471 1 0.010373055571754152 0.012375310668452962 1 1 0.015362101835790279 0.01016554382278612 0.010267469584286234 1 1 0.010478350561296819 1 1 1 0.010269202264397393 1 1 1 1 1 1 0.01370197106622187 0.010082542594485969 1 1 1 1 1 0.012136490639237135 0.010515249844472782 1 1 1 1 1 1 0.017232917411015285 1 0.015420965142235024 1 1 1 1 1 1 1 0.0066029149686071213 1 1 1 1 1 1 1 0.010268411877131867 1 1 1 1 1 1 1 1 1 1 1 0.010244558213724943 1 0.0083718690208150481 0.010169648261456282 1 1 0.0090295560334472825 1 1 1 1 1 1 1 0.014829490929075446 0.010611592879017459 0.013675259118457406 1 0.010108455818420323 1 1 1 1 1 0.010072291297234488 1 1 1 1 1 1 1 1 1 1 1 1 1 1 1 1 1 1 1 1 1 1 1 0.010222882359985095 1 1 1 1 1 1 1 1 1 1 1 1 1 1 1 1 1 1 1 1 1 1 1 1 1 1 1 1 1 1 1 1 1 1 1 1 1 1 1 1 1 1 1 1 1 0.0086324654992089456 1 1 1 0.0090767157313144282 1 1 1 1 1 1 1 1 1 1 0.009760140817787654 1 1 1 1 1 1 1 1 1 1 1 1 1 1 0.0096811707637301271 1 1 1 1 1 0.011142187330601419 1 1 1 1 1 1 0.010424711311180855 1 1 1 1 1 1 1 1 1 1 1 1 0.011672182672528607 1 1 1 1 0.012114121987154017 1 1 1 1 1 1 1 1 1 0.0098914682904279634 1 1 1 1 1 1 1 1 0.0099525558004981869 1 1 1 0.010181960521154764 0.012794104405891134 1 1 1 1 1 1 1 0.010011392854138181 1 1 1 0.01004653154249777 1 1 1 1 1 1 1 1 1 1 1 1 0.010378144094447329 1 1 1 1 1 1 0.011056691227838944 1 1 1 1 0.0098166055484358167 1 1 1 1 1 1 1 1 1 1 1 1 1 1 1 1 1 1 1 1 1 1 1 1 1 1 1 1 1 1 1 1 1 1 1 1 1 1 1 1 1 1 1 1 1 1 1 1 1 1 1 1 1 1 1 1 1 0.012728975735556232 1 1 1 0.012151242972586492 1 0.0099161556620339583 1 0.017393360327196999 1 1 1 1 1 1 1 1 1 1 1 1 1 1 1 1 1 1 1 0.010161437977284546 1 1 0.011231849515458579 1 1 0.012937975028772799 1 1 1 0.012313793472179221 1 1 1 1 0.0072760893118545417 0.010118194096696342 1 1 1 1 1 0.0087213665473788379 1 1 1 1 0.011177381592657781 1 0.013324428613391769 1 1 0.012055353512139995 1 0.0130804012779274 1 0.01859181787246672 1 1 1 1 0.014926007011493813 1 1 1 0.018435122980753896 0.013908450838954501 1 1 1 1 1 1 1 0.0092930017387513626 1 1 0.0097873691153746514 1 1 1 1 1 1 1 0.0083984039295923341 1 1 0.01153066179101475 1 1 0.010163709546296432 1 1 0.0092270099436590862 1 1 0.0097936946919568325 1 1 1 1 1 1 1 1 1 1 1 1 1 1 1 1 1 1 1 1 1 1 1 1 1 1 1 1 1 0.010949687139178611 1 1 1 1 1 1 1 1 0.012617296164057818 1 1 1 1 1 1 1 1 1 1 1 1 1 1 1 1 1 1 1 1 1 1 1 1 1 1 1 0.018074865700350287 1 0.014380480770611806 1 1 1 1 1 0.013946360679681042 1 1 1 0.013512895591583494 1 1 1 1 1 1 1 1 1 1 0.015442958521220728 1 1 1 1 1 1 1 0.01199209810273443 1 1 1 1 1 1 1 1 1 1 1 1 1 1 0.012775394380282155 1 1 1 1 1 1 1 0.011132323481712572 1 1 1 1 1 0.009672074429818614 1 1 1 1 1 0.014002614413399095 1 0.013787822694648207 1 1 1 0.01210875214629081 1 1 1 1 1 1 1 1 1 1 1 1 1 1 1 1 0.009848049353384878 1 1 1 1 1 1 1 1 1 1 1 1 1 1 1 1 1 1 0.011247233429286203 1 1 1 1 1 1 1 1 1 1 1 1 1 1 1 1 1 1 1 1 1 1 1 1 1 1 1 1 0.0092454384787460861 1 1 1 0.007754852720507922 1 1 1 1 1 1 1 1 1 1 0.017762291762151439 0.012850402999418455 1 1 1 1 1 1 1 0.0096104625986320712 1 1 0.022116418771844726 1 1 1 0.008011816862309961 1 1 1 1 0.023446495053614843 1 1 1 1 1 1 0.010154032773894726 1 1 0.017000882999529704 0.010424173618126163 1 1 1 1 1 1 1 1 0.0095901223805243824 1 1 1 0.0094104737358217307 1 1 1 1 1 1 1 1 1 1 1 1 1 1 1 1 1 1 1 0.00991244139032494 1 1 1 0.0097436227285370228 1 1 1 1 1 1 1 1 1 1 0.0096309539974310104 1 1 1 1 1 1 1 1 1 1 1 1 1 1 1 1 1 1 1 1 1 1 1 1 1 1 1 1 1 1 1 1 1 1 1 1 1 1 1 1 0.010168181924723853 1 1 1 1 1 1 1 1 1 1 0.0104333472155671 1 0.010079892825658448 1 1 1 1 1 1 1 1 1 1 1 1 1 0.0096435285444522127 0.009843755885233299 1 1 1 1 1 1 1 1 1 1 1 1 1 1 1 1 1 0.010216580328516196 1 1 1 1 1 1 1 1 1 1 1 1 1 1 1 1 1 1 1 1 1 1 1 1 1 1 1 1 1 1 1 1 1 1 1 0.011455219144388702 1 0.011992647110698734 1 1 1 1 0.014093518255170136 1 1 1 0.011375475383800076 1 1 1 1 1 0.016659357697034895 1 1 1 1 1 1 0.010108976958491202 1 1 0.011071457772777744 1 0.010271696074447934 1 1 1 1 1 1 1 1 1 1 1 1 0.015147363503246882 1 1 0.014629631474127687 1 1 1 1 1 1 1 0.010916699719019013 1 1 0.013939835044176714 1 1 1 1 1 0.011429455904358789 1 0.01296252966991302 1 1 1 1 1 0.013035867596492154 1 1 1 0.014487347888589266 1 1 1 1 1 1 0.012137328134139695 0.0095904450785824595 1 0.0099698192298752555 1 1 1 1 1 1 1 1 1 1 1 1 1 1 1 1 1 1 1 0.011635714065308014 1 1 1 1 1 1 1 1 1 1 1 1 1 1 1 1 1 1 1 1 1 1 1 1 1 1 1 1 1 1 1 1 1 1 1 1 1 1 1 1 1 1 1 1 1 0.0099023173089405839 1 1 1 1 1 1 1 1 1 1 1 1 1 1 1 1 1 1 0.0097274223628664499 1 1 1 0.0096496336246125365 1 1 1 1 1 1 1 1 1 1 1 1 1 1 0.0096458745418260931 1 0.010198667324256672 1 1 1 1 1 1 1 1 1 1 1 1 1 1 1 1 1 1 1 1 1 1 1 1 1 1 1 1 1 1 1 1 1 1 1 1 1 1 1 1 1 1 1 1 1 1 1 1 1 1 1 1 1 1 1 1 1 1 1 1 1 1 1 1 1 1 1 1 1 1 1 1 1 1 1 1 1 1 1 1 1 1 1 1 1 1 1 1 1 1 1 1 1 1 0.013777992123882364 1 1 1 1 1 1 1 1 1 1 1 1 1 1 0.011686468123543141 1 1 1 1 1 1 1 1 1 1 0.029348256007495011 1 1 0.032429238175918182 1 1 1 0.030666453431531751 1 0.029964310646148754 1 1 1 1 1 1 1 1 1 1 1 0.006731428138142594 1 0.03017088154736864 1 0.027182527217393535 0.0017157339918963937 1 1 0.029361496601386716 1 1 1 1 1 1 0.024295531165749291 0.011241637465260161 1 1 1 1 1 1 1 1 1 1 1 1 1 1 1 1 1 1 1 1 0.0077981010274178197 1 1 0.0034997059288433665 1 1 1 1 1 1 0.032435564496301882 1 1 1 0.010233527548359749 1 1 1 1 0.050870189060908996 0.010038276750946037 0.0046495943771869032 1 1 1 1 0.028500152516641977 1 1 1 1 1 1 0.02470650294316808 1 1 1 1 0.024231469308900778 1 1 0.022879637030426458 1 1 1 1 1 1 1 1 1 1 0.010219765741127897 1 1 1 1 0.0099087057329557433 1 1 1 1 1 0.0092832929603071414 1 1 0.010000853124224962 1 1 1 1 1 1 1 0.0094029320603664038 1 1 1 1 1 0.0092817731982035145 1 1 1 1 1 1 1 1 1 1 1 1 1 1 1 1 1 1 1 1 1 1 1 1 1 0.010414434059296559 1 1 1 1 1 1 1 1 1 1 1 1 1 1 0.010511490651556181 1 1 1 1 1 1 1 1 1 0.010963677692484085 1 1 1 1 1 1 1 1 1 0.011061914514581125 1 1 0.010988487112429753 1 1 1 0.0095860264988487064 1 1 1 1 1 1 1 1 1 1 1 1 1 1 1 1 0.0087348160496969456 1 0.024372913072975191 1 0.012186901720578042 1 1 1 1 1 0.021788361638594416 1 1 1 1 1 1 0.0099942597096817475 1 1 0.01073689021833729 1 1 0.020216921453228599 1 1 1 1 0.013102359945873106 0.010282326643327193 1 1 0.017060156585492654 1 1 0.0094900267228734351 0.01007286258663671 1 1 1 1 0.019357542394780231 1 1 1 1 1 0.020873734384449172 1 0.014179645816693745 1 1 1 0.011706368580296219 1 1 1 0.010161671343007933 1 0.016521787200226748 1 1 0.012290068019497143 1 1 1 1 1 1 1 1 1 1 0.019964538933975148 1 1 1 1 1 1 1 0.015032503065242862 1 1 1 0.018790306049327087 0.019874327121959103 1 1 0.014662832783735039 0.011299471466164317 1 1 1 1 1 0.010077034413666525 1 0.014211284700695645 0.010622811525267303 1 1 0.02292247338406336 0.012746801820648513 1 1 1 0.011356034853290436 1 0.0099988785361503959 1 0.025660697314933777 0.010068363085091205 1 1 1 1 1 1 1 1 1 0.019724307906265556 1 1 1 1 1 0.013871229566731457 1 0.0099876144203062938 1 1 1 1 1 0.0091944889022663109 1 1 1 1 0.0089098358084285685 1 0.0090912379403423373 1 1 1 0.011486967869394116 1 0.01715038585831611 0.0054249983898262324 1 1 1 1 0.014475343083250068 1 1 0.01007400107082931 1 1 0.010651698797493909 1 0.010124526217945734 1 1 1 1 0.016708991846330713 1 0.014231043800225744 1 0.0099347945294838511 1 1 1 1 1 0.010177962625285237 1 1 1 0.010251016349711355 1 0.018586595488341302 1 1 1 1 1 0.010003789790068201 1 1 0.014242768922165016 1 1 1 0.0099792250820614024 1 1 1 0.014008648368946476 0.0088417057649687811 1 1 1 1 0.015335143619328785 0.0099959853447713944 1 1 1 1 1 1 0.010003314938995913 1 1 1 1 1 1 1 1 1 1 1 1 1 0.013096647220511185 1 1 0.011833055503986186 1 1 0.013646965554362856 0.0097893820176189854 0.0094481215008159307 1 1 1 1 1 1 1 1 1 1 1 1 1 1 1 1 1 1 1 1 1 1 1 0.013376643734527858 1 1 1 0.010911493591446246 1 1 1 0.01814395960126523 1 1 1 1 1 0.011241959398632234 1 1 1 1 1 1 1 0.011785833640493739 0.015919366355636531 1 1 1 0.010624134175090455 1 1 0.016513585979668288 1 1 1 1 1 1 1 1 1 1 1 1 1 1 1 1 1 0.010748122270794278 1 1 1 1 1 1 1 0.0087081906224827053 1 1 0.011864926525831378 1 1 1 0.010171358351602253 1 1 1 0.0092397862278664495 0.010078391654219374 1 1 1 1 1 1 1 1 1 1 1 1 1 1 1 1 1 1 1 1 1 1 1 1 1 1 1 1 1 1 1 0.012043213105066484 1 1 1 1 1 1 1 1 0.0099953792749884612 0.0099114378801435071 1 1 0.009921905504097394 0.0098104666646063564 1 1 1 1 0.012667418192377275 1 1 1 1 1 1 1 1 1 1 1 1 1 1 0.014525466179728611 1 1 1 1 1 1 1 1 0.0099122791762080199 1 1 1 1 1 0.013160058726971655 1 1 1 1 0.011199970833034093 1 1 1 1 1 1 1 1 1 1 1 1 0.0099944383215194721 0.010052215868512765 1 1 1 1 1 1 1 0.0098266754977598472 1 1 1 1 1 1 1 1 1 1 1 1 1 1 1 1 1 1 1 1 1 0.014342862647061905 1 1 1 1 0.016025910651413195 1 1 1 1 1 1 0.0098193831282137392 0.017334976222257253 1 0.015114763574112271 0.0090987382115485516 1 1 1 1 1 1 1 1 1 1 1 1 0.0083684389015953094 1 1 1 1 1 0.011604274312338674 1 1 1 1 1 1 1 1 1 1 1 1 1 1 1 1 1 1 1 0.011324658810521863 1 1 1 1 1 1 1 0.011196908186808727 1 1 1 1 1 1 1 1 0.013264542136664217 1 1 1 1 1 1 1 1 1 1 1 0.013288118178026904 1 1 1 1 1 1 1 0.0099995512421448916 1 0.010101842147572659 1 1 1 1 1 1 1 1 1 1 1 1 1 1 1 1 1 1 1 1 1 0.011751978032759805 1 1 0.01324152554778989 1 1 1 1 1 1 1 1 1 1 1 1 1 1 1 1 1 1 1 1 0.018916658217622725 1 1 1 1 0.0142893704333513 1 1 1 1 1 1 0.021068656584382547 1 1 1 1 1 1 1 1 1 1 1 1 1 1 1 1 1 0.0099570868946436564 0.014661993821319514 1 0.017843220375841403 1 1 1 1 1 1 1 1 1 1 1 1 1 1 0.014703074663407298 1 1 1 1 1 1 1 1 1 1 1 0.009894709013971055 1 0.0099982750763096245 1 0.016063099225524482 1 1 1 1 0.013730451444749762 1 1 1 0.013203656746642126 0.01492246298462398 1 1 1 1 1 0.010125919955629104 1 1 1 1 1 1 0.0098781746189085043 0.017512223165850407 1 1 0.015021744597264363 1 1 1 1 1 1 1 0.016020767800733846 1 1 0.010022353593610553 1 1 1 1 1 0.01090564970745061 1 1 1 1 1 0.01075601623168595 1 1 1 1 0.012030181019084365 1 1 1 0.013585499757057751 1 0.016919833625183924 1 0.0098709450114951424 1 1 1 1 1 1 0.018764205915734741 1 1 1 1 1 1 1 1 0.012155112542062455 1 0.016982653177596757 1 1 0.020607271139234815 0.019468730802764213 1 1 1 1 1 1 1 0.0099941042964768433 1 1 1 1 1 1 1 1 0.02063702460032819 1 1 1 1 1 1 1 1 1 0.010397873664393436 1 1 1 0.013093852674082836 1 1 1 0.011123594284675534 1 0.010216655154591461 0.011245290869995154 1 1 0.016564218373234397 1 1 1 0.015739806522084669 1 1 1 1 1 0.01000153333648583 1 1 0.020583066228691896 0.014315481628950027 1 1 1 1 0.012653569311718325 1 1 1 1 1 1 1 1 1 1 1 0.014936122803309903 1 1 1 1 1 1 1 1 1 1 1 1 1 1 0.011716479765309491 0.011667559305756895 1 1 1 1 0.012811346134740872 1 1 1 0.01387837270144162 1 1 1 1 1 1 1 1 1 1 1 1 1 1 0.010584454557301112 1 1 1 1 1 0.011259752362802513 1 1 1 1 1 1 1 0.023479998791137453 1 1 0.0095532889026829458 1 1 1 1 0.013250671723890693 1 0.015897582193485499 1 1 1 0.012169309207756997 0.015056343365144923 1 1 1 0.015674094727161112 1 0.019223157851728123 0.017584097044282421 0.016722768053182641 1 0.0096032328972724124 1 1 1 1 1 1 1 1 1 1 1 1 1 1 1 1 1 1 1 1 1 1 1 0.011376089607063964 1 1 0.014617227501497038 1 1 0.021363546191297982 0.020353523506491677 1 1 1 1 1 1 1 1 1 1 1 1 0.0098430851627851947 1 1 1 0.011326991815155523 1 1 1 1 0.01235335601143446 1 1 1 1 1 1 1 1 1 1 1 1 0.016726007078445133 1 1 0.013743460338532777 1 0.012789322163397353 1 1 0.0096521165831037516 1 1 1 0.018017013644763328 0.012695272392580451 1 1 1 1 1 0.012356128780786322 0.013251897221695516 1 1 0.019536271537940401 1 1 1 0.010604900151159528 1 1 1 1 1 1 1 1 1 1 1 1 1 1 1 1 1 1 1 0.0092957743838188705 1 1 0.0098054072748315832 1 1 1 0.018406984819527829 1 1 0.016704827555294427 1 1 1 1 1 1 1 1 1 1 0.014789062051915564 1 1 1 0.0087458054586470099 1 0.014257849956807248 1 1 1 0.012753556454388346 1 0.014712929821324917 1 1 0.009537267971160366 0.01249845251506689 1 1 1 1 1 1 1 1 1 1 1 1 1 1 1 1 1 1 1 1 1 1 0.011521529470477418 1 1 1 1 1 1 1 1 1 1 1 1 1 1 1 0.0097684221159804307 1 1 1 1 1 1 1 1 1 1 1 0.0098533959438852729 1 1 1 1 1 1 1 1 1 1 1 1 1 1 1 1 1 1 1 1 1 1 1 1 1 1 1 0.0098009983093906034 1 1 1 1 0.0097582691674164522 1 1 1 1 1 1 1 1 1 1 0.018487768647356261 1 1 0.0056685646315513686 1 1 1 1 1 1 1 1 1 1 1 1 1 1 1 1 1 1 1 1 1 1 1 1 1 1 1 1 1 1 1 1 1 1 1 1 1 1 1 1 1 1 1 1 1 1 1 1 1 1 1 1 1 1 1 1 0.011491550554884981 1 1 1 1 1 1 1 1 1 1 1 1 1 1 1 1 1 1 1 1 1 1 1 1 0.0096354739402011187 1 1 1 1 0.011245119886972955 1 1 1 1 1 1 1 1 1 1 1 1 1 1 0.013431770036285514 1 1 1 1 0.0049389873599271824 1 1 1 1 0.0033559934700740732 1 1 1 1 1 1 0.0071146829083880252 1 1 0.0099788880242600748 1 1 0.018667370584771088 1 1 0.014389851160110639 0.016491837299303078 1 1 1 1 1 1 1 1 1 0.0099150261720951528 1 1 1 1 1 1 1 1 1 1 1 1 1 1 0.013976590512037531 0.015387136147080663 1 1 1 1 0.0094013203825698555 1 1 1 1 1 1 1 1 0.011147728389277137 1 1 1 1 1 1 0.014437148718600436 1 0.010505985932703753 1 1 1 1 1 1 1 1 1 1 1 1 1 1 1 1 1 1 1 1 1 1 1 1 1 0.010370659871828039 1 1 0.013252548687222398 1 1 1 1 1 1 0.011106697736792728 1 1 1 1 1 1 1 1 1 1 1 1 1 1 1 1 1 1 1 1 1 1 1 1 1 1 1 1 1 1 1 1 1 1 1 1 1 1 0.012870686915920471 1 1 1 1 1 1 0.011351523031371467 1 1 1 1 1 1 1 1 1 0.011717776444028723 1 1 1 1 1 1 1 0.011800909797434296 1 1 1 1 0.010688033504565113 1 1 1 1 1 1 1 0.012165546585384672 1 1 1 1 1 1 0.011444627944574834 1 1 1 0.010534113557035051 1 1 0.01637017095508006 1 1 1 0.007788617431471476 1 0.013257052709428466 1 1 1 1 1 0.011211153541173115 1 1 0.011256174271101 1 1 1 0.011974895454746892 1 1 1 1 1 1 1 0.010223049105100286 1 0.010718721183645887 1 1 1 1 0.0097660428237093012 0.010661796360922144 1 1 1 1 1 1 1 1 1 0.0087947622113518139 1 1 1 1 1 1 1 0.010665571299956503 1 1 1 1 0.010814044293517851 1 1 1 1 1 1 1 1 1 1 1 1 1 1 1 1 0.010772223765017779 1 1 1 1 0.0094746316642797274 0.012085007400709859 1 1 1 1 1 1 1 1 1 1 1 1 1 1 1 1 1 1 1 1 1 1 1 1 1 1 1 1 1 1 1 1 1 1 1 1 1 1 1 1 1 1 1 1 1 1 1 1 1 1 0.011846919861305497 1 1 1 1 0.013536226508517699 1 1 1 1 1 1 1 1 1 1 0.015215441564757197 1 1 0.010759785297433773 1 1 0.015523893818561202 1 0.0098101537801184788 1 0.0099400555912372429 1 1 1 1 1 1 1 1 1 1 1 1 1 1 1 1 1 1 1 1 1 0.011689306647212211 1 1 1 1 0.012325585265140743 1 1 1 1 1 0.010958070868809504 0.01051281411960954 1 1 1 1 1 1 1 1 1 0.011104719273013264 1 1 1 1 1 1 1 0.01175650263209526 0.010845574845366829 1 1 1 1 1 1 1 1 1 1 0.010811839382033887 0.011728491743912467 1 1 1 1 1 0.010378529444773986 1 1 1 1 1 1 1 1 1 0.010591905153403733 1 1 1 1 1 1 1 1 0.010831729234894581 0.011530181720532905 1 1 1 1 0.012051053590865515 1 0.0098334620942167501 1 1 1 0.0093978866940098923 1 1 1 1 1 1 1 0.0099716113352933382 1 1 1 1 1 0.011469923273680405 1 1 0.011457997513557069 1 1 1 0.012522166010790953 1 0.010363814168864959 0.0093343510380387434 1 0.013059361200033835 1 1 1 1 1 1 0.011377449777057597 0.010166072928634119 1 1 0.01004694916988598 1 1 1 1 1 1 1 0.012930082587242523 1 1 1 0.013605983288959823 1 0.013469460758412509 1 1 0.013849444956919338 1 1 0.01190501883443601 1 1 1 1 1 1 1 1 1 1 1 1 1 1 1 1 1 1 1 1 1 0.010566963867250609 1 1 1 1 1 1 1 0.010257371578669912 1 1 1 1 1 0.010174822031598066 1 1 1 1 0.010331274955953512 1 1 1 1 1 1 1 0.010156452924355448 1 1 1 1 1 1 1 0.010293287141617063 1 1 1 1 1 1 1 1 1 1 1 1 1 1 1 1 1 1 1 0.010245146824276801 1 1 0.010091552426039048 1 1 1 1 1 1 0.0083621263977168656 1 0.011317897354990164 1 1 1 0.01011886918798275 1 1 1 1 0.010074909219912415 1 0.0091430201329385542 1 1 1 1 1 0.011802010478151702 1 1 1 1 1 1 1 1 0.009723963942634679 1 1 0.010538433965893849 1 1 1 1 1 1 1 1 0.013033593881775661 1 0.012971221923832725 1 1 0.0099992315092858851 1 0.0084462777248611419 1 1 0.010256765183817497 1 1 1 1 1 1 1 1 1 1 0.0141981074873965 1 1 1 1 1 1 1 1 0.013648758577537227 1 1 0.01321642438097809 1 1 1 1 1 1 1 0.015804580680459236 1 1 1 1 1 1 1 1 1 1 1 1 1 1 1 1 1 1 1 1 1 1 1 1 1 1 1 1 1 1 1 1 1 1 1 1 1 1 1 1 1 1 0.014783239722323115 1 1 1 1 0.010522637893410444 1 1 0.015205449784485764 1 1 1 1 1 1 1 1 1 0.004956276619240382 1 1 1 1 0.010301919829759301 1 0.010058829151638034 1 1 1 1 1 1 1 1 1 1 0.016915089353111805 1 1 1 0.0053351626491424109 1 0.010285129594722602 1 1 0.0099026020227256477 1 0.018146686861262785 1 1 1 1 1 1 1 1 1 1 1 1 1 1 1 1 1 0.0094737943925652743 1 1 1 1 1 1 1 1 1 1 0.010175003444655628 1 1 0.011189850902415064 1 1 1 1 1 1 1 1 1 0.010058988533066103 0.0090711551425345129 1 1 1 1 1 0.009088271220057946 1 0.0099081783723579016 1 1 0.01322923192944358 0.0092129870302960284 1 1 1 1 1 1 1 1 1 1 1 1 1 1 1 1 1 0.01115032017608647 1 1 0.0098678985114738042 1 1 0.009734604917943937 1 1 1 0.010060303363701586 1 0.010014440254627562 1 1 1 1 1 1 1 1 1 1 1 1 1 1 1 1 1 1 1 1 1 1 1 1 1 1 0.011059799288817951 1 1 1 1 1 1 1 1 1 1 1 0.012696019397472801 1 1 1 1 1 1 1 1 0.011065035057926914 1 1 1 1 1 1 0.010529909660720774 1 1 0.012920780332355726 1 0.010535778134823939 1 1 1 1 1 1 1 1 1 1 1 1 1 1 1 1 0.015618652992500107 1 1 1 0.012023619208273773 1 1 1 1 1 1 1 1 0.011284560223700862 1 1 1 1 1 1 1 1 0.01299892872231799 0.012925620224626032 1 1 1 1 1 1 1 0.016277387076607946 1 1 1 1 1 1 0.015529041073229291 1 1 1 1 1 1 1 1 0.010232443092449091 1 1 1 1 1 1 1 1 1 1 1 1 1 1 1 1 0.010542035381029793 1 1 1 1 1 1 0.013484583538636748 1 1 1 1 1 1 1 0.011234000819697401 1 1 1 1 1 1 1 1 1 1 1 1 1 1 1 0.018417645451401607 1 1 1 1 1 1 1 0.02040627227840492 1 1 0.010020047657301204 1 1 1 1 1 0.010007630374259745 1 1 1 1 1 1 1 1 0.0099802384534945707 1 1 1 1 1 1 1 1 1 1 1 1 1 1 1 1 1 1 1 1 1 0.019398837526157293 1 1 1 1 1 1 1 1 0.01872449032252245 1 1 1 1 1 1 0.011019284593965673 1 1 1 1 0.010346760312929644 1 1 1 1 1 1 1 0.011676643288292342 0.018134679527664354 1 0.011776775614533311 1 1 1 1 1 1 1 1 1 1 1 1 0.019464463014522461 1 1 1 1 1 1 0.0098501907632085085 1 1 1 1 1 1 1 1 0.0096585751141453416 1 1 0.0095599937850546421 1 1 1 1 0.010252370900196386 1 1 1 1 1 0.019332917740147001 0.010092790427199266 1 1 1 1 0.010345161327395633 1 1 1 1 1 1 1 1 1 1 1 1 1 1 1 1 1 1 1 1 1 1 1 1 1 1 1 1 1 0.0098890217744013256 1 1 1 1 1 1 1 1 0.010094032984315949 1 1 1 1 1 0.010316480042259053 1 1 1 0.010325715385952876 1 1 1 1 1 0.010892653037453541 1 0.01061170706112686 1 0.011324246864237972 0.010079266358026608 1 1 1 1 0.010049843081289783 1 0.0099664287468536946 1 1 1 1 1 1 1 1 1 1 1 0.010220151966804755 1 1 1 0.010120845291937733 1 1 1 1 1 1 1 1 1 1 1 1 1 1 1 1 1 1 1 1 1 1 1 1 1 1 1 1 1 1 1 1 1 1 1 1 1 1 1 1 1 1 1 1 1 1 1 1 0.012318182478778601 1 1 1 1 1 1 1 1 1 1 1 1 1 1 1 0.0099895467713527787 1 1 1 1 0.010313219321349043 1 1 0.011900590556515633 1 0.010796584974099367 1 1 1 1 1 0.01206515572218342 1 1 1 1 1 1 1 1 1 1 1 1 1 1 1 1 0.0095677242927813249 1 0.010028643757213122 1 1 1 1 1 1 1 1 1 1 1 1 1 1 1 1 0.011575050672366497 1 0.011065357301006461 1 1 1 1 1 1 0.010561898606821846 1 0.0099355915827876035 1 1 1 1 0.012642948584330092 1 1 1 1 1 1 1 1 1 1 1 1 1 1 1 1 1 1 1 1 1 1 1 1 1 0.011997320252828096 1 1 1 1 1 1 1 1 1 1 1 1 0.0099740081235177441 0.011803855535766343 1 0.013664329558734414 1 1 0.01292443821321175 0.010661682621888602 1 1 0.013019228295765538 1 1 1 1 1 1 0.014581983557469987 1 1 0.014910552763648124 1 1 1 0.0096928702556388358 1 1 1 1 1 1 0.010049711904739501 0.013482540531266574 1 1 1 1 1 1 1 1 1 1 0.012928878704894155 1 1 1 1 1 1 0.010567172295974503 1 1 1 1 0.01082211580216143 1 1 0.010609357108470975 1 1 1 1 1 1 0.017771991085698657 1 1 1 0.018252305717057066 0.010555451803528432 0.010005088580705514 1 1 1 1 1 0.01455827352969012 1 0.0099826756808554882 1 1 1 1 1 1 1 1 1 1 1 1 0.014373547045417252 1 1 1 1 1 1 1 1 0.0098710584872215967 1 0.0099917898897742222 1 0.010054851356778187 1 1 0.0094457784398305888 1 1 0.010009162065128287 1 1 1 1 1 1 0.0099986192242777876 1 1 0.0094895775627414081 1 1 1 1 1 1 1 1 1 1 1 1 1 1 1 1 1 1 1 1 1 1 1 1 1 1 1 1 1 1 1 1 1 1 0.0099220530341918387 1 1 1 1 1 1 1 0.010839841565744468 1 1 1 1 1 1 0.011087906705854841 1 1 1 0.012393856323453335 1 1 1 1 1 1 1 1 1 1 0.01151776286966092 1 1 1 1 1 0.011161086398436625 1 1 1 1 1 1 0.013472825606347001 1 1 0.01541983166050509 1 1 1 1 1 1 1 1 1 1 1 1 1 0.016653057945166291 1 1 0.01001165391387264 1 1 1 1 1 1 1 1 1 1 1 1 1 1 0.010745788556135604 1 1 1 1 1 1 0.0095994995586486317 0.010940427201608871 1 1 1 1 1 0.010261469625331435 1 1 1 1 1 1 1 1 1 1 1 1 1 0.012034906248462192 1 1 1 1 0.012030474212634923 1 1 1 1 1 0.010940577694541171 1 1 1 1 1 1 1 1 1 1 1 1 1 1 1 1 1 0.013140738513562504 1 0.012203358745828077 1 1 0.010801662002257642 1 1 1 1 1 0.015173208538362896 1 1 0.0099270886517319502 1 1 0.012023147395296342 1 1 1 0.010422381827957992 1 1 0.010421926453849404 1 1 1 1 0.010442842016228799 1 1 1 1 1 1 1 1 1 1 1 0.012943226124316858 1 1 1 1 1 1 0.018123133013556517 1 1 1 1 1 1 1 1 1 1 1 1 1 1 1 1 1 1 1 1 0.016371279064830602 1 0.016886167325277888 1 1 1 1 1 0.016902067643352336 1 1 1 1 1 1 1 1 1 0.010449663591565655 1 1 1 1 0.010277851175350579 1 1 1 1 1 1 1 1 1 1 1 0.010581999961919442 1 1 1 0.011492171316088038 1 1 1 1 0.010216601357676651 1 1 1 1 0.011368606485996722 1 0.0098297156698745995 1 1 1 1 0.01046533144949271 1 1 1 1 1 1 1 1 0.012173993727679364 1 1 1 0.0112741026878561 0.0099464377348161322 1 1 1 1 1 1 1 1 1 1 0.013308453307571362 1 1 1 0.0067584868672354824 1 0.0090009872368540921 1 1 1 1 1 1 1 1 1 1 1 1 1 1 1 1 1 1 1 1 1 1 1 1 1 1 1 0.0097792945817039654 1 1 1 1 1 1 1 1 1 1 1 1 1 1 1 1 1 0.0097793545362340039 1 1 1 1 1 0.010957582757136939 1 1 1 0.011806959249973745 1 1 1 1 1 1 1 1 1 1 1 1 0.0125487507830549 1 0.011018810140757986 1 1 1 1 1 1 1 1 1 1 1 1 1 1 1 1 1 1 1 1 1 1 1 0.010860689798535657 1 0.0099601024379874416 1 1 0.016601366314450527 1 1 0.016646739573833856 1 1 1 1 1 1 0.01561666142519969 1 1 1 0.012361020489514169 1 1 1 1 1 1 1 1 1 1 1 1 1 1 1 1 1 1 1 0.01018182738209328 1 1 1 1 1 1 0.010799332807491992 1 1 1 1 1 1 1 1 1 0.010461895537279524 1 1 1 1 0.01065073062973635 1 1 0.01179811585554294 1 1 1 1 1 1 1 1 1 1 0.010418713767524783 1 1 1 0.011207969541212122 1 1 0.011904818205999416 1 1 0.0098489497964316854 1 1 1 1 1 1 1 1 1 1 1 1 1 1 1 1 1 1 1 1 1 1 1 1 1 1 1 1 1 1 1 1 1 1 1 1 1 1 1 1 1 1 1 1 1 1 1 1 1 1 1 0.012440868632179952 1 1 1 1 1 1 1 1 1 1 1 1 1 1 1 1 1 1 1 0.010118879415366079 1 1 1 1 1 1 1 1 1 1 1 1 1 1 1 1 1 1 1 0.010056929059992149 1 1 1 1 1 1 1 0.0095642289919562768 0.0087465050827696799 1 1 1 1 1 1 1 1 1 1 1 1 1 1 1 0.012866840440991113 1 1 1 1 1 1 1 1 1 1 1 1 1 1 1 1 0.010380770940233451 1 1 1 1 1 1 0.0090209444868043151 1 1 0.011303103196856758 1 1 1 1 1 1 1 1 1 1 1 1 1 1 1 1 1 1 0.012282251574610322 1 0.011015141901888282 1 1 1 1 1 1 1 1 1 1 1 1 1 1 1 1 1 1 1 0.011003676732742388 1 1 1 0.0093048400646285421 1 1 1 1 1 1 0.021312899641291461 1 0.010999032178429265 1 0.021290504121113177 1 1 1 0.0091999975639293994 1 1 1 0.01081837204897599 1 1 0.012286125298901829 1 0.008821808816030511 1 1 1 1 0.0093079929089869336 0.011980456093352569 1 1 1 1 1 1 0.010729173190251271 1 1 1 1 1 1 1 1 1 1 1 1 0.016004593269121681 0.010262546459886356 1 1 0.017065771369462017 1 1 1 1 1 1 1 1 1 1 1 1 1 1 1 1 1 1 1 1 1 1 1 1 1 1 0.014569828405306424 1 1 1 1 1 1 0.0097616802400229755 1 1 1 1 1 1 1 1 1 1 1 1 1 1 1 1 0.012544310919025437 1 0.015692361253814083 1 1 1 0.010422165029596987 1 1 1 0.010976284048659694 1 1 1 1 0.016200537903587081 1 1 1 1 1 0.015873581107403639 1 1 1 1 0.010278337542454793 0.0096725838621789049 1 1 1 1 1 1 1 0.010832456561517509 1 1 1 1 1 0.010082058345665007 1 1 1 0.010392698636947632 1 1 1 1 1 0.01120774451341513 1 0.0094901256784428491 1 1 1 1 1 0.0089937508087626246 0.011347692551512585 1 1 1 0.010068509050371934 1 0.013244075515390747 1 1 1 1 1 1 1 1 0.0091566656349638485 1 1 1 1 1 0.023517218207041272 1 1 0.021850734872641657 1 1 1 1 0.016452798227210193 1 1 0.01013760736386283 0.010049258686356491 1 1 1 1 1 1 1 1 1 0.015404064903442503 0.010397618623631699 1 1 1 1 1 1 1 0.024889648025460599 1 1 1 0.016349844947705527 1 1 1 1 0.016789020123087067 1 1 1 1 1 1 1 1 1 1 0.016898863398923571 0.0084924995035239106 1 1 0.012505801314303445 1 0.012846462491597026 1 1 1 1 1 0.011123119862768415 1 1 1 1 1 1 1 1 1 1 1 1 0.011306299412841343 1 1 1 1 1 1 1 1 1 1 1 1 1 0.011200461976439988 1 1 1 1 1 0.013487391870992557 0.011077051556662953 1 1 1 1 1 1 1 1 1 1 1 1 1 1 1 0.010971127347679063 1 1 0.010381834454671947 1 1 1 1 1 0.021989097168953187 1 1 1 1 1 1 1 1 1 1 1 1 1 1 1 1 1 1 1 1 1 1 1 1 1 1 1 1 1 1 1 1 1 1 1 1 1 1 1 1 1 1 1 1 1 1 1 1 1 1 1 1 1 1 1 1 1 1 1 1 1 1 1 1 1 1 1 1 1 0.0099504750784526995 1 1 1 1 1 1 1 1 1 1 1 1 1 1 1 1 1 1 0.02133976960584482 1 1 1 1 1 1 1 1 1 1 1 1 1 1 1 1 1 1 1 1 1 1 1 1 1 1 1 1 1 0.011839005471901615 1 1 1 1 1 1 1 1 0.020208949659627599 1 1 1 1 1 1 1 1 1 1 1 1 1 1 1 1 1 0.0098144832997238349 1 1 1 1 1 1 1 1 1 1 1 1 1 1 1 1 1 1 1 1 1 1 1 1 1 1 1 1 1 1 1 1 1 1 1 1 1 1 1 1 1 1 1 1 1 1 1 1 0.012411017529928313 1 0.012563646507853297 1 0.013773438211873653 1 0.013274680770418882 1 1 1 1 1 1 1 1 1 1 1 1 1 1 1 0.01195188432263079 1 1 1 0.011699453351824573 1 1 1 1 1 1 1 1 1 1 1 1 0.016184277346721884 1 1 0.013874558035857765 0.016095792760708761 1 1 1 1 0.015409227651604551 1 1 1 1 0.017046703894806718 1 0.011189912663350903 1 1 0.011994211587504695 1 1 1 0.010003900725279883 1 1 1 0.018058597524162445 1 1 0.010018901220129007 1 1 1 1 1 1 1 1 1 1 1 1 1 1 1 1 1 1 1 1 1 1 1 1 1 0.019638305778368503 1 1 1 1 1 1 1 0.019922081416062335 1 0.023694597893688316 1 1 1 1 0.011256778840486217 1 1 1 0.021786616866770636 0.018087491561065431 1 1 0.022435072135707453 1 0.0099624449744298051 1 0.0074607817080962332 0.010171071814626391 1 1 1 1 0.0099874562800621632 1 1 0.010311604367400331 1 1 1 1 1 1 1 1 1 1 1 1 1 1 1 1 1 1 1 1 1 1 0.010113991089684434 1 1 1 1 1 1 1 1 0.023845082572691391 1 0.010422248676564437 1 1 1 1 1 1 0.011328711392011501 1 1 1 1 1 0.024805497067957157 1 1 1 1 1 1 1 1 0.018428501429024177 1 0.017036264818149471 1 0.019293853393353565 1 1 0.018600498689701393 1 1 0.017153998093191365 1 1 1 1 0.010737071702881327 1 1 1 0.010225553885640084 1 1 0.0151261639972479 1 1 1 1 1 1 1 1 1 1 1 0.017936701144460054 1 0.0099808163365997585 0.011027943754832688 1 0.0154079172461367 1 1 0.010038739127994339 1 1 0.012093033795509923 1 0.0165107871850723 1 0.01688077299170113 1 0.0097976747589910446 1 1 1 1 1 0.011143469142222249 1 1 1 1 1 0.010037122724434234 1 1 1 1 1 1 1 1 1 1 0.0099921888866867457 1 0.011235253626616983 0.016694867640574686 1 0.015511567011907649 0.010076394740869382 1 0.014581594198328236 1 1 1 0.022365906100059119 1 0.016362781297809229 1 0.011747181125375566 1 1 1 0.017452329778391378 1 1 1 1 0.016197637915449658 1 1 0.011055109157307438 1 1 1 0.0097151996554504325 1 1 0.021216945988861185 0.017682364715920714 1 1 1 1 1 0.011268582770975246 1 0.014694552502098696 1 0.0088224853150972154 1 0.015697535272093981 1 1 1 1 0.010425548876226751 1 1 0.013026976016605664 0.017488174024495727 1 0.01306073955917913 1 0.0087177122092060508 0.010012376066150455 1 0.014848427904977295 0.017758575932920011 0.019429103400360335 0.010973652914303994 1 1 1 1 1 1 1 1 1 1 0.013883971269606535 1 1 1 1 0.010092531019925185 1 1 0.010266608278762112 1 1 0.014128723105581956 1 1 1 1 0.010367824953597839 0.010433981071078017 1 1 1 1 1 1 1 1 1 1 1 1 1 1 1 1 1 1 1 1 1 1 0.010397218407650673 1 1 1 1 1 1 1 1 1 1 1 1 1 1 1 1 1 1 1 1 1 1 0.015313695326436496 1 1 1 1 0.020658936653050068 0.01569659980444036 1 0.010925857729573225 1 0.019011759167814762 0.010403447406940547 1 1 1 1 0.010860670481930847 1 1 1 0.012181935653760472 1 1 1 0.0099983388054110701 0.022294540819005483 1 1 1 1 1 0.013436357347960982 1 1 1 1 1 1 1 0.010101761138636259 0.014526843780473402 1 0.015823138299807027 1 1 0.014884082419864695 0.010006155513852717 0.015487404798642381 1 1 1 1 1 0.010402212412846983 0.010386909869991889 0.015392439917087171 1 0.018618701196475358 0.0092668260883048467 1 1 1 1 0.009287356740442558 1 1 1 1 1 0.017072363454388968 1 0.012820664744865762 1 1 0.014297219834066049 1 1 1 1 1 1 1 0.010432838020685533 0.023510455633336834 1 1 1 1 0.018445263192611045 0.010749558823913439 1 1 1 0.010146930774188824 0.0099246541792116158 0.0096581030042682606 0.01698934140883045 1 0.016927702509885914 1 0.010502148502473198 1 0.016446719050933815 1 0.01734229175779424 1 1 0.0099065767308837982 1 0.0092797638878104952 0.012091524000339226 0.012788079586838762 1 1 1 1 1 1 1 1 1 1 1 1 1 1 1 1 1 1 1 1 1 1 1 1 1 1 0.016373439990566417 1 1 1 1 1 1 1 1 1 1 1 1 1 1 1 1 1 1 1 1 1 1 0.021514543242583225 0.015685481050966545 1 1 1 1 1 1 1 1 1 1 1 1 1 1 1 1 1 1 1 1 1 1 1 1 1 1 0.011463554980139699 1 1 1 1 1 0.019814996636589893 0.01419175905281404 0.018847726836293356 1 1 1 1 1 1 0.010715581300358138 1 1 1 0.012032937816685851 1 1 1 1 0.019262868402284177 1 1 0.0098111313095088741 0.034807443296532639 1 1 1 0.0099730448625283408 1 1 0.010520592486950133 1 1 1 1 1 0.0099918051664378942 1 1 0.0099389187488458462 1 1 0.0099925936184233708 0.010504835347008638 1 0.010014822621037867 0.010187486408015645 1 1 1 0.011789441775916999 1 1 1 1 1 1 1 1 1 1 1 1 1 1 1 1 1 1 1 1 1 1 1 1 1 1 0.0099694676045312229 0.010294873060057077 1 1 1 1 1 1 0.010165847435991993 1 1 1 1 1 1 1 1 0.024044497869306417 0.010917501379779381 1 1 1 1 1 0.013854413912954743 1 1 1 1 1 1 1 0.024235666229958437 1 1 1 1 0.01002300663835178 0.010294512496231254 1 1 1 1 1 1 1 1 1 1 0.010613180317899111 1 1 1 1 0.010713089282162214 1 0.01110011803279452 0.0081369043218647002 1 1 1 0.0099915307646182751 1 1 1 0.015559900878028311 1 1 1 1 1 1 1 0.016567116267376177 1 1 1 0.014587084566315973 1 1 0.0099711100672016783 1 0.022158043237634664 1 1 0.015718493788028386 1 1 1 0.010344279089903517 1 1 1 0.012964511650635628 1 1 0.016848663982749635 0.016558813976444528 1 1 0.011643390579971666 1 0.013522405371593625 0.013854083262137372 1 1 1 0.011131160172358958 1 1 1 1 1 1 1 0.015302499372230959 1 0.009156319413107579 1 0.0095853828015820351 0.018223266142928872 1 1 1 0.015292959561165363 0.0075334520440780957 1 0.0066391574194078606 1 0.0087076798410313603 0.0099913510953129215 1 1 1 1 1 1 1 1 1 1 1 1 1 1 0.0097087429670442461 1 1 1 1 1 1 1 1 1 1 1 1 1 1 1 1 1 0.01006475912426312 1 1 1 1 1 1 0.010076983102955357 1 1 1 0.010212206680880472 1 1 1 1 1 1 1 0.011352533126743888 1 1 1 1 1 1 1 1 1 1 1 1 1 1 1 1 1 1 1 1 1 1 1 1 1 1 1 1 1 1 1 1 0.010001749223261925 1 1 1 1 1 0.022543637367917903 1 1 1 1 0.023079004480372665 1 1 0.011911518221561591 1 0.010682060543344866 1 1 1 1 1 1 1 1 1 1 0.012616964945243848 1 1 0.01119297124185507 1 1 0.010188039660866257 1 1 0.0094462875994292261 1 0.010448551552981609 1 1 1 1 1 1 1 1 1 1 1 1 1 1 1 1 1 1 1 1 1 1 1 1 1 1 1 1 1 1 0.0079838496881070396 1 1 0.01015686925567786 1 1 1 1 0.012504894004419693 0.0091352572686009565 1 1 1 1 0.017437473420484958 0.011517803004354817 1 1 1 0.015681111416736927 0.01476812455104921 1 1 0.014456530731287331 1 1 0.0099687317003514329 1 1 1 1 0.010939992901326063 1 1 1 1 0.0099583413591430962 1 1 1 1 1 1 1 1 1 1 1 1 0.02267960798679548 1 0.022208699856528135 1 1 
</DataArray>
</CellData>
</Piece>
</UnstructuredGrid>
</VTKFile>
